# vtk DataFile Version 3.0
vtk output
ASCII
DATASET UNSTRUCTURED_GRID
POINTS      5151 double 
  0.00000000E+00  1.00000000E+02  0.00000000E+00
  0.00000000E+00  9.80000000E+01  0.00000000E+00
  0.00000000E+00  9.60000000E+01  0.00000000E+00
  0.00000000E+00  9.40000000E+01  0.00000000E+00
  0.00000000E+00  9.20000000E+01  0.00000000E+00
  0.00000000E+00  9.00000000E+01  0.00000000E+00
  0.00000000E+00  8.80000000E+01  0.00000000E+00
  0.00000000E+00  8.60000000E+01  0.00000000E+00
  0.00000000E+00  8.40000000E+01  0.00000000E+00
  0.00000000E+00  8.20000000E+01  0.00000000E+00
  0.00000000E+00  8.00000000E+01  0.00000000E+00
  0.00000000E+00  7.80000000E+01  0.00000000E+00
  0.00000000E+00  7.60000000E+01  0.00000000E+00
  0.00000000E+00  7.40000000E+01  0.00000000E+00
  0.00000000E+00  7.20000000E+01  0.00000000E+00
  0.00000000E+00  7.00000000E+01  0.00000000E+00
  0.00000000E+00  6.80000000E+01  0.00000000E+00
  0.00000000E+00  6.60000000E+01  0.00000000E+00
  0.00000000E+00  6.40000000E+01  0.00000000E+00
  0.00000000E+00  6.20000000E+01  0.00000000E+00
  0.00000000E+00  6.00000000E+01  0.00000000E+00
  0.00000000E+00  5.80000000E+01  0.00000000E+00
  0.00000000E+00  5.60000000E+01  0.00000000E+00
  0.00000000E+00  5.40000000E+01  0.00000000E+00
  0.00000000E+00  5.20000000E+01  0.00000000E+00
  0.00000000E+00  5.00000000E+01  0.00000000E+00
  0.00000000E+00  4.80000000E+01  0.00000000E+00
  0.00000000E+00  4.60000000E+01  0.00000000E+00
  0.00000000E+00  4.40000000E+01  0.00000000E+00
  0.00000000E+00  4.20000000E+01  0.00000000E+00
  0.00000000E+00  4.00000000E+01  0.00000000E+00
  0.00000000E+00  3.80000000E+01  0.00000000E+00
  0.00000000E+00  3.60000000E+01  0.00000000E+00
  0.00000000E+00  3.40000000E+01  0.00000000E+00
  0.00000000E+00  3.20000000E+01  0.00000000E+00
  0.00000000E+00  3.00000000E+01  0.00000000E+00
  0.00000000E+00  2.80000000E+01  0.00000000E+00
  0.00000000E+00  2.60000000E+01  0.00000000E+00
  0.00000000E+00  2.40000000E+01  0.00000000E+00
  0.00000000E+00  2.20000000E+01  0.00000000E+00
  0.00000000E+00  2.00000000E+01  0.00000000E+00
  0.00000000E+00  1.80000000E+01  0.00000000E+00
  0.00000000E+00  1.60000000E+01  0.00000000E+00
  0.00000000E+00  1.40000000E+01  0.00000000E+00
  0.00000000E+00  1.20000000E+01  0.00000000E+00
  0.00000000E+00  1.00000000E+01  0.00000000E+00
  0.00000000E+00  8.00000000E+00  0.00000000E+00
  0.00000000E+00  6.00000000E+00  0.00000000E+00
  0.00000000E+00  4.00000000E+00  0.00000000E+00
  0.00000000E+00  2.00000000E+00  0.00000000E+00
  0.00000000E+00 -3.33066907E-14  0.00000000E+00
  1.00000000E+01  1.00000000E+02  0.00000000E+00
  1.00000000E+01  9.80000000E+01  0.00000000E+00
  1.00000000E+01  9.60000000E+01  0.00000000E+00
  1.00000000E+01  9.40000000E+01  0.00000000E+00
  1.00000000E+01  9.20000000E+01  0.00000000E+00
  1.00000000E+01  9.00000000E+01  0.00000000E+00
  1.00000000E+01  8.80000000E+01  0.00000000E+00
  1.00000000E+01  8.60000000E+01  0.00000000E+00
  1.00000000E+01  8.40000000E+01  0.00000000E+00
  1.00000000E+01  8.20000000E+01  0.00000000E+00
  1.00000000E+01  8.00000000E+01  0.00000000E+00
  1.00000000E+01  7.80000000E+01  0.00000000E+00
  1.00000000E+01  7.60000000E+01  0.00000000E+00
  1.00000000E+01  7.40000000E+01  0.00000000E+00
  1.00000000E+01  7.20000000E+01  0.00000000E+00
  1.00000000E+01  7.00000000E+01  0.00000000E+00
  1.00000000E+01  6.80000000E+01  0.00000000E+00
  1.00000000E+01  6.60000000E+01  0.00000000E+00
  1.00000000E+01  6.40000000E+01  0.00000000E+00
  1.00000000E+01  6.20000000E+01  0.00000000E+00
  1.00000000E+01  6.00000000E+01  0.00000000E+00
  1.00000000E+01  5.80000000E+01  0.00000000E+00
  1.00000000E+01  5.60000000E+01  0.00000000E+00
  1.00000000E+01  5.40000000E+01  0.00000000E+00
  1.00000000E+01  5.20000000E+01  0.00000000E+00
  1.00000000E+01  5.00000000E+01  0.00000000E+00
  1.00000000E+01  4.80000000E+01  0.00000000E+00
  1.00000000E+01  4.60000000E+01  0.00000000E+00
  1.00000000E+01  4.40000000E+01  0.00000000E+00
  1.00000000E+01  4.20000000E+01  0.00000000E+00
  1.00000000E+01  4.00000000E+01  0.00000000E+00
  1.00000000E+01  3.80000000E+01  0.00000000E+00
  1.00000000E+01  3.60000000E+01  0.00000000E+00
  1.00000000E+01  3.40000000E+01  0.00000000E+00
  1.00000000E+01  3.20000000E+01  0.00000000E+00
  1.00000000E+01  3.00000000E+01  0.00000000E+00
  1.00000000E+01  2.80000000E+01  0.00000000E+00
  1.00000000E+01  2.60000000E+01  0.00000000E+00
  1.00000000E+01  2.40000000E+01  0.00000000E+00
  1.00000000E+01  2.20000000E+01  0.00000000E+00
  1.00000000E+01  2.00000000E+01  0.00000000E+00
  1.00000000E+01  1.80000000E+01  0.00000000E+00
  1.00000000E+01  1.60000000E+01  0.00000000E+00
  1.00000000E+01  1.40000000E+01  0.00000000E+00
  1.00000000E+01  1.20000000E+01  0.00000000E+00
  1.00000000E+01  1.00000000E+01  0.00000000E+00
  1.00000000E+01  8.00000000E+00  0.00000000E+00
  1.00000000E+01  6.00000000E+00  0.00000000E+00
  1.00000000E+01  4.00000000E+00  0.00000000E+00
  1.00000000E+01  2.00000000E+00  0.00000000E+00
  1.00000000E+01 -3.33066907E-14  0.00000000E+00
  2.00000000E+01  1.00000000E+02  0.00000000E+00
  2.00000000E+01  9.80000000E+01  0.00000000E+00
  2.00000000E+01  9.60000000E+01  0.00000000E+00
  2.00000000E+01  9.40000000E+01  0.00000000E+00
  2.00000000E+01  9.20000000E+01  0.00000000E+00
  2.00000000E+01  9.00000000E+01  0.00000000E+00
  2.00000000E+01  8.80000000E+01  0.00000000E+00
  2.00000000E+01  8.60000000E+01  0.00000000E+00
  2.00000000E+01  8.40000000E+01  0.00000000E+00
  2.00000000E+01  8.20000000E+01  0.00000000E+00
  2.00000000E+01  8.00000000E+01  0.00000000E+00
  2.00000000E+01  7.80000000E+01  0.00000000E+00
  2.00000000E+01  7.60000000E+01  0.00000000E+00
  2.00000000E+01  7.40000000E+01  0.00000000E+00
  2.00000000E+01  7.20000000E+01  0.00000000E+00
  2.00000000E+01  7.00000000E+01  0.00000000E+00
  2.00000000E+01  6.80000000E+01  0.00000000E+00
  2.00000000E+01  6.60000000E+01  0.00000000E+00
  2.00000000E+01  6.40000000E+01  0.00000000E+00
  2.00000000E+01  6.20000000E+01  0.00000000E+00
  2.00000000E+01  6.00000000E+01  0.00000000E+00
  2.00000000E+01  5.80000000E+01  0.00000000E+00
  2.00000000E+01  5.60000000E+01  0.00000000E+00
  2.00000000E+01  5.40000000E+01  0.00000000E+00
  2.00000000E+01  5.20000000E+01  0.00000000E+00
  2.00000000E+01  5.00000000E+01  0.00000000E+00
  2.00000000E+01  4.80000000E+01  0.00000000E+00
  2.00000000E+01  4.60000000E+01  0.00000000E+00
  2.00000000E+01  4.40000000E+01  0.00000000E+00
  2.00000000E+01  4.20000000E+01  0.00000000E+00
  2.00000000E+01  4.00000000E+01  0.00000000E+00
  2.00000000E+01  3.80000000E+01  0.00000000E+00
  2.00000000E+01  3.60000000E+01  0.00000000E+00
  2.00000000E+01  3.40000000E+01  0.00000000E+00
  2.00000000E+01  3.20000000E+01  0.00000000E+00
  2.00000000E+01  3.00000000E+01  0.00000000E+00
  2.00000000E+01  2.80000000E+01  0.00000000E+00
  2.00000000E+01  2.60000000E+01  0.00000000E+00
  2.00000000E+01  2.40000000E+01  0.00000000E+00
  2.00000000E+01  2.20000000E+01  0.00000000E+00
  2.00000000E+01  2.00000000E+01  0.00000000E+00
  2.00000000E+01  1.80000000E+01  0.00000000E+00
  2.00000000E+01  1.60000000E+01  0.00000000E+00
  2.00000000E+01  1.40000000E+01  0.00000000E+00
  2.00000000E+01  1.20000000E+01  0.00000000E+00
  2.00000000E+01  1.00000000E+01  0.00000000E+00
  2.00000000E+01  8.00000000E+00  0.00000000E+00
  2.00000000E+01  6.00000000E+00  0.00000000E+00
  2.00000000E+01  4.00000000E+00  0.00000000E+00
  2.00000000E+01  2.00000000E+00  0.00000000E+00
  2.00000000E+01 -3.33066907E-14  0.00000000E+00
  3.00000000E+01  1.00000000E+02  0.00000000E+00
  3.00000000E+01  9.80000000E+01  0.00000000E+00
  3.00000000E+01  9.60000000E+01  0.00000000E+00
  3.00000000E+01  9.40000000E+01  0.00000000E+00
  3.00000000E+01  9.20000000E+01  0.00000000E+00
  3.00000000E+01  9.00000000E+01  0.00000000E+00
  3.00000000E+01  8.80000000E+01  0.00000000E+00
  3.00000000E+01  8.60000000E+01  0.00000000E+00
  3.00000000E+01  8.40000000E+01  0.00000000E+00
  3.00000000E+01  8.20000000E+01  0.00000000E+00
  3.00000000E+01  8.00000000E+01  0.00000000E+00
  3.00000000E+01  7.80000000E+01  0.00000000E+00
  3.00000000E+01  7.60000000E+01  0.00000000E+00
  3.00000000E+01  7.40000000E+01  0.00000000E+00
  3.00000000E+01  7.20000000E+01  0.00000000E+00
  3.00000000E+01  7.00000000E+01  0.00000000E+00
  3.00000000E+01  6.80000000E+01  0.00000000E+00
  3.00000000E+01  6.60000000E+01  0.00000000E+00
  3.00000000E+01  6.40000000E+01  0.00000000E+00
  3.00000000E+01  6.20000000E+01  0.00000000E+00
  3.00000000E+01  6.00000000E+01  0.00000000E+00
  3.00000000E+01  5.80000000E+01  0.00000000E+00
  3.00000000E+01  5.60000000E+01  0.00000000E+00
  3.00000000E+01  5.40000000E+01  0.00000000E+00
  3.00000000E+01  5.20000000E+01  0.00000000E+00
  3.00000000E+01  5.00000000E+01  0.00000000E+00
  3.00000000E+01  4.80000000E+01  0.00000000E+00
  3.00000000E+01  4.60000000E+01  0.00000000E+00
  3.00000000E+01  4.40000000E+01  0.00000000E+00
  3.00000000E+01  4.20000000E+01  0.00000000E+00
  3.00000000E+01  4.00000000E+01  0.00000000E+00
  3.00000000E+01  3.80000000E+01  0.00000000E+00
  3.00000000E+01  3.60000000E+01  0.00000000E+00
  3.00000000E+01  3.40000000E+01  0.00000000E+00
  3.00000000E+01  3.20000000E+01  0.00000000E+00
  3.00000000E+01  3.00000000E+01  0.00000000E+00
  3.00000000E+01  2.80000000E+01  0.00000000E+00
  3.00000000E+01  2.60000000E+01  0.00000000E+00
  3.00000000E+01  2.40000000E+01  0.00000000E+00
  3.00000000E+01  2.20000000E+01  0.00000000E+00
  3.00000000E+01  2.00000000E+01  0.00000000E+00
  3.00000000E+01  1.80000000E+01  0.00000000E+00
  3.00000000E+01  1.60000000E+01  0.00000000E+00
  3.00000000E+01  1.40000000E+01  0.00000000E+00
  3.00000000E+01  1.20000000E+01  0.00000000E+00
  3.00000000E+01  1.00000000E+01  0.00000000E+00
  3.00000000E+01  8.00000000E+00  0.00000000E+00
  3.00000000E+01  6.00000000E+00  0.00000000E+00
  3.00000000E+01  4.00000000E+00  0.00000000E+00
  3.00000000E+01  2.00000000E+00  0.00000000E+00
  3.00000000E+01 -3.33066907E-14  0.00000000E+00
  4.00000000E+01  1.00000000E+02  0.00000000E+00
  4.00000000E+01  9.80000000E+01  0.00000000E+00
  4.00000000E+01  9.60000000E+01  0.00000000E+00
  4.00000000E+01  9.40000000E+01  0.00000000E+00
  4.00000000E+01  9.20000000E+01  0.00000000E+00
  4.00000000E+01  9.00000000E+01  0.00000000E+00
  4.00000000E+01  8.80000000E+01  0.00000000E+00
  4.00000000E+01  8.60000000E+01  0.00000000E+00
  4.00000000E+01  8.40000000E+01  0.00000000E+00
  4.00000000E+01  8.20000000E+01  0.00000000E+00
  4.00000000E+01  8.00000000E+01  0.00000000E+00
  4.00000000E+01  7.80000000E+01  0.00000000E+00
  4.00000000E+01  7.60000000E+01  0.00000000E+00
  4.00000000E+01  7.40000000E+01  0.00000000E+00
  4.00000000E+01  7.20000000E+01  0.00000000E+00
  4.00000000E+01  7.00000000E+01  0.00000000E+00
  4.00000000E+01  6.80000000E+01  0.00000000E+00
  4.00000000E+01  6.60000000E+01  0.00000000E+00
  4.00000000E+01  6.40000000E+01  0.00000000E+00
  4.00000000E+01  6.20000000E+01  0.00000000E+00
  4.00000000E+01  6.00000000E+01  0.00000000E+00
  4.00000000E+01  5.80000000E+01  0.00000000E+00
  4.00000000E+01  5.60000000E+01  0.00000000E+00
  4.00000000E+01  5.40000000E+01  0.00000000E+00
  4.00000000E+01  5.20000000E+01  0.00000000E+00
  4.00000000E+01  5.00000000E+01  0.00000000E+00
  4.00000000E+01  4.80000000E+01  0.00000000E+00
  4.00000000E+01  4.60000000E+01  0.00000000E+00
  4.00000000E+01  4.40000000E+01  0.00000000E+00
  4.00000000E+01  4.20000000E+01  0.00000000E+00
  4.00000000E+01  4.00000000E+01  0.00000000E+00
  4.00000000E+01  3.80000000E+01  0.00000000E+00
  4.00000000E+01  3.60000000E+01  0.00000000E+00
  4.00000000E+01  3.40000000E+01  0.00000000E+00
  4.00000000E+01  3.20000000E+01  0.00000000E+00
  4.00000000E+01  3.00000000E+01  0.00000000E+00
  4.00000000E+01  2.80000000E+01  0.00000000E+00
  4.00000000E+01  2.60000000E+01  0.00000000E+00
  4.00000000E+01  2.40000000E+01  0.00000000E+00
  4.00000000E+01  2.20000000E+01  0.00000000E+00
  4.00000000E+01  2.00000000E+01  0.00000000E+00
  4.00000000E+01  1.80000000E+01  0.00000000E+00
  4.00000000E+01  1.60000000E+01  0.00000000E+00
  4.00000000E+01  1.40000000E+01  0.00000000E+00
  4.00000000E+01  1.20000000E+01  0.00000000E+00
  4.00000000E+01  1.00000000E+01  0.00000000E+00
  4.00000000E+01  8.00000000E+00  0.00000000E+00
  4.00000000E+01  6.00000000E+00  0.00000000E+00
  4.00000000E+01  4.00000000E+00  0.00000000E+00
  4.00000000E+01  2.00000000E+00  0.00000000E+00
  4.00000000E+01 -3.33066907E-14  0.00000000E+00
  5.00000000E+01  1.00000000E+02  0.00000000E+00
  5.00000000E+01  9.80000000E+01  0.00000000E+00
  5.00000000E+01  9.60000000E+01  0.00000000E+00
  5.00000000E+01  9.40000000E+01  0.00000000E+00
  5.00000000E+01  9.20000000E+01  0.00000000E+00
  5.00000000E+01  9.00000000E+01  0.00000000E+00
  5.00000000E+01  8.80000000E+01  0.00000000E+00
  5.00000000E+01  8.60000000E+01  0.00000000E+00
  5.00000000E+01  8.40000000E+01  0.00000000E+00
  5.00000000E+01  8.20000000E+01  0.00000000E+00
  5.00000000E+01  8.00000000E+01  0.00000000E+00
  5.00000000E+01  7.80000000E+01  0.00000000E+00
  5.00000000E+01  7.60000000E+01  0.00000000E+00
  5.00000000E+01  7.40000000E+01  0.00000000E+00
  5.00000000E+01  7.20000000E+01  0.00000000E+00
  5.00000000E+01  7.00000000E+01  0.00000000E+00
  5.00000000E+01  6.80000000E+01  0.00000000E+00
  5.00000000E+01  6.60000000E+01  0.00000000E+00
  5.00000000E+01  6.40000000E+01  0.00000000E+00
  5.00000000E+01  6.20000000E+01  0.00000000E+00
  5.00000000E+01  6.00000000E+01  0.00000000E+00
  5.00000000E+01  5.80000000E+01  0.00000000E+00
  5.00000000E+01  5.60000000E+01  0.00000000E+00
  5.00000000E+01  5.40000000E+01  0.00000000E+00
  5.00000000E+01  5.20000000E+01  0.00000000E+00
  5.00000000E+01  5.00000000E+01  0.00000000E+00
  5.00000000E+01  4.80000000E+01  0.00000000E+00
  5.00000000E+01  4.60000000E+01  0.00000000E+00
  5.00000000E+01  4.40000000E+01  0.00000000E+00
  5.00000000E+01  4.20000000E+01  0.00000000E+00
  5.00000000E+01  4.00000000E+01  0.00000000E+00
  5.00000000E+01  3.80000000E+01  0.00000000E+00
  5.00000000E+01  3.60000000E+01  0.00000000E+00
  5.00000000E+01  3.40000000E+01  0.00000000E+00
  5.00000000E+01  3.20000000E+01  0.00000000E+00
  5.00000000E+01  3.00000000E+01  0.00000000E+00
  5.00000000E+01  2.80000000E+01  0.00000000E+00
  5.00000000E+01  2.60000000E+01  0.00000000E+00
  5.00000000E+01  2.40000000E+01  0.00000000E+00
  5.00000000E+01  2.20000000E+01  0.00000000E+00
  5.00000000E+01  2.00000000E+01  0.00000000E+00
  5.00000000E+01  1.80000000E+01  0.00000000E+00
  5.00000000E+01  1.60000000E+01  0.00000000E+00
  5.00000000E+01  1.40000000E+01  0.00000000E+00
  5.00000000E+01  1.20000000E+01  0.00000000E+00
  5.00000000E+01  1.00000000E+01  0.00000000E+00
  5.00000000E+01  8.00000000E+00  0.00000000E+00
  5.00000000E+01  6.00000000E+00  0.00000000E+00
  5.00000000E+01  4.00000000E+00  0.00000000E+00
  5.00000000E+01  2.00000000E+00  0.00000000E+00
  5.00000000E+01 -3.33066907E-14  0.00000000E+00
  6.00000000E+01  1.00000000E+02  0.00000000E+00
  6.00000000E+01  9.80000000E+01  0.00000000E+00
  6.00000000E+01  9.60000000E+01  0.00000000E+00
  6.00000000E+01  9.40000000E+01  0.00000000E+00
  6.00000000E+01  9.20000000E+01  0.00000000E+00
  6.00000000E+01  9.00000000E+01  0.00000000E+00
  6.00000000E+01  8.80000000E+01  0.00000000E+00
  6.00000000E+01  8.60000000E+01  0.00000000E+00
  6.00000000E+01  8.40000000E+01  0.00000000E+00
  6.00000000E+01  8.20000000E+01  0.00000000E+00
  6.00000000E+01  8.00000000E+01  0.00000000E+00
  6.00000000E+01  7.80000000E+01  0.00000000E+00
  6.00000000E+01  7.60000000E+01  0.00000000E+00
  6.00000000E+01  7.40000000E+01  0.00000000E+00
  6.00000000E+01  7.20000000E+01  0.00000000E+00
  6.00000000E+01  7.00000000E+01  0.00000000E+00
  6.00000000E+01  6.80000000E+01  0.00000000E+00
  6.00000000E+01  6.60000000E+01  0.00000000E+00
  6.00000000E+01  6.40000000E+01  0.00000000E+00
  6.00000000E+01  6.20000000E+01  0.00000000E+00
  6.00000000E+01  6.00000000E+01  0.00000000E+00
  6.00000000E+01  5.80000000E+01  0.00000000E+00
  6.00000000E+01  5.60000000E+01  0.00000000E+00
  6.00000000E+01  5.40000000E+01  0.00000000E+00
  6.00000000E+01  5.20000000E+01  0.00000000E+00
  6.00000000E+01  5.00000000E+01  0.00000000E+00
  6.00000000E+01  4.80000000E+01  0.00000000E+00
  6.00000000E+01  4.60000000E+01  0.00000000E+00
  6.00000000E+01  4.40000000E+01  0.00000000E+00
  6.00000000E+01  4.20000000E+01  0.00000000E+00
  6.00000000E+01  4.00000000E+01  0.00000000E+00
  6.00000000E+01  3.80000000E+01  0.00000000E+00
  6.00000000E+01  3.60000000E+01  0.00000000E+00
  6.00000000E+01  3.40000000E+01  0.00000000E+00
  6.00000000E+01  3.20000000E+01  0.00000000E+00
  6.00000000E+01  3.00000000E+01  0.00000000E+00
  6.00000000E+01  2.80000000E+01  0.00000000E+00
  6.00000000E+01  2.60000000E+01  0.00000000E+00
  6.00000000E+01  2.40000000E+01  0.00000000E+00
  6.00000000E+01  2.20000000E+01  0.00000000E+00
  6.00000000E+01  2.00000000E+01  0.00000000E+00
  6.00000000E+01  1.80000000E+01  0.00000000E+00
  6.00000000E+01  1.60000000E+01  0.00000000E+00
  6.00000000E+01  1.40000000E+01  0.00000000E+00
  6.00000000E+01  1.20000000E+01  0.00000000E+00
  6.00000000E+01  1.00000000E+01  0.00000000E+00
  6.00000000E+01  8.00000000E+00  0.00000000E+00
  6.00000000E+01  6.00000000E+00  0.00000000E+00
  6.00000000E+01  4.00000000E+00  0.00000000E+00
  6.00000000E+01  2.00000000E+00  0.00000000E+00
  6.00000000E+01 -3.33066907E-14  0.00000000E+00
  7.00000000E+01  1.00000000E+02  0.00000000E+00
  7.00000000E+01  9.80000000E+01  0.00000000E+00
  7.00000000E+01  9.60000000E+01  0.00000000E+00
  7.00000000E+01  9.40000000E+01  0.00000000E+00
  7.00000000E+01  9.20000000E+01  0.00000000E+00
  7.00000000E+01  9.00000000E+01  0.00000000E+00
  7.00000000E+01  8.80000000E+01  0.00000000E+00
  7.00000000E+01  8.60000000E+01  0.00000000E+00
  7.00000000E+01  8.40000000E+01  0.00000000E+00
  7.00000000E+01  8.20000000E+01  0.00000000E+00
  7.00000000E+01  8.00000000E+01  0.00000000E+00
  7.00000000E+01  7.80000000E+01  0.00000000E+00
  7.00000000E+01  7.60000000E+01  0.00000000E+00
  7.00000000E+01  7.40000000E+01  0.00000000E+00
  7.00000000E+01  7.20000000E+01  0.00000000E+00
  7.00000000E+01  7.00000000E+01  0.00000000E+00
  7.00000000E+01  6.80000000E+01  0.00000000E+00
  7.00000000E+01  6.60000000E+01  0.00000000E+00
  7.00000000E+01  6.40000000E+01  0.00000000E+00
  7.00000000E+01  6.20000000E+01  0.00000000E+00
  7.00000000E+01  6.00000000E+01  0.00000000E+00
  7.00000000E+01  5.80000000E+01  0.00000000E+00
  7.00000000E+01  5.60000000E+01  0.00000000E+00
  7.00000000E+01  5.40000000E+01  0.00000000E+00
  7.00000000E+01  5.20000000E+01  0.00000000E+00
  7.00000000E+01  5.00000000E+01  0.00000000E+00
  7.00000000E+01  4.80000000E+01  0.00000000E+00
  7.00000000E+01  4.60000000E+01  0.00000000E+00
  7.00000000E+01  4.40000000E+01  0.00000000E+00
  7.00000000E+01  4.20000000E+01  0.00000000E+00
  7.00000000E+01  4.00000000E+01  0.00000000E+00
  7.00000000E+01  3.80000000E+01  0.00000000E+00
  7.00000000E+01  3.60000000E+01  0.00000000E+00
  7.00000000E+01  3.40000000E+01  0.00000000E+00
  7.00000000E+01  3.20000000E+01  0.00000000E+00
  7.00000000E+01  3.00000000E+01  0.00000000E+00
  7.00000000E+01  2.80000000E+01  0.00000000E+00
  7.00000000E+01  2.60000000E+01  0.00000000E+00
  7.00000000E+01  2.40000000E+01  0.00000000E+00
  7.00000000E+01  2.20000000E+01  0.00000000E+00
  7.00000000E+01  2.00000000E+01  0.00000000E+00
  7.00000000E+01  1.80000000E+01  0.00000000E+00
  7.00000000E+01  1.60000000E+01  0.00000000E+00
  7.00000000E+01  1.40000000E+01  0.00000000E+00
  7.00000000E+01  1.20000000E+01  0.00000000E+00
  7.00000000E+01  1.00000000E+01  0.00000000E+00
  7.00000000E+01  8.00000000E+00  0.00000000E+00
  7.00000000E+01  6.00000000E+00  0.00000000E+00
  7.00000000E+01  4.00000000E+00  0.00000000E+00
  7.00000000E+01  2.00000000E+00  0.00000000E+00
  7.00000000E+01 -3.33066907E-14  0.00000000E+00
  8.00000000E+01  1.00000000E+02  0.00000000E+00
  8.00000000E+01  9.80000000E+01  0.00000000E+00
  8.00000000E+01  9.60000000E+01  0.00000000E+00
  8.00000000E+01  9.40000000E+01  0.00000000E+00
  8.00000000E+01  9.20000000E+01  0.00000000E+00
  8.00000000E+01  9.00000000E+01  0.00000000E+00
  8.00000000E+01  8.80000000E+01  0.00000000E+00
  8.00000000E+01  8.60000000E+01  0.00000000E+00
  8.00000000E+01  8.40000000E+01  0.00000000E+00
  8.00000000E+01  8.20000000E+01  0.00000000E+00
  8.00000000E+01  8.00000000E+01  0.00000000E+00
  8.00000000E+01  7.80000000E+01  0.00000000E+00
  8.00000000E+01  7.60000000E+01  0.00000000E+00
  8.00000000E+01  7.40000000E+01  0.00000000E+00
  8.00000000E+01  7.20000000E+01  0.00000000E+00
  8.00000000E+01  7.00000000E+01  0.00000000E+00
  8.00000000E+01  6.80000000E+01  0.00000000E+00
  8.00000000E+01  6.60000000E+01  0.00000000E+00
  8.00000000E+01  6.40000000E+01  0.00000000E+00
  8.00000000E+01  6.20000000E+01  0.00000000E+00
  8.00000000E+01  6.00000000E+01  0.00000000E+00
  8.00000000E+01  5.80000000E+01  0.00000000E+00
  8.00000000E+01  5.60000000E+01  0.00000000E+00
  8.00000000E+01  5.40000000E+01  0.00000000E+00
  8.00000000E+01  5.20000000E+01  0.00000000E+00
  8.00000000E+01  5.00000000E+01  0.00000000E+00
  8.00000000E+01  4.80000000E+01  0.00000000E+00
  8.00000000E+01  4.60000000E+01  0.00000000E+00
  8.00000000E+01  4.40000000E+01  0.00000000E+00
  8.00000000E+01  4.20000000E+01  0.00000000E+00
  8.00000000E+01  4.00000000E+01  0.00000000E+00
  8.00000000E+01  3.80000000E+01  0.00000000E+00
  8.00000000E+01  3.60000000E+01  0.00000000E+00
  8.00000000E+01  3.40000000E+01  0.00000000E+00
  8.00000000E+01  3.20000000E+01  0.00000000E+00
  8.00000000E+01  3.00000000E+01  0.00000000E+00
  8.00000000E+01  2.80000000E+01  0.00000000E+00
  8.00000000E+01  2.60000000E+01  0.00000000E+00
  8.00000000E+01  2.40000000E+01  0.00000000E+00
  8.00000000E+01  2.20000000E+01  0.00000000E+00
  8.00000000E+01  2.00000000E+01  0.00000000E+00
  8.00000000E+01  1.80000000E+01  0.00000000E+00
  8.00000000E+01  1.60000000E+01  0.00000000E+00
  8.00000000E+01  1.40000000E+01  0.00000000E+00
  8.00000000E+01  1.20000000E+01  0.00000000E+00
  8.00000000E+01  1.00000000E+01  0.00000000E+00
  8.00000000E+01  8.00000000E+00  0.00000000E+00
  8.00000000E+01  6.00000000E+00  0.00000000E+00
  8.00000000E+01  4.00000000E+00  0.00000000E+00
  8.00000000E+01  2.00000000E+00  0.00000000E+00
  8.00000000E+01 -3.33066907E-14  0.00000000E+00
  9.00000000E+01  1.00000000E+02  0.00000000E+00
  9.00000000E+01  9.80000000E+01  0.00000000E+00
  9.00000000E+01  9.60000000E+01  0.00000000E+00
  9.00000000E+01  9.40000000E+01  0.00000000E+00
  9.00000000E+01  9.20000000E+01  0.00000000E+00
  9.00000000E+01  9.00000000E+01  0.00000000E+00
  9.00000000E+01  8.80000000E+01  0.00000000E+00
  9.00000000E+01  8.60000000E+01  0.00000000E+00
  9.00000000E+01  8.40000000E+01  0.00000000E+00
  9.00000000E+01  8.20000000E+01  0.00000000E+00
  9.00000000E+01  8.00000000E+01  0.00000000E+00
  9.00000000E+01  7.80000000E+01  0.00000000E+00
  9.00000000E+01  7.60000000E+01  0.00000000E+00
  9.00000000E+01  7.40000000E+01  0.00000000E+00
  9.00000000E+01  7.20000000E+01  0.00000000E+00
  9.00000000E+01  7.00000000E+01  0.00000000E+00
  9.00000000E+01  6.80000000E+01  0.00000000E+00
  9.00000000E+01  6.60000000E+01  0.00000000E+00
  9.00000000E+01  6.40000000E+01  0.00000000E+00
  9.00000000E+01  6.20000000E+01  0.00000000E+00
  9.00000000E+01  6.00000000E+01  0.00000000E+00
  9.00000000E+01  5.80000000E+01  0.00000000E+00
  9.00000000E+01  5.60000000E+01  0.00000000E+00
  9.00000000E+01  5.40000000E+01  0.00000000E+00
  9.00000000E+01  5.20000000E+01  0.00000000E+00
  9.00000000E+01  5.00000000E+01  0.00000000E+00
  9.00000000E+01  4.80000000E+01  0.00000000E+00
  9.00000000E+01  4.60000000E+01  0.00000000E+00
  9.00000000E+01  4.40000000E+01  0.00000000E+00
  9.00000000E+01  4.20000000E+01  0.00000000E+00
  9.00000000E+01  4.00000000E+01  0.00000000E+00
  9.00000000E+01  3.80000000E+01  0.00000000E+00
  9.00000000E+01  3.60000000E+01  0.00000000E+00
  9.00000000E+01  3.40000000E+01  0.00000000E+00
  9.00000000E+01  3.20000000E+01  0.00000000E+00
  9.00000000E+01  3.00000000E+01  0.00000000E+00
  9.00000000E+01  2.80000000E+01  0.00000000E+00
  9.00000000E+01  2.60000000E+01  0.00000000E+00
  9.00000000E+01  2.40000000E+01  0.00000000E+00
  9.00000000E+01  2.20000000E+01  0.00000000E+00
  9.00000000E+01  2.00000000E+01  0.00000000E+00
  9.00000000E+01  1.80000000E+01  0.00000000E+00
  9.00000000E+01  1.60000000E+01  0.00000000E+00
  9.00000000E+01  1.40000000E+01  0.00000000E+00
  9.00000000E+01  1.20000000E+01  0.00000000E+00
  9.00000000E+01  1.00000000E+01  0.00000000E+00
  9.00000000E+01  8.00000000E+00  0.00000000E+00
  9.00000000E+01  6.00000000E+00  0.00000000E+00
  9.00000000E+01  4.00000000E+00  0.00000000E+00
  9.00000000E+01  2.00000000E+00  0.00000000E+00
  9.00000000E+01 -3.33066907E-14  0.00000000E+00
  1.00000000E+02  1.00000000E+02  0.00000000E+00
  1.00000000E+02  9.80000000E+01  0.00000000E+00
  1.00000000E+02  9.60000000E+01  0.00000000E+00
  1.00000000E+02  9.40000000E+01  0.00000000E+00
  1.00000000E+02  9.20000000E+01  0.00000000E+00
  1.00000000E+02  9.00000000E+01  0.00000000E+00
  1.00000000E+02  8.80000000E+01  0.00000000E+00
  1.00000000E+02  8.60000000E+01  0.00000000E+00
  1.00000000E+02  8.40000000E+01  0.00000000E+00
  1.00000000E+02  8.20000000E+01  0.00000000E+00
  1.00000000E+02  8.00000000E+01  0.00000000E+00
  1.00000000E+02  7.80000000E+01  0.00000000E+00
  1.00000000E+02  7.60000000E+01  0.00000000E+00
  1.00000000E+02  7.40000000E+01  0.00000000E+00
  1.00000000E+02  7.20000000E+01  0.00000000E+00
  1.00000000E+02  7.00000000E+01  0.00000000E+00
  1.00000000E+02  6.80000000E+01  0.00000000E+00
  1.00000000E+02  6.60000000E+01  0.00000000E+00
  1.00000000E+02  6.40000000E+01  0.00000000E+00
  1.00000000E+02  6.20000000E+01  0.00000000E+00
  1.00000000E+02  6.00000000E+01  0.00000000E+00
  1.00000000E+02  5.80000000E+01  0.00000000E+00
  1.00000000E+02  5.60000000E+01  0.00000000E+00
  1.00000000E+02  5.40000000E+01  0.00000000E+00
  1.00000000E+02  5.20000000E+01  0.00000000E+00
  1.00000000E+02  5.00000000E+01  0.00000000E+00
  1.00000000E+02  4.80000000E+01  0.00000000E+00
  1.00000000E+02  4.60000000E+01  0.00000000E+00
  1.00000000E+02  4.40000000E+01  0.00000000E+00
  1.00000000E+02  4.20000000E+01  0.00000000E+00
  1.00000000E+02  4.00000000E+01  0.00000000E+00
  1.00000000E+02  3.80000000E+01  0.00000000E+00
  1.00000000E+02  3.60000000E+01  0.00000000E+00
  1.00000000E+02  3.40000000E+01  0.00000000E+00
  1.00000000E+02  3.20000000E+01  0.00000000E+00
  1.00000000E+02  3.00000000E+01  0.00000000E+00
  1.00000000E+02  2.80000000E+01  0.00000000E+00
  1.00000000E+02  2.60000000E+01  0.00000000E+00
  1.00000000E+02  2.40000000E+01  0.00000000E+00
  1.00000000E+02  2.20000000E+01  0.00000000E+00
  1.00000000E+02  2.00000000E+01  0.00000000E+00
  1.00000000E+02  1.80000000E+01  0.00000000E+00
  1.00000000E+02  1.60000000E+01  0.00000000E+00
  1.00000000E+02  1.40000000E+01  0.00000000E+00
  1.00000000E+02  1.20000000E+01  0.00000000E+00
  1.00000000E+02  1.00000000E+01  0.00000000E+00
  1.00000000E+02  8.00000000E+00  0.00000000E+00
  1.00000000E+02  6.00000000E+00  0.00000000E+00
  1.00000000E+02  4.00000000E+00  0.00000000E+00
  1.00000000E+02  2.00000000E+00  0.00000000E+00
  1.00000000E+02 -3.33066907E-14  0.00000000E+00
  1.10000000E+02  1.00000000E+02  0.00000000E+00
  1.10000000E+02  9.80000000E+01  0.00000000E+00
  1.10000000E+02  9.60000000E+01  0.00000000E+00
  1.10000000E+02  9.40000000E+01  0.00000000E+00
  1.10000000E+02  9.20000000E+01  0.00000000E+00
  1.10000000E+02  9.00000000E+01  0.00000000E+00
  1.10000000E+02  8.80000000E+01  0.00000000E+00
  1.10000000E+02  8.60000000E+01  0.00000000E+00
  1.10000000E+02  8.40000000E+01  0.00000000E+00
  1.10000000E+02  8.20000000E+01  0.00000000E+00
  1.10000000E+02  8.00000000E+01  0.00000000E+00
  1.10000000E+02  7.80000000E+01  0.00000000E+00
  1.10000000E+02  7.60000000E+01  0.00000000E+00
  1.10000000E+02  7.40000000E+01  0.00000000E+00
  1.10000000E+02  7.20000000E+01  0.00000000E+00
  1.10000000E+02  7.00000000E+01  0.00000000E+00
  1.10000000E+02  6.80000000E+01  0.00000000E+00
  1.10000000E+02  6.60000000E+01  0.00000000E+00
  1.10000000E+02  6.40000000E+01  0.00000000E+00
  1.10000000E+02  6.20000000E+01  0.00000000E+00
  1.10000000E+02  6.00000000E+01  0.00000000E+00
  1.10000000E+02  5.80000000E+01  0.00000000E+00
  1.10000000E+02  5.60000000E+01  0.00000000E+00
  1.10000000E+02  5.40000000E+01  0.00000000E+00
  1.10000000E+02  5.20000000E+01  0.00000000E+00
  1.10000000E+02  5.00000000E+01  0.00000000E+00
  1.10000000E+02  4.80000000E+01  0.00000000E+00
  1.10000000E+02  4.60000000E+01  0.00000000E+00
  1.10000000E+02  4.40000000E+01  0.00000000E+00
  1.10000000E+02  4.20000000E+01  0.00000000E+00
  1.10000000E+02  4.00000000E+01  0.00000000E+00
  1.10000000E+02  3.80000000E+01  0.00000000E+00
  1.10000000E+02  3.60000000E+01  0.00000000E+00
  1.10000000E+02  3.40000000E+01  0.00000000E+00
  1.10000000E+02  3.20000000E+01  0.00000000E+00
  1.10000000E+02  3.00000000E+01  0.00000000E+00
  1.10000000E+02  2.80000000E+01  0.00000000E+00
  1.10000000E+02  2.60000000E+01  0.00000000E+00
  1.10000000E+02  2.40000000E+01  0.00000000E+00
  1.10000000E+02  2.20000000E+01  0.00000000E+00
  1.10000000E+02  2.00000000E+01  0.00000000E+00
  1.10000000E+02  1.80000000E+01  0.00000000E+00
  1.10000000E+02  1.60000000E+01  0.00000000E+00
  1.10000000E+02  1.40000000E+01  0.00000000E+00
  1.10000000E+02  1.20000000E+01  0.00000000E+00
  1.10000000E+02  1.00000000E+01  0.00000000E+00
  1.10000000E+02  8.00000000E+00  0.00000000E+00
  1.10000000E+02  6.00000000E+00  0.00000000E+00
  1.10000000E+02  4.00000000E+00  0.00000000E+00
  1.10000000E+02  2.00000000E+00  0.00000000E+00
  1.10000000E+02 -3.33066907E-14  0.00000000E+00
  1.20000000E+02  1.00000000E+02  0.00000000E+00
  1.20000000E+02  9.80000000E+01  0.00000000E+00
  1.20000000E+02  9.60000000E+01  0.00000000E+00
  1.20000000E+02  9.40000000E+01  0.00000000E+00
  1.20000000E+02  9.20000000E+01  0.00000000E+00
  1.20000000E+02  9.00000000E+01  0.00000000E+00
  1.20000000E+02  8.80000000E+01  0.00000000E+00
  1.20000000E+02  8.60000000E+01  0.00000000E+00
  1.20000000E+02  8.40000000E+01  0.00000000E+00
  1.20000000E+02  8.20000000E+01  0.00000000E+00
  1.20000000E+02  8.00000000E+01  0.00000000E+00
  1.20000000E+02  7.80000000E+01  0.00000000E+00
  1.20000000E+02  7.60000000E+01  0.00000000E+00
  1.20000000E+02  7.40000000E+01  0.00000000E+00
  1.20000000E+02  7.20000000E+01  0.00000000E+00
  1.20000000E+02  7.00000000E+01  0.00000000E+00
  1.20000000E+02  6.80000000E+01  0.00000000E+00
  1.20000000E+02  6.60000000E+01  0.00000000E+00
  1.20000000E+02  6.40000000E+01  0.00000000E+00
  1.20000000E+02  6.20000000E+01  0.00000000E+00
  1.20000000E+02  6.00000000E+01  0.00000000E+00
  1.20000000E+02  5.80000000E+01  0.00000000E+00
  1.20000000E+02  5.60000000E+01  0.00000000E+00
  1.20000000E+02  5.40000000E+01  0.00000000E+00
  1.20000000E+02  5.20000000E+01  0.00000000E+00
  1.20000000E+02  5.00000000E+01  0.00000000E+00
  1.20000000E+02  4.80000000E+01  0.00000000E+00
  1.20000000E+02  4.60000000E+01  0.00000000E+00
  1.20000000E+02  4.40000000E+01  0.00000000E+00
  1.20000000E+02  4.20000000E+01  0.00000000E+00
  1.20000000E+02  4.00000000E+01  0.00000000E+00
  1.20000000E+02  3.80000000E+01  0.00000000E+00
  1.20000000E+02  3.60000000E+01  0.00000000E+00
  1.20000000E+02  3.40000000E+01  0.00000000E+00
  1.20000000E+02  3.20000000E+01  0.00000000E+00
  1.20000000E+02  3.00000000E+01  0.00000000E+00
  1.20000000E+02  2.80000000E+01  0.00000000E+00
  1.20000000E+02  2.60000000E+01  0.00000000E+00
  1.20000000E+02  2.40000000E+01  0.00000000E+00
  1.20000000E+02  2.20000000E+01  0.00000000E+00
  1.20000000E+02  2.00000000E+01  0.00000000E+00
  1.20000000E+02  1.80000000E+01  0.00000000E+00
  1.20000000E+02  1.60000000E+01  0.00000000E+00
  1.20000000E+02  1.40000000E+01  0.00000000E+00
  1.20000000E+02  1.20000000E+01  0.00000000E+00
  1.20000000E+02  1.00000000E+01  0.00000000E+00
  1.20000000E+02  8.00000000E+00  0.00000000E+00
  1.20000000E+02  6.00000000E+00  0.00000000E+00
  1.20000000E+02  4.00000000E+00  0.00000000E+00
  1.20000000E+02  2.00000000E+00  0.00000000E+00
  1.20000000E+02 -3.33066907E-14  0.00000000E+00
  1.30000000E+02  1.00000000E+02  0.00000000E+00
  1.30000000E+02  9.80000000E+01  0.00000000E+00
  1.30000000E+02  9.60000000E+01  0.00000000E+00
  1.30000000E+02  9.40000000E+01  0.00000000E+00
  1.30000000E+02  9.20000000E+01  0.00000000E+00
  1.30000000E+02  9.00000000E+01  0.00000000E+00
  1.30000000E+02  8.80000000E+01  0.00000000E+00
  1.30000000E+02  8.60000000E+01  0.00000000E+00
  1.30000000E+02  8.40000000E+01  0.00000000E+00
  1.30000000E+02  8.20000000E+01  0.00000000E+00
  1.30000000E+02  8.00000000E+01  0.00000000E+00
  1.30000000E+02  7.80000000E+01  0.00000000E+00
  1.30000000E+02  7.60000000E+01  0.00000000E+00
  1.30000000E+02  7.40000000E+01  0.00000000E+00
  1.30000000E+02  7.20000000E+01  0.00000000E+00
  1.30000000E+02  7.00000000E+01  0.00000000E+00
  1.30000000E+02  6.80000000E+01  0.00000000E+00
  1.30000000E+02  6.60000000E+01  0.00000000E+00
  1.30000000E+02  6.40000000E+01  0.00000000E+00
  1.30000000E+02  6.20000000E+01  0.00000000E+00
  1.30000000E+02  6.00000000E+01  0.00000000E+00
  1.30000000E+02  5.80000000E+01  0.00000000E+00
  1.30000000E+02  5.60000000E+01  0.00000000E+00
  1.30000000E+02  5.40000000E+01  0.00000000E+00
  1.30000000E+02  5.20000000E+01  0.00000000E+00
  1.30000000E+02  5.00000000E+01  0.00000000E+00
  1.30000000E+02  4.80000000E+01  0.00000000E+00
  1.30000000E+02  4.60000000E+01  0.00000000E+00
  1.30000000E+02  4.40000000E+01  0.00000000E+00
  1.30000000E+02  4.20000000E+01  0.00000000E+00
  1.30000000E+02  4.00000000E+01  0.00000000E+00
  1.30000000E+02  3.80000000E+01  0.00000000E+00
  1.30000000E+02  3.60000000E+01  0.00000000E+00
  1.30000000E+02  3.40000000E+01  0.00000000E+00
  1.30000000E+02  3.20000000E+01  0.00000000E+00
  1.30000000E+02  3.00000000E+01  0.00000000E+00
  1.30000000E+02  2.80000000E+01  0.00000000E+00
  1.30000000E+02  2.60000000E+01  0.00000000E+00
  1.30000000E+02  2.40000000E+01  0.00000000E+00
  1.30000000E+02  2.20000000E+01  0.00000000E+00
  1.30000000E+02  2.00000000E+01  0.00000000E+00
  1.30000000E+02  1.80000000E+01  0.00000000E+00
  1.30000000E+02  1.60000000E+01  0.00000000E+00
  1.30000000E+02  1.40000000E+01  0.00000000E+00
  1.30000000E+02  1.20000000E+01  0.00000000E+00
  1.30000000E+02  1.00000000E+01  0.00000000E+00
  1.30000000E+02  8.00000000E+00  0.00000000E+00
  1.30000000E+02  6.00000000E+00  0.00000000E+00
  1.30000000E+02  4.00000000E+00  0.00000000E+00
  1.30000000E+02  2.00000000E+00  0.00000000E+00
  1.30000000E+02 -3.33066907E-14  0.00000000E+00
  1.40000000E+02  1.00000000E+02  0.00000000E+00
  1.40000000E+02  9.80000000E+01  0.00000000E+00
  1.40000000E+02  9.60000000E+01  0.00000000E+00
  1.40000000E+02  9.40000000E+01  0.00000000E+00
  1.40000000E+02  9.20000000E+01  0.00000000E+00
  1.40000000E+02  9.00000000E+01  0.00000000E+00
  1.40000000E+02  8.80000000E+01  0.00000000E+00
  1.40000000E+02  8.60000000E+01  0.00000000E+00
  1.40000000E+02  8.40000000E+01  0.00000000E+00
  1.40000000E+02  8.20000000E+01  0.00000000E+00
  1.40000000E+02  8.00000000E+01  0.00000000E+00
  1.40000000E+02  7.80000000E+01  0.00000000E+00
  1.40000000E+02  7.60000000E+01  0.00000000E+00
  1.40000000E+02  7.40000000E+01  0.00000000E+00
  1.40000000E+02  7.20000000E+01  0.00000000E+00
  1.40000000E+02  7.00000000E+01  0.00000000E+00
  1.40000000E+02  6.80000000E+01  0.00000000E+00
  1.40000000E+02  6.60000000E+01  0.00000000E+00
  1.40000000E+02  6.40000000E+01  0.00000000E+00
  1.40000000E+02  6.20000000E+01  0.00000000E+00
  1.40000000E+02  6.00000000E+01  0.00000000E+00
  1.40000000E+02  5.80000000E+01  0.00000000E+00
  1.40000000E+02  5.60000000E+01  0.00000000E+00
  1.40000000E+02  5.40000000E+01  0.00000000E+00
  1.40000000E+02  5.20000000E+01  0.00000000E+00
  1.40000000E+02  5.00000000E+01  0.00000000E+00
  1.40000000E+02  4.80000000E+01  0.00000000E+00
  1.40000000E+02  4.60000000E+01  0.00000000E+00
  1.40000000E+02  4.40000000E+01  0.00000000E+00
  1.40000000E+02  4.20000000E+01  0.00000000E+00
  1.40000000E+02  4.00000000E+01  0.00000000E+00
  1.40000000E+02  3.80000000E+01  0.00000000E+00
  1.40000000E+02  3.60000000E+01  0.00000000E+00
  1.40000000E+02  3.40000000E+01  0.00000000E+00
  1.40000000E+02  3.20000000E+01  0.00000000E+00
  1.40000000E+02  3.00000000E+01  0.00000000E+00
  1.40000000E+02  2.80000000E+01  0.00000000E+00
  1.40000000E+02  2.60000000E+01  0.00000000E+00
  1.40000000E+02  2.40000000E+01  0.00000000E+00
  1.40000000E+02  2.20000000E+01  0.00000000E+00
  1.40000000E+02  2.00000000E+01  0.00000000E+00
  1.40000000E+02  1.80000000E+01  0.00000000E+00
  1.40000000E+02  1.60000000E+01  0.00000000E+00
  1.40000000E+02  1.40000000E+01  0.00000000E+00
  1.40000000E+02  1.20000000E+01  0.00000000E+00
  1.40000000E+02  1.00000000E+01  0.00000000E+00
  1.40000000E+02  8.00000000E+00  0.00000000E+00
  1.40000000E+02  6.00000000E+00  0.00000000E+00
  1.40000000E+02  4.00000000E+00  0.00000000E+00
  1.40000000E+02  2.00000000E+00  0.00000000E+00
  1.40000000E+02 -3.33066907E-14  0.00000000E+00
  1.50000000E+02  1.00000000E+02  0.00000000E+00
  1.50000000E+02  9.80000000E+01  0.00000000E+00
  1.50000000E+02  9.60000000E+01  0.00000000E+00
  1.50000000E+02  9.40000000E+01  0.00000000E+00
  1.50000000E+02  9.20000000E+01  0.00000000E+00
  1.50000000E+02  9.00000000E+01  0.00000000E+00
  1.50000000E+02  8.80000000E+01  0.00000000E+00
  1.50000000E+02  8.60000000E+01  0.00000000E+00
  1.50000000E+02  8.40000000E+01  0.00000000E+00
  1.50000000E+02  8.20000000E+01  0.00000000E+00
  1.50000000E+02  8.00000000E+01  0.00000000E+00
  1.50000000E+02  7.80000000E+01  0.00000000E+00
  1.50000000E+02  7.60000000E+01  0.00000000E+00
  1.50000000E+02  7.40000000E+01  0.00000000E+00
  1.50000000E+02  7.20000000E+01  0.00000000E+00
  1.50000000E+02  7.00000000E+01  0.00000000E+00
  1.50000000E+02  6.80000000E+01  0.00000000E+00
  1.50000000E+02  6.60000000E+01  0.00000000E+00
  1.50000000E+02  6.40000000E+01  0.00000000E+00
  1.50000000E+02  6.20000000E+01  0.00000000E+00
  1.50000000E+02  6.00000000E+01  0.00000000E+00
  1.50000000E+02  5.80000000E+01  0.00000000E+00
  1.50000000E+02  5.60000000E+01  0.00000000E+00
  1.50000000E+02  5.40000000E+01  0.00000000E+00
  1.50000000E+02  5.20000000E+01  0.00000000E+00
  1.50000000E+02  5.00000000E+01  0.00000000E+00
  1.50000000E+02  4.80000000E+01  0.00000000E+00
  1.50000000E+02  4.60000000E+01  0.00000000E+00
  1.50000000E+02  4.40000000E+01  0.00000000E+00
  1.50000000E+02  4.20000000E+01  0.00000000E+00
  1.50000000E+02  4.00000000E+01  0.00000000E+00
  1.50000000E+02  3.80000000E+01  0.00000000E+00
  1.50000000E+02  3.60000000E+01  0.00000000E+00
  1.50000000E+02  3.40000000E+01  0.00000000E+00
  1.50000000E+02  3.20000000E+01  0.00000000E+00
  1.50000000E+02  3.00000000E+01  0.00000000E+00
  1.50000000E+02  2.80000000E+01  0.00000000E+00
  1.50000000E+02  2.60000000E+01  0.00000000E+00
  1.50000000E+02  2.40000000E+01  0.00000000E+00
  1.50000000E+02  2.20000000E+01  0.00000000E+00
  1.50000000E+02  2.00000000E+01  0.00000000E+00
  1.50000000E+02  1.80000000E+01  0.00000000E+00
  1.50000000E+02  1.60000000E+01  0.00000000E+00
  1.50000000E+02  1.40000000E+01  0.00000000E+00
  1.50000000E+02  1.20000000E+01  0.00000000E+00
  1.50000000E+02  1.00000000E+01  0.00000000E+00
  1.50000000E+02  8.00000000E+00  0.00000000E+00
  1.50000000E+02  6.00000000E+00  0.00000000E+00
  1.50000000E+02  4.00000000E+00  0.00000000E+00
  1.50000000E+02  2.00000000E+00  0.00000000E+00
  1.50000000E+02 -3.33066907E-14  0.00000000E+00
  1.60000000E+02  1.00000000E+02  0.00000000E+00
  1.60000000E+02  9.80000000E+01  0.00000000E+00
  1.60000000E+02  9.60000000E+01  0.00000000E+00
  1.60000000E+02  9.40000000E+01  0.00000000E+00
  1.60000000E+02  9.20000000E+01  0.00000000E+00
  1.60000000E+02  9.00000000E+01  0.00000000E+00
  1.60000000E+02  8.80000000E+01  0.00000000E+00
  1.60000000E+02  8.60000000E+01  0.00000000E+00
  1.60000000E+02  8.40000000E+01  0.00000000E+00
  1.60000000E+02  8.20000000E+01  0.00000000E+00
  1.60000000E+02  8.00000000E+01  0.00000000E+00
  1.60000000E+02  7.80000000E+01  0.00000000E+00
  1.60000000E+02  7.60000000E+01  0.00000000E+00
  1.60000000E+02  7.40000000E+01  0.00000000E+00
  1.60000000E+02  7.20000000E+01  0.00000000E+00
  1.60000000E+02  7.00000000E+01  0.00000000E+00
  1.60000000E+02  6.80000000E+01  0.00000000E+00
  1.60000000E+02  6.60000000E+01  0.00000000E+00
  1.60000000E+02  6.40000000E+01  0.00000000E+00
  1.60000000E+02  6.20000000E+01  0.00000000E+00
  1.60000000E+02  6.00000000E+01  0.00000000E+00
  1.60000000E+02  5.80000000E+01  0.00000000E+00
  1.60000000E+02  5.60000000E+01  0.00000000E+00
  1.60000000E+02  5.40000000E+01  0.00000000E+00
  1.60000000E+02  5.20000000E+01  0.00000000E+00
  1.60000000E+02  5.00000000E+01  0.00000000E+00
  1.60000000E+02  4.80000000E+01  0.00000000E+00
  1.60000000E+02  4.60000000E+01  0.00000000E+00
  1.60000000E+02  4.40000000E+01  0.00000000E+00
  1.60000000E+02  4.20000000E+01  0.00000000E+00
  1.60000000E+02  4.00000000E+01  0.00000000E+00
  1.60000000E+02  3.80000000E+01  0.00000000E+00
  1.60000000E+02  3.60000000E+01  0.00000000E+00
  1.60000000E+02  3.40000000E+01  0.00000000E+00
  1.60000000E+02  3.20000000E+01  0.00000000E+00
  1.60000000E+02  3.00000000E+01  0.00000000E+00
  1.60000000E+02  2.80000000E+01  0.00000000E+00
  1.60000000E+02  2.60000000E+01  0.00000000E+00
  1.60000000E+02  2.40000000E+01  0.00000000E+00
  1.60000000E+02  2.20000000E+01  0.00000000E+00
  1.60000000E+02  2.00000000E+01  0.00000000E+00
  1.60000000E+02  1.80000000E+01  0.00000000E+00
  1.60000000E+02  1.60000000E+01  0.00000000E+00
  1.60000000E+02  1.40000000E+01  0.00000000E+00
  1.60000000E+02  1.20000000E+01  0.00000000E+00
  1.60000000E+02  1.00000000E+01  0.00000000E+00
  1.60000000E+02  8.00000000E+00  0.00000000E+00
  1.60000000E+02  6.00000000E+00  0.00000000E+00
  1.60000000E+02  4.00000000E+00  0.00000000E+00
  1.60000000E+02  2.00000000E+00  0.00000000E+00
  1.60000000E+02 -3.33066907E-14  0.00000000E+00
  1.70000000E+02  1.00000000E+02  0.00000000E+00
  1.70000000E+02  9.80000000E+01  0.00000000E+00
  1.70000000E+02  9.60000000E+01  0.00000000E+00
  1.70000000E+02  9.40000000E+01  0.00000000E+00
  1.70000000E+02  9.20000000E+01  0.00000000E+00
  1.70000000E+02  9.00000000E+01  0.00000000E+00
  1.70000000E+02  8.80000000E+01  0.00000000E+00
  1.70000000E+02  8.60000000E+01  0.00000000E+00
  1.70000000E+02  8.40000000E+01  0.00000000E+00
  1.70000000E+02  8.20000000E+01  0.00000000E+00
  1.70000000E+02  8.00000000E+01  0.00000000E+00
  1.70000000E+02  7.80000000E+01  0.00000000E+00
  1.70000000E+02  7.60000000E+01  0.00000000E+00
  1.70000000E+02  7.40000000E+01  0.00000000E+00
  1.70000000E+02  7.20000000E+01  0.00000000E+00
  1.70000000E+02  7.00000000E+01  0.00000000E+00
  1.70000000E+02  6.80000000E+01  0.00000000E+00
  1.70000000E+02  6.60000000E+01  0.00000000E+00
  1.70000000E+02  6.40000000E+01  0.00000000E+00
  1.70000000E+02  6.20000000E+01  0.00000000E+00
  1.70000000E+02  6.00000000E+01  0.00000000E+00
  1.70000000E+02  5.80000000E+01  0.00000000E+00
  1.70000000E+02  5.60000000E+01  0.00000000E+00
  1.70000000E+02  5.40000000E+01  0.00000000E+00
  1.70000000E+02  5.20000000E+01  0.00000000E+00
  1.70000000E+02  5.00000000E+01  0.00000000E+00
  1.70000000E+02  4.80000000E+01  0.00000000E+00
  1.70000000E+02  4.60000000E+01  0.00000000E+00
  1.70000000E+02  4.40000000E+01  0.00000000E+00
  1.70000000E+02  4.20000000E+01  0.00000000E+00
  1.70000000E+02  4.00000000E+01  0.00000000E+00
  1.70000000E+02  3.80000000E+01  0.00000000E+00
  1.70000000E+02  3.60000000E+01  0.00000000E+00
  1.70000000E+02  3.40000000E+01  0.00000000E+00
  1.70000000E+02  3.20000000E+01  0.00000000E+00
  1.70000000E+02  3.00000000E+01  0.00000000E+00
  1.70000000E+02  2.80000000E+01  0.00000000E+00
  1.70000000E+02  2.60000000E+01  0.00000000E+00
  1.70000000E+02  2.40000000E+01  0.00000000E+00
  1.70000000E+02  2.20000000E+01  0.00000000E+00
  1.70000000E+02  2.00000000E+01  0.00000000E+00
  1.70000000E+02  1.80000000E+01  0.00000000E+00
  1.70000000E+02  1.60000000E+01  0.00000000E+00
  1.70000000E+02  1.40000000E+01  0.00000000E+00
  1.70000000E+02  1.20000000E+01  0.00000000E+00
  1.70000000E+02  1.00000000E+01  0.00000000E+00
  1.70000000E+02  8.00000000E+00  0.00000000E+00
  1.70000000E+02  6.00000000E+00  0.00000000E+00
  1.70000000E+02  4.00000000E+00  0.00000000E+00
  1.70000000E+02  2.00000000E+00  0.00000000E+00
  1.70000000E+02 -3.33066907E-14  0.00000000E+00
  1.80000000E+02  1.00000000E+02  0.00000000E+00
  1.80000000E+02  9.80000000E+01  0.00000000E+00
  1.80000000E+02  9.60000000E+01  0.00000000E+00
  1.80000000E+02  9.40000000E+01  0.00000000E+00
  1.80000000E+02  9.20000000E+01  0.00000000E+00
  1.80000000E+02  9.00000000E+01  0.00000000E+00
  1.80000000E+02  8.80000000E+01  0.00000000E+00
  1.80000000E+02  8.60000000E+01  0.00000000E+00
  1.80000000E+02  8.40000000E+01  0.00000000E+00
  1.80000000E+02  8.20000000E+01  0.00000000E+00
  1.80000000E+02  8.00000000E+01  0.00000000E+00
  1.80000000E+02  7.80000000E+01  0.00000000E+00
  1.80000000E+02  7.60000000E+01  0.00000000E+00
  1.80000000E+02  7.40000000E+01  0.00000000E+00
  1.80000000E+02  7.20000000E+01  0.00000000E+00
  1.80000000E+02  7.00000000E+01  0.00000000E+00
  1.80000000E+02  6.80000000E+01  0.00000000E+00
  1.80000000E+02  6.60000000E+01  0.00000000E+00
  1.80000000E+02  6.40000000E+01  0.00000000E+00
  1.80000000E+02  6.20000000E+01  0.00000000E+00
  1.80000000E+02  6.00000000E+01  0.00000000E+00
  1.80000000E+02  5.80000000E+01  0.00000000E+00
  1.80000000E+02  5.60000000E+01  0.00000000E+00
  1.80000000E+02  5.40000000E+01  0.00000000E+00
  1.80000000E+02  5.20000000E+01  0.00000000E+00
  1.80000000E+02  5.00000000E+01  0.00000000E+00
  1.80000000E+02  4.80000000E+01  0.00000000E+00
  1.80000000E+02  4.60000000E+01  0.00000000E+00
  1.80000000E+02  4.40000000E+01  0.00000000E+00
  1.80000000E+02  4.20000000E+01  0.00000000E+00
  1.80000000E+02  4.00000000E+01  0.00000000E+00
  1.80000000E+02  3.80000000E+01  0.00000000E+00
  1.80000000E+02  3.60000000E+01  0.00000000E+00
  1.80000000E+02  3.40000000E+01  0.00000000E+00
  1.80000000E+02  3.20000000E+01  0.00000000E+00
  1.80000000E+02  3.00000000E+01  0.00000000E+00
  1.80000000E+02  2.80000000E+01  0.00000000E+00
  1.80000000E+02  2.60000000E+01  0.00000000E+00
  1.80000000E+02  2.40000000E+01  0.00000000E+00
  1.80000000E+02  2.20000000E+01  0.00000000E+00
  1.80000000E+02  2.00000000E+01  0.00000000E+00
  1.80000000E+02  1.80000000E+01  0.00000000E+00
  1.80000000E+02  1.60000000E+01  0.00000000E+00
  1.80000000E+02  1.40000000E+01  0.00000000E+00
  1.80000000E+02  1.20000000E+01  0.00000000E+00
  1.80000000E+02  1.00000000E+01  0.00000000E+00
  1.80000000E+02  8.00000000E+00  0.00000000E+00
  1.80000000E+02  6.00000000E+00  0.00000000E+00
  1.80000000E+02  4.00000000E+00  0.00000000E+00
  1.80000000E+02  2.00000000E+00  0.00000000E+00
  1.80000000E+02 -3.33066907E-14  0.00000000E+00
  1.90000000E+02  1.00000000E+02  0.00000000E+00
  1.90000000E+02  9.80000000E+01  0.00000000E+00
  1.90000000E+02  9.60000000E+01  0.00000000E+00
  1.90000000E+02  9.40000000E+01  0.00000000E+00
  1.90000000E+02  9.20000000E+01  0.00000000E+00
  1.90000000E+02  9.00000000E+01  0.00000000E+00
  1.90000000E+02  8.80000000E+01  0.00000000E+00
  1.90000000E+02  8.60000000E+01  0.00000000E+00
  1.90000000E+02  8.40000000E+01  0.00000000E+00
  1.90000000E+02  8.20000000E+01  0.00000000E+00
  1.90000000E+02  8.00000000E+01  0.00000000E+00
  1.90000000E+02  7.80000000E+01  0.00000000E+00
  1.90000000E+02  7.60000000E+01  0.00000000E+00
  1.90000000E+02  7.40000000E+01  0.00000000E+00
  1.90000000E+02  7.20000000E+01  0.00000000E+00
  1.90000000E+02  7.00000000E+01  0.00000000E+00
  1.90000000E+02  6.80000000E+01  0.00000000E+00
  1.90000000E+02  6.60000000E+01  0.00000000E+00
  1.90000000E+02  6.40000000E+01  0.00000000E+00
  1.90000000E+02  6.20000000E+01  0.00000000E+00
  1.90000000E+02  6.00000000E+01  0.00000000E+00
  1.90000000E+02  5.80000000E+01  0.00000000E+00
  1.90000000E+02  5.60000000E+01  0.00000000E+00
  1.90000000E+02  5.40000000E+01  0.00000000E+00
  1.90000000E+02  5.20000000E+01  0.00000000E+00
  1.90000000E+02  5.00000000E+01  0.00000000E+00
  1.90000000E+02  4.80000000E+01  0.00000000E+00
  1.90000000E+02  4.60000000E+01  0.00000000E+00
  1.90000000E+02  4.40000000E+01  0.00000000E+00
  1.90000000E+02  4.20000000E+01  0.00000000E+00
  1.90000000E+02  4.00000000E+01  0.00000000E+00
  1.90000000E+02  3.80000000E+01  0.00000000E+00
  1.90000000E+02  3.60000000E+01  0.00000000E+00
  1.90000000E+02  3.40000000E+01  0.00000000E+00
  1.90000000E+02  3.20000000E+01  0.00000000E+00
  1.90000000E+02  3.00000000E+01  0.00000000E+00
  1.90000000E+02  2.80000000E+01  0.00000000E+00
  1.90000000E+02  2.60000000E+01  0.00000000E+00
  1.90000000E+02  2.40000000E+01  0.00000000E+00
  1.90000000E+02  2.20000000E+01  0.00000000E+00
  1.90000000E+02  2.00000000E+01  0.00000000E+00
  1.90000000E+02  1.80000000E+01  0.00000000E+00
  1.90000000E+02  1.60000000E+01  0.00000000E+00
  1.90000000E+02  1.40000000E+01  0.00000000E+00
  1.90000000E+02  1.20000000E+01  0.00000000E+00
  1.90000000E+02  1.00000000E+01  0.00000000E+00
  1.90000000E+02  8.00000000E+00  0.00000000E+00
  1.90000000E+02  6.00000000E+00  0.00000000E+00
  1.90000000E+02  4.00000000E+00  0.00000000E+00
  1.90000000E+02  2.00000000E+00  0.00000000E+00
  1.90000000E+02 -3.33066907E-14  0.00000000E+00
  2.00000000E+02  1.00000000E+02  0.00000000E+00
  2.00000000E+02  9.80000000E+01  0.00000000E+00
  2.00000000E+02  9.60000000E+01  0.00000000E+00
  2.00000000E+02  9.40000000E+01  0.00000000E+00
  2.00000000E+02  9.20000000E+01  0.00000000E+00
  2.00000000E+02  9.00000000E+01  0.00000000E+00
  2.00000000E+02  8.80000000E+01  0.00000000E+00
  2.00000000E+02  8.60000000E+01  0.00000000E+00
  2.00000000E+02  8.40000000E+01  0.00000000E+00
  2.00000000E+02  8.20000000E+01  0.00000000E+00
  2.00000000E+02  8.00000000E+01  0.00000000E+00
  2.00000000E+02  7.80000000E+01  0.00000000E+00
  2.00000000E+02  7.60000000E+01  0.00000000E+00
  2.00000000E+02  7.40000000E+01  0.00000000E+00
  2.00000000E+02  7.20000000E+01  0.00000000E+00
  2.00000000E+02  7.00000000E+01  0.00000000E+00
  2.00000000E+02  6.80000000E+01  0.00000000E+00
  2.00000000E+02  6.60000000E+01  0.00000000E+00
  2.00000000E+02  6.40000000E+01  0.00000000E+00
  2.00000000E+02  6.20000000E+01  0.00000000E+00
  2.00000000E+02  6.00000000E+01  0.00000000E+00
  2.00000000E+02  5.80000000E+01  0.00000000E+00
  2.00000000E+02  5.60000000E+01  0.00000000E+00
  2.00000000E+02  5.40000000E+01  0.00000000E+00
  2.00000000E+02  5.20000000E+01  0.00000000E+00
  2.00000000E+02  5.00000000E+01  0.00000000E+00
  2.00000000E+02  4.80000000E+01  0.00000000E+00
  2.00000000E+02  4.60000000E+01  0.00000000E+00
  2.00000000E+02  4.40000000E+01  0.00000000E+00
  2.00000000E+02  4.20000000E+01  0.00000000E+00
  2.00000000E+02  4.00000000E+01  0.00000000E+00
  2.00000000E+02  3.80000000E+01  0.00000000E+00
  2.00000000E+02  3.60000000E+01  0.00000000E+00
  2.00000000E+02  3.40000000E+01  0.00000000E+00
  2.00000000E+02  3.20000000E+01  0.00000000E+00
  2.00000000E+02  3.00000000E+01  0.00000000E+00
  2.00000000E+02  2.80000000E+01  0.00000000E+00
  2.00000000E+02  2.60000000E+01  0.00000000E+00
  2.00000000E+02  2.40000000E+01  0.00000000E+00
  2.00000000E+02  2.20000000E+01  0.00000000E+00
  2.00000000E+02  2.00000000E+01  0.00000000E+00
  2.00000000E+02  1.80000000E+01  0.00000000E+00
  2.00000000E+02  1.60000000E+01  0.00000000E+00
  2.00000000E+02  1.40000000E+01  0.00000000E+00
  2.00000000E+02  1.20000000E+01  0.00000000E+00
  2.00000000E+02  1.00000000E+01  0.00000000E+00
  2.00000000E+02  8.00000000E+00  0.00000000E+00
  2.00000000E+02  6.00000000E+00  0.00000000E+00
  2.00000000E+02  4.00000000E+00  0.00000000E+00
  2.00000000E+02  2.00000000E+00  0.00000000E+00
  2.00000000E+02 -3.33066907E-14  0.00000000E+00
  2.10000000E+02  1.00000000E+02  0.00000000E+00
  2.10000000E+02  9.80000000E+01  0.00000000E+00
  2.10000000E+02  9.60000000E+01  0.00000000E+00
  2.10000000E+02  9.40000000E+01  0.00000000E+00
  2.10000000E+02  9.20000000E+01  0.00000000E+00
  2.10000000E+02  9.00000000E+01  0.00000000E+00
  2.10000000E+02  8.80000000E+01  0.00000000E+00
  2.10000000E+02  8.60000000E+01  0.00000000E+00
  2.10000000E+02  8.40000000E+01  0.00000000E+00
  2.10000000E+02  8.20000000E+01  0.00000000E+00
  2.10000000E+02  8.00000000E+01  0.00000000E+00
  2.10000000E+02  7.80000000E+01  0.00000000E+00
  2.10000000E+02  7.60000000E+01  0.00000000E+00
  2.10000000E+02  7.40000000E+01  0.00000000E+00
  2.10000000E+02  7.20000000E+01  0.00000000E+00
  2.10000000E+02  7.00000000E+01  0.00000000E+00
  2.10000000E+02  6.80000000E+01  0.00000000E+00
  2.10000000E+02  6.60000000E+01  0.00000000E+00
  2.10000000E+02  6.40000000E+01  0.00000000E+00
  2.10000000E+02  6.20000000E+01  0.00000000E+00
  2.10000000E+02  6.00000000E+01  0.00000000E+00
  2.10000000E+02  5.80000000E+01  0.00000000E+00
  2.10000000E+02  5.60000000E+01  0.00000000E+00
  2.10000000E+02  5.40000000E+01  0.00000000E+00
  2.10000000E+02  5.20000000E+01  0.00000000E+00
  2.10000000E+02  5.00000000E+01  0.00000000E+00
  2.10000000E+02  4.80000000E+01  0.00000000E+00
  2.10000000E+02  4.60000000E+01  0.00000000E+00
  2.10000000E+02  4.40000000E+01  0.00000000E+00
  2.10000000E+02  4.20000000E+01  0.00000000E+00
  2.10000000E+02  4.00000000E+01  0.00000000E+00
  2.10000000E+02  3.80000000E+01  0.00000000E+00
  2.10000000E+02  3.60000000E+01  0.00000000E+00
  2.10000000E+02  3.40000000E+01  0.00000000E+00
  2.10000000E+02  3.20000000E+01  0.00000000E+00
  2.10000000E+02  3.00000000E+01  0.00000000E+00
  2.10000000E+02  2.80000000E+01  0.00000000E+00
  2.10000000E+02  2.60000000E+01  0.00000000E+00
  2.10000000E+02  2.40000000E+01  0.00000000E+00
  2.10000000E+02  2.20000000E+01  0.00000000E+00
  2.10000000E+02  2.00000000E+01  0.00000000E+00
  2.10000000E+02  1.80000000E+01  0.00000000E+00
  2.10000000E+02  1.60000000E+01  0.00000000E+00
  2.10000000E+02  1.40000000E+01  0.00000000E+00
  2.10000000E+02  1.20000000E+01  0.00000000E+00
  2.10000000E+02  1.00000000E+01  0.00000000E+00
  2.10000000E+02  8.00000000E+00  0.00000000E+00
  2.10000000E+02  6.00000000E+00  0.00000000E+00
  2.10000000E+02  4.00000000E+00  0.00000000E+00
  2.10000000E+02  2.00000000E+00  0.00000000E+00
  2.10000000E+02 -3.33066907E-14  0.00000000E+00
  2.20000000E+02  1.00000000E+02  0.00000000E+00
  2.20000000E+02  9.80000000E+01  0.00000000E+00
  2.20000000E+02  9.60000000E+01  0.00000000E+00
  2.20000000E+02  9.40000000E+01  0.00000000E+00
  2.20000000E+02  9.20000000E+01  0.00000000E+00
  2.20000000E+02  9.00000000E+01  0.00000000E+00
  2.20000000E+02  8.80000000E+01  0.00000000E+00
  2.20000000E+02  8.60000000E+01  0.00000000E+00
  2.20000000E+02  8.40000000E+01  0.00000000E+00
  2.20000000E+02  8.20000000E+01  0.00000000E+00
  2.20000000E+02  8.00000000E+01  0.00000000E+00
  2.20000000E+02  7.80000000E+01  0.00000000E+00
  2.20000000E+02  7.60000000E+01  0.00000000E+00
  2.20000000E+02  7.40000000E+01  0.00000000E+00
  2.20000000E+02  7.20000000E+01  0.00000000E+00
  2.20000000E+02  7.00000000E+01  0.00000000E+00
  2.20000000E+02  6.80000000E+01  0.00000000E+00
  2.20000000E+02  6.60000000E+01  0.00000000E+00
  2.20000000E+02  6.40000000E+01  0.00000000E+00
  2.20000000E+02  6.20000000E+01  0.00000000E+00
  2.20000000E+02  6.00000000E+01  0.00000000E+00
  2.20000000E+02  5.80000000E+01  0.00000000E+00
  2.20000000E+02  5.60000000E+01  0.00000000E+00
  2.20000000E+02  5.40000000E+01  0.00000000E+00
  2.20000000E+02  5.20000000E+01  0.00000000E+00
  2.20000000E+02  5.00000000E+01  0.00000000E+00
  2.20000000E+02  4.80000000E+01  0.00000000E+00
  2.20000000E+02  4.60000000E+01  0.00000000E+00
  2.20000000E+02  4.40000000E+01  0.00000000E+00
  2.20000000E+02  4.20000000E+01  0.00000000E+00
  2.20000000E+02  4.00000000E+01  0.00000000E+00
  2.20000000E+02  3.80000000E+01  0.00000000E+00
  2.20000000E+02  3.60000000E+01  0.00000000E+00
  2.20000000E+02  3.40000000E+01  0.00000000E+00
  2.20000000E+02  3.20000000E+01  0.00000000E+00
  2.20000000E+02  3.00000000E+01  0.00000000E+00
  2.20000000E+02  2.80000000E+01  0.00000000E+00
  2.20000000E+02  2.60000000E+01  0.00000000E+00
  2.20000000E+02  2.40000000E+01  0.00000000E+00
  2.20000000E+02  2.20000000E+01  0.00000000E+00
  2.20000000E+02  2.00000000E+01  0.00000000E+00
  2.20000000E+02  1.80000000E+01  0.00000000E+00
  2.20000000E+02  1.60000000E+01  0.00000000E+00
  2.20000000E+02  1.40000000E+01  0.00000000E+00
  2.20000000E+02  1.20000000E+01  0.00000000E+00
  2.20000000E+02  1.00000000E+01  0.00000000E+00
  2.20000000E+02  8.00000000E+00  0.00000000E+00
  2.20000000E+02  6.00000000E+00  0.00000000E+00
  2.20000000E+02  4.00000000E+00  0.00000000E+00
  2.20000000E+02  2.00000000E+00  0.00000000E+00
  2.20000000E+02 -3.33066907E-14  0.00000000E+00
  2.30000000E+02  1.00000000E+02  0.00000000E+00
  2.30000000E+02  9.80000000E+01  0.00000000E+00
  2.30000000E+02  9.60000000E+01  0.00000000E+00
  2.30000000E+02  9.40000000E+01  0.00000000E+00
  2.30000000E+02  9.20000000E+01  0.00000000E+00
  2.30000000E+02  9.00000000E+01  0.00000000E+00
  2.30000000E+02  8.80000000E+01  0.00000000E+00
  2.30000000E+02  8.60000000E+01  0.00000000E+00
  2.30000000E+02  8.40000000E+01  0.00000000E+00
  2.30000000E+02  8.20000000E+01  0.00000000E+00
  2.30000000E+02  8.00000000E+01  0.00000000E+00
  2.30000000E+02  7.80000000E+01  0.00000000E+00
  2.30000000E+02  7.60000000E+01  0.00000000E+00
  2.30000000E+02  7.40000000E+01  0.00000000E+00
  2.30000000E+02  7.20000000E+01  0.00000000E+00
  2.30000000E+02  7.00000000E+01  0.00000000E+00
  2.30000000E+02  6.80000000E+01  0.00000000E+00
  2.30000000E+02  6.60000000E+01  0.00000000E+00
  2.30000000E+02  6.40000000E+01  0.00000000E+00
  2.30000000E+02  6.20000000E+01  0.00000000E+00
  2.30000000E+02  6.00000000E+01  0.00000000E+00
  2.30000000E+02  5.80000000E+01  0.00000000E+00
  2.30000000E+02  5.60000000E+01  0.00000000E+00
  2.30000000E+02  5.40000000E+01  0.00000000E+00
  2.30000000E+02  5.20000000E+01  0.00000000E+00
  2.30000000E+02  5.00000000E+01  0.00000000E+00
  2.30000000E+02  4.80000000E+01  0.00000000E+00
  2.30000000E+02  4.60000000E+01  0.00000000E+00
  2.30000000E+02  4.40000000E+01  0.00000000E+00
  2.30000000E+02  4.20000000E+01  0.00000000E+00
  2.30000000E+02  4.00000000E+01  0.00000000E+00
  2.30000000E+02  3.80000000E+01  0.00000000E+00
  2.30000000E+02  3.60000000E+01  0.00000000E+00
  2.30000000E+02  3.40000000E+01  0.00000000E+00
  2.30000000E+02  3.20000000E+01  0.00000000E+00
  2.30000000E+02  3.00000000E+01  0.00000000E+00
  2.30000000E+02  2.80000000E+01  0.00000000E+00
  2.30000000E+02  2.60000000E+01  0.00000000E+00
  2.30000000E+02  2.40000000E+01  0.00000000E+00
  2.30000000E+02  2.20000000E+01  0.00000000E+00
  2.30000000E+02  2.00000000E+01  0.00000000E+00
  2.30000000E+02  1.80000000E+01  0.00000000E+00
  2.30000000E+02  1.60000000E+01  0.00000000E+00
  2.30000000E+02  1.40000000E+01  0.00000000E+00
  2.30000000E+02  1.20000000E+01  0.00000000E+00
  2.30000000E+02  1.00000000E+01  0.00000000E+00
  2.30000000E+02  8.00000000E+00  0.00000000E+00
  2.30000000E+02  6.00000000E+00  0.00000000E+00
  2.30000000E+02  4.00000000E+00  0.00000000E+00
  2.30000000E+02  2.00000000E+00  0.00000000E+00
  2.30000000E+02 -3.33066907E-14  0.00000000E+00
  2.40000000E+02  1.00000000E+02  0.00000000E+00
  2.40000000E+02  9.80000000E+01  0.00000000E+00
  2.40000000E+02  9.60000000E+01  0.00000000E+00
  2.40000000E+02  9.40000000E+01  0.00000000E+00
  2.40000000E+02  9.20000000E+01  0.00000000E+00
  2.40000000E+02  9.00000000E+01  0.00000000E+00
  2.40000000E+02  8.80000000E+01  0.00000000E+00
  2.40000000E+02  8.60000000E+01  0.00000000E+00
  2.40000000E+02  8.40000000E+01  0.00000000E+00
  2.40000000E+02  8.20000000E+01  0.00000000E+00
  2.40000000E+02  8.00000000E+01  0.00000000E+00
  2.40000000E+02  7.80000000E+01  0.00000000E+00
  2.40000000E+02  7.60000000E+01  0.00000000E+00
  2.40000000E+02  7.40000000E+01  0.00000000E+00
  2.40000000E+02  7.20000000E+01  0.00000000E+00
  2.40000000E+02  7.00000000E+01  0.00000000E+00
  2.40000000E+02  6.80000000E+01  0.00000000E+00
  2.40000000E+02  6.60000000E+01  0.00000000E+00
  2.40000000E+02  6.40000000E+01  0.00000000E+00
  2.40000000E+02  6.20000000E+01  0.00000000E+00
  2.40000000E+02  6.00000000E+01  0.00000000E+00
  2.40000000E+02  5.80000000E+01  0.00000000E+00
  2.40000000E+02  5.60000000E+01  0.00000000E+00
  2.40000000E+02  5.40000000E+01  0.00000000E+00
  2.40000000E+02  5.20000000E+01  0.00000000E+00
  2.40000000E+02  5.00000000E+01  0.00000000E+00
  2.40000000E+02  4.80000000E+01  0.00000000E+00
  2.40000000E+02  4.60000000E+01  0.00000000E+00
  2.40000000E+02  4.40000000E+01  0.00000000E+00
  2.40000000E+02  4.20000000E+01  0.00000000E+00
  2.40000000E+02  4.00000000E+01  0.00000000E+00
  2.40000000E+02  3.80000000E+01  0.00000000E+00
  2.40000000E+02  3.60000000E+01  0.00000000E+00
  2.40000000E+02  3.40000000E+01  0.00000000E+00
  2.40000000E+02  3.20000000E+01  0.00000000E+00
  2.40000000E+02  3.00000000E+01  0.00000000E+00
  2.40000000E+02  2.80000000E+01  0.00000000E+00
  2.40000000E+02  2.60000000E+01  0.00000000E+00
  2.40000000E+02  2.40000000E+01  0.00000000E+00
  2.40000000E+02  2.20000000E+01  0.00000000E+00
  2.40000000E+02  2.00000000E+01  0.00000000E+00
  2.40000000E+02  1.80000000E+01  0.00000000E+00
  2.40000000E+02  1.60000000E+01  0.00000000E+00
  2.40000000E+02  1.40000000E+01  0.00000000E+00
  2.40000000E+02  1.20000000E+01  0.00000000E+00
  2.40000000E+02  1.00000000E+01  0.00000000E+00
  2.40000000E+02  8.00000000E+00  0.00000000E+00
  2.40000000E+02  6.00000000E+00  0.00000000E+00
  2.40000000E+02  4.00000000E+00  0.00000000E+00
  2.40000000E+02  2.00000000E+00  0.00000000E+00
  2.40000000E+02 -3.33066907E-14  0.00000000E+00
  2.50000000E+02  1.00000000E+02  0.00000000E+00
  2.50000000E+02  9.80000000E+01  0.00000000E+00
  2.50000000E+02  9.60000000E+01  0.00000000E+00
  2.50000000E+02  9.40000000E+01  0.00000000E+00
  2.50000000E+02  9.20000000E+01  0.00000000E+00
  2.50000000E+02  9.00000000E+01  0.00000000E+00
  2.50000000E+02  8.80000000E+01  0.00000000E+00
  2.50000000E+02  8.60000000E+01  0.00000000E+00
  2.50000000E+02  8.40000000E+01  0.00000000E+00
  2.50000000E+02  8.20000000E+01  0.00000000E+00
  2.50000000E+02  8.00000000E+01  0.00000000E+00
  2.50000000E+02  7.80000000E+01  0.00000000E+00
  2.50000000E+02  7.60000000E+01  0.00000000E+00
  2.50000000E+02  7.40000000E+01  0.00000000E+00
  2.50000000E+02  7.20000000E+01  0.00000000E+00
  2.50000000E+02  7.00000000E+01  0.00000000E+00
  2.50000000E+02  6.80000000E+01  0.00000000E+00
  2.50000000E+02  6.60000000E+01  0.00000000E+00
  2.50000000E+02  6.40000000E+01  0.00000000E+00
  2.50000000E+02  6.20000000E+01  0.00000000E+00
  2.50000000E+02  6.00000000E+01  0.00000000E+00
  2.50000000E+02  5.80000000E+01  0.00000000E+00
  2.50000000E+02  5.60000000E+01  0.00000000E+00
  2.50000000E+02  5.40000000E+01  0.00000000E+00
  2.50000000E+02  5.20000000E+01  0.00000000E+00
  2.50000000E+02  5.00000000E+01  0.00000000E+00
  2.50000000E+02  4.80000000E+01  0.00000000E+00
  2.50000000E+02  4.60000000E+01  0.00000000E+00
  2.50000000E+02  4.40000000E+01  0.00000000E+00
  2.50000000E+02  4.20000000E+01  0.00000000E+00
  2.50000000E+02  4.00000000E+01  0.00000000E+00
  2.50000000E+02  3.80000000E+01  0.00000000E+00
  2.50000000E+02  3.60000000E+01  0.00000000E+00
  2.50000000E+02  3.40000000E+01  0.00000000E+00
  2.50000000E+02  3.20000000E+01  0.00000000E+00
  2.50000000E+02  3.00000000E+01  0.00000000E+00
  2.50000000E+02  2.80000000E+01  0.00000000E+00
  2.50000000E+02  2.60000000E+01  0.00000000E+00
  2.50000000E+02  2.40000000E+01  0.00000000E+00
  2.50000000E+02  2.20000000E+01  0.00000000E+00
  2.50000000E+02  2.00000000E+01  0.00000000E+00
  2.50000000E+02  1.80000000E+01  0.00000000E+00
  2.50000000E+02  1.60000000E+01  0.00000000E+00
  2.50000000E+02  1.40000000E+01  0.00000000E+00
  2.50000000E+02  1.20000000E+01  0.00000000E+00
  2.50000000E+02  1.00000000E+01  0.00000000E+00
  2.50000000E+02  8.00000000E+00  0.00000000E+00
  2.50000000E+02  6.00000000E+00  0.00000000E+00
  2.50000000E+02  4.00000000E+00  0.00000000E+00
  2.50000000E+02  2.00000000E+00  0.00000000E+00
  2.50000000E+02 -3.33066907E-14  0.00000000E+00
  2.60000000E+02  1.00000000E+02  0.00000000E+00
  2.60000000E+02  9.80000000E+01  0.00000000E+00
  2.60000000E+02  9.60000000E+01  0.00000000E+00
  2.60000000E+02  9.40000000E+01  0.00000000E+00
  2.60000000E+02  9.20000000E+01  0.00000000E+00
  2.60000000E+02  9.00000000E+01  0.00000000E+00
  2.60000000E+02  8.80000000E+01  0.00000000E+00
  2.60000000E+02  8.60000000E+01  0.00000000E+00
  2.60000000E+02  8.40000000E+01  0.00000000E+00
  2.60000000E+02  8.20000000E+01  0.00000000E+00
  2.60000000E+02  8.00000000E+01  0.00000000E+00
  2.60000000E+02  7.80000000E+01  0.00000000E+00
  2.60000000E+02  7.60000000E+01  0.00000000E+00
  2.60000000E+02  7.40000000E+01  0.00000000E+00
  2.60000000E+02  7.20000000E+01  0.00000000E+00
  2.60000000E+02  7.00000000E+01  0.00000000E+00
  2.60000000E+02  6.80000000E+01  0.00000000E+00
  2.60000000E+02  6.60000000E+01  0.00000000E+00
  2.60000000E+02  6.40000000E+01  0.00000000E+00
  2.60000000E+02  6.20000000E+01  0.00000000E+00
  2.60000000E+02  6.00000000E+01  0.00000000E+00
  2.60000000E+02  5.80000000E+01  0.00000000E+00
  2.60000000E+02  5.60000000E+01  0.00000000E+00
  2.60000000E+02  5.40000000E+01  0.00000000E+00
  2.60000000E+02  5.20000000E+01  0.00000000E+00
  2.60000000E+02  5.00000000E+01  0.00000000E+00
  2.60000000E+02  4.80000000E+01  0.00000000E+00
  2.60000000E+02  4.60000000E+01  0.00000000E+00
  2.60000000E+02  4.40000000E+01  0.00000000E+00
  2.60000000E+02  4.20000000E+01  0.00000000E+00
  2.60000000E+02  4.00000000E+01  0.00000000E+00
  2.60000000E+02  3.80000000E+01  0.00000000E+00
  2.60000000E+02  3.60000000E+01  0.00000000E+00
  2.60000000E+02  3.40000000E+01  0.00000000E+00
  2.60000000E+02  3.20000000E+01  0.00000000E+00
  2.60000000E+02  3.00000000E+01  0.00000000E+00
  2.60000000E+02  2.80000000E+01  0.00000000E+00
  2.60000000E+02  2.60000000E+01  0.00000000E+00
  2.60000000E+02  2.40000000E+01  0.00000000E+00
  2.60000000E+02  2.20000000E+01  0.00000000E+00
  2.60000000E+02  2.00000000E+01  0.00000000E+00
  2.60000000E+02  1.80000000E+01  0.00000000E+00
  2.60000000E+02  1.60000000E+01  0.00000000E+00
  2.60000000E+02  1.40000000E+01  0.00000000E+00
  2.60000000E+02  1.20000000E+01  0.00000000E+00
  2.60000000E+02  1.00000000E+01  0.00000000E+00
  2.60000000E+02  8.00000000E+00  0.00000000E+00
  2.60000000E+02  6.00000000E+00  0.00000000E+00
  2.60000000E+02  4.00000000E+00  0.00000000E+00
  2.60000000E+02  2.00000000E+00  0.00000000E+00
  2.60000000E+02 -3.33066907E-14  0.00000000E+00
  2.70000000E+02  1.00000000E+02  0.00000000E+00
  2.70000000E+02  9.80000000E+01  0.00000000E+00
  2.70000000E+02  9.60000000E+01  0.00000000E+00
  2.70000000E+02  9.40000000E+01  0.00000000E+00
  2.70000000E+02  9.20000000E+01  0.00000000E+00
  2.70000000E+02  9.00000000E+01  0.00000000E+00
  2.70000000E+02  8.80000000E+01  0.00000000E+00
  2.70000000E+02  8.60000000E+01  0.00000000E+00
  2.70000000E+02  8.40000000E+01  0.00000000E+00
  2.70000000E+02  8.20000000E+01  0.00000000E+00
  2.70000000E+02  8.00000000E+01  0.00000000E+00
  2.70000000E+02  7.80000000E+01  0.00000000E+00
  2.70000000E+02  7.60000000E+01  0.00000000E+00
  2.70000000E+02  7.40000000E+01  0.00000000E+00
  2.70000000E+02  7.20000000E+01  0.00000000E+00
  2.70000000E+02  7.00000000E+01  0.00000000E+00
  2.70000000E+02  6.80000000E+01  0.00000000E+00
  2.70000000E+02  6.60000000E+01  0.00000000E+00
  2.70000000E+02  6.40000000E+01  0.00000000E+00
  2.70000000E+02  6.20000000E+01  0.00000000E+00
  2.70000000E+02  6.00000000E+01  0.00000000E+00
  2.70000000E+02  5.80000000E+01  0.00000000E+00
  2.70000000E+02  5.60000000E+01  0.00000000E+00
  2.70000000E+02  5.40000000E+01  0.00000000E+00
  2.70000000E+02  5.20000000E+01  0.00000000E+00
  2.70000000E+02  5.00000000E+01  0.00000000E+00
  2.70000000E+02  4.80000000E+01  0.00000000E+00
  2.70000000E+02  4.60000000E+01  0.00000000E+00
  2.70000000E+02  4.40000000E+01  0.00000000E+00
  2.70000000E+02  4.20000000E+01  0.00000000E+00
  2.70000000E+02  4.00000000E+01  0.00000000E+00
  2.70000000E+02  3.80000000E+01  0.00000000E+00
  2.70000000E+02  3.60000000E+01  0.00000000E+00
  2.70000000E+02  3.40000000E+01  0.00000000E+00
  2.70000000E+02  3.20000000E+01  0.00000000E+00
  2.70000000E+02  3.00000000E+01  0.00000000E+00
  2.70000000E+02  2.80000000E+01  0.00000000E+00
  2.70000000E+02  2.60000000E+01  0.00000000E+00
  2.70000000E+02  2.40000000E+01  0.00000000E+00
  2.70000000E+02  2.20000000E+01  0.00000000E+00
  2.70000000E+02  2.00000000E+01  0.00000000E+00
  2.70000000E+02  1.80000000E+01  0.00000000E+00
  2.70000000E+02  1.60000000E+01  0.00000000E+00
  2.70000000E+02  1.40000000E+01  0.00000000E+00
  2.70000000E+02  1.20000000E+01  0.00000000E+00
  2.70000000E+02  1.00000000E+01  0.00000000E+00
  2.70000000E+02  8.00000000E+00  0.00000000E+00
  2.70000000E+02  6.00000000E+00  0.00000000E+00
  2.70000000E+02  4.00000000E+00  0.00000000E+00
  2.70000000E+02  2.00000000E+00  0.00000000E+00
  2.70000000E+02 -3.33066907E-14  0.00000000E+00
  2.80000000E+02  1.00000000E+02  0.00000000E+00
  2.80000000E+02  9.80000000E+01  0.00000000E+00
  2.80000000E+02  9.60000000E+01  0.00000000E+00
  2.80000000E+02  9.40000000E+01  0.00000000E+00
  2.80000000E+02  9.20000000E+01  0.00000000E+00
  2.80000000E+02  9.00000000E+01  0.00000000E+00
  2.80000000E+02  8.80000000E+01  0.00000000E+00
  2.80000000E+02  8.60000000E+01  0.00000000E+00
  2.80000000E+02  8.40000000E+01  0.00000000E+00
  2.80000000E+02  8.20000000E+01  0.00000000E+00
  2.80000000E+02  8.00000000E+01  0.00000000E+00
  2.80000000E+02  7.80000000E+01  0.00000000E+00
  2.80000000E+02  7.60000000E+01  0.00000000E+00
  2.80000000E+02  7.40000000E+01  0.00000000E+00
  2.80000000E+02  7.20000000E+01  0.00000000E+00
  2.80000000E+02  7.00000000E+01  0.00000000E+00
  2.80000000E+02  6.80000000E+01  0.00000000E+00
  2.80000000E+02  6.60000000E+01  0.00000000E+00
  2.80000000E+02  6.40000000E+01  0.00000000E+00
  2.80000000E+02  6.20000000E+01  0.00000000E+00
  2.80000000E+02  6.00000000E+01  0.00000000E+00
  2.80000000E+02  5.80000000E+01  0.00000000E+00
  2.80000000E+02  5.60000000E+01  0.00000000E+00
  2.80000000E+02  5.40000000E+01  0.00000000E+00
  2.80000000E+02  5.20000000E+01  0.00000000E+00
  2.80000000E+02  5.00000000E+01  0.00000000E+00
  2.80000000E+02  4.80000000E+01  0.00000000E+00
  2.80000000E+02  4.60000000E+01  0.00000000E+00
  2.80000000E+02  4.40000000E+01  0.00000000E+00
  2.80000000E+02  4.20000000E+01  0.00000000E+00
  2.80000000E+02  4.00000000E+01  0.00000000E+00
  2.80000000E+02  3.80000000E+01  0.00000000E+00
  2.80000000E+02  3.60000000E+01  0.00000000E+00
  2.80000000E+02  3.40000000E+01  0.00000000E+00
  2.80000000E+02  3.20000000E+01  0.00000000E+00
  2.80000000E+02  3.00000000E+01  0.00000000E+00
  2.80000000E+02  2.80000000E+01  0.00000000E+00
  2.80000000E+02  2.60000000E+01  0.00000000E+00
  2.80000000E+02  2.40000000E+01  0.00000000E+00
  2.80000000E+02  2.20000000E+01  0.00000000E+00
  2.80000000E+02  2.00000000E+01  0.00000000E+00
  2.80000000E+02  1.80000000E+01  0.00000000E+00
  2.80000000E+02  1.60000000E+01  0.00000000E+00
  2.80000000E+02  1.40000000E+01  0.00000000E+00
  2.80000000E+02  1.20000000E+01  0.00000000E+00
  2.80000000E+02  1.00000000E+01  0.00000000E+00
  2.80000000E+02  8.00000000E+00  0.00000000E+00
  2.80000000E+02  6.00000000E+00  0.00000000E+00
  2.80000000E+02  4.00000000E+00  0.00000000E+00
  2.80000000E+02  2.00000000E+00  0.00000000E+00
  2.80000000E+02 -3.33066907E-14  0.00000000E+00
  2.90000000E+02  1.00000000E+02  0.00000000E+00
  2.90000000E+02  9.80000000E+01  0.00000000E+00
  2.90000000E+02  9.60000000E+01  0.00000000E+00
  2.90000000E+02  9.40000000E+01  0.00000000E+00
  2.90000000E+02  9.20000000E+01  0.00000000E+00
  2.90000000E+02  9.00000000E+01  0.00000000E+00
  2.90000000E+02  8.80000000E+01  0.00000000E+00
  2.90000000E+02  8.60000000E+01  0.00000000E+00
  2.90000000E+02  8.40000000E+01  0.00000000E+00
  2.90000000E+02  8.20000000E+01  0.00000000E+00
  2.90000000E+02  8.00000000E+01  0.00000000E+00
  2.90000000E+02  7.80000000E+01  0.00000000E+00
  2.90000000E+02  7.60000000E+01  0.00000000E+00
  2.90000000E+02  7.40000000E+01  0.00000000E+00
  2.90000000E+02  7.20000000E+01  0.00000000E+00
  2.90000000E+02  7.00000000E+01  0.00000000E+00
  2.90000000E+02  6.80000000E+01  0.00000000E+00
  2.90000000E+02  6.60000000E+01  0.00000000E+00
  2.90000000E+02  6.40000000E+01  0.00000000E+00
  2.90000000E+02  6.20000000E+01  0.00000000E+00
  2.90000000E+02  6.00000000E+01  0.00000000E+00
  2.90000000E+02  5.80000000E+01  0.00000000E+00
  2.90000000E+02  5.60000000E+01  0.00000000E+00
  2.90000000E+02  5.40000000E+01  0.00000000E+00
  2.90000000E+02  5.20000000E+01  0.00000000E+00
  2.90000000E+02  5.00000000E+01  0.00000000E+00
  2.90000000E+02  4.80000000E+01  0.00000000E+00
  2.90000000E+02  4.60000000E+01  0.00000000E+00
  2.90000000E+02  4.40000000E+01  0.00000000E+00
  2.90000000E+02  4.20000000E+01  0.00000000E+00
  2.90000000E+02  4.00000000E+01  0.00000000E+00
  2.90000000E+02  3.80000000E+01  0.00000000E+00
  2.90000000E+02  3.60000000E+01  0.00000000E+00
  2.90000000E+02  3.40000000E+01  0.00000000E+00
  2.90000000E+02  3.20000000E+01  0.00000000E+00
  2.90000000E+02  3.00000000E+01  0.00000000E+00
  2.90000000E+02  2.80000000E+01  0.00000000E+00
  2.90000000E+02  2.60000000E+01  0.00000000E+00
  2.90000000E+02  2.40000000E+01  0.00000000E+00
  2.90000000E+02  2.20000000E+01  0.00000000E+00
  2.90000000E+02  2.00000000E+01  0.00000000E+00
  2.90000000E+02  1.80000000E+01  0.00000000E+00
  2.90000000E+02  1.60000000E+01  0.00000000E+00
  2.90000000E+02  1.40000000E+01  0.00000000E+00
  2.90000000E+02  1.20000000E+01  0.00000000E+00
  2.90000000E+02  1.00000000E+01  0.00000000E+00
  2.90000000E+02  8.00000000E+00  0.00000000E+00
  2.90000000E+02  6.00000000E+00  0.00000000E+00
  2.90000000E+02  4.00000000E+00  0.00000000E+00
  2.90000000E+02  2.00000000E+00  0.00000000E+00
  2.90000000E+02 -3.33066907E-14  0.00000000E+00
  3.00000000E+02  1.00000000E+02  0.00000000E+00
  3.00000000E+02  9.80000000E+01  0.00000000E+00
  3.00000000E+02  9.60000000E+01  0.00000000E+00
  3.00000000E+02  9.40000000E+01  0.00000000E+00
  3.00000000E+02  9.20000000E+01  0.00000000E+00
  3.00000000E+02  9.00000000E+01  0.00000000E+00
  3.00000000E+02  8.80000000E+01  0.00000000E+00
  3.00000000E+02  8.60000000E+01  0.00000000E+00
  3.00000000E+02  8.40000000E+01  0.00000000E+00
  3.00000000E+02  8.20000000E+01  0.00000000E+00
  3.00000000E+02  8.00000000E+01  0.00000000E+00
  3.00000000E+02  7.80000000E+01  0.00000000E+00
  3.00000000E+02  7.60000000E+01  0.00000000E+00
  3.00000000E+02  7.40000000E+01  0.00000000E+00
  3.00000000E+02  7.20000000E+01  0.00000000E+00
  3.00000000E+02  7.00000000E+01  0.00000000E+00
  3.00000000E+02  6.80000000E+01  0.00000000E+00
  3.00000000E+02  6.60000000E+01  0.00000000E+00
  3.00000000E+02  6.40000000E+01  0.00000000E+00
  3.00000000E+02  6.20000000E+01  0.00000000E+00
  3.00000000E+02  6.00000000E+01  0.00000000E+00
  3.00000000E+02  5.80000000E+01  0.00000000E+00
  3.00000000E+02  5.60000000E+01  0.00000000E+00
  3.00000000E+02  5.40000000E+01  0.00000000E+00
  3.00000000E+02  5.20000000E+01  0.00000000E+00
  3.00000000E+02  5.00000000E+01  0.00000000E+00
  3.00000000E+02  4.80000000E+01  0.00000000E+00
  3.00000000E+02  4.60000000E+01  0.00000000E+00
  3.00000000E+02  4.40000000E+01  0.00000000E+00
  3.00000000E+02  4.20000000E+01  0.00000000E+00
  3.00000000E+02  4.00000000E+01  0.00000000E+00
  3.00000000E+02  3.80000000E+01  0.00000000E+00
  3.00000000E+02  3.60000000E+01  0.00000000E+00
  3.00000000E+02  3.40000000E+01  0.00000000E+00
  3.00000000E+02  3.20000000E+01  0.00000000E+00
  3.00000000E+02  3.00000000E+01  0.00000000E+00
  3.00000000E+02  2.80000000E+01  0.00000000E+00
  3.00000000E+02  2.60000000E+01  0.00000000E+00
  3.00000000E+02  2.40000000E+01  0.00000000E+00
  3.00000000E+02  2.20000000E+01  0.00000000E+00
  3.00000000E+02  2.00000000E+01  0.00000000E+00
  3.00000000E+02  1.80000000E+01  0.00000000E+00
  3.00000000E+02  1.60000000E+01  0.00000000E+00
  3.00000000E+02  1.40000000E+01  0.00000000E+00
  3.00000000E+02  1.20000000E+01  0.00000000E+00
  3.00000000E+02  1.00000000E+01  0.00000000E+00
  3.00000000E+02  8.00000000E+00  0.00000000E+00
  3.00000000E+02  6.00000000E+00  0.00000000E+00
  3.00000000E+02  4.00000000E+00  0.00000000E+00
  3.00000000E+02  2.00000000E+00  0.00000000E+00
  3.00000000E+02 -3.33066907E-14  0.00000000E+00
  3.10000000E+02  1.00000000E+02  0.00000000E+00
  3.10000000E+02  9.80000000E+01  0.00000000E+00
  3.10000000E+02  9.60000000E+01  0.00000000E+00
  3.10000000E+02  9.40000000E+01  0.00000000E+00
  3.10000000E+02  9.20000000E+01  0.00000000E+00
  3.10000000E+02  9.00000000E+01  0.00000000E+00
  3.10000000E+02  8.80000000E+01  0.00000000E+00
  3.10000000E+02  8.60000000E+01  0.00000000E+00
  3.10000000E+02  8.40000000E+01  0.00000000E+00
  3.10000000E+02  8.20000000E+01  0.00000000E+00
  3.10000000E+02  8.00000000E+01  0.00000000E+00
  3.10000000E+02  7.80000000E+01  0.00000000E+00
  3.10000000E+02  7.60000000E+01  0.00000000E+00
  3.10000000E+02  7.40000000E+01  0.00000000E+00
  3.10000000E+02  7.20000000E+01  0.00000000E+00
  3.10000000E+02  7.00000000E+01  0.00000000E+00
  3.10000000E+02  6.80000000E+01  0.00000000E+00
  3.10000000E+02  6.60000000E+01  0.00000000E+00
  3.10000000E+02  6.40000000E+01  0.00000000E+00
  3.10000000E+02  6.20000000E+01  0.00000000E+00
  3.10000000E+02  6.00000000E+01  0.00000000E+00
  3.10000000E+02  5.80000000E+01  0.00000000E+00
  3.10000000E+02  5.60000000E+01  0.00000000E+00
  3.10000000E+02  5.40000000E+01  0.00000000E+00
  3.10000000E+02  5.20000000E+01  0.00000000E+00
  3.10000000E+02  5.00000000E+01  0.00000000E+00
  3.10000000E+02  4.80000000E+01  0.00000000E+00
  3.10000000E+02  4.60000000E+01  0.00000000E+00
  3.10000000E+02  4.40000000E+01  0.00000000E+00
  3.10000000E+02  4.20000000E+01  0.00000000E+00
  3.10000000E+02  4.00000000E+01  0.00000000E+00
  3.10000000E+02  3.80000000E+01  0.00000000E+00
  3.10000000E+02  3.60000000E+01  0.00000000E+00
  3.10000000E+02  3.40000000E+01  0.00000000E+00
  3.10000000E+02  3.20000000E+01  0.00000000E+00
  3.10000000E+02  3.00000000E+01  0.00000000E+00
  3.10000000E+02  2.80000000E+01  0.00000000E+00
  3.10000000E+02  2.60000000E+01  0.00000000E+00
  3.10000000E+02  2.40000000E+01  0.00000000E+00
  3.10000000E+02  2.20000000E+01  0.00000000E+00
  3.10000000E+02  2.00000000E+01  0.00000000E+00
  3.10000000E+02  1.80000000E+01  0.00000000E+00
  3.10000000E+02  1.60000000E+01  0.00000000E+00
  3.10000000E+02  1.40000000E+01  0.00000000E+00
  3.10000000E+02  1.20000000E+01  0.00000000E+00
  3.10000000E+02  1.00000000E+01  0.00000000E+00
  3.10000000E+02  8.00000000E+00  0.00000000E+00
  3.10000000E+02  6.00000000E+00  0.00000000E+00
  3.10000000E+02  4.00000000E+00  0.00000000E+00
  3.10000000E+02  2.00000000E+00  0.00000000E+00
  3.10000000E+02 -3.33066907E-14  0.00000000E+00
  3.20000000E+02  1.00000000E+02  0.00000000E+00
  3.20000000E+02  9.80000000E+01  0.00000000E+00
  3.20000000E+02  9.60000000E+01  0.00000000E+00
  3.20000000E+02  9.40000000E+01  0.00000000E+00
  3.20000000E+02  9.20000000E+01  0.00000000E+00
  3.20000000E+02  9.00000000E+01  0.00000000E+00
  3.20000000E+02  8.80000000E+01  0.00000000E+00
  3.20000000E+02  8.60000000E+01  0.00000000E+00
  3.20000000E+02  8.40000000E+01  0.00000000E+00
  3.20000000E+02  8.20000000E+01  0.00000000E+00
  3.20000000E+02  8.00000000E+01  0.00000000E+00
  3.20000000E+02  7.80000000E+01  0.00000000E+00
  3.20000000E+02  7.60000000E+01  0.00000000E+00
  3.20000000E+02  7.40000000E+01  0.00000000E+00
  3.20000000E+02  7.20000000E+01  0.00000000E+00
  3.20000000E+02  7.00000000E+01  0.00000000E+00
  3.20000000E+02  6.80000000E+01  0.00000000E+00
  3.20000000E+02  6.60000000E+01  0.00000000E+00
  3.20000000E+02  6.40000000E+01  0.00000000E+00
  3.20000000E+02  6.20000000E+01  0.00000000E+00
  3.20000000E+02  6.00000000E+01  0.00000000E+00
  3.20000000E+02  5.80000000E+01  0.00000000E+00
  3.20000000E+02  5.60000000E+01  0.00000000E+00
  3.20000000E+02  5.40000000E+01  0.00000000E+00
  3.20000000E+02  5.20000000E+01  0.00000000E+00
  3.20000000E+02  5.00000000E+01  0.00000000E+00
  3.20000000E+02  4.80000000E+01  0.00000000E+00
  3.20000000E+02  4.60000000E+01  0.00000000E+00
  3.20000000E+02  4.40000000E+01  0.00000000E+00
  3.20000000E+02  4.20000000E+01  0.00000000E+00
  3.20000000E+02  4.00000000E+01  0.00000000E+00
  3.20000000E+02  3.80000000E+01  0.00000000E+00
  3.20000000E+02  3.60000000E+01  0.00000000E+00
  3.20000000E+02  3.40000000E+01  0.00000000E+00
  3.20000000E+02  3.20000000E+01  0.00000000E+00
  3.20000000E+02  3.00000000E+01  0.00000000E+00
  3.20000000E+02  2.80000000E+01  0.00000000E+00
  3.20000000E+02  2.60000000E+01  0.00000000E+00
  3.20000000E+02  2.40000000E+01  0.00000000E+00
  3.20000000E+02  2.20000000E+01  0.00000000E+00
  3.20000000E+02  2.00000000E+01  0.00000000E+00
  3.20000000E+02  1.80000000E+01  0.00000000E+00
  3.20000000E+02  1.60000000E+01  0.00000000E+00
  3.20000000E+02  1.40000000E+01  0.00000000E+00
  3.20000000E+02  1.20000000E+01  0.00000000E+00
  3.20000000E+02  1.00000000E+01  0.00000000E+00
  3.20000000E+02  8.00000000E+00  0.00000000E+00
  3.20000000E+02  6.00000000E+00  0.00000000E+00
  3.20000000E+02  4.00000000E+00  0.00000000E+00
  3.20000000E+02  2.00000000E+00  0.00000000E+00
  3.20000000E+02 -3.33066907E-14  0.00000000E+00
  3.30000000E+02  1.00000000E+02  0.00000000E+00
  3.30000000E+02  9.80000000E+01  0.00000000E+00
  3.30000000E+02  9.60000000E+01  0.00000000E+00
  3.30000000E+02  9.40000000E+01  0.00000000E+00
  3.30000000E+02  9.20000000E+01  0.00000000E+00
  3.30000000E+02  9.00000000E+01  0.00000000E+00
  3.30000000E+02  8.80000000E+01  0.00000000E+00
  3.30000000E+02  8.60000000E+01  0.00000000E+00
  3.30000000E+02  8.40000000E+01  0.00000000E+00
  3.30000000E+02  8.20000000E+01  0.00000000E+00
  3.30000000E+02  8.00000000E+01  0.00000000E+00
  3.30000000E+02  7.80000000E+01  0.00000000E+00
  3.30000000E+02  7.60000000E+01  0.00000000E+00
  3.30000000E+02  7.40000000E+01  0.00000000E+00
  3.30000000E+02  7.20000000E+01  0.00000000E+00
  3.30000000E+02  7.00000000E+01  0.00000000E+00
  3.30000000E+02  6.80000000E+01  0.00000000E+00
  3.30000000E+02  6.60000000E+01  0.00000000E+00
  3.30000000E+02  6.40000000E+01  0.00000000E+00
  3.30000000E+02  6.20000000E+01  0.00000000E+00
  3.30000000E+02  6.00000000E+01  0.00000000E+00
  3.30000000E+02  5.80000000E+01  0.00000000E+00
  3.30000000E+02  5.60000000E+01  0.00000000E+00
  3.30000000E+02  5.40000000E+01  0.00000000E+00
  3.30000000E+02  5.20000000E+01  0.00000000E+00
  3.30000000E+02  5.00000000E+01  0.00000000E+00
  3.30000000E+02  4.80000000E+01  0.00000000E+00
  3.30000000E+02  4.60000000E+01  0.00000000E+00
  3.30000000E+02  4.40000000E+01  0.00000000E+00
  3.30000000E+02  4.20000000E+01  0.00000000E+00
  3.30000000E+02  4.00000000E+01  0.00000000E+00
  3.30000000E+02  3.80000000E+01  0.00000000E+00
  3.30000000E+02  3.60000000E+01  0.00000000E+00
  3.30000000E+02  3.40000000E+01  0.00000000E+00
  3.30000000E+02  3.20000000E+01  0.00000000E+00
  3.30000000E+02  3.00000000E+01  0.00000000E+00
  3.30000000E+02  2.80000000E+01  0.00000000E+00
  3.30000000E+02  2.60000000E+01  0.00000000E+00
  3.30000000E+02  2.40000000E+01  0.00000000E+00
  3.30000000E+02  2.20000000E+01  0.00000000E+00
  3.30000000E+02  2.00000000E+01  0.00000000E+00
  3.30000000E+02  1.80000000E+01  0.00000000E+00
  3.30000000E+02  1.60000000E+01  0.00000000E+00
  3.30000000E+02  1.40000000E+01  0.00000000E+00
  3.30000000E+02  1.20000000E+01  0.00000000E+00
  3.30000000E+02  1.00000000E+01  0.00000000E+00
  3.30000000E+02  8.00000000E+00  0.00000000E+00
  3.30000000E+02  6.00000000E+00  0.00000000E+00
  3.30000000E+02  4.00000000E+00  0.00000000E+00
  3.30000000E+02  2.00000000E+00  0.00000000E+00
  3.30000000E+02 -3.33066907E-14  0.00000000E+00
  3.40000000E+02  1.00000000E+02  0.00000000E+00
  3.40000000E+02  9.80000000E+01  0.00000000E+00
  3.40000000E+02  9.60000000E+01  0.00000000E+00
  3.40000000E+02  9.40000000E+01  0.00000000E+00
  3.40000000E+02  9.20000000E+01  0.00000000E+00
  3.40000000E+02  9.00000000E+01  0.00000000E+00
  3.40000000E+02  8.80000000E+01  0.00000000E+00
  3.40000000E+02  8.60000000E+01  0.00000000E+00
  3.40000000E+02  8.40000000E+01  0.00000000E+00
  3.40000000E+02  8.20000000E+01  0.00000000E+00
  3.40000000E+02  8.00000000E+01  0.00000000E+00
  3.40000000E+02  7.80000000E+01  0.00000000E+00
  3.40000000E+02  7.60000000E+01  0.00000000E+00
  3.40000000E+02  7.40000000E+01  0.00000000E+00
  3.40000000E+02  7.20000000E+01  0.00000000E+00
  3.40000000E+02  7.00000000E+01  0.00000000E+00
  3.40000000E+02  6.80000000E+01  0.00000000E+00
  3.40000000E+02  6.60000000E+01  0.00000000E+00
  3.40000000E+02  6.40000000E+01  0.00000000E+00
  3.40000000E+02  6.20000000E+01  0.00000000E+00
  3.40000000E+02  6.00000000E+01  0.00000000E+00
  3.40000000E+02  5.80000000E+01  0.00000000E+00
  3.40000000E+02  5.60000000E+01  0.00000000E+00
  3.40000000E+02  5.40000000E+01  0.00000000E+00
  3.40000000E+02  5.20000000E+01  0.00000000E+00
  3.40000000E+02  5.00000000E+01  0.00000000E+00
  3.40000000E+02  4.80000000E+01  0.00000000E+00
  3.40000000E+02  4.60000000E+01  0.00000000E+00
  3.40000000E+02  4.40000000E+01  0.00000000E+00
  3.40000000E+02  4.20000000E+01  0.00000000E+00
  3.40000000E+02  4.00000000E+01  0.00000000E+00
  3.40000000E+02  3.80000000E+01  0.00000000E+00
  3.40000000E+02  3.60000000E+01  0.00000000E+00
  3.40000000E+02  3.40000000E+01  0.00000000E+00
  3.40000000E+02  3.20000000E+01  0.00000000E+00
  3.40000000E+02  3.00000000E+01  0.00000000E+00
  3.40000000E+02  2.80000000E+01  0.00000000E+00
  3.40000000E+02  2.60000000E+01  0.00000000E+00
  3.40000000E+02  2.40000000E+01  0.00000000E+00
  3.40000000E+02  2.20000000E+01  0.00000000E+00
  3.40000000E+02  2.00000000E+01  0.00000000E+00
  3.40000000E+02  1.80000000E+01  0.00000000E+00
  3.40000000E+02  1.60000000E+01  0.00000000E+00
  3.40000000E+02  1.40000000E+01  0.00000000E+00
  3.40000000E+02  1.20000000E+01  0.00000000E+00
  3.40000000E+02  1.00000000E+01  0.00000000E+00
  3.40000000E+02  8.00000000E+00  0.00000000E+00
  3.40000000E+02  6.00000000E+00  0.00000000E+00
  3.40000000E+02  4.00000000E+00  0.00000000E+00
  3.40000000E+02  2.00000000E+00  0.00000000E+00
  3.40000000E+02 -3.33066907E-14  0.00000000E+00
  3.50000000E+02  1.00000000E+02  0.00000000E+00
  3.50000000E+02  9.80000000E+01  0.00000000E+00
  3.50000000E+02  9.60000000E+01  0.00000000E+00
  3.50000000E+02  9.40000000E+01  0.00000000E+00
  3.50000000E+02  9.20000000E+01  0.00000000E+00
  3.50000000E+02  9.00000000E+01  0.00000000E+00
  3.50000000E+02  8.80000000E+01  0.00000000E+00
  3.50000000E+02  8.60000000E+01  0.00000000E+00
  3.50000000E+02  8.40000000E+01  0.00000000E+00
  3.50000000E+02  8.20000000E+01  0.00000000E+00
  3.50000000E+02  8.00000000E+01  0.00000000E+00
  3.50000000E+02  7.80000000E+01  0.00000000E+00
  3.50000000E+02  7.60000000E+01  0.00000000E+00
  3.50000000E+02  7.40000000E+01  0.00000000E+00
  3.50000000E+02  7.20000000E+01  0.00000000E+00
  3.50000000E+02  7.00000000E+01  0.00000000E+00
  3.50000000E+02  6.80000000E+01  0.00000000E+00
  3.50000000E+02  6.60000000E+01  0.00000000E+00
  3.50000000E+02  6.40000000E+01  0.00000000E+00
  3.50000000E+02  6.20000000E+01  0.00000000E+00
  3.50000000E+02  6.00000000E+01  0.00000000E+00
  3.50000000E+02  5.80000000E+01  0.00000000E+00
  3.50000000E+02  5.60000000E+01  0.00000000E+00
  3.50000000E+02  5.40000000E+01  0.00000000E+00
  3.50000000E+02  5.20000000E+01  0.00000000E+00
  3.50000000E+02  5.00000000E+01  0.00000000E+00
  3.50000000E+02  4.80000000E+01  0.00000000E+00
  3.50000000E+02  4.60000000E+01  0.00000000E+00
  3.50000000E+02  4.40000000E+01  0.00000000E+00
  3.50000000E+02  4.20000000E+01  0.00000000E+00
  3.50000000E+02  4.00000000E+01  0.00000000E+00
  3.50000000E+02  3.80000000E+01  0.00000000E+00
  3.50000000E+02  3.60000000E+01  0.00000000E+00
  3.50000000E+02  3.40000000E+01  0.00000000E+00
  3.50000000E+02  3.20000000E+01  0.00000000E+00
  3.50000000E+02  3.00000000E+01  0.00000000E+00
  3.50000000E+02  2.80000000E+01  0.00000000E+00
  3.50000000E+02  2.60000000E+01  0.00000000E+00
  3.50000000E+02  2.40000000E+01  0.00000000E+00
  3.50000000E+02  2.20000000E+01  0.00000000E+00
  3.50000000E+02  2.00000000E+01  0.00000000E+00
  3.50000000E+02  1.80000000E+01  0.00000000E+00
  3.50000000E+02  1.60000000E+01  0.00000000E+00
  3.50000000E+02  1.40000000E+01  0.00000000E+00
  3.50000000E+02  1.20000000E+01  0.00000000E+00
  3.50000000E+02  1.00000000E+01  0.00000000E+00
  3.50000000E+02  8.00000000E+00  0.00000000E+00
  3.50000000E+02  6.00000000E+00  0.00000000E+00
  3.50000000E+02  4.00000000E+00  0.00000000E+00
  3.50000000E+02  2.00000000E+00  0.00000000E+00
  3.50000000E+02 -3.33066907E-14  0.00000000E+00
  3.60000000E+02  1.00000000E+02  0.00000000E+00
  3.60000000E+02  9.80000000E+01  0.00000000E+00
  3.60000000E+02  9.60000000E+01  0.00000000E+00
  3.60000000E+02  9.40000000E+01  0.00000000E+00
  3.60000000E+02  9.20000000E+01  0.00000000E+00
  3.60000000E+02  9.00000000E+01  0.00000000E+00
  3.60000000E+02  8.80000000E+01  0.00000000E+00
  3.60000000E+02  8.60000000E+01  0.00000000E+00
  3.60000000E+02  8.40000000E+01  0.00000000E+00
  3.60000000E+02  8.20000000E+01  0.00000000E+00
  3.60000000E+02  8.00000000E+01  0.00000000E+00
  3.60000000E+02  7.80000000E+01  0.00000000E+00
  3.60000000E+02  7.60000000E+01  0.00000000E+00
  3.60000000E+02  7.40000000E+01  0.00000000E+00
  3.60000000E+02  7.20000000E+01  0.00000000E+00
  3.60000000E+02  7.00000000E+01  0.00000000E+00
  3.60000000E+02  6.80000000E+01  0.00000000E+00
  3.60000000E+02  6.60000000E+01  0.00000000E+00
  3.60000000E+02  6.40000000E+01  0.00000000E+00
  3.60000000E+02  6.20000000E+01  0.00000000E+00
  3.60000000E+02  6.00000000E+01  0.00000000E+00
  3.60000000E+02  5.80000000E+01  0.00000000E+00
  3.60000000E+02  5.60000000E+01  0.00000000E+00
  3.60000000E+02  5.40000000E+01  0.00000000E+00
  3.60000000E+02  5.20000000E+01  0.00000000E+00
  3.60000000E+02  5.00000000E+01  0.00000000E+00
  3.60000000E+02  4.80000000E+01  0.00000000E+00
  3.60000000E+02  4.60000000E+01  0.00000000E+00
  3.60000000E+02  4.40000000E+01  0.00000000E+00
  3.60000000E+02  4.20000000E+01  0.00000000E+00
  3.60000000E+02  4.00000000E+01  0.00000000E+00
  3.60000000E+02  3.80000000E+01  0.00000000E+00
  3.60000000E+02  3.60000000E+01  0.00000000E+00
  3.60000000E+02  3.40000000E+01  0.00000000E+00
  3.60000000E+02  3.20000000E+01  0.00000000E+00
  3.60000000E+02  3.00000000E+01  0.00000000E+00
  3.60000000E+02  2.80000000E+01  0.00000000E+00
  3.60000000E+02  2.60000000E+01  0.00000000E+00
  3.60000000E+02  2.40000000E+01  0.00000000E+00
  3.60000000E+02  2.20000000E+01  0.00000000E+00
  3.60000000E+02  2.00000000E+01  0.00000000E+00
  3.60000000E+02  1.80000000E+01  0.00000000E+00
  3.60000000E+02  1.60000000E+01  0.00000000E+00
  3.60000000E+02  1.40000000E+01  0.00000000E+00
  3.60000000E+02  1.20000000E+01  0.00000000E+00
  3.60000000E+02  1.00000000E+01  0.00000000E+00
  3.60000000E+02  8.00000000E+00  0.00000000E+00
  3.60000000E+02  6.00000000E+00  0.00000000E+00
  3.60000000E+02  4.00000000E+00  0.00000000E+00
  3.60000000E+02  2.00000000E+00  0.00000000E+00
  3.60000000E+02 -3.33066907E-14  0.00000000E+00
  3.70000000E+02  1.00000000E+02  0.00000000E+00
  3.70000000E+02  9.80000000E+01  0.00000000E+00
  3.70000000E+02  9.60000000E+01  0.00000000E+00
  3.70000000E+02  9.40000000E+01  0.00000000E+00
  3.70000000E+02  9.20000000E+01  0.00000000E+00
  3.70000000E+02  9.00000000E+01  0.00000000E+00
  3.70000000E+02  8.80000000E+01  0.00000000E+00
  3.70000000E+02  8.60000000E+01  0.00000000E+00
  3.70000000E+02  8.40000000E+01  0.00000000E+00
  3.70000000E+02  8.20000000E+01  0.00000000E+00
  3.70000000E+02  8.00000000E+01  0.00000000E+00
  3.70000000E+02  7.80000000E+01  0.00000000E+00
  3.70000000E+02  7.60000000E+01  0.00000000E+00
  3.70000000E+02  7.40000000E+01  0.00000000E+00
  3.70000000E+02  7.20000000E+01  0.00000000E+00
  3.70000000E+02  7.00000000E+01  0.00000000E+00
  3.70000000E+02  6.80000000E+01  0.00000000E+00
  3.70000000E+02  6.60000000E+01  0.00000000E+00
  3.70000000E+02  6.40000000E+01  0.00000000E+00
  3.70000000E+02  6.20000000E+01  0.00000000E+00
  3.70000000E+02  6.00000000E+01  0.00000000E+00
  3.70000000E+02  5.80000000E+01  0.00000000E+00
  3.70000000E+02  5.60000000E+01  0.00000000E+00
  3.70000000E+02  5.40000000E+01  0.00000000E+00
  3.70000000E+02  5.20000000E+01  0.00000000E+00
  3.70000000E+02  5.00000000E+01  0.00000000E+00
  3.70000000E+02  4.80000000E+01  0.00000000E+00
  3.70000000E+02  4.60000000E+01  0.00000000E+00
  3.70000000E+02  4.40000000E+01  0.00000000E+00
  3.70000000E+02  4.20000000E+01  0.00000000E+00
  3.70000000E+02  4.00000000E+01  0.00000000E+00
  3.70000000E+02  3.80000000E+01  0.00000000E+00
  3.70000000E+02  3.60000000E+01  0.00000000E+00
  3.70000000E+02  3.40000000E+01  0.00000000E+00
  3.70000000E+02  3.20000000E+01  0.00000000E+00
  3.70000000E+02  3.00000000E+01  0.00000000E+00
  3.70000000E+02  2.80000000E+01  0.00000000E+00
  3.70000000E+02  2.60000000E+01  0.00000000E+00
  3.70000000E+02  2.40000000E+01  0.00000000E+00
  3.70000000E+02  2.20000000E+01  0.00000000E+00
  3.70000000E+02  2.00000000E+01  0.00000000E+00
  3.70000000E+02  1.80000000E+01  0.00000000E+00
  3.70000000E+02  1.60000000E+01  0.00000000E+00
  3.70000000E+02  1.40000000E+01  0.00000000E+00
  3.70000000E+02  1.20000000E+01  0.00000000E+00
  3.70000000E+02  1.00000000E+01  0.00000000E+00
  3.70000000E+02  8.00000000E+00  0.00000000E+00
  3.70000000E+02  6.00000000E+00  0.00000000E+00
  3.70000000E+02  4.00000000E+00  0.00000000E+00
  3.70000000E+02  2.00000000E+00  0.00000000E+00
  3.70000000E+02 -3.33066907E-14  0.00000000E+00
  3.80000000E+02  1.00000000E+02  0.00000000E+00
  3.80000000E+02  9.80000000E+01  0.00000000E+00
  3.80000000E+02  9.60000000E+01  0.00000000E+00
  3.80000000E+02  9.40000000E+01  0.00000000E+00
  3.80000000E+02  9.20000000E+01  0.00000000E+00
  3.80000000E+02  9.00000000E+01  0.00000000E+00
  3.80000000E+02  8.80000000E+01  0.00000000E+00
  3.80000000E+02  8.60000000E+01  0.00000000E+00
  3.80000000E+02  8.40000000E+01  0.00000000E+00
  3.80000000E+02  8.20000000E+01  0.00000000E+00
  3.80000000E+02  8.00000000E+01  0.00000000E+00
  3.80000000E+02  7.80000000E+01  0.00000000E+00
  3.80000000E+02  7.60000000E+01  0.00000000E+00
  3.80000000E+02  7.40000000E+01  0.00000000E+00
  3.80000000E+02  7.20000000E+01  0.00000000E+00
  3.80000000E+02  7.00000000E+01  0.00000000E+00
  3.80000000E+02  6.80000000E+01  0.00000000E+00
  3.80000000E+02  6.60000000E+01  0.00000000E+00
  3.80000000E+02  6.40000000E+01  0.00000000E+00
  3.80000000E+02  6.20000000E+01  0.00000000E+00
  3.80000000E+02  6.00000000E+01  0.00000000E+00
  3.80000000E+02  5.80000000E+01  0.00000000E+00
  3.80000000E+02  5.60000000E+01  0.00000000E+00
  3.80000000E+02  5.40000000E+01  0.00000000E+00
  3.80000000E+02  5.20000000E+01  0.00000000E+00
  3.80000000E+02  5.00000000E+01  0.00000000E+00
  3.80000000E+02  4.80000000E+01  0.00000000E+00
  3.80000000E+02  4.60000000E+01  0.00000000E+00
  3.80000000E+02  4.40000000E+01  0.00000000E+00
  3.80000000E+02  4.20000000E+01  0.00000000E+00
  3.80000000E+02  4.00000000E+01  0.00000000E+00
  3.80000000E+02  3.80000000E+01  0.00000000E+00
  3.80000000E+02  3.60000000E+01  0.00000000E+00
  3.80000000E+02  3.40000000E+01  0.00000000E+00
  3.80000000E+02  3.20000000E+01  0.00000000E+00
  3.80000000E+02  3.00000000E+01  0.00000000E+00
  3.80000000E+02  2.80000000E+01  0.00000000E+00
  3.80000000E+02  2.60000000E+01  0.00000000E+00
  3.80000000E+02  2.40000000E+01  0.00000000E+00
  3.80000000E+02  2.20000000E+01  0.00000000E+00
  3.80000000E+02  2.00000000E+01  0.00000000E+00
  3.80000000E+02  1.80000000E+01  0.00000000E+00
  3.80000000E+02  1.60000000E+01  0.00000000E+00
  3.80000000E+02  1.40000000E+01  0.00000000E+00
  3.80000000E+02  1.20000000E+01  0.00000000E+00
  3.80000000E+02  1.00000000E+01  0.00000000E+00
  3.80000000E+02  8.00000000E+00  0.00000000E+00
  3.80000000E+02  6.00000000E+00  0.00000000E+00
  3.80000000E+02  4.00000000E+00  0.00000000E+00
  3.80000000E+02  2.00000000E+00  0.00000000E+00
  3.80000000E+02 -3.33066907E-14  0.00000000E+00
  3.90000000E+02  1.00000000E+02  0.00000000E+00
  3.90000000E+02  9.80000000E+01  0.00000000E+00
  3.90000000E+02  9.60000000E+01  0.00000000E+00
  3.90000000E+02  9.40000000E+01  0.00000000E+00
  3.90000000E+02  9.20000000E+01  0.00000000E+00
  3.90000000E+02  9.00000000E+01  0.00000000E+00
  3.90000000E+02  8.80000000E+01  0.00000000E+00
  3.90000000E+02  8.60000000E+01  0.00000000E+00
  3.90000000E+02  8.40000000E+01  0.00000000E+00
  3.90000000E+02  8.20000000E+01  0.00000000E+00
  3.90000000E+02  8.00000000E+01  0.00000000E+00
  3.90000000E+02  7.80000000E+01  0.00000000E+00
  3.90000000E+02  7.60000000E+01  0.00000000E+00
  3.90000000E+02  7.40000000E+01  0.00000000E+00
  3.90000000E+02  7.20000000E+01  0.00000000E+00
  3.90000000E+02  7.00000000E+01  0.00000000E+00
  3.90000000E+02  6.80000000E+01  0.00000000E+00
  3.90000000E+02  6.60000000E+01  0.00000000E+00
  3.90000000E+02  6.40000000E+01  0.00000000E+00
  3.90000000E+02  6.20000000E+01  0.00000000E+00
  3.90000000E+02  6.00000000E+01  0.00000000E+00
  3.90000000E+02  5.80000000E+01  0.00000000E+00
  3.90000000E+02  5.60000000E+01  0.00000000E+00
  3.90000000E+02  5.40000000E+01  0.00000000E+00
  3.90000000E+02  5.20000000E+01  0.00000000E+00
  3.90000000E+02  5.00000000E+01  0.00000000E+00
  3.90000000E+02  4.80000000E+01  0.00000000E+00
  3.90000000E+02  4.60000000E+01  0.00000000E+00
  3.90000000E+02  4.40000000E+01  0.00000000E+00
  3.90000000E+02  4.20000000E+01  0.00000000E+00
  3.90000000E+02  4.00000000E+01  0.00000000E+00
  3.90000000E+02  3.80000000E+01  0.00000000E+00
  3.90000000E+02  3.60000000E+01  0.00000000E+00
  3.90000000E+02  3.40000000E+01  0.00000000E+00
  3.90000000E+02  3.20000000E+01  0.00000000E+00
  3.90000000E+02  3.00000000E+01  0.00000000E+00
  3.90000000E+02  2.80000000E+01  0.00000000E+00
  3.90000000E+02  2.60000000E+01  0.00000000E+00
  3.90000000E+02  2.40000000E+01  0.00000000E+00
  3.90000000E+02  2.20000000E+01  0.00000000E+00
  3.90000000E+02  2.00000000E+01  0.00000000E+00
  3.90000000E+02  1.80000000E+01  0.00000000E+00
  3.90000000E+02  1.60000000E+01  0.00000000E+00
  3.90000000E+02  1.40000000E+01  0.00000000E+00
  3.90000000E+02  1.20000000E+01  0.00000000E+00
  3.90000000E+02  1.00000000E+01  0.00000000E+00
  3.90000000E+02  8.00000000E+00  0.00000000E+00
  3.90000000E+02  6.00000000E+00  0.00000000E+00
  3.90000000E+02  4.00000000E+00  0.00000000E+00
  3.90000000E+02  2.00000000E+00  0.00000000E+00
  3.90000000E+02 -3.33066907E-14  0.00000000E+00
  4.00000000E+02  1.00000000E+02  0.00000000E+00
  4.00000000E+02  9.80000000E+01  0.00000000E+00
  4.00000000E+02  9.60000000E+01  0.00000000E+00
  4.00000000E+02  9.40000000E+01  0.00000000E+00
  4.00000000E+02  9.20000000E+01  0.00000000E+00
  4.00000000E+02  9.00000000E+01  0.00000000E+00
  4.00000000E+02  8.80000000E+01  0.00000000E+00
  4.00000000E+02  8.60000000E+01  0.00000000E+00
  4.00000000E+02  8.40000000E+01  0.00000000E+00
  4.00000000E+02  8.20000000E+01  0.00000000E+00
  4.00000000E+02  8.00000000E+01  0.00000000E+00
  4.00000000E+02  7.80000000E+01  0.00000000E+00
  4.00000000E+02  7.60000000E+01  0.00000000E+00
  4.00000000E+02  7.40000000E+01  0.00000000E+00
  4.00000000E+02  7.20000000E+01  0.00000000E+00
  4.00000000E+02  7.00000000E+01  0.00000000E+00
  4.00000000E+02  6.80000000E+01  0.00000000E+00
  4.00000000E+02  6.60000000E+01  0.00000000E+00
  4.00000000E+02  6.40000000E+01  0.00000000E+00
  4.00000000E+02  6.20000000E+01  0.00000000E+00
  4.00000000E+02  6.00000000E+01  0.00000000E+00
  4.00000000E+02  5.80000000E+01  0.00000000E+00
  4.00000000E+02  5.60000000E+01  0.00000000E+00
  4.00000000E+02  5.40000000E+01  0.00000000E+00
  4.00000000E+02  5.20000000E+01  0.00000000E+00
  4.00000000E+02  5.00000000E+01  0.00000000E+00
  4.00000000E+02  4.80000000E+01  0.00000000E+00
  4.00000000E+02  4.60000000E+01  0.00000000E+00
  4.00000000E+02  4.40000000E+01  0.00000000E+00
  4.00000000E+02  4.20000000E+01  0.00000000E+00
  4.00000000E+02  4.00000000E+01  0.00000000E+00
  4.00000000E+02  3.80000000E+01  0.00000000E+00
  4.00000000E+02  3.60000000E+01  0.00000000E+00
  4.00000000E+02  3.40000000E+01  0.00000000E+00
  4.00000000E+02  3.20000000E+01  0.00000000E+00
  4.00000000E+02  3.00000000E+01  0.00000000E+00
  4.00000000E+02  2.80000000E+01  0.00000000E+00
  4.00000000E+02  2.60000000E+01  0.00000000E+00
  4.00000000E+02  2.40000000E+01  0.00000000E+00
  4.00000000E+02  2.20000000E+01  0.00000000E+00
  4.00000000E+02  2.00000000E+01  0.00000000E+00
  4.00000000E+02  1.80000000E+01  0.00000000E+00
  4.00000000E+02  1.60000000E+01  0.00000000E+00
  4.00000000E+02  1.40000000E+01  0.00000000E+00
  4.00000000E+02  1.20000000E+01  0.00000000E+00
  4.00000000E+02  1.00000000E+01  0.00000000E+00
  4.00000000E+02  8.00000000E+00  0.00000000E+00
  4.00000000E+02  6.00000000E+00  0.00000000E+00
  4.00000000E+02  4.00000000E+00  0.00000000E+00
  4.00000000E+02  2.00000000E+00  0.00000000E+00
  4.00000000E+02 -3.33066907E-14  0.00000000E+00
  4.10000000E+02  1.00000000E+02  0.00000000E+00
  4.10000000E+02  9.80000000E+01  0.00000000E+00
  4.10000000E+02  9.60000000E+01  0.00000000E+00
  4.10000000E+02  9.40000000E+01  0.00000000E+00
  4.10000000E+02  9.20000000E+01  0.00000000E+00
  4.10000000E+02  9.00000000E+01  0.00000000E+00
  4.10000000E+02  8.80000000E+01  0.00000000E+00
  4.10000000E+02  8.60000000E+01  0.00000000E+00
  4.10000000E+02  8.40000000E+01  0.00000000E+00
  4.10000000E+02  8.20000000E+01  0.00000000E+00
  4.10000000E+02  8.00000000E+01  0.00000000E+00
  4.10000000E+02  7.80000000E+01  0.00000000E+00
  4.10000000E+02  7.60000000E+01  0.00000000E+00
  4.10000000E+02  7.40000000E+01  0.00000000E+00
  4.10000000E+02  7.20000000E+01  0.00000000E+00
  4.10000000E+02  7.00000000E+01  0.00000000E+00
  4.10000000E+02  6.80000000E+01  0.00000000E+00
  4.10000000E+02  6.60000000E+01  0.00000000E+00
  4.10000000E+02  6.40000000E+01  0.00000000E+00
  4.10000000E+02  6.20000000E+01  0.00000000E+00
  4.10000000E+02  6.00000000E+01  0.00000000E+00
  4.10000000E+02  5.80000000E+01  0.00000000E+00
  4.10000000E+02  5.60000000E+01  0.00000000E+00
  4.10000000E+02  5.40000000E+01  0.00000000E+00
  4.10000000E+02  5.20000000E+01  0.00000000E+00
  4.10000000E+02  5.00000000E+01  0.00000000E+00
  4.10000000E+02  4.80000000E+01  0.00000000E+00
  4.10000000E+02  4.60000000E+01  0.00000000E+00
  4.10000000E+02  4.40000000E+01  0.00000000E+00
  4.10000000E+02  4.20000000E+01  0.00000000E+00
  4.10000000E+02  4.00000000E+01  0.00000000E+00
  4.10000000E+02  3.80000000E+01  0.00000000E+00
  4.10000000E+02  3.60000000E+01  0.00000000E+00
  4.10000000E+02  3.40000000E+01  0.00000000E+00
  4.10000000E+02  3.20000000E+01  0.00000000E+00
  4.10000000E+02  3.00000000E+01  0.00000000E+00
  4.10000000E+02  2.80000000E+01  0.00000000E+00
  4.10000000E+02  2.60000000E+01  0.00000000E+00
  4.10000000E+02  2.40000000E+01  0.00000000E+00
  4.10000000E+02  2.20000000E+01  0.00000000E+00
  4.10000000E+02  2.00000000E+01  0.00000000E+00
  4.10000000E+02  1.80000000E+01  0.00000000E+00
  4.10000000E+02  1.60000000E+01  0.00000000E+00
  4.10000000E+02  1.40000000E+01  0.00000000E+00
  4.10000000E+02  1.20000000E+01  0.00000000E+00
  4.10000000E+02  1.00000000E+01  0.00000000E+00
  4.10000000E+02  8.00000000E+00  0.00000000E+00
  4.10000000E+02  6.00000000E+00  0.00000000E+00
  4.10000000E+02  4.00000000E+00  0.00000000E+00
  4.10000000E+02  2.00000000E+00  0.00000000E+00
  4.10000000E+02 -3.33066907E-14  0.00000000E+00
  4.20000000E+02  1.00000000E+02  0.00000000E+00
  4.20000000E+02  9.80000000E+01  0.00000000E+00
  4.20000000E+02  9.60000000E+01  0.00000000E+00
  4.20000000E+02  9.40000000E+01  0.00000000E+00
  4.20000000E+02  9.20000000E+01  0.00000000E+00
  4.20000000E+02  9.00000000E+01  0.00000000E+00
  4.20000000E+02  8.80000000E+01  0.00000000E+00
  4.20000000E+02  8.60000000E+01  0.00000000E+00
  4.20000000E+02  8.40000000E+01  0.00000000E+00
  4.20000000E+02  8.20000000E+01  0.00000000E+00
  4.20000000E+02  8.00000000E+01  0.00000000E+00
  4.20000000E+02  7.80000000E+01  0.00000000E+00
  4.20000000E+02  7.60000000E+01  0.00000000E+00
  4.20000000E+02  7.40000000E+01  0.00000000E+00
  4.20000000E+02  7.20000000E+01  0.00000000E+00
  4.20000000E+02  7.00000000E+01  0.00000000E+00
  4.20000000E+02  6.80000000E+01  0.00000000E+00
  4.20000000E+02  6.60000000E+01  0.00000000E+00
  4.20000000E+02  6.40000000E+01  0.00000000E+00
  4.20000000E+02  6.20000000E+01  0.00000000E+00
  4.20000000E+02  6.00000000E+01  0.00000000E+00
  4.20000000E+02  5.80000000E+01  0.00000000E+00
  4.20000000E+02  5.60000000E+01  0.00000000E+00
  4.20000000E+02  5.40000000E+01  0.00000000E+00
  4.20000000E+02  5.20000000E+01  0.00000000E+00
  4.20000000E+02  5.00000000E+01  0.00000000E+00
  4.20000000E+02  4.80000000E+01  0.00000000E+00
  4.20000000E+02  4.60000000E+01  0.00000000E+00
  4.20000000E+02  4.40000000E+01  0.00000000E+00
  4.20000000E+02  4.20000000E+01  0.00000000E+00
  4.20000000E+02  4.00000000E+01  0.00000000E+00
  4.20000000E+02  3.80000000E+01  0.00000000E+00
  4.20000000E+02  3.60000000E+01  0.00000000E+00
  4.20000000E+02  3.40000000E+01  0.00000000E+00
  4.20000000E+02  3.20000000E+01  0.00000000E+00
  4.20000000E+02  3.00000000E+01  0.00000000E+00
  4.20000000E+02  2.80000000E+01  0.00000000E+00
  4.20000000E+02  2.60000000E+01  0.00000000E+00
  4.20000000E+02  2.40000000E+01  0.00000000E+00
  4.20000000E+02  2.20000000E+01  0.00000000E+00
  4.20000000E+02  2.00000000E+01  0.00000000E+00
  4.20000000E+02  1.80000000E+01  0.00000000E+00
  4.20000000E+02  1.60000000E+01  0.00000000E+00
  4.20000000E+02  1.40000000E+01  0.00000000E+00
  4.20000000E+02  1.20000000E+01  0.00000000E+00
  4.20000000E+02  1.00000000E+01  0.00000000E+00
  4.20000000E+02  8.00000000E+00  0.00000000E+00
  4.20000000E+02  6.00000000E+00  0.00000000E+00
  4.20000000E+02  4.00000000E+00  0.00000000E+00
  4.20000000E+02  2.00000000E+00  0.00000000E+00
  4.20000000E+02 -3.33066907E-14  0.00000000E+00
  4.30000000E+02  1.00000000E+02  0.00000000E+00
  4.30000000E+02  9.80000000E+01  0.00000000E+00
  4.30000000E+02  9.60000000E+01  0.00000000E+00
  4.30000000E+02  9.40000000E+01  0.00000000E+00
  4.30000000E+02  9.20000000E+01  0.00000000E+00
  4.30000000E+02  9.00000000E+01  0.00000000E+00
  4.30000000E+02  8.80000000E+01  0.00000000E+00
  4.30000000E+02  8.60000000E+01  0.00000000E+00
  4.30000000E+02  8.40000000E+01  0.00000000E+00
  4.30000000E+02  8.20000000E+01  0.00000000E+00
  4.30000000E+02  8.00000000E+01  0.00000000E+00
  4.30000000E+02  7.80000000E+01  0.00000000E+00
  4.30000000E+02  7.60000000E+01  0.00000000E+00
  4.30000000E+02  7.40000000E+01  0.00000000E+00
  4.30000000E+02  7.20000000E+01  0.00000000E+00
  4.30000000E+02  7.00000000E+01  0.00000000E+00
  4.30000000E+02  6.80000000E+01  0.00000000E+00
  4.30000000E+02  6.60000000E+01  0.00000000E+00
  4.30000000E+02  6.40000000E+01  0.00000000E+00
  4.30000000E+02  6.20000000E+01  0.00000000E+00
  4.30000000E+02  6.00000000E+01  0.00000000E+00
  4.30000000E+02  5.80000000E+01  0.00000000E+00
  4.30000000E+02  5.60000000E+01  0.00000000E+00
  4.30000000E+02  5.40000000E+01  0.00000000E+00
  4.30000000E+02  5.20000000E+01  0.00000000E+00
  4.30000000E+02  5.00000000E+01  0.00000000E+00
  4.30000000E+02  4.80000000E+01  0.00000000E+00
  4.30000000E+02  4.60000000E+01  0.00000000E+00
  4.30000000E+02  4.40000000E+01  0.00000000E+00
  4.30000000E+02  4.20000000E+01  0.00000000E+00
  4.30000000E+02  4.00000000E+01  0.00000000E+00
  4.30000000E+02  3.80000000E+01  0.00000000E+00
  4.30000000E+02  3.60000000E+01  0.00000000E+00
  4.30000000E+02  3.40000000E+01  0.00000000E+00
  4.30000000E+02  3.20000000E+01  0.00000000E+00
  4.30000000E+02  3.00000000E+01  0.00000000E+00
  4.30000000E+02  2.80000000E+01  0.00000000E+00
  4.30000000E+02  2.60000000E+01  0.00000000E+00
  4.30000000E+02  2.40000000E+01  0.00000000E+00
  4.30000000E+02  2.20000000E+01  0.00000000E+00
  4.30000000E+02  2.00000000E+01  0.00000000E+00
  4.30000000E+02  1.80000000E+01  0.00000000E+00
  4.30000000E+02  1.60000000E+01  0.00000000E+00
  4.30000000E+02  1.40000000E+01  0.00000000E+00
  4.30000000E+02  1.20000000E+01  0.00000000E+00
  4.30000000E+02  1.00000000E+01  0.00000000E+00
  4.30000000E+02  8.00000000E+00  0.00000000E+00
  4.30000000E+02  6.00000000E+00  0.00000000E+00
  4.30000000E+02  4.00000000E+00  0.00000000E+00
  4.30000000E+02  2.00000000E+00  0.00000000E+00
  4.30000000E+02 -3.33066907E-14  0.00000000E+00
  4.40000000E+02  1.00000000E+02  0.00000000E+00
  4.40000000E+02  9.80000000E+01  0.00000000E+00
  4.40000000E+02  9.60000000E+01  0.00000000E+00
  4.40000000E+02  9.40000000E+01  0.00000000E+00
  4.40000000E+02  9.20000000E+01  0.00000000E+00
  4.40000000E+02  9.00000000E+01  0.00000000E+00
  4.40000000E+02  8.80000000E+01  0.00000000E+00
  4.40000000E+02  8.60000000E+01  0.00000000E+00
  4.40000000E+02  8.40000000E+01  0.00000000E+00
  4.40000000E+02  8.20000000E+01  0.00000000E+00
  4.40000000E+02  8.00000000E+01  0.00000000E+00
  4.40000000E+02  7.80000000E+01  0.00000000E+00
  4.40000000E+02  7.60000000E+01  0.00000000E+00
  4.40000000E+02  7.40000000E+01  0.00000000E+00
  4.40000000E+02  7.20000000E+01  0.00000000E+00
  4.40000000E+02  7.00000000E+01  0.00000000E+00
  4.40000000E+02  6.80000000E+01  0.00000000E+00
  4.40000000E+02  6.60000000E+01  0.00000000E+00
  4.40000000E+02  6.40000000E+01  0.00000000E+00
  4.40000000E+02  6.20000000E+01  0.00000000E+00
  4.40000000E+02  6.00000000E+01  0.00000000E+00
  4.40000000E+02  5.80000000E+01  0.00000000E+00
  4.40000000E+02  5.60000000E+01  0.00000000E+00
  4.40000000E+02  5.40000000E+01  0.00000000E+00
  4.40000000E+02  5.20000000E+01  0.00000000E+00
  4.40000000E+02  5.00000000E+01  0.00000000E+00
  4.40000000E+02  4.80000000E+01  0.00000000E+00
  4.40000000E+02  4.60000000E+01  0.00000000E+00
  4.40000000E+02  4.40000000E+01  0.00000000E+00
  4.40000000E+02  4.20000000E+01  0.00000000E+00
  4.40000000E+02  4.00000000E+01  0.00000000E+00
  4.40000000E+02  3.80000000E+01  0.00000000E+00
  4.40000000E+02  3.60000000E+01  0.00000000E+00
  4.40000000E+02  3.40000000E+01  0.00000000E+00
  4.40000000E+02  3.20000000E+01  0.00000000E+00
  4.40000000E+02  3.00000000E+01  0.00000000E+00
  4.40000000E+02  2.80000000E+01  0.00000000E+00
  4.40000000E+02  2.60000000E+01  0.00000000E+00
  4.40000000E+02  2.40000000E+01  0.00000000E+00
  4.40000000E+02  2.20000000E+01  0.00000000E+00
  4.40000000E+02  2.00000000E+01  0.00000000E+00
  4.40000000E+02  1.80000000E+01  0.00000000E+00
  4.40000000E+02  1.60000000E+01  0.00000000E+00
  4.40000000E+02  1.40000000E+01  0.00000000E+00
  4.40000000E+02  1.20000000E+01  0.00000000E+00
  4.40000000E+02  1.00000000E+01  0.00000000E+00
  4.40000000E+02  8.00000000E+00  0.00000000E+00
  4.40000000E+02  6.00000000E+00  0.00000000E+00
  4.40000000E+02  4.00000000E+00  0.00000000E+00
  4.40000000E+02  2.00000000E+00  0.00000000E+00
  4.40000000E+02 -3.33066907E-14  0.00000000E+00
  4.50000000E+02  1.00000000E+02  0.00000000E+00
  4.50000000E+02  9.80000000E+01  0.00000000E+00
  4.50000000E+02  9.60000000E+01  0.00000000E+00
  4.50000000E+02  9.40000000E+01  0.00000000E+00
  4.50000000E+02  9.20000000E+01  0.00000000E+00
  4.50000000E+02  9.00000000E+01  0.00000000E+00
  4.50000000E+02  8.80000000E+01  0.00000000E+00
  4.50000000E+02  8.60000000E+01  0.00000000E+00
  4.50000000E+02  8.40000000E+01  0.00000000E+00
  4.50000000E+02  8.20000000E+01  0.00000000E+00
  4.50000000E+02  8.00000000E+01  0.00000000E+00
  4.50000000E+02  7.80000000E+01  0.00000000E+00
  4.50000000E+02  7.60000000E+01  0.00000000E+00
  4.50000000E+02  7.40000000E+01  0.00000000E+00
  4.50000000E+02  7.20000000E+01  0.00000000E+00
  4.50000000E+02  7.00000000E+01  0.00000000E+00
  4.50000000E+02  6.80000000E+01  0.00000000E+00
  4.50000000E+02  6.60000000E+01  0.00000000E+00
  4.50000000E+02  6.40000000E+01  0.00000000E+00
  4.50000000E+02  6.20000000E+01  0.00000000E+00
  4.50000000E+02  6.00000000E+01  0.00000000E+00
  4.50000000E+02  5.80000000E+01  0.00000000E+00
  4.50000000E+02  5.60000000E+01  0.00000000E+00
  4.50000000E+02  5.40000000E+01  0.00000000E+00
  4.50000000E+02  5.20000000E+01  0.00000000E+00
  4.50000000E+02  5.00000000E+01  0.00000000E+00
  4.50000000E+02  4.80000000E+01  0.00000000E+00
  4.50000000E+02  4.60000000E+01  0.00000000E+00
  4.50000000E+02  4.40000000E+01  0.00000000E+00
  4.50000000E+02  4.20000000E+01  0.00000000E+00
  4.50000000E+02  4.00000000E+01  0.00000000E+00
  4.50000000E+02  3.80000000E+01  0.00000000E+00
  4.50000000E+02  3.60000000E+01  0.00000000E+00
  4.50000000E+02  3.40000000E+01  0.00000000E+00
  4.50000000E+02  3.20000000E+01  0.00000000E+00
  4.50000000E+02  3.00000000E+01  0.00000000E+00
  4.50000000E+02  2.80000000E+01  0.00000000E+00
  4.50000000E+02  2.60000000E+01  0.00000000E+00
  4.50000000E+02  2.40000000E+01  0.00000000E+00
  4.50000000E+02  2.20000000E+01  0.00000000E+00
  4.50000000E+02  2.00000000E+01  0.00000000E+00
  4.50000000E+02  1.80000000E+01  0.00000000E+00
  4.50000000E+02  1.60000000E+01  0.00000000E+00
  4.50000000E+02  1.40000000E+01  0.00000000E+00
  4.50000000E+02  1.20000000E+01  0.00000000E+00
  4.50000000E+02  1.00000000E+01  0.00000000E+00
  4.50000000E+02  8.00000000E+00  0.00000000E+00
  4.50000000E+02  6.00000000E+00  0.00000000E+00
  4.50000000E+02  4.00000000E+00  0.00000000E+00
  4.50000000E+02  2.00000000E+00  0.00000000E+00
  4.50000000E+02 -3.33066907E-14  0.00000000E+00
  4.60000000E+02  1.00000000E+02  0.00000000E+00
  4.60000000E+02  9.80000000E+01  0.00000000E+00
  4.60000000E+02  9.60000000E+01  0.00000000E+00
  4.60000000E+02  9.40000000E+01  0.00000000E+00
  4.60000000E+02  9.20000000E+01  0.00000000E+00
  4.60000000E+02  9.00000000E+01  0.00000000E+00
  4.60000000E+02  8.80000000E+01  0.00000000E+00
  4.60000000E+02  8.60000000E+01  0.00000000E+00
  4.60000000E+02  8.40000000E+01  0.00000000E+00
  4.60000000E+02  8.20000000E+01  0.00000000E+00
  4.60000000E+02  8.00000000E+01  0.00000000E+00
  4.60000000E+02  7.80000000E+01  0.00000000E+00
  4.60000000E+02  7.60000000E+01  0.00000000E+00
  4.60000000E+02  7.40000000E+01  0.00000000E+00
  4.60000000E+02  7.20000000E+01  0.00000000E+00
  4.60000000E+02  7.00000000E+01  0.00000000E+00
  4.60000000E+02  6.80000000E+01  0.00000000E+00
  4.60000000E+02  6.60000000E+01  0.00000000E+00
  4.60000000E+02  6.40000000E+01  0.00000000E+00
  4.60000000E+02  6.20000000E+01  0.00000000E+00
  4.60000000E+02  6.00000000E+01  0.00000000E+00
  4.60000000E+02  5.80000000E+01  0.00000000E+00
  4.60000000E+02  5.60000000E+01  0.00000000E+00
  4.60000000E+02  5.40000000E+01  0.00000000E+00
  4.60000000E+02  5.20000000E+01  0.00000000E+00
  4.60000000E+02  5.00000000E+01  0.00000000E+00
  4.60000000E+02  4.80000000E+01  0.00000000E+00
  4.60000000E+02  4.60000000E+01  0.00000000E+00
  4.60000000E+02  4.40000000E+01  0.00000000E+00
  4.60000000E+02  4.20000000E+01  0.00000000E+00
  4.60000000E+02  4.00000000E+01  0.00000000E+00
  4.60000000E+02  3.80000000E+01  0.00000000E+00
  4.60000000E+02  3.60000000E+01  0.00000000E+00
  4.60000000E+02  3.40000000E+01  0.00000000E+00
  4.60000000E+02  3.20000000E+01  0.00000000E+00
  4.60000000E+02  3.00000000E+01  0.00000000E+00
  4.60000000E+02  2.80000000E+01  0.00000000E+00
  4.60000000E+02  2.60000000E+01  0.00000000E+00
  4.60000000E+02  2.40000000E+01  0.00000000E+00
  4.60000000E+02  2.20000000E+01  0.00000000E+00
  4.60000000E+02  2.00000000E+01  0.00000000E+00
  4.60000000E+02  1.80000000E+01  0.00000000E+00
  4.60000000E+02  1.60000000E+01  0.00000000E+00
  4.60000000E+02  1.40000000E+01  0.00000000E+00
  4.60000000E+02  1.20000000E+01  0.00000000E+00
  4.60000000E+02  1.00000000E+01  0.00000000E+00
  4.60000000E+02  8.00000000E+00  0.00000000E+00
  4.60000000E+02  6.00000000E+00  0.00000000E+00
  4.60000000E+02  4.00000000E+00  0.00000000E+00
  4.60000000E+02  2.00000000E+00  0.00000000E+00
  4.60000000E+02 -3.33066907E-14  0.00000000E+00
  4.70000000E+02  1.00000000E+02  0.00000000E+00
  4.70000000E+02  9.80000000E+01  0.00000000E+00
  4.70000000E+02  9.60000000E+01  0.00000000E+00
  4.70000000E+02  9.40000000E+01  0.00000000E+00
  4.70000000E+02  9.20000000E+01  0.00000000E+00
  4.70000000E+02  9.00000000E+01  0.00000000E+00
  4.70000000E+02  8.80000000E+01  0.00000000E+00
  4.70000000E+02  8.60000000E+01  0.00000000E+00
  4.70000000E+02  8.40000000E+01  0.00000000E+00
  4.70000000E+02  8.20000000E+01  0.00000000E+00
  4.70000000E+02  8.00000000E+01  0.00000000E+00
  4.70000000E+02  7.80000000E+01  0.00000000E+00
  4.70000000E+02  7.60000000E+01  0.00000000E+00
  4.70000000E+02  7.40000000E+01  0.00000000E+00
  4.70000000E+02  7.20000000E+01  0.00000000E+00
  4.70000000E+02  7.00000000E+01  0.00000000E+00
  4.70000000E+02  6.80000000E+01  0.00000000E+00
  4.70000000E+02  6.60000000E+01  0.00000000E+00
  4.70000000E+02  6.40000000E+01  0.00000000E+00
  4.70000000E+02  6.20000000E+01  0.00000000E+00
  4.70000000E+02  6.00000000E+01  0.00000000E+00
  4.70000000E+02  5.80000000E+01  0.00000000E+00
  4.70000000E+02  5.60000000E+01  0.00000000E+00
  4.70000000E+02  5.40000000E+01  0.00000000E+00
  4.70000000E+02  5.20000000E+01  0.00000000E+00
  4.70000000E+02  5.00000000E+01  0.00000000E+00
  4.70000000E+02  4.80000000E+01  0.00000000E+00
  4.70000000E+02  4.60000000E+01  0.00000000E+00
  4.70000000E+02  4.40000000E+01  0.00000000E+00
  4.70000000E+02  4.20000000E+01  0.00000000E+00
  4.70000000E+02  4.00000000E+01  0.00000000E+00
  4.70000000E+02  3.80000000E+01  0.00000000E+00
  4.70000000E+02  3.60000000E+01  0.00000000E+00
  4.70000000E+02  3.40000000E+01  0.00000000E+00
  4.70000000E+02  3.20000000E+01  0.00000000E+00
  4.70000000E+02  3.00000000E+01  0.00000000E+00
  4.70000000E+02  2.80000000E+01  0.00000000E+00
  4.70000000E+02  2.60000000E+01  0.00000000E+00
  4.70000000E+02  2.40000000E+01  0.00000000E+00
  4.70000000E+02  2.20000000E+01  0.00000000E+00
  4.70000000E+02  2.00000000E+01  0.00000000E+00
  4.70000000E+02  1.80000000E+01  0.00000000E+00
  4.70000000E+02  1.60000000E+01  0.00000000E+00
  4.70000000E+02  1.40000000E+01  0.00000000E+00
  4.70000000E+02  1.20000000E+01  0.00000000E+00
  4.70000000E+02  1.00000000E+01  0.00000000E+00
  4.70000000E+02  8.00000000E+00  0.00000000E+00
  4.70000000E+02  6.00000000E+00  0.00000000E+00
  4.70000000E+02  4.00000000E+00  0.00000000E+00
  4.70000000E+02  2.00000000E+00  0.00000000E+00
  4.70000000E+02 -3.33066907E-14  0.00000000E+00
  4.80000000E+02  1.00000000E+02  0.00000000E+00
  4.80000000E+02  9.80000000E+01  0.00000000E+00
  4.80000000E+02  9.60000000E+01  0.00000000E+00
  4.80000000E+02  9.40000000E+01  0.00000000E+00
  4.80000000E+02  9.20000000E+01  0.00000000E+00
  4.80000000E+02  9.00000000E+01  0.00000000E+00
  4.80000000E+02  8.80000000E+01  0.00000000E+00
  4.80000000E+02  8.60000000E+01  0.00000000E+00
  4.80000000E+02  8.40000000E+01  0.00000000E+00
  4.80000000E+02  8.20000000E+01  0.00000000E+00
  4.80000000E+02  8.00000000E+01  0.00000000E+00
  4.80000000E+02  7.80000000E+01  0.00000000E+00
  4.80000000E+02  7.60000000E+01  0.00000000E+00
  4.80000000E+02  7.40000000E+01  0.00000000E+00
  4.80000000E+02  7.20000000E+01  0.00000000E+00
  4.80000000E+02  7.00000000E+01  0.00000000E+00
  4.80000000E+02  6.80000000E+01  0.00000000E+00
  4.80000000E+02  6.60000000E+01  0.00000000E+00
  4.80000000E+02  6.40000000E+01  0.00000000E+00
  4.80000000E+02  6.20000000E+01  0.00000000E+00
  4.80000000E+02  6.00000000E+01  0.00000000E+00
  4.80000000E+02  5.80000000E+01  0.00000000E+00
  4.80000000E+02  5.60000000E+01  0.00000000E+00
  4.80000000E+02  5.40000000E+01  0.00000000E+00
  4.80000000E+02  5.20000000E+01  0.00000000E+00
  4.80000000E+02  5.00000000E+01  0.00000000E+00
  4.80000000E+02  4.80000000E+01  0.00000000E+00
  4.80000000E+02  4.60000000E+01  0.00000000E+00
  4.80000000E+02  4.40000000E+01  0.00000000E+00
  4.80000000E+02  4.20000000E+01  0.00000000E+00
  4.80000000E+02  4.00000000E+01  0.00000000E+00
  4.80000000E+02  3.80000000E+01  0.00000000E+00
  4.80000000E+02  3.60000000E+01  0.00000000E+00
  4.80000000E+02  3.40000000E+01  0.00000000E+00
  4.80000000E+02  3.20000000E+01  0.00000000E+00
  4.80000000E+02  3.00000000E+01  0.00000000E+00
  4.80000000E+02  2.80000000E+01  0.00000000E+00
  4.80000000E+02  2.60000000E+01  0.00000000E+00
  4.80000000E+02  2.40000000E+01  0.00000000E+00
  4.80000000E+02  2.20000000E+01  0.00000000E+00
  4.80000000E+02  2.00000000E+01  0.00000000E+00
  4.80000000E+02  1.80000000E+01  0.00000000E+00
  4.80000000E+02  1.60000000E+01  0.00000000E+00
  4.80000000E+02  1.40000000E+01  0.00000000E+00
  4.80000000E+02  1.20000000E+01  0.00000000E+00
  4.80000000E+02  1.00000000E+01  0.00000000E+00
  4.80000000E+02  8.00000000E+00  0.00000000E+00
  4.80000000E+02  6.00000000E+00  0.00000000E+00
  4.80000000E+02  4.00000000E+00  0.00000000E+00
  4.80000000E+02  2.00000000E+00  0.00000000E+00
  4.80000000E+02 -3.33066907E-14  0.00000000E+00
  4.90000000E+02  1.00000000E+02  0.00000000E+00
  4.90000000E+02  9.80000000E+01  0.00000000E+00
  4.90000000E+02  9.60000000E+01  0.00000000E+00
  4.90000000E+02  9.40000000E+01  0.00000000E+00
  4.90000000E+02  9.20000000E+01  0.00000000E+00
  4.90000000E+02  9.00000000E+01  0.00000000E+00
  4.90000000E+02  8.80000000E+01  0.00000000E+00
  4.90000000E+02  8.60000000E+01  0.00000000E+00
  4.90000000E+02  8.40000000E+01  0.00000000E+00
  4.90000000E+02  8.20000000E+01  0.00000000E+00
  4.90000000E+02  8.00000000E+01  0.00000000E+00
  4.90000000E+02  7.80000000E+01  0.00000000E+00
  4.90000000E+02  7.60000000E+01  0.00000000E+00
  4.90000000E+02  7.40000000E+01  0.00000000E+00
  4.90000000E+02  7.20000000E+01  0.00000000E+00
  4.90000000E+02  7.00000000E+01  0.00000000E+00
  4.90000000E+02  6.80000000E+01  0.00000000E+00
  4.90000000E+02  6.60000000E+01  0.00000000E+00
  4.90000000E+02  6.40000000E+01  0.00000000E+00
  4.90000000E+02  6.20000000E+01  0.00000000E+00
  4.90000000E+02  6.00000000E+01  0.00000000E+00
  4.90000000E+02  5.80000000E+01  0.00000000E+00
  4.90000000E+02  5.60000000E+01  0.00000000E+00
  4.90000000E+02  5.40000000E+01  0.00000000E+00
  4.90000000E+02  5.20000000E+01  0.00000000E+00
  4.90000000E+02  5.00000000E+01  0.00000000E+00
  4.90000000E+02  4.80000000E+01  0.00000000E+00
  4.90000000E+02  4.60000000E+01  0.00000000E+00
  4.90000000E+02  4.40000000E+01  0.00000000E+00
  4.90000000E+02  4.20000000E+01  0.00000000E+00
  4.90000000E+02  4.00000000E+01  0.00000000E+00
  4.90000000E+02  3.80000000E+01  0.00000000E+00
  4.90000000E+02  3.60000000E+01  0.00000000E+00
  4.90000000E+02  3.40000000E+01  0.00000000E+00
  4.90000000E+02  3.20000000E+01  0.00000000E+00
  4.90000000E+02  3.00000000E+01  0.00000000E+00
  4.90000000E+02  2.80000000E+01  0.00000000E+00
  4.90000000E+02  2.60000000E+01  0.00000000E+00
  4.90000000E+02  2.40000000E+01  0.00000000E+00
  4.90000000E+02  2.20000000E+01  0.00000000E+00
  4.90000000E+02  2.00000000E+01  0.00000000E+00
  4.90000000E+02  1.80000000E+01  0.00000000E+00
  4.90000000E+02  1.60000000E+01  0.00000000E+00
  4.90000000E+02  1.40000000E+01  0.00000000E+00
  4.90000000E+02  1.20000000E+01  0.00000000E+00
  4.90000000E+02  1.00000000E+01  0.00000000E+00
  4.90000000E+02  8.00000000E+00  0.00000000E+00
  4.90000000E+02  6.00000000E+00  0.00000000E+00
  4.90000000E+02  4.00000000E+00  0.00000000E+00
  4.90000000E+02  2.00000000E+00  0.00000000E+00
  4.90000000E+02 -3.33066907E-14  0.00000000E+00
  5.00000000E+02  1.00000000E+02  0.00000000E+00
  5.00000000E+02  9.80000000E+01  0.00000000E+00
  5.00000000E+02  9.60000000E+01  0.00000000E+00
  5.00000000E+02  9.40000000E+01  0.00000000E+00
  5.00000000E+02  9.20000000E+01  0.00000000E+00
  5.00000000E+02  9.00000000E+01  0.00000000E+00
  5.00000000E+02  8.80000000E+01  0.00000000E+00
  5.00000000E+02  8.60000000E+01  0.00000000E+00
  5.00000000E+02  8.40000000E+01  0.00000000E+00
  5.00000000E+02  8.20000000E+01  0.00000000E+00
  5.00000000E+02  8.00000000E+01  0.00000000E+00
  5.00000000E+02  7.80000000E+01  0.00000000E+00
  5.00000000E+02  7.60000000E+01  0.00000000E+00
  5.00000000E+02  7.40000000E+01  0.00000000E+00
  5.00000000E+02  7.20000000E+01  0.00000000E+00
  5.00000000E+02  7.00000000E+01  0.00000000E+00
  5.00000000E+02  6.80000000E+01  0.00000000E+00
  5.00000000E+02  6.60000000E+01  0.00000000E+00
  5.00000000E+02  6.40000000E+01  0.00000000E+00
  5.00000000E+02  6.20000000E+01  0.00000000E+00
  5.00000000E+02  6.00000000E+01  0.00000000E+00
  5.00000000E+02  5.80000000E+01  0.00000000E+00
  5.00000000E+02  5.60000000E+01  0.00000000E+00
  5.00000000E+02  5.40000000E+01  0.00000000E+00
  5.00000000E+02  5.20000000E+01  0.00000000E+00
  5.00000000E+02  5.00000000E+01  0.00000000E+00
  5.00000000E+02  4.80000000E+01  0.00000000E+00
  5.00000000E+02  4.60000000E+01  0.00000000E+00
  5.00000000E+02  4.40000000E+01  0.00000000E+00
  5.00000000E+02  4.20000000E+01  0.00000000E+00
  5.00000000E+02  4.00000000E+01  0.00000000E+00
  5.00000000E+02  3.80000000E+01  0.00000000E+00
  5.00000000E+02  3.60000000E+01  0.00000000E+00
  5.00000000E+02  3.40000000E+01  0.00000000E+00
  5.00000000E+02  3.20000000E+01  0.00000000E+00
  5.00000000E+02  3.00000000E+01  0.00000000E+00
  5.00000000E+02  2.80000000E+01  0.00000000E+00
  5.00000000E+02  2.60000000E+01  0.00000000E+00
  5.00000000E+02  2.40000000E+01  0.00000000E+00
  5.00000000E+02  2.20000000E+01  0.00000000E+00
  5.00000000E+02  2.00000000E+01  0.00000000E+00
  5.00000000E+02  1.80000000E+01  0.00000000E+00
  5.00000000E+02  1.60000000E+01  0.00000000E+00
  5.00000000E+02  1.40000000E+01  0.00000000E+00
  5.00000000E+02  1.20000000E+01  0.00000000E+00
  5.00000000E+02  1.00000000E+01  0.00000000E+00
  5.00000000E+02  8.00000000E+00  0.00000000E+00
  5.00000000E+02  6.00000000E+00  0.00000000E+00
  5.00000000E+02  4.00000000E+00  0.00000000E+00
  5.00000000E+02  2.00000000E+00  0.00000000E+00
  5.00000000E+02 -3.33066907E-14  0.00000000E+00
  5.10000000E+02  1.00000000E+02  0.00000000E+00
  5.10000000E+02  9.80000000E+01  0.00000000E+00
  5.10000000E+02  9.60000000E+01  0.00000000E+00
  5.10000000E+02  9.40000000E+01  0.00000000E+00
  5.10000000E+02  9.20000000E+01  0.00000000E+00
  5.10000000E+02  9.00000000E+01  0.00000000E+00
  5.10000000E+02  8.80000000E+01  0.00000000E+00
  5.10000000E+02  8.60000000E+01  0.00000000E+00
  5.10000000E+02  8.40000000E+01  0.00000000E+00
  5.10000000E+02  8.20000000E+01  0.00000000E+00
  5.10000000E+02  8.00000000E+01  0.00000000E+00
  5.10000000E+02  7.80000000E+01  0.00000000E+00
  5.10000000E+02  7.60000000E+01  0.00000000E+00
  5.10000000E+02  7.40000000E+01  0.00000000E+00
  5.10000000E+02  7.20000000E+01  0.00000000E+00
  5.10000000E+02  7.00000000E+01  0.00000000E+00
  5.10000000E+02  6.80000000E+01  0.00000000E+00
  5.10000000E+02  6.60000000E+01  0.00000000E+00
  5.10000000E+02  6.40000000E+01  0.00000000E+00
  5.10000000E+02  6.20000000E+01  0.00000000E+00
  5.10000000E+02  6.00000000E+01  0.00000000E+00
  5.10000000E+02  5.80000000E+01  0.00000000E+00
  5.10000000E+02  5.60000000E+01  0.00000000E+00
  5.10000000E+02  5.40000000E+01  0.00000000E+00
  5.10000000E+02  5.20000000E+01  0.00000000E+00
  5.10000000E+02  5.00000000E+01  0.00000000E+00
  5.10000000E+02  4.80000000E+01  0.00000000E+00
  5.10000000E+02  4.60000000E+01  0.00000000E+00
  5.10000000E+02  4.40000000E+01  0.00000000E+00
  5.10000000E+02  4.20000000E+01  0.00000000E+00
  5.10000000E+02  4.00000000E+01  0.00000000E+00
  5.10000000E+02  3.80000000E+01  0.00000000E+00
  5.10000000E+02  3.60000000E+01  0.00000000E+00
  5.10000000E+02  3.40000000E+01  0.00000000E+00
  5.10000000E+02  3.20000000E+01  0.00000000E+00
  5.10000000E+02  3.00000000E+01  0.00000000E+00
  5.10000000E+02  2.80000000E+01  0.00000000E+00
  5.10000000E+02  2.60000000E+01  0.00000000E+00
  5.10000000E+02  2.40000000E+01  0.00000000E+00
  5.10000000E+02  2.20000000E+01  0.00000000E+00
  5.10000000E+02  2.00000000E+01  0.00000000E+00
  5.10000000E+02  1.80000000E+01  0.00000000E+00
  5.10000000E+02  1.60000000E+01  0.00000000E+00
  5.10000000E+02  1.40000000E+01  0.00000000E+00
  5.10000000E+02  1.20000000E+01  0.00000000E+00
  5.10000000E+02  1.00000000E+01  0.00000000E+00
  5.10000000E+02  8.00000000E+00  0.00000000E+00
  5.10000000E+02  6.00000000E+00  0.00000000E+00
  5.10000000E+02  4.00000000E+00  0.00000000E+00
  5.10000000E+02  2.00000000E+00  0.00000000E+00
  5.10000000E+02 -3.33066907E-14  0.00000000E+00
  5.20000000E+02  1.00000000E+02  0.00000000E+00
  5.20000000E+02  9.80000000E+01  0.00000000E+00
  5.20000000E+02  9.60000000E+01  0.00000000E+00
  5.20000000E+02  9.40000000E+01  0.00000000E+00
  5.20000000E+02  9.20000000E+01  0.00000000E+00
  5.20000000E+02  9.00000000E+01  0.00000000E+00
  5.20000000E+02  8.80000000E+01  0.00000000E+00
  5.20000000E+02  8.60000000E+01  0.00000000E+00
  5.20000000E+02  8.40000000E+01  0.00000000E+00
  5.20000000E+02  8.20000000E+01  0.00000000E+00
  5.20000000E+02  8.00000000E+01  0.00000000E+00
  5.20000000E+02  7.80000000E+01  0.00000000E+00
  5.20000000E+02  7.60000000E+01  0.00000000E+00
  5.20000000E+02  7.40000000E+01  0.00000000E+00
  5.20000000E+02  7.20000000E+01  0.00000000E+00
  5.20000000E+02  7.00000000E+01  0.00000000E+00
  5.20000000E+02  6.80000000E+01  0.00000000E+00
  5.20000000E+02  6.60000000E+01  0.00000000E+00
  5.20000000E+02  6.40000000E+01  0.00000000E+00
  5.20000000E+02  6.20000000E+01  0.00000000E+00
  5.20000000E+02  6.00000000E+01  0.00000000E+00
  5.20000000E+02  5.80000000E+01  0.00000000E+00
  5.20000000E+02  5.60000000E+01  0.00000000E+00
  5.20000000E+02  5.40000000E+01  0.00000000E+00
  5.20000000E+02  5.20000000E+01  0.00000000E+00
  5.20000000E+02  5.00000000E+01  0.00000000E+00
  5.20000000E+02  4.80000000E+01  0.00000000E+00
  5.20000000E+02  4.60000000E+01  0.00000000E+00
  5.20000000E+02  4.40000000E+01  0.00000000E+00
  5.20000000E+02  4.20000000E+01  0.00000000E+00
  5.20000000E+02  4.00000000E+01  0.00000000E+00
  5.20000000E+02  3.80000000E+01  0.00000000E+00
  5.20000000E+02  3.60000000E+01  0.00000000E+00
  5.20000000E+02  3.40000000E+01  0.00000000E+00
  5.20000000E+02  3.20000000E+01  0.00000000E+00
  5.20000000E+02  3.00000000E+01  0.00000000E+00
  5.20000000E+02  2.80000000E+01  0.00000000E+00
  5.20000000E+02  2.60000000E+01  0.00000000E+00
  5.20000000E+02  2.40000000E+01  0.00000000E+00
  5.20000000E+02  2.20000000E+01  0.00000000E+00
  5.20000000E+02  2.00000000E+01  0.00000000E+00
  5.20000000E+02  1.80000000E+01  0.00000000E+00
  5.20000000E+02  1.60000000E+01  0.00000000E+00
  5.20000000E+02  1.40000000E+01  0.00000000E+00
  5.20000000E+02  1.20000000E+01  0.00000000E+00
  5.20000000E+02  1.00000000E+01  0.00000000E+00
  5.20000000E+02  8.00000000E+00  0.00000000E+00
  5.20000000E+02  6.00000000E+00  0.00000000E+00
  5.20000000E+02  4.00000000E+00  0.00000000E+00
  5.20000000E+02  2.00000000E+00  0.00000000E+00
  5.20000000E+02 -3.33066907E-14  0.00000000E+00
  5.30000000E+02  1.00000000E+02  0.00000000E+00
  5.30000000E+02  9.80000000E+01  0.00000000E+00
  5.30000000E+02  9.60000000E+01  0.00000000E+00
  5.30000000E+02  9.40000000E+01  0.00000000E+00
  5.30000000E+02  9.20000000E+01  0.00000000E+00
  5.30000000E+02  9.00000000E+01  0.00000000E+00
  5.30000000E+02  8.80000000E+01  0.00000000E+00
  5.30000000E+02  8.60000000E+01  0.00000000E+00
  5.30000000E+02  8.40000000E+01  0.00000000E+00
  5.30000000E+02  8.20000000E+01  0.00000000E+00
  5.30000000E+02  8.00000000E+01  0.00000000E+00
  5.30000000E+02  7.80000000E+01  0.00000000E+00
  5.30000000E+02  7.60000000E+01  0.00000000E+00
  5.30000000E+02  7.40000000E+01  0.00000000E+00
  5.30000000E+02  7.20000000E+01  0.00000000E+00
  5.30000000E+02  7.00000000E+01  0.00000000E+00
  5.30000000E+02  6.80000000E+01  0.00000000E+00
  5.30000000E+02  6.60000000E+01  0.00000000E+00
  5.30000000E+02  6.40000000E+01  0.00000000E+00
  5.30000000E+02  6.20000000E+01  0.00000000E+00
  5.30000000E+02  6.00000000E+01  0.00000000E+00
  5.30000000E+02  5.80000000E+01  0.00000000E+00
  5.30000000E+02  5.60000000E+01  0.00000000E+00
  5.30000000E+02  5.40000000E+01  0.00000000E+00
  5.30000000E+02  5.20000000E+01  0.00000000E+00
  5.30000000E+02  5.00000000E+01  0.00000000E+00
  5.30000000E+02  4.80000000E+01  0.00000000E+00
  5.30000000E+02  4.60000000E+01  0.00000000E+00
  5.30000000E+02  4.40000000E+01  0.00000000E+00
  5.30000000E+02  4.20000000E+01  0.00000000E+00
  5.30000000E+02  4.00000000E+01  0.00000000E+00
  5.30000000E+02  3.80000000E+01  0.00000000E+00
  5.30000000E+02  3.60000000E+01  0.00000000E+00
  5.30000000E+02  3.40000000E+01  0.00000000E+00
  5.30000000E+02  3.20000000E+01  0.00000000E+00
  5.30000000E+02  3.00000000E+01  0.00000000E+00
  5.30000000E+02  2.80000000E+01  0.00000000E+00
  5.30000000E+02  2.60000000E+01  0.00000000E+00
  5.30000000E+02  2.40000000E+01  0.00000000E+00
  5.30000000E+02  2.20000000E+01  0.00000000E+00
  5.30000000E+02  2.00000000E+01  0.00000000E+00
  5.30000000E+02  1.80000000E+01  0.00000000E+00
  5.30000000E+02  1.60000000E+01  0.00000000E+00
  5.30000000E+02  1.40000000E+01  0.00000000E+00
  5.30000000E+02  1.20000000E+01  0.00000000E+00
  5.30000000E+02  1.00000000E+01  0.00000000E+00
  5.30000000E+02  8.00000000E+00  0.00000000E+00
  5.30000000E+02  6.00000000E+00  0.00000000E+00
  5.30000000E+02  4.00000000E+00  0.00000000E+00
  5.30000000E+02  2.00000000E+00  0.00000000E+00
  5.30000000E+02 -3.33066907E-14  0.00000000E+00
  5.40000000E+02  1.00000000E+02  0.00000000E+00
  5.40000000E+02  9.80000000E+01  0.00000000E+00
  5.40000000E+02  9.60000000E+01  0.00000000E+00
  5.40000000E+02  9.40000000E+01  0.00000000E+00
  5.40000000E+02  9.20000000E+01  0.00000000E+00
  5.40000000E+02  9.00000000E+01  0.00000000E+00
  5.40000000E+02  8.80000000E+01  0.00000000E+00
  5.40000000E+02  8.60000000E+01  0.00000000E+00
  5.40000000E+02  8.40000000E+01  0.00000000E+00
  5.40000000E+02  8.20000000E+01  0.00000000E+00
  5.40000000E+02  8.00000000E+01  0.00000000E+00
  5.40000000E+02  7.80000000E+01  0.00000000E+00
  5.40000000E+02  7.60000000E+01  0.00000000E+00
  5.40000000E+02  7.40000000E+01  0.00000000E+00
  5.40000000E+02  7.20000000E+01  0.00000000E+00
  5.40000000E+02  7.00000000E+01  0.00000000E+00
  5.40000000E+02  6.80000000E+01  0.00000000E+00
  5.40000000E+02  6.60000000E+01  0.00000000E+00
  5.40000000E+02  6.40000000E+01  0.00000000E+00
  5.40000000E+02  6.20000000E+01  0.00000000E+00
  5.40000000E+02  6.00000000E+01  0.00000000E+00
  5.40000000E+02  5.80000000E+01  0.00000000E+00
  5.40000000E+02  5.60000000E+01  0.00000000E+00
  5.40000000E+02  5.40000000E+01  0.00000000E+00
  5.40000000E+02  5.20000000E+01  0.00000000E+00
  5.40000000E+02  5.00000000E+01  0.00000000E+00
  5.40000000E+02  4.80000000E+01  0.00000000E+00
  5.40000000E+02  4.60000000E+01  0.00000000E+00
  5.40000000E+02  4.40000000E+01  0.00000000E+00
  5.40000000E+02  4.20000000E+01  0.00000000E+00
  5.40000000E+02  4.00000000E+01  0.00000000E+00
  5.40000000E+02  3.80000000E+01  0.00000000E+00
  5.40000000E+02  3.60000000E+01  0.00000000E+00
  5.40000000E+02  3.40000000E+01  0.00000000E+00
  5.40000000E+02  3.20000000E+01  0.00000000E+00
  5.40000000E+02  3.00000000E+01  0.00000000E+00
  5.40000000E+02  2.80000000E+01  0.00000000E+00
  5.40000000E+02  2.60000000E+01  0.00000000E+00
  5.40000000E+02  2.40000000E+01  0.00000000E+00
  5.40000000E+02  2.20000000E+01  0.00000000E+00
  5.40000000E+02  2.00000000E+01  0.00000000E+00
  5.40000000E+02  1.80000000E+01  0.00000000E+00
  5.40000000E+02  1.60000000E+01  0.00000000E+00
  5.40000000E+02  1.40000000E+01  0.00000000E+00
  5.40000000E+02  1.20000000E+01  0.00000000E+00
  5.40000000E+02  1.00000000E+01  0.00000000E+00
  5.40000000E+02  8.00000000E+00  0.00000000E+00
  5.40000000E+02  6.00000000E+00  0.00000000E+00
  5.40000000E+02  4.00000000E+00  0.00000000E+00
  5.40000000E+02  2.00000000E+00  0.00000000E+00
  5.40000000E+02 -3.33066907E-14  0.00000000E+00
  5.50000000E+02  1.00000000E+02  0.00000000E+00
  5.50000000E+02  9.80000000E+01  0.00000000E+00
  5.50000000E+02  9.60000000E+01  0.00000000E+00
  5.50000000E+02  9.40000000E+01  0.00000000E+00
  5.50000000E+02  9.20000000E+01  0.00000000E+00
  5.50000000E+02  9.00000000E+01  0.00000000E+00
  5.50000000E+02  8.80000000E+01  0.00000000E+00
  5.50000000E+02  8.60000000E+01  0.00000000E+00
  5.50000000E+02  8.40000000E+01  0.00000000E+00
  5.50000000E+02  8.20000000E+01  0.00000000E+00
  5.50000000E+02  8.00000000E+01  0.00000000E+00
  5.50000000E+02  7.80000000E+01  0.00000000E+00
  5.50000000E+02  7.60000000E+01  0.00000000E+00
  5.50000000E+02  7.40000000E+01  0.00000000E+00
  5.50000000E+02  7.20000000E+01  0.00000000E+00
  5.50000000E+02  7.00000000E+01  0.00000000E+00
  5.50000000E+02  6.80000000E+01  0.00000000E+00
  5.50000000E+02  6.60000000E+01  0.00000000E+00
  5.50000000E+02  6.40000000E+01  0.00000000E+00
  5.50000000E+02  6.20000000E+01  0.00000000E+00
  5.50000000E+02  6.00000000E+01  0.00000000E+00
  5.50000000E+02  5.80000000E+01  0.00000000E+00
  5.50000000E+02  5.60000000E+01  0.00000000E+00
  5.50000000E+02  5.40000000E+01  0.00000000E+00
  5.50000000E+02  5.20000000E+01  0.00000000E+00
  5.50000000E+02  5.00000000E+01  0.00000000E+00
  5.50000000E+02  4.80000000E+01  0.00000000E+00
  5.50000000E+02  4.60000000E+01  0.00000000E+00
  5.50000000E+02  4.40000000E+01  0.00000000E+00
  5.50000000E+02  4.20000000E+01  0.00000000E+00
  5.50000000E+02  4.00000000E+01  0.00000000E+00
  5.50000000E+02  3.80000000E+01  0.00000000E+00
  5.50000000E+02  3.60000000E+01  0.00000000E+00
  5.50000000E+02  3.40000000E+01  0.00000000E+00
  5.50000000E+02  3.20000000E+01  0.00000000E+00
  5.50000000E+02  3.00000000E+01  0.00000000E+00
  5.50000000E+02  2.80000000E+01  0.00000000E+00
  5.50000000E+02  2.60000000E+01  0.00000000E+00
  5.50000000E+02  2.40000000E+01  0.00000000E+00
  5.50000000E+02  2.20000000E+01  0.00000000E+00
  5.50000000E+02  2.00000000E+01  0.00000000E+00
  5.50000000E+02  1.80000000E+01  0.00000000E+00
  5.50000000E+02  1.60000000E+01  0.00000000E+00
  5.50000000E+02  1.40000000E+01  0.00000000E+00
  5.50000000E+02  1.20000000E+01  0.00000000E+00
  5.50000000E+02  1.00000000E+01  0.00000000E+00
  5.50000000E+02  8.00000000E+00  0.00000000E+00
  5.50000000E+02  6.00000000E+00  0.00000000E+00
  5.50000000E+02  4.00000000E+00  0.00000000E+00
  5.50000000E+02  2.00000000E+00  0.00000000E+00
  5.50000000E+02 -3.33066907E-14  0.00000000E+00
  5.60000000E+02  1.00000000E+02  0.00000000E+00
  5.60000000E+02  9.80000000E+01  0.00000000E+00
  5.60000000E+02  9.60000000E+01  0.00000000E+00
  5.60000000E+02  9.40000000E+01  0.00000000E+00
  5.60000000E+02  9.20000000E+01  0.00000000E+00
  5.60000000E+02  9.00000000E+01  0.00000000E+00
  5.60000000E+02  8.80000000E+01  0.00000000E+00
  5.60000000E+02  8.60000000E+01  0.00000000E+00
  5.60000000E+02  8.40000000E+01  0.00000000E+00
  5.60000000E+02  8.20000000E+01  0.00000000E+00
  5.60000000E+02  8.00000000E+01  0.00000000E+00
  5.60000000E+02  7.80000000E+01  0.00000000E+00
  5.60000000E+02  7.60000000E+01  0.00000000E+00
  5.60000000E+02  7.40000000E+01  0.00000000E+00
  5.60000000E+02  7.20000000E+01  0.00000000E+00
  5.60000000E+02  7.00000000E+01  0.00000000E+00
  5.60000000E+02  6.80000000E+01  0.00000000E+00
  5.60000000E+02  6.60000000E+01  0.00000000E+00
  5.60000000E+02  6.40000000E+01  0.00000000E+00
  5.60000000E+02  6.20000000E+01  0.00000000E+00
  5.60000000E+02  6.00000000E+01  0.00000000E+00
  5.60000000E+02  5.80000000E+01  0.00000000E+00
  5.60000000E+02  5.60000000E+01  0.00000000E+00
  5.60000000E+02  5.40000000E+01  0.00000000E+00
  5.60000000E+02  5.20000000E+01  0.00000000E+00
  5.60000000E+02  5.00000000E+01  0.00000000E+00
  5.60000000E+02  4.80000000E+01  0.00000000E+00
  5.60000000E+02  4.60000000E+01  0.00000000E+00
  5.60000000E+02  4.40000000E+01  0.00000000E+00
  5.60000000E+02  4.20000000E+01  0.00000000E+00
  5.60000000E+02  4.00000000E+01  0.00000000E+00
  5.60000000E+02  3.80000000E+01  0.00000000E+00
  5.60000000E+02  3.60000000E+01  0.00000000E+00
  5.60000000E+02  3.40000000E+01  0.00000000E+00
  5.60000000E+02  3.20000000E+01  0.00000000E+00
  5.60000000E+02  3.00000000E+01  0.00000000E+00
  5.60000000E+02  2.80000000E+01  0.00000000E+00
  5.60000000E+02  2.60000000E+01  0.00000000E+00
  5.60000000E+02  2.40000000E+01  0.00000000E+00
  5.60000000E+02  2.20000000E+01  0.00000000E+00
  5.60000000E+02  2.00000000E+01  0.00000000E+00
  5.60000000E+02  1.80000000E+01  0.00000000E+00
  5.60000000E+02  1.60000000E+01  0.00000000E+00
  5.60000000E+02  1.40000000E+01  0.00000000E+00
  5.60000000E+02  1.20000000E+01  0.00000000E+00
  5.60000000E+02  1.00000000E+01  0.00000000E+00
  5.60000000E+02  8.00000000E+00  0.00000000E+00
  5.60000000E+02  6.00000000E+00  0.00000000E+00
  5.60000000E+02  4.00000000E+00  0.00000000E+00
  5.60000000E+02  2.00000000E+00  0.00000000E+00
  5.60000000E+02 -3.33066907E-14  0.00000000E+00
  5.70000000E+02  1.00000000E+02  0.00000000E+00
  5.70000000E+02  9.80000000E+01  0.00000000E+00
  5.70000000E+02  9.60000000E+01  0.00000000E+00
  5.70000000E+02  9.40000000E+01  0.00000000E+00
  5.70000000E+02  9.20000000E+01  0.00000000E+00
  5.70000000E+02  9.00000000E+01  0.00000000E+00
  5.70000000E+02  8.80000000E+01  0.00000000E+00
  5.70000000E+02  8.60000000E+01  0.00000000E+00
  5.70000000E+02  8.40000000E+01  0.00000000E+00
  5.70000000E+02  8.20000000E+01  0.00000000E+00
  5.70000000E+02  8.00000000E+01  0.00000000E+00
  5.70000000E+02  7.80000000E+01  0.00000000E+00
  5.70000000E+02  7.60000000E+01  0.00000000E+00
  5.70000000E+02  7.40000000E+01  0.00000000E+00
  5.70000000E+02  7.20000000E+01  0.00000000E+00
  5.70000000E+02  7.00000000E+01  0.00000000E+00
  5.70000000E+02  6.80000000E+01  0.00000000E+00
  5.70000000E+02  6.60000000E+01  0.00000000E+00
  5.70000000E+02  6.40000000E+01  0.00000000E+00
  5.70000000E+02  6.20000000E+01  0.00000000E+00
  5.70000000E+02  6.00000000E+01  0.00000000E+00
  5.70000000E+02  5.80000000E+01  0.00000000E+00
  5.70000000E+02  5.60000000E+01  0.00000000E+00
  5.70000000E+02  5.40000000E+01  0.00000000E+00
  5.70000000E+02  5.20000000E+01  0.00000000E+00
  5.70000000E+02  5.00000000E+01  0.00000000E+00
  5.70000000E+02  4.80000000E+01  0.00000000E+00
  5.70000000E+02  4.60000000E+01  0.00000000E+00
  5.70000000E+02  4.40000000E+01  0.00000000E+00
  5.70000000E+02  4.20000000E+01  0.00000000E+00
  5.70000000E+02  4.00000000E+01  0.00000000E+00
  5.70000000E+02  3.80000000E+01  0.00000000E+00
  5.70000000E+02  3.60000000E+01  0.00000000E+00
  5.70000000E+02  3.40000000E+01  0.00000000E+00
  5.70000000E+02  3.20000000E+01  0.00000000E+00
  5.70000000E+02  3.00000000E+01  0.00000000E+00
  5.70000000E+02  2.80000000E+01  0.00000000E+00
  5.70000000E+02  2.60000000E+01  0.00000000E+00
  5.70000000E+02  2.40000000E+01  0.00000000E+00
  5.70000000E+02  2.20000000E+01  0.00000000E+00
  5.70000000E+02  2.00000000E+01  0.00000000E+00
  5.70000000E+02  1.80000000E+01  0.00000000E+00
  5.70000000E+02  1.60000000E+01  0.00000000E+00
  5.70000000E+02  1.40000000E+01  0.00000000E+00
  5.70000000E+02  1.20000000E+01  0.00000000E+00
  5.70000000E+02  1.00000000E+01  0.00000000E+00
  5.70000000E+02  8.00000000E+00  0.00000000E+00
  5.70000000E+02  6.00000000E+00  0.00000000E+00
  5.70000000E+02  4.00000000E+00  0.00000000E+00
  5.70000000E+02  2.00000000E+00  0.00000000E+00
  5.70000000E+02 -3.33066907E-14  0.00000000E+00
  5.80000000E+02  1.00000000E+02  0.00000000E+00
  5.80000000E+02  9.80000000E+01  0.00000000E+00
  5.80000000E+02  9.60000000E+01  0.00000000E+00
  5.80000000E+02  9.40000000E+01  0.00000000E+00
  5.80000000E+02  9.20000000E+01  0.00000000E+00
  5.80000000E+02  9.00000000E+01  0.00000000E+00
  5.80000000E+02  8.80000000E+01  0.00000000E+00
  5.80000000E+02  8.60000000E+01  0.00000000E+00
  5.80000000E+02  8.40000000E+01  0.00000000E+00
  5.80000000E+02  8.20000000E+01  0.00000000E+00
  5.80000000E+02  8.00000000E+01  0.00000000E+00
  5.80000000E+02  7.80000000E+01  0.00000000E+00
  5.80000000E+02  7.60000000E+01  0.00000000E+00
  5.80000000E+02  7.40000000E+01  0.00000000E+00
  5.80000000E+02  7.20000000E+01  0.00000000E+00
  5.80000000E+02  7.00000000E+01  0.00000000E+00
  5.80000000E+02  6.80000000E+01  0.00000000E+00
  5.80000000E+02  6.60000000E+01  0.00000000E+00
  5.80000000E+02  6.40000000E+01  0.00000000E+00
  5.80000000E+02  6.20000000E+01  0.00000000E+00
  5.80000000E+02  6.00000000E+01  0.00000000E+00
  5.80000000E+02  5.80000000E+01  0.00000000E+00
  5.80000000E+02  5.60000000E+01  0.00000000E+00
  5.80000000E+02  5.40000000E+01  0.00000000E+00
  5.80000000E+02  5.20000000E+01  0.00000000E+00
  5.80000000E+02  5.00000000E+01  0.00000000E+00
  5.80000000E+02  4.80000000E+01  0.00000000E+00
  5.80000000E+02  4.60000000E+01  0.00000000E+00
  5.80000000E+02  4.40000000E+01  0.00000000E+00
  5.80000000E+02  4.20000000E+01  0.00000000E+00
  5.80000000E+02  4.00000000E+01  0.00000000E+00
  5.80000000E+02  3.80000000E+01  0.00000000E+00
  5.80000000E+02  3.60000000E+01  0.00000000E+00
  5.80000000E+02  3.40000000E+01  0.00000000E+00
  5.80000000E+02  3.20000000E+01  0.00000000E+00
  5.80000000E+02  3.00000000E+01  0.00000000E+00
  5.80000000E+02  2.80000000E+01  0.00000000E+00
  5.80000000E+02  2.60000000E+01  0.00000000E+00
  5.80000000E+02  2.40000000E+01  0.00000000E+00
  5.80000000E+02  2.20000000E+01  0.00000000E+00
  5.80000000E+02  2.00000000E+01  0.00000000E+00
  5.80000000E+02  1.80000000E+01  0.00000000E+00
  5.80000000E+02  1.60000000E+01  0.00000000E+00
  5.80000000E+02  1.40000000E+01  0.00000000E+00
  5.80000000E+02  1.20000000E+01  0.00000000E+00
  5.80000000E+02  1.00000000E+01  0.00000000E+00
  5.80000000E+02  8.00000000E+00  0.00000000E+00
  5.80000000E+02  6.00000000E+00  0.00000000E+00
  5.80000000E+02  4.00000000E+00  0.00000000E+00
  5.80000000E+02  2.00000000E+00  0.00000000E+00
  5.80000000E+02 -3.33066907E-14  0.00000000E+00
  5.90000000E+02  1.00000000E+02  0.00000000E+00
  5.90000000E+02  9.80000000E+01  0.00000000E+00
  5.90000000E+02  9.60000000E+01  0.00000000E+00
  5.90000000E+02  9.40000000E+01  0.00000000E+00
  5.90000000E+02  9.20000000E+01  0.00000000E+00
  5.90000000E+02  9.00000000E+01  0.00000000E+00
  5.90000000E+02  8.80000000E+01  0.00000000E+00
  5.90000000E+02  8.60000000E+01  0.00000000E+00
  5.90000000E+02  8.40000000E+01  0.00000000E+00
  5.90000000E+02  8.20000000E+01  0.00000000E+00
  5.90000000E+02  8.00000000E+01  0.00000000E+00
  5.90000000E+02  7.80000000E+01  0.00000000E+00
  5.90000000E+02  7.60000000E+01  0.00000000E+00
  5.90000000E+02  7.40000000E+01  0.00000000E+00
  5.90000000E+02  7.20000000E+01  0.00000000E+00
  5.90000000E+02  7.00000000E+01  0.00000000E+00
  5.90000000E+02  6.80000000E+01  0.00000000E+00
  5.90000000E+02  6.60000000E+01  0.00000000E+00
  5.90000000E+02  6.40000000E+01  0.00000000E+00
  5.90000000E+02  6.20000000E+01  0.00000000E+00
  5.90000000E+02  6.00000000E+01  0.00000000E+00
  5.90000000E+02  5.80000000E+01  0.00000000E+00
  5.90000000E+02  5.60000000E+01  0.00000000E+00
  5.90000000E+02  5.40000000E+01  0.00000000E+00
  5.90000000E+02  5.20000000E+01  0.00000000E+00
  5.90000000E+02  5.00000000E+01  0.00000000E+00
  5.90000000E+02  4.80000000E+01  0.00000000E+00
  5.90000000E+02  4.60000000E+01  0.00000000E+00
  5.90000000E+02  4.40000000E+01  0.00000000E+00
  5.90000000E+02  4.20000000E+01  0.00000000E+00
  5.90000000E+02  4.00000000E+01  0.00000000E+00
  5.90000000E+02  3.80000000E+01  0.00000000E+00
  5.90000000E+02  3.60000000E+01  0.00000000E+00
  5.90000000E+02  3.40000000E+01  0.00000000E+00
  5.90000000E+02  3.20000000E+01  0.00000000E+00
  5.90000000E+02  3.00000000E+01  0.00000000E+00
  5.90000000E+02  2.80000000E+01  0.00000000E+00
  5.90000000E+02  2.60000000E+01  0.00000000E+00
  5.90000000E+02  2.40000000E+01  0.00000000E+00
  5.90000000E+02  2.20000000E+01  0.00000000E+00
  5.90000000E+02  2.00000000E+01  0.00000000E+00
  5.90000000E+02  1.80000000E+01  0.00000000E+00
  5.90000000E+02  1.60000000E+01  0.00000000E+00
  5.90000000E+02  1.40000000E+01  0.00000000E+00
  5.90000000E+02  1.20000000E+01  0.00000000E+00
  5.90000000E+02  1.00000000E+01  0.00000000E+00
  5.90000000E+02  8.00000000E+00  0.00000000E+00
  5.90000000E+02  6.00000000E+00  0.00000000E+00
  5.90000000E+02  4.00000000E+00  0.00000000E+00
  5.90000000E+02  2.00000000E+00  0.00000000E+00
  5.90000000E+02 -3.33066907E-14  0.00000000E+00
  6.00000000E+02  1.00000000E+02  0.00000000E+00
  6.00000000E+02  9.80000000E+01  0.00000000E+00
  6.00000000E+02  9.60000000E+01  0.00000000E+00
  6.00000000E+02  9.40000000E+01  0.00000000E+00
  6.00000000E+02  9.20000000E+01  0.00000000E+00
  6.00000000E+02  9.00000000E+01  0.00000000E+00
  6.00000000E+02  8.80000000E+01  0.00000000E+00
  6.00000000E+02  8.60000000E+01  0.00000000E+00
  6.00000000E+02  8.40000000E+01  0.00000000E+00
  6.00000000E+02  8.20000000E+01  0.00000000E+00
  6.00000000E+02  8.00000000E+01  0.00000000E+00
  6.00000000E+02  7.80000000E+01  0.00000000E+00
  6.00000000E+02  7.60000000E+01  0.00000000E+00
  6.00000000E+02  7.40000000E+01  0.00000000E+00
  6.00000000E+02  7.20000000E+01  0.00000000E+00
  6.00000000E+02  7.00000000E+01  0.00000000E+00
  6.00000000E+02  6.80000000E+01  0.00000000E+00
  6.00000000E+02  6.60000000E+01  0.00000000E+00
  6.00000000E+02  6.40000000E+01  0.00000000E+00
  6.00000000E+02  6.20000000E+01  0.00000000E+00
  6.00000000E+02  6.00000000E+01  0.00000000E+00
  6.00000000E+02  5.80000000E+01  0.00000000E+00
  6.00000000E+02  5.60000000E+01  0.00000000E+00
  6.00000000E+02  5.40000000E+01  0.00000000E+00
  6.00000000E+02  5.20000000E+01  0.00000000E+00
  6.00000000E+02  5.00000000E+01  0.00000000E+00
  6.00000000E+02  4.80000000E+01  0.00000000E+00
  6.00000000E+02  4.60000000E+01  0.00000000E+00
  6.00000000E+02  4.40000000E+01  0.00000000E+00
  6.00000000E+02  4.20000000E+01  0.00000000E+00
  6.00000000E+02  4.00000000E+01  0.00000000E+00
  6.00000000E+02  3.80000000E+01  0.00000000E+00
  6.00000000E+02  3.60000000E+01  0.00000000E+00
  6.00000000E+02  3.40000000E+01  0.00000000E+00
  6.00000000E+02  3.20000000E+01  0.00000000E+00
  6.00000000E+02  3.00000000E+01  0.00000000E+00
  6.00000000E+02  2.80000000E+01  0.00000000E+00
  6.00000000E+02  2.60000000E+01  0.00000000E+00
  6.00000000E+02  2.40000000E+01  0.00000000E+00
  6.00000000E+02  2.20000000E+01  0.00000000E+00
  6.00000000E+02  2.00000000E+01  0.00000000E+00
  6.00000000E+02  1.80000000E+01  0.00000000E+00
  6.00000000E+02  1.60000000E+01  0.00000000E+00
  6.00000000E+02  1.40000000E+01  0.00000000E+00
  6.00000000E+02  1.20000000E+01  0.00000000E+00
  6.00000000E+02  1.00000000E+01  0.00000000E+00
  6.00000000E+02  8.00000000E+00  0.00000000E+00
  6.00000000E+02  6.00000000E+00  0.00000000E+00
  6.00000000E+02  4.00000000E+00  0.00000000E+00
  6.00000000E+02  2.00000000E+00  0.00000000E+00
  6.00000000E+02 -3.33066907E-14  0.00000000E+00
  6.10000000E+02  1.00000000E+02  0.00000000E+00
  6.10000000E+02  9.80000000E+01  0.00000000E+00
  6.10000000E+02  9.60000000E+01  0.00000000E+00
  6.10000000E+02  9.40000000E+01  0.00000000E+00
  6.10000000E+02  9.20000000E+01  0.00000000E+00
  6.10000000E+02  9.00000000E+01  0.00000000E+00
  6.10000000E+02  8.80000000E+01  0.00000000E+00
  6.10000000E+02  8.60000000E+01  0.00000000E+00
  6.10000000E+02  8.40000000E+01  0.00000000E+00
  6.10000000E+02  8.20000000E+01  0.00000000E+00
  6.10000000E+02  8.00000000E+01  0.00000000E+00
  6.10000000E+02  7.80000000E+01  0.00000000E+00
  6.10000000E+02  7.60000000E+01  0.00000000E+00
  6.10000000E+02  7.40000000E+01  0.00000000E+00
  6.10000000E+02  7.20000000E+01  0.00000000E+00
  6.10000000E+02  7.00000000E+01  0.00000000E+00
  6.10000000E+02  6.80000000E+01  0.00000000E+00
  6.10000000E+02  6.60000000E+01  0.00000000E+00
  6.10000000E+02  6.40000000E+01  0.00000000E+00
  6.10000000E+02  6.20000000E+01  0.00000000E+00
  6.10000000E+02  6.00000000E+01  0.00000000E+00
  6.10000000E+02  5.80000000E+01  0.00000000E+00
  6.10000000E+02  5.60000000E+01  0.00000000E+00
  6.10000000E+02  5.40000000E+01  0.00000000E+00
  6.10000000E+02  5.20000000E+01  0.00000000E+00
  6.10000000E+02  5.00000000E+01  0.00000000E+00
  6.10000000E+02  4.80000000E+01  0.00000000E+00
  6.10000000E+02  4.60000000E+01  0.00000000E+00
  6.10000000E+02  4.40000000E+01  0.00000000E+00
  6.10000000E+02  4.20000000E+01  0.00000000E+00
  6.10000000E+02  4.00000000E+01  0.00000000E+00
  6.10000000E+02  3.80000000E+01  0.00000000E+00
  6.10000000E+02  3.60000000E+01  0.00000000E+00
  6.10000000E+02  3.40000000E+01  0.00000000E+00
  6.10000000E+02  3.20000000E+01  0.00000000E+00
  6.10000000E+02  3.00000000E+01  0.00000000E+00
  6.10000000E+02  2.80000000E+01  0.00000000E+00
  6.10000000E+02  2.60000000E+01  0.00000000E+00
  6.10000000E+02  2.40000000E+01  0.00000000E+00
  6.10000000E+02  2.20000000E+01  0.00000000E+00
  6.10000000E+02  2.00000000E+01  0.00000000E+00
  6.10000000E+02  1.80000000E+01  0.00000000E+00
  6.10000000E+02  1.60000000E+01  0.00000000E+00
  6.10000000E+02  1.40000000E+01  0.00000000E+00
  6.10000000E+02  1.20000000E+01  0.00000000E+00
  6.10000000E+02  1.00000000E+01  0.00000000E+00
  6.10000000E+02  8.00000000E+00  0.00000000E+00
  6.10000000E+02  6.00000000E+00  0.00000000E+00
  6.10000000E+02  4.00000000E+00  0.00000000E+00
  6.10000000E+02  2.00000000E+00  0.00000000E+00
  6.10000000E+02 -3.33066907E-14  0.00000000E+00
  6.20000000E+02  1.00000000E+02  0.00000000E+00
  6.20000000E+02  9.80000000E+01  0.00000000E+00
  6.20000000E+02  9.60000000E+01  0.00000000E+00
  6.20000000E+02  9.40000000E+01  0.00000000E+00
  6.20000000E+02  9.20000000E+01  0.00000000E+00
  6.20000000E+02  9.00000000E+01  0.00000000E+00
  6.20000000E+02  8.80000000E+01  0.00000000E+00
  6.20000000E+02  8.60000000E+01  0.00000000E+00
  6.20000000E+02  8.40000000E+01  0.00000000E+00
  6.20000000E+02  8.20000000E+01  0.00000000E+00
  6.20000000E+02  8.00000000E+01  0.00000000E+00
  6.20000000E+02  7.80000000E+01  0.00000000E+00
  6.20000000E+02  7.60000000E+01  0.00000000E+00
  6.20000000E+02  7.40000000E+01  0.00000000E+00
  6.20000000E+02  7.20000000E+01  0.00000000E+00
  6.20000000E+02  7.00000000E+01  0.00000000E+00
  6.20000000E+02  6.80000000E+01  0.00000000E+00
  6.20000000E+02  6.60000000E+01  0.00000000E+00
  6.20000000E+02  6.40000000E+01  0.00000000E+00
  6.20000000E+02  6.20000000E+01  0.00000000E+00
  6.20000000E+02  6.00000000E+01  0.00000000E+00
  6.20000000E+02  5.80000000E+01  0.00000000E+00
  6.20000000E+02  5.60000000E+01  0.00000000E+00
  6.20000000E+02  5.40000000E+01  0.00000000E+00
  6.20000000E+02  5.20000000E+01  0.00000000E+00
  6.20000000E+02  5.00000000E+01  0.00000000E+00
  6.20000000E+02  4.80000000E+01  0.00000000E+00
  6.20000000E+02  4.60000000E+01  0.00000000E+00
  6.20000000E+02  4.40000000E+01  0.00000000E+00
  6.20000000E+02  4.20000000E+01  0.00000000E+00
  6.20000000E+02  4.00000000E+01  0.00000000E+00
  6.20000000E+02  3.80000000E+01  0.00000000E+00
  6.20000000E+02  3.60000000E+01  0.00000000E+00
  6.20000000E+02  3.40000000E+01  0.00000000E+00
  6.20000000E+02  3.20000000E+01  0.00000000E+00
  6.20000000E+02  3.00000000E+01  0.00000000E+00
  6.20000000E+02  2.80000000E+01  0.00000000E+00
  6.20000000E+02  2.60000000E+01  0.00000000E+00
  6.20000000E+02  2.40000000E+01  0.00000000E+00
  6.20000000E+02  2.20000000E+01  0.00000000E+00
  6.20000000E+02  2.00000000E+01  0.00000000E+00
  6.20000000E+02  1.80000000E+01  0.00000000E+00
  6.20000000E+02  1.60000000E+01  0.00000000E+00
  6.20000000E+02  1.40000000E+01  0.00000000E+00
  6.20000000E+02  1.20000000E+01  0.00000000E+00
  6.20000000E+02  1.00000000E+01  0.00000000E+00
  6.20000000E+02  8.00000000E+00  0.00000000E+00
  6.20000000E+02  6.00000000E+00  0.00000000E+00
  6.20000000E+02  4.00000000E+00  0.00000000E+00
  6.20000000E+02  2.00000000E+00  0.00000000E+00
  6.20000000E+02 -3.33066907E-14  0.00000000E+00
  6.30000000E+02  1.00000000E+02  0.00000000E+00
  6.30000000E+02  9.80000000E+01  0.00000000E+00
  6.30000000E+02  9.60000000E+01  0.00000000E+00
  6.30000000E+02  9.40000000E+01  0.00000000E+00
  6.30000000E+02  9.20000000E+01  0.00000000E+00
  6.30000000E+02  9.00000000E+01  0.00000000E+00
  6.30000000E+02  8.80000000E+01  0.00000000E+00
  6.30000000E+02  8.60000000E+01  0.00000000E+00
  6.30000000E+02  8.40000000E+01  0.00000000E+00
  6.30000000E+02  8.20000000E+01  0.00000000E+00
  6.30000000E+02  8.00000000E+01  0.00000000E+00
  6.30000000E+02  7.80000000E+01  0.00000000E+00
  6.30000000E+02  7.60000000E+01  0.00000000E+00
  6.30000000E+02  7.40000000E+01  0.00000000E+00
  6.30000000E+02  7.20000000E+01  0.00000000E+00
  6.30000000E+02  7.00000000E+01  0.00000000E+00
  6.30000000E+02  6.80000000E+01  0.00000000E+00
  6.30000000E+02  6.60000000E+01  0.00000000E+00
  6.30000000E+02  6.40000000E+01  0.00000000E+00
  6.30000000E+02  6.20000000E+01  0.00000000E+00
  6.30000000E+02  6.00000000E+01  0.00000000E+00
  6.30000000E+02  5.80000000E+01  0.00000000E+00
  6.30000000E+02  5.60000000E+01  0.00000000E+00
  6.30000000E+02  5.40000000E+01  0.00000000E+00
  6.30000000E+02  5.20000000E+01  0.00000000E+00
  6.30000000E+02  5.00000000E+01  0.00000000E+00
  6.30000000E+02  4.80000000E+01  0.00000000E+00
  6.30000000E+02  4.60000000E+01  0.00000000E+00
  6.30000000E+02  4.40000000E+01  0.00000000E+00
  6.30000000E+02  4.20000000E+01  0.00000000E+00
  6.30000000E+02  4.00000000E+01  0.00000000E+00
  6.30000000E+02  3.80000000E+01  0.00000000E+00
  6.30000000E+02  3.60000000E+01  0.00000000E+00
  6.30000000E+02  3.40000000E+01  0.00000000E+00
  6.30000000E+02  3.20000000E+01  0.00000000E+00
  6.30000000E+02  3.00000000E+01  0.00000000E+00
  6.30000000E+02  2.80000000E+01  0.00000000E+00
  6.30000000E+02  2.60000000E+01  0.00000000E+00
  6.30000000E+02  2.40000000E+01  0.00000000E+00
  6.30000000E+02  2.20000000E+01  0.00000000E+00
  6.30000000E+02  2.00000000E+01  0.00000000E+00
  6.30000000E+02  1.80000000E+01  0.00000000E+00
  6.30000000E+02  1.60000000E+01  0.00000000E+00
  6.30000000E+02  1.40000000E+01  0.00000000E+00
  6.30000000E+02  1.20000000E+01  0.00000000E+00
  6.30000000E+02  1.00000000E+01  0.00000000E+00
  6.30000000E+02  8.00000000E+00  0.00000000E+00
  6.30000000E+02  6.00000000E+00  0.00000000E+00
  6.30000000E+02  4.00000000E+00  0.00000000E+00
  6.30000000E+02  2.00000000E+00  0.00000000E+00
  6.30000000E+02 -3.33066907E-14  0.00000000E+00
  6.40000000E+02  1.00000000E+02  0.00000000E+00
  6.40000000E+02  9.80000000E+01  0.00000000E+00
  6.40000000E+02  9.60000000E+01  0.00000000E+00
  6.40000000E+02  9.40000000E+01  0.00000000E+00
  6.40000000E+02  9.20000000E+01  0.00000000E+00
  6.40000000E+02  9.00000000E+01  0.00000000E+00
  6.40000000E+02  8.80000000E+01  0.00000000E+00
  6.40000000E+02  8.60000000E+01  0.00000000E+00
  6.40000000E+02  8.40000000E+01  0.00000000E+00
  6.40000000E+02  8.20000000E+01  0.00000000E+00
  6.40000000E+02  8.00000000E+01  0.00000000E+00
  6.40000000E+02  7.80000000E+01  0.00000000E+00
  6.40000000E+02  7.60000000E+01  0.00000000E+00
  6.40000000E+02  7.40000000E+01  0.00000000E+00
  6.40000000E+02  7.20000000E+01  0.00000000E+00
  6.40000000E+02  7.00000000E+01  0.00000000E+00
  6.40000000E+02  6.80000000E+01  0.00000000E+00
  6.40000000E+02  6.60000000E+01  0.00000000E+00
  6.40000000E+02  6.40000000E+01  0.00000000E+00
  6.40000000E+02  6.20000000E+01  0.00000000E+00
  6.40000000E+02  6.00000000E+01  0.00000000E+00
  6.40000000E+02  5.80000000E+01  0.00000000E+00
  6.40000000E+02  5.60000000E+01  0.00000000E+00
  6.40000000E+02  5.40000000E+01  0.00000000E+00
  6.40000000E+02  5.20000000E+01  0.00000000E+00
  6.40000000E+02  5.00000000E+01  0.00000000E+00
  6.40000000E+02  4.80000000E+01  0.00000000E+00
  6.40000000E+02  4.60000000E+01  0.00000000E+00
  6.40000000E+02  4.40000000E+01  0.00000000E+00
  6.40000000E+02  4.20000000E+01  0.00000000E+00
  6.40000000E+02  4.00000000E+01  0.00000000E+00
  6.40000000E+02  3.80000000E+01  0.00000000E+00
  6.40000000E+02  3.60000000E+01  0.00000000E+00
  6.40000000E+02  3.40000000E+01  0.00000000E+00
  6.40000000E+02  3.20000000E+01  0.00000000E+00
  6.40000000E+02  3.00000000E+01  0.00000000E+00
  6.40000000E+02  2.80000000E+01  0.00000000E+00
  6.40000000E+02  2.60000000E+01  0.00000000E+00
  6.40000000E+02  2.40000000E+01  0.00000000E+00
  6.40000000E+02  2.20000000E+01  0.00000000E+00
  6.40000000E+02  2.00000000E+01  0.00000000E+00
  6.40000000E+02  1.80000000E+01  0.00000000E+00
  6.40000000E+02  1.60000000E+01  0.00000000E+00
  6.40000000E+02  1.40000000E+01  0.00000000E+00
  6.40000000E+02  1.20000000E+01  0.00000000E+00
  6.40000000E+02  1.00000000E+01  0.00000000E+00
  6.40000000E+02  8.00000000E+00  0.00000000E+00
  6.40000000E+02  6.00000000E+00  0.00000000E+00
  6.40000000E+02  4.00000000E+00  0.00000000E+00
  6.40000000E+02  2.00000000E+00  0.00000000E+00
  6.40000000E+02 -3.33066907E-14  0.00000000E+00
  6.50000000E+02  1.00000000E+02  0.00000000E+00
  6.50000000E+02  9.80000000E+01  0.00000000E+00
  6.50000000E+02  9.60000000E+01  0.00000000E+00
  6.50000000E+02  9.40000000E+01  0.00000000E+00
  6.50000000E+02  9.20000000E+01  0.00000000E+00
  6.50000000E+02  9.00000000E+01  0.00000000E+00
  6.50000000E+02  8.80000000E+01  0.00000000E+00
  6.50000000E+02  8.60000000E+01  0.00000000E+00
  6.50000000E+02  8.40000000E+01  0.00000000E+00
  6.50000000E+02  8.20000000E+01  0.00000000E+00
  6.50000000E+02  8.00000000E+01  0.00000000E+00
  6.50000000E+02  7.80000000E+01  0.00000000E+00
  6.50000000E+02  7.60000000E+01  0.00000000E+00
  6.50000000E+02  7.40000000E+01  0.00000000E+00
  6.50000000E+02  7.20000000E+01  0.00000000E+00
  6.50000000E+02  7.00000000E+01  0.00000000E+00
  6.50000000E+02  6.80000000E+01  0.00000000E+00
  6.50000000E+02  6.60000000E+01  0.00000000E+00
  6.50000000E+02  6.40000000E+01  0.00000000E+00
  6.50000000E+02  6.20000000E+01  0.00000000E+00
  6.50000000E+02  6.00000000E+01  0.00000000E+00
  6.50000000E+02  5.80000000E+01  0.00000000E+00
  6.50000000E+02  5.60000000E+01  0.00000000E+00
  6.50000000E+02  5.40000000E+01  0.00000000E+00
  6.50000000E+02  5.20000000E+01  0.00000000E+00
  6.50000000E+02  5.00000000E+01  0.00000000E+00
  6.50000000E+02  4.80000000E+01  0.00000000E+00
  6.50000000E+02  4.60000000E+01  0.00000000E+00
  6.50000000E+02  4.40000000E+01  0.00000000E+00
  6.50000000E+02  4.20000000E+01  0.00000000E+00
  6.50000000E+02  4.00000000E+01  0.00000000E+00
  6.50000000E+02  3.80000000E+01  0.00000000E+00
  6.50000000E+02  3.60000000E+01  0.00000000E+00
  6.50000000E+02  3.40000000E+01  0.00000000E+00
  6.50000000E+02  3.20000000E+01  0.00000000E+00
  6.50000000E+02  3.00000000E+01  0.00000000E+00
  6.50000000E+02  2.80000000E+01  0.00000000E+00
  6.50000000E+02  2.60000000E+01  0.00000000E+00
  6.50000000E+02  2.40000000E+01  0.00000000E+00
  6.50000000E+02  2.20000000E+01  0.00000000E+00
  6.50000000E+02  2.00000000E+01  0.00000000E+00
  6.50000000E+02  1.80000000E+01  0.00000000E+00
  6.50000000E+02  1.60000000E+01  0.00000000E+00
  6.50000000E+02  1.40000000E+01  0.00000000E+00
  6.50000000E+02  1.20000000E+01  0.00000000E+00
  6.50000000E+02  1.00000000E+01  0.00000000E+00
  6.50000000E+02  8.00000000E+00  0.00000000E+00
  6.50000000E+02  6.00000000E+00  0.00000000E+00
  6.50000000E+02  4.00000000E+00  0.00000000E+00
  6.50000000E+02  2.00000000E+00  0.00000000E+00
  6.50000000E+02 -3.33066907E-14  0.00000000E+00
  6.60000000E+02  1.00000000E+02  0.00000000E+00
  6.60000000E+02  9.80000000E+01  0.00000000E+00
  6.60000000E+02  9.60000000E+01  0.00000000E+00
  6.60000000E+02  9.40000000E+01  0.00000000E+00
  6.60000000E+02  9.20000000E+01  0.00000000E+00
  6.60000000E+02  9.00000000E+01  0.00000000E+00
  6.60000000E+02  8.80000000E+01  0.00000000E+00
  6.60000000E+02  8.60000000E+01  0.00000000E+00
  6.60000000E+02  8.40000000E+01  0.00000000E+00
  6.60000000E+02  8.20000000E+01  0.00000000E+00
  6.60000000E+02  8.00000000E+01  0.00000000E+00
  6.60000000E+02  7.80000000E+01  0.00000000E+00
  6.60000000E+02  7.60000000E+01  0.00000000E+00
  6.60000000E+02  7.40000000E+01  0.00000000E+00
  6.60000000E+02  7.20000000E+01  0.00000000E+00
  6.60000000E+02  7.00000000E+01  0.00000000E+00
  6.60000000E+02  6.80000000E+01  0.00000000E+00
  6.60000000E+02  6.60000000E+01  0.00000000E+00
  6.60000000E+02  6.40000000E+01  0.00000000E+00
  6.60000000E+02  6.20000000E+01  0.00000000E+00
  6.60000000E+02  6.00000000E+01  0.00000000E+00
  6.60000000E+02  5.80000000E+01  0.00000000E+00
  6.60000000E+02  5.60000000E+01  0.00000000E+00
  6.60000000E+02  5.40000000E+01  0.00000000E+00
  6.60000000E+02  5.20000000E+01  0.00000000E+00
  6.60000000E+02  5.00000000E+01  0.00000000E+00
  6.60000000E+02  4.80000000E+01  0.00000000E+00
  6.60000000E+02  4.60000000E+01  0.00000000E+00
  6.60000000E+02  4.40000000E+01  0.00000000E+00
  6.60000000E+02  4.20000000E+01  0.00000000E+00
  6.60000000E+02  4.00000000E+01  0.00000000E+00
  6.60000000E+02  3.80000000E+01  0.00000000E+00
  6.60000000E+02  3.60000000E+01  0.00000000E+00
  6.60000000E+02  3.40000000E+01  0.00000000E+00
  6.60000000E+02  3.20000000E+01  0.00000000E+00
  6.60000000E+02  3.00000000E+01  0.00000000E+00
  6.60000000E+02  2.80000000E+01  0.00000000E+00
  6.60000000E+02  2.60000000E+01  0.00000000E+00
  6.60000000E+02  2.40000000E+01  0.00000000E+00
  6.60000000E+02  2.20000000E+01  0.00000000E+00
  6.60000000E+02  2.00000000E+01  0.00000000E+00
  6.60000000E+02  1.80000000E+01  0.00000000E+00
  6.60000000E+02  1.60000000E+01  0.00000000E+00
  6.60000000E+02  1.40000000E+01  0.00000000E+00
  6.60000000E+02  1.20000000E+01  0.00000000E+00
  6.60000000E+02  1.00000000E+01  0.00000000E+00
  6.60000000E+02  8.00000000E+00  0.00000000E+00
  6.60000000E+02  6.00000000E+00  0.00000000E+00
  6.60000000E+02  4.00000000E+00  0.00000000E+00
  6.60000000E+02  2.00000000E+00  0.00000000E+00
  6.60000000E+02 -3.33066907E-14  0.00000000E+00
  6.70000000E+02  1.00000000E+02  0.00000000E+00
  6.70000000E+02  9.80000000E+01  0.00000000E+00
  6.70000000E+02  9.60000000E+01  0.00000000E+00
  6.70000000E+02  9.40000000E+01  0.00000000E+00
  6.70000000E+02  9.20000000E+01  0.00000000E+00
  6.70000000E+02  9.00000000E+01  0.00000000E+00
  6.70000000E+02  8.80000000E+01  0.00000000E+00
  6.70000000E+02  8.60000000E+01  0.00000000E+00
  6.70000000E+02  8.40000000E+01  0.00000000E+00
  6.70000000E+02  8.20000000E+01  0.00000000E+00
  6.70000000E+02  8.00000000E+01  0.00000000E+00
  6.70000000E+02  7.80000000E+01  0.00000000E+00
  6.70000000E+02  7.60000000E+01  0.00000000E+00
  6.70000000E+02  7.40000000E+01  0.00000000E+00
  6.70000000E+02  7.20000000E+01  0.00000000E+00
  6.70000000E+02  7.00000000E+01  0.00000000E+00
  6.70000000E+02  6.80000000E+01  0.00000000E+00
  6.70000000E+02  6.60000000E+01  0.00000000E+00
  6.70000000E+02  6.40000000E+01  0.00000000E+00
  6.70000000E+02  6.20000000E+01  0.00000000E+00
  6.70000000E+02  6.00000000E+01  0.00000000E+00
  6.70000000E+02  5.80000000E+01  0.00000000E+00
  6.70000000E+02  5.60000000E+01  0.00000000E+00
  6.70000000E+02  5.40000000E+01  0.00000000E+00
  6.70000000E+02  5.20000000E+01  0.00000000E+00
  6.70000000E+02  5.00000000E+01  0.00000000E+00
  6.70000000E+02  4.80000000E+01  0.00000000E+00
  6.70000000E+02  4.60000000E+01  0.00000000E+00
  6.70000000E+02  4.40000000E+01  0.00000000E+00
  6.70000000E+02  4.20000000E+01  0.00000000E+00
  6.70000000E+02  4.00000000E+01  0.00000000E+00
  6.70000000E+02  3.80000000E+01  0.00000000E+00
  6.70000000E+02  3.60000000E+01  0.00000000E+00
  6.70000000E+02  3.40000000E+01  0.00000000E+00
  6.70000000E+02  3.20000000E+01  0.00000000E+00
  6.70000000E+02  3.00000000E+01  0.00000000E+00
  6.70000000E+02  2.80000000E+01  0.00000000E+00
  6.70000000E+02  2.60000000E+01  0.00000000E+00
  6.70000000E+02  2.40000000E+01  0.00000000E+00
  6.70000000E+02  2.20000000E+01  0.00000000E+00
  6.70000000E+02  2.00000000E+01  0.00000000E+00
  6.70000000E+02  1.80000000E+01  0.00000000E+00
  6.70000000E+02  1.60000000E+01  0.00000000E+00
  6.70000000E+02  1.40000000E+01  0.00000000E+00
  6.70000000E+02  1.20000000E+01  0.00000000E+00
  6.70000000E+02  1.00000000E+01  0.00000000E+00
  6.70000000E+02  8.00000000E+00  0.00000000E+00
  6.70000000E+02  6.00000000E+00  0.00000000E+00
  6.70000000E+02  4.00000000E+00  0.00000000E+00
  6.70000000E+02  2.00000000E+00  0.00000000E+00
  6.70000000E+02 -3.33066907E-14  0.00000000E+00
  6.80000000E+02  1.00000000E+02  0.00000000E+00
  6.80000000E+02  9.80000000E+01  0.00000000E+00
  6.80000000E+02  9.60000000E+01  0.00000000E+00
  6.80000000E+02  9.40000000E+01  0.00000000E+00
  6.80000000E+02  9.20000000E+01  0.00000000E+00
  6.80000000E+02  9.00000000E+01  0.00000000E+00
  6.80000000E+02  8.80000000E+01  0.00000000E+00
  6.80000000E+02  8.60000000E+01  0.00000000E+00
  6.80000000E+02  8.40000000E+01  0.00000000E+00
  6.80000000E+02  8.20000000E+01  0.00000000E+00
  6.80000000E+02  8.00000000E+01  0.00000000E+00
  6.80000000E+02  7.80000000E+01  0.00000000E+00
  6.80000000E+02  7.60000000E+01  0.00000000E+00
  6.80000000E+02  7.40000000E+01  0.00000000E+00
  6.80000000E+02  7.20000000E+01  0.00000000E+00
  6.80000000E+02  7.00000000E+01  0.00000000E+00
  6.80000000E+02  6.80000000E+01  0.00000000E+00
  6.80000000E+02  6.60000000E+01  0.00000000E+00
  6.80000000E+02  6.40000000E+01  0.00000000E+00
  6.80000000E+02  6.20000000E+01  0.00000000E+00
  6.80000000E+02  6.00000000E+01  0.00000000E+00
  6.80000000E+02  5.80000000E+01  0.00000000E+00
  6.80000000E+02  5.60000000E+01  0.00000000E+00
  6.80000000E+02  5.40000000E+01  0.00000000E+00
  6.80000000E+02  5.20000000E+01  0.00000000E+00
  6.80000000E+02  5.00000000E+01  0.00000000E+00
  6.80000000E+02  4.80000000E+01  0.00000000E+00
  6.80000000E+02  4.60000000E+01  0.00000000E+00
  6.80000000E+02  4.40000000E+01  0.00000000E+00
  6.80000000E+02  4.20000000E+01  0.00000000E+00
  6.80000000E+02  4.00000000E+01  0.00000000E+00
  6.80000000E+02  3.80000000E+01  0.00000000E+00
  6.80000000E+02  3.60000000E+01  0.00000000E+00
  6.80000000E+02  3.40000000E+01  0.00000000E+00
  6.80000000E+02  3.20000000E+01  0.00000000E+00
  6.80000000E+02  3.00000000E+01  0.00000000E+00
  6.80000000E+02  2.80000000E+01  0.00000000E+00
  6.80000000E+02  2.60000000E+01  0.00000000E+00
  6.80000000E+02  2.40000000E+01  0.00000000E+00
  6.80000000E+02  2.20000000E+01  0.00000000E+00
  6.80000000E+02  2.00000000E+01  0.00000000E+00
  6.80000000E+02  1.80000000E+01  0.00000000E+00
  6.80000000E+02  1.60000000E+01  0.00000000E+00
  6.80000000E+02  1.40000000E+01  0.00000000E+00
  6.80000000E+02  1.20000000E+01  0.00000000E+00
  6.80000000E+02  1.00000000E+01  0.00000000E+00
  6.80000000E+02  8.00000000E+00  0.00000000E+00
  6.80000000E+02  6.00000000E+00  0.00000000E+00
  6.80000000E+02  4.00000000E+00  0.00000000E+00
  6.80000000E+02  2.00000000E+00  0.00000000E+00
  6.80000000E+02 -3.33066907E-14  0.00000000E+00
  6.90000000E+02  1.00000000E+02  0.00000000E+00
  6.90000000E+02  9.80000000E+01  0.00000000E+00
  6.90000000E+02  9.60000000E+01  0.00000000E+00
  6.90000000E+02  9.40000000E+01  0.00000000E+00
  6.90000000E+02  9.20000000E+01  0.00000000E+00
  6.90000000E+02  9.00000000E+01  0.00000000E+00
  6.90000000E+02  8.80000000E+01  0.00000000E+00
  6.90000000E+02  8.60000000E+01  0.00000000E+00
  6.90000000E+02  8.40000000E+01  0.00000000E+00
  6.90000000E+02  8.20000000E+01  0.00000000E+00
  6.90000000E+02  8.00000000E+01  0.00000000E+00
  6.90000000E+02  7.80000000E+01  0.00000000E+00
  6.90000000E+02  7.60000000E+01  0.00000000E+00
  6.90000000E+02  7.40000000E+01  0.00000000E+00
  6.90000000E+02  7.20000000E+01  0.00000000E+00
  6.90000000E+02  7.00000000E+01  0.00000000E+00
  6.90000000E+02  6.80000000E+01  0.00000000E+00
  6.90000000E+02  6.60000000E+01  0.00000000E+00
  6.90000000E+02  6.40000000E+01  0.00000000E+00
  6.90000000E+02  6.20000000E+01  0.00000000E+00
  6.90000000E+02  6.00000000E+01  0.00000000E+00
  6.90000000E+02  5.80000000E+01  0.00000000E+00
  6.90000000E+02  5.60000000E+01  0.00000000E+00
  6.90000000E+02  5.40000000E+01  0.00000000E+00
  6.90000000E+02  5.20000000E+01  0.00000000E+00
  6.90000000E+02  5.00000000E+01  0.00000000E+00
  6.90000000E+02  4.80000000E+01  0.00000000E+00
  6.90000000E+02  4.60000000E+01  0.00000000E+00
  6.90000000E+02  4.40000000E+01  0.00000000E+00
  6.90000000E+02  4.20000000E+01  0.00000000E+00
  6.90000000E+02  4.00000000E+01  0.00000000E+00
  6.90000000E+02  3.80000000E+01  0.00000000E+00
  6.90000000E+02  3.60000000E+01  0.00000000E+00
  6.90000000E+02  3.40000000E+01  0.00000000E+00
  6.90000000E+02  3.20000000E+01  0.00000000E+00
  6.90000000E+02  3.00000000E+01  0.00000000E+00
  6.90000000E+02  2.80000000E+01  0.00000000E+00
  6.90000000E+02  2.60000000E+01  0.00000000E+00
  6.90000000E+02  2.40000000E+01  0.00000000E+00
  6.90000000E+02  2.20000000E+01  0.00000000E+00
  6.90000000E+02  2.00000000E+01  0.00000000E+00
  6.90000000E+02  1.80000000E+01  0.00000000E+00
  6.90000000E+02  1.60000000E+01  0.00000000E+00
  6.90000000E+02  1.40000000E+01  0.00000000E+00
  6.90000000E+02  1.20000000E+01  0.00000000E+00
  6.90000000E+02  1.00000000E+01  0.00000000E+00
  6.90000000E+02  8.00000000E+00  0.00000000E+00
  6.90000000E+02  6.00000000E+00  0.00000000E+00
  6.90000000E+02  4.00000000E+00  0.00000000E+00
  6.90000000E+02  2.00000000E+00  0.00000000E+00
  6.90000000E+02 -3.33066907E-14  0.00000000E+00
  7.00000000E+02  1.00000000E+02  0.00000000E+00
  7.00000000E+02  9.80000000E+01  0.00000000E+00
  7.00000000E+02  9.60000000E+01  0.00000000E+00
  7.00000000E+02  9.40000000E+01  0.00000000E+00
  7.00000000E+02  9.20000000E+01  0.00000000E+00
  7.00000000E+02  9.00000000E+01  0.00000000E+00
  7.00000000E+02  8.80000000E+01  0.00000000E+00
  7.00000000E+02  8.60000000E+01  0.00000000E+00
  7.00000000E+02  8.40000000E+01  0.00000000E+00
  7.00000000E+02  8.20000000E+01  0.00000000E+00
  7.00000000E+02  8.00000000E+01  0.00000000E+00
  7.00000000E+02  7.80000000E+01  0.00000000E+00
  7.00000000E+02  7.60000000E+01  0.00000000E+00
  7.00000000E+02  7.40000000E+01  0.00000000E+00
  7.00000000E+02  7.20000000E+01  0.00000000E+00
  7.00000000E+02  7.00000000E+01  0.00000000E+00
  7.00000000E+02  6.80000000E+01  0.00000000E+00
  7.00000000E+02  6.60000000E+01  0.00000000E+00
  7.00000000E+02  6.40000000E+01  0.00000000E+00
  7.00000000E+02  6.20000000E+01  0.00000000E+00
  7.00000000E+02  6.00000000E+01  0.00000000E+00
  7.00000000E+02  5.80000000E+01  0.00000000E+00
  7.00000000E+02  5.60000000E+01  0.00000000E+00
  7.00000000E+02  5.40000000E+01  0.00000000E+00
  7.00000000E+02  5.20000000E+01  0.00000000E+00
  7.00000000E+02  5.00000000E+01  0.00000000E+00
  7.00000000E+02  4.80000000E+01  0.00000000E+00
  7.00000000E+02  4.60000000E+01  0.00000000E+00
  7.00000000E+02  4.40000000E+01  0.00000000E+00
  7.00000000E+02  4.20000000E+01  0.00000000E+00
  7.00000000E+02  4.00000000E+01  0.00000000E+00
  7.00000000E+02  3.80000000E+01  0.00000000E+00
  7.00000000E+02  3.60000000E+01  0.00000000E+00
  7.00000000E+02  3.40000000E+01  0.00000000E+00
  7.00000000E+02  3.20000000E+01  0.00000000E+00
  7.00000000E+02  3.00000000E+01  0.00000000E+00
  7.00000000E+02  2.80000000E+01  0.00000000E+00
  7.00000000E+02  2.60000000E+01  0.00000000E+00
  7.00000000E+02  2.40000000E+01  0.00000000E+00
  7.00000000E+02  2.20000000E+01  0.00000000E+00
  7.00000000E+02  2.00000000E+01  0.00000000E+00
  7.00000000E+02  1.80000000E+01  0.00000000E+00
  7.00000000E+02  1.60000000E+01  0.00000000E+00
  7.00000000E+02  1.40000000E+01  0.00000000E+00
  7.00000000E+02  1.20000000E+01  0.00000000E+00
  7.00000000E+02  1.00000000E+01  0.00000000E+00
  7.00000000E+02  8.00000000E+00  0.00000000E+00
  7.00000000E+02  6.00000000E+00  0.00000000E+00
  7.00000000E+02  4.00000000E+00  0.00000000E+00
  7.00000000E+02  2.00000000E+00  0.00000000E+00
  7.00000000E+02 -3.33066907E-14  0.00000000E+00
  7.10000000E+02  1.00000000E+02  0.00000000E+00
  7.10000000E+02  9.80000000E+01  0.00000000E+00
  7.10000000E+02  9.60000000E+01  0.00000000E+00
  7.10000000E+02  9.40000000E+01  0.00000000E+00
  7.10000000E+02  9.20000000E+01  0.00000000E+00
  7.10000000E+02  9.00000000E+01  0.00000000E+00
  7.10000000E+02  8.80000000E+01  0.00000000E+00
  7.10000000E+02  8.60000000E+01  0.00000000E+00
  7.10000000E+02  8.40000000E+01  0.00000000E+00
  7.10000000E+02  8.20000000E+01  0.00000000E+00
  7.10000000E+02  8.00000000E+01  0.00000000E+00
  7.10000000E+02  7.80000000E+01  0.00000000E+00
  7.10000000E+02  7.60000000E+01  0.00000000E+00
  7.10000000E+02  7.40000000E+01  0.00000000E+00
  7.10000000E+02  7.20000000E+01  0.00000000E+00
  7.10000000E+02  7.00000000E+01  0.00000000E+00
  7.10000000E+02  6.80000000E+01  0.00000000E+00
  7.10000000E+02  6.60000000E+01  0.00000000E+00
  7.10000000E+02  6.40000000E+01  0.00000000E+00
  7.10000000E+02  6.20000000E+01  0.00000000E+00
  7.10000000E+02  6.00000000E+01  0.00000000E+00
  7.10000000E+02  5.80000000E+01  0.00000000E+00
  7.10000000E+02  5.60000000E+01  0.00000000E+00
  7.10000000E+02  5.40000000E+01  0.00000000E+00
  7.10000000E+02  5.20000000E+01  0.00000000E+00
  7.10000000E+02  5.00000000E+01  0.00000000E+00
  7.10000000E+02  4.80000000E+01  0.00000000E+00
  7.10000000E+02  4.60000000E+01  0.00000000E+00
  7.10000000E+02  4.40000000E+01  0.00000000E+00
  7.10000000E+02  4.20000000E+01  0.00000000E+00
  7.10000000E+02  4.00000000E+01  0.00000000E+00
  7.10000000E+02  3.80000000E+01  0.00000000E+00
  7.10000000E+02  3.60000000E+01  0.00000000E+00
  7.10000000E+02  3.40000000E+01  0.00000000E+00
  7.10000000E+02  3.20000000E+01  0.00000000E+00
  7.10000000E+02  3.00000000E+01  0.00000000E+00
  7.10000000E+02  2.80000000E+01  0.00000000E+00
  7.10000000E+02  2.60000000E+01  0.00000000E+00
  7.10000000E+02  2.40000000E+01  0.00000000E+00
  7.10000000E+02  2.20000000E+01  0.00000000E+00
  7.10000000E+02  2.00000000E+01  0.00000000E+00
  7.10000000E+02  1.80000000E+01  0.00000000E+00
  7.10000000E+02  1.60000000E+01  0.00000000E+00
  7.10000000E+02  1.40000000E+01  0.00000000E+00
  7.10000000E+02  1.20000000E+01  0.00000000E+00
  7.10000000E+02  1.00000000E+01  0.00000000E+00
  7.10000000E+02  8.00000000E+00  0.00000000E+00
  7.10000000E+02  6.00000000E+00  0.00000000E+00
  7.10000000E+02  4.00000000E+00  0.00000000E+00
  7.10000000E+02  2.00000000E+00  0.00000000E+00
  7.10000000E+02 -3.33066907E-14  0.00000000E+00
  7.20000000E+02  1.00000000E+02  0.00000000E+00
  7.20000000E+02  9.80000000E+01  0.00000000E+00
  7.20000000E+02  9.60000000E+01  0.00000000E+00
  7.20000000E+02  9.40000000E+01  0.00000000E+00
  7.20000000E+02  9.20000000E+01  0.00000000E+00
  7.20000000E+02  9.00000000E+01  0.00000000E+00
  7.20000000E+02  8.80000000E+01  0.00000000E+00
  7.20000000E+02  8.60000000E+01  0.00000000E+00
  7.20000000E+02  8.40000000E+01  0.00000000E+00
  7.20000000E+02  8.20000000E+01  0.00000000E+00
  7.20000000E+02  8.00000000E+01  0.00000000E+00
  7.20000000E+02  7.80000000E+01  0.00000000E+00
  7.20000000E+02  7.60000000E+01  0.00000000E+00
  7.20000000E+02  7.40000000E+01  0.00000000E+00
  7.20000000E+02  7.20000000E+01  0.00000000E+00
  7.20000000E+02  7.00000000E+01  0.00000000E+00
  7.20000000E+02  6.80000000E+01  0.00000000E+00
  7.20000000E+02  6.60000000E+01  0.00000000E+00
  7.20000000E+02  6.40000000E+01  0.00000000E+00
  7.20000000E+02  6.20000000E+01  0.00000000E+00
  7.20000000E+02  6.00000000E+01  0.00000000E+00
  7.20000000E+02  5.80000000E+01  0.00000000E+00
  7.20000000E+02  5.60000000E+01  0.00000000E+00
  7.20000000E+02  5.40000000E+01  0.00000000E+00
  7.20000000E+02  5.20000000E+01  0.00000000E+00
  7.20000000E+02  5.00000000E+01  0.00000000E+00
  7.20000000E+02  4.80000000E+01  0.00000000E+00
  7.20000000E+02  4.60000000E+01  0.00000000E+00
  7.20000000E+02  4.40000000E+01  0.00000000E+00
  7.20000000E+02  4.20000000E+01  0.00000000E+00
  7.20000000E+02  4.00000000E+01  0.00000000E+00
  7.20000000E+02  3.80000000E+01  0.00000000E+00
  7.20000000E+02  3.60000000E+01  0.00000000E+00
  7.20000000E+02  3.40000000E+01  0.00000000E+00
  7.20000000E+02  3.20000000E+01  0.00000000E+00
  7.20000000E+02  3.00000000E+01  0.00000000E+00
  7.20000000E+02  2.80000000E+01  0.00000000E+00
  7.20000000E+02  2.60000000E+01  0.00000000E+00
  7.20000000E+02  2.40000000E+01  0.00000000E+00
  7.20000000E+02  2.20000000E+01  0.00000000E+00
  7.20000000E+02  2.00000000E+01  0.00000000E+00
  7.20000000E+02  1.80000000E+01  0.00000000E+00
  7.20000000E+02  1.60000000E+01  0.00000000E+00
  7.20000000E+02  1.40000000E+01  0.00000000E+00
  7.20000000E+02  1.20000000E+01  0.00000000E+00
  7.20000000E+02  1.00000000E+01  0.00000000E+00
  7.20000000E+02  8.00000000E+00  0.00000000E+00
  7.20000000E+02  6.00000000E+00  0.00000000E+00
  7.20000000E+02  4.00000000E+00  0.00000000E+00
  7.20000000E+02  2.00000000E+00  0.00000000E+00
  7.20000000E+02 -3.33066907E-14  0.00000000E+00
  7.30000000E+02  1.00000000E+02  0.00000000E+00
  7.30000000E+02  9.80000000E+01  0.00000000E+00
  7.30000000E+02  9.60000000E+01  0.00000000E+00
  7.30000000E+02  9.40000000E+01  0.00000000E+00
  7.30000000E+02  9.20000000E+01  0.00000000E+00
  7.30000000E+02  9.00000000E+01  0.00000000E+00
  7.30000000E+02  8.80000000E+01  0.00000000E+00
  7.30000000E+02  8.60000000E+01  0.00000000E+00
  7.30000000E+02  8.40000000E+01  0.00000000E+00
  7.30000000E+02  8.20000000E+01  0.00000000E+00
  7.30000000E+02  8.00000000E+01  0.00000000E+00
  7.30000000E+02  7.80000000E+01  0.00000000E+00
  7.30000000E+02  7.60000000E+01  0.00000000E+00
  7.30000000E+02  7.40000000E+01  0.00000000E+00
  7.30000000E+02  7.20000000E+01  0.00000000E+00
  7.30000000E+02  7.00000000E+01  0.00000000E+00
  7.30000000E+02  6.80000000E+01  0.00000000E+00
  7.30000000E+02  6.60000000E+01  0.00000000E+00
  7.30000000E+02  6.40000000E+01  0.00000000E+00
  7.30000000E+02  6.20000000E+01  0.00000000E+00
  7.30000000E+02  6.00000000E+01  0.00000000E+00
  7.30000000E+02  5.80000000E+01  0.00000000E+00
  7.30000000E+02  5.60000000E+01  0.00000000E+00
  7.30000000E+02  5.40000000E+01  0.00000000E+00
  7.30000000E+02  5.20000000E+01  0.00000000E+00
  7.30000000E+02  5.00000000E+01  0.00000000E+00
  7.30000000E+02  4.80000000E+01  0.00000000E+00
  7.30000000E+02  4.60000000E+01  0.00000000E+00
  7.30000000E+02  4.40000000E+01  0.00000000E+00
  7.30000000E+02  4.20000000E+01  0.00000000E+00
  7.30000000E+02  4.00000000E+01  0.00000000E+00
  7.30000000E+02  3.80000000E+01  0.00000000E+00
  7.30000000E+02  3.60000000E+01  0.00000000E+00
  7.30000000E+02  3.40000000E+01  0.00000000E+00
  7.30000000E+02  3.20000000E+01  0.00000000E+00
  7.30000000E+02  3.00000000E+01  0.00000000E+00
  7.30000000E+02  2.80000000E+01  0.00000000E+00
  7.30000000E+02  2.60000000E+01  0.00000000E+00
  7.30000000E+02  2.40000000E+01  0.00000000E+00
  7.30000000E+02  2.20000000E+01  0.00000000E+00
  7.30000000E+02  2.00000000E+01  0.00000000E+00
  7.30000000E+02  1.80000000E+01  0.00000000E+00
  7.30000000E+02  1.60000000E+01  0.00000000E+00
  7.30000000E+02  1.40000000E+01  0.00000000E+00
  7.30000000E+02  1.20000000E+01  0.00000000E+00
  7.30000000E+02  1.00000000E+01  0.00000000E+00
  7.30000000E+02  8.00000000E+00  0.00000000E+00
  7.30000000E+02  6.00000000E+00  0.00000000E+00
  7.30000000E+02  4.00000000E+00  0.00000000E+00
  7.30000000E+02  2.00000000E+00  0.00000000E+00
  7.30000000E+02 -3.33066907E-14  0.00000000E+00
  7.40000000E+02  1.00000000E+02  0.00000000E+00
  7.40000000E+02  9.80000000E+01  0.00000000E+00
  7.40000000E+02  9.60000000E+01  0.00000000E+00
  7.40000000E+02  9.40000000E+01  0.00000000E+00
  7.40000000E+02  9.20000000E+01  0.00000000E+00
  7.40000000E+02  9.00000000E+01  0.00000000E+00
  7.40000000E+02  8.80000000E+01  0.00000000E+00
  7.40000000E+02  8.60000000E+01  0.00000000E+00
  7.40000000E+02  8.40000000E+01  0.00000000E+00
  7.40000000E+02  8.20000000E+01  0.00000000E+00
  7.40000000E+02  8.00000000E+01  0.00000000E+00
  7.40000000E+02  7.80000000E+01  0.00000000E+00
  7.40000000E+02  7.60000000E+01  0.00000000E+00
  7.40000000E+02  7.40000000E+01  0.00000000E+00
  7.40000000E+02  7.20000000E+01  0.00000000E+00
  7.40000000E+02  7.00000000E+01  0.00000000E+00
  7.40000000E+02  6.80000000E+01  0.00000000E+00
  7.40000000E+02  6.60000000E+01  0.00000000E+00
  7.40000000E+02  6.40000000E+01  0.00000000E+00
  7.40000000E+02  6.20000000E+01  0.00000000E+00
  7.40000000E+02  6.00000000E+01  0.00000000E+00
  7.40000000E+02  5.80000000E+01  0.00000000E+00
  7.40000000E+02  5.60000000E+01  0.00000000E+00
  7.40000000E+02  5.40000000E+01  0.00000000E+00
  7.40000000E+02  5.20000000E+01  0.00000000E+00
  7.40000000E+02  5.00000000E+01  0.00000000E+00
  7.40000000E+02  4.80000000E+01  0.00000000E+00
  7.40000000E+02  4.60000000E+01  0.00000000E+00
  7.40000000E+02  4.40000000E+01  0.00000000E+00
  7.40000000E+02  4.20000000E+01  0.00000000E+00
  7.40000000E+02  4.00000000E+01  0.00000000E+00
  7.40000000E+02  3.80000000E+01  0.00000000E+00
  7.40000000E+02  3.60000000E+01  0.00000000E+00
  7.40000000E+02  3.40000000E+01  0.00000000E+00
  7.40000000E+02  3.20000000E+01  0.00000000E+00
  7.40000000E+02  3.00000000E+01  0.00000000E+00
  7.40000000E+02  2.80000000E+01  0.00000000E+00
  7.40000000E+02  2.60000000E+01  0.00000000E+00
  7.40000000E+02  2.40000000E+01  0.00000000E+00
  7.40000000E+02  2.20000000E+01  0.00000000E+00
  7.40000000E+02  2.00000000E+01  0.00000000E+00
  7.40000000E+02  1.80000000E+01  0.00000000E+00
  7.40000000E+02  1.60000000E+01  0.00000000E+00
  7.40000000E+02  1.40000000E+01  0.00000000E+00
  7.40000000E+02  1.20000000E+01  0.00000000E+00
  7.40000000E+02  1.00000000E+01  0.00000000E+00
  7.40000000E+02  8.00000000E+00  0.00000000E+00
  7.40000000E+02  6.00000000E+00  0.00000000E+00
  7.40000000E+02  4.00000000E+00  0.00000000E+00
  7.40000000E+02  2.00000000E+00  0.00000000E+00
  7.40000000E+02 -3.33066907E-14  0.00000000E+00
  7.50000000E+02  1.00000000E+02  0.00000000E+00
  7.50000000E+02  9.80000000E+01  0.00000000E+00
  7.50000000E+02  9.60000000E+01  0.00000000E+00
  7.50000000E+02  9.40000000E+01  0.00000000E+00
  7.50000000E+02  9.20000000E+01  0.00000000E+00
  7.50000000E+02  9.00000000E+01  0.00000000E+00
  7.50000000E+02  8.80000000E+01  0.00000000E+00
  7.50000000E+02  8.60000000E+01  0.00000000E+00
  7.50000000E+02  8.40000000E+01  0.00000000E+00
  7.50000000E+02  8.20000000E+01  0.00000000E+00
  7.50000000E+02  8.00000000E+01  0.00000000E+00
  7.50000000E+02  7.80000000E+01  0.00000000E+00
  7.50000000E+02  7.60000000E+01  0.00000000E+00
  7.50000000E+02  7.40000000E+01  0.00000000E+00
  7.50000000E+02  7.20000000E+01  0.00000000E+00
  7.50000000E+02  7.00000000E+01  0.00000000E+00
  7.50000000E+02  6.80000000E+01  0.00000000E+00
  7.50000000E+02  6.60000000E+01  0.00000000E+00
  7.50000000E+02  6.40000000E+01  0.00000000E+00
  7.50000000E+02  6.20000000E+01  0.00000000E+00
  7.50000000E+02  6.00000000E+01  0.00000000E+00
  7.50000000E+02  5.80000000E+01  0.00000000E+00
  7.50000000E+02  5.60000000E+01  0.00000000E+00
  7.50000000E+02  5.40000000E+01  0.00000000E+00
  7.50000000E+02  5.20000000E+01  0.00000000E+00
  7.50000000E+02  5.00000000E+01  0.00000000E+00
  7.50000000E+02  4.80000000E+01  0.00000000E+00
  7.50000000E+02  4.60000000E+01  0.00000000E+00
  7.50000000E+02  4.40000000E+01  0.00000000E+00
  7.50000000E+02  4.20000000E+01  0.00000000E+00
  7.50000000E+02  4.00000000E+01  0.00000000E+00
  7.50000000E+02  3.80000000E+01  0.00000000E+00
  7.50000000E+02  3.60000000E+01  0.00000000E+00
  7.50000000E+02  3.40000000E+01  0.00000000E+00
  7.50000000E+02  3.20000000E+01  0.00000000E+00
  7.50000000E+02  3.00000000E+01  0.00000000E+00
  7.50000000E+02  2.80000000E+01  0.00000000E+00
  7.50000000E+02  2.60000000E+01  0.00000000E+00
  7.50000000E+02  2.40000000E+01  0.00000000E+00
  7.50000000E+02  2.20000000E+01  0.00000000E+00
  7.50000000E+02  2.00000000E+01  0.00000000E+00
  7.50000000E+02  1.80000000E+01  0.00000000E+00
  7.50000000E+02  1.60000000E+01  0.00000000E+00
  7.50000000E+02  1.40000000E+01  0.00000000E+00
  7.50000000E+02  1.20000000E+01  0.00000000E+00
  7.50000000E+02  1.00000000E+01  0.00000000E+00
  7.50000000E+02  8.00000000E+00  0.00000000E+00
  7.50000000E+02  6.00000000E+00  0.00000000E+00
  7.50000000E+02  4.00000000E+00  0.00000000E+00
  7.50000000E+02  2.00000000E+00  0.00000000E+00
  7.50000000E+02 -3.33066907E-14  0.00000000E+00
  7.60000000E+02  1.00000000E+02  0.00000000E+00
  7.60000000E+02  9.80000000E+01  0.00000000E+00
  7.60000000E+02  9.60000000E+01  0.00000000E+00
  7.60000000E+02  9.40000000E+01  0.00000000E+00
  7.60000000E+02  9.20000000E+01  0.00000000E+00
  7.60000000E+02  9.00000000E+01  0.00000000E+00
  7.60000000E+02  8.80000000E+01  0.00000000E+00
  7.60000000E+02  8.60000000E+01  0.00000000E+00
  7.60000000E+02  8.40000000E+01  0.00000000E+00
  7.60000000E+02  8.20000000E+01  0.00000000E+00
  7.60000000E+02  8.00000000E+01  0.00000000E+00
  7.60000000E+02  7.80000000E+01  0.00000000E+00
  7.60000000E+02  7.60000000E+01  0.00000000E+00
  7.60000000E+02  7.40000000E+01  0.00000000E+00
  7.60000000E+02  7.20000000E+01  0.00000000E+00
  7.60000000E+02  7.00000000E+01  0.00000000E+00
  7.60000000E+02  6.80000000E+01  0.00000000E+00
  7.60000000E+02  6.60000000E+01  0.00000000E+00
  7.60000000E+02  6.40000000E+01  0.00000000E+00
  7.60000000E+02  6.20000000E+01  0.00000000E+00
  7.60000000E+02  6.00000000E+01  0.00000000E+00
  7.60000000E+02  5.80000000E+01  0.00000000E+00
  7.60000000E+02  5.60000000E+01  0.00000000E+00
  7.60000000E+02  5.40000000E+01  0.00000000E+00
  7.60000000E+02  5.20000000E+01  0.00000000E+00
  7.60000000E+02  5.00000000E+01  0.00000000E+00
  7.60000000E+02  4.80000000E+01  0.00000000E+00
  7.60000000E+02  4.60000000E+01  0.00000000E+00
  7.60000000E+02  4.40000000E+01  0.00000000E+00
  7.60000000E+02  4.20000000E+01  0.00000000E+00
  7.60000000E+02  4.00000000E+01  0.00000000E+00
  7.60000000E+02  3.80000000E+01  0.00000000E+00
  7.60000000E+02  3.60000000E+01  0.00000000E+00
  7.60000000E+02  3.40000000E+01  0.00000000E+00
  7.60000000E+02  3.20000000E+01  0.00000000E+00
  7.60000000E+02  3.00000000E+01  0.00000000E+00
  7.60000000E+02  2.80000000E+01  0.00000000E+00
  7.60000000E+02  2.60000000E+01  0.00000000E+00
  7.60000000E+02  2.40000000E+01  0.00000000E+00
  7.60000000E+02  2.20000000E+01  0.00000000E+00
  7.60000000E+02  2.00000000E+01  0.00000000E+00
  7.60000000E+02  1.80000000E+01  0.00000000E+00
  7.60000000E+02  1.60000000E+01  0.00000000E+00
  7.60000000E+02  1.40000000E+01  0.00000000E+00
  7.60000000E+02  1.20000000E+01  0.00000000E+00
  7.60000000E+02  1.00000000E+01  0.00000000E+00
  7.60000000E+02  8.00000000E+00  0.00000000E+00
  7.60000000E+02  6.00000000E+00  0.00000000E+00
  7.60000000E+02  4.00000000E+00  0.00000000E+00
  7.60000000E+02  2.00000000E+00  0.00000000E+00
  7.60000000E+02 -3.33066907E-14  0.00000000E+00
  7.70000000E+02  1.00000000E+02  0.00000000E+00
  7.70000000E+02  9.80000000E+01  0.00000000E+00
  7.70000000E+02  9.60000000E+01  0.00000000E+00
  7.70000000E+02  9.40000000E+01  0.00000000E+00
  7.70000000E+02  9.20000000E+01  0.00000000E+00
  7.70000000E+02  9.00000000E+01  0.00000000E+00
  7.70000000E+02  8.80000000E+01  0.00000000E+00
  7.70000000E+02  8.60000000E+01  0.00000000E+00
  7.70000000E+02  8.40000000E+01  0.00000000E+00
  7.70000000E+02  8.20000000E+01  0.00000000E+00
  7.70000000E+02  8.00000000E+01  0.00000000E+00
  7.70000000E+02  7.80000000E+01  0.00000000E+00
  7.70000000E+02  7.60000000E+01  0.00000000E+00
  7.70000000E+02  7.40000000E+01  0.00000000E+00
  7.70000000E+02  7.20000000E+01  0.00000000E+00
  7.70000000E+02  7.00000000E+01  0.00000000E+00
  7.70000000E+02  6.80000000E+01  0.00000000E+00
  7.70000000E+02  6.60000000E+01  0.00000000E+00
  7.70000000E+02  6.40000000E+01  0.00000000E+00
  7.70000000E+02  6.20000000E+01  0.00000000E+00
  7.70000000E+02  6.00000000E+01  0.00000000E+00
  7.70000000E+02  5.80000000E+01  0.00000000E+00
  7.70000000E+02  5.60000000E+01  0.00000000E+00
  7.70000000E+02  5.40000000E+01  0.00000000E+00
  7.70000000E+02  5.20000000E+01  0.00000000E+00
  7.70000000E+02  5.00000000E+01  0.00000000E+00
  7.70000000E+02  4.80000000E+01  0.00000000E+00
  7.70000000E+02  4.60000000E+01  0.00000000E+00
  7.70000000E+02  4.40000000E+01  0.00000000E+00
  7.70000000E+02  4.20000000E+01  0.00000000E+00
  7.70000000E+02  4.00000000E+01  0.00000000E+00
  7.70000000E+02  3.80000000E+01  0.00000000E+00
  7.70000000E+02  3.60000000E+01  0.00000000E+00
  7.70000000E+02  3.40000000E+01  0.00000000E+00
  7.70000000E+02  3.20000000E+01  0.00000000E+00
  7.70000000E+02  3.00000000E+01  0.00000000E+00
  7.70000000E+02  2.80000000E+01  0.00000000E+00
  7.70000000E+02  2.60000000E+01  0.00000000E+00
  7.70000000E+02  2.40000000E+01  0.00000000E+00
  7.70000000E+02  2.20000000E+01  0.00000000E+00
  7.70000000E+02  2.00000000E+01  0.00000000E+00
  7.70000000E+02  1.80000000E+01  0.00000000E+00
  7.70000000E+02  1.60000000E+01  0.00000000E+00
  7.70000000E+02  1.40000000E+01  0.00000000E+00
  7.70000000E+02  1.20000000E+01  0.00000000E+00
  7.70000000E+02  1.00000000E+01  0.00000000E+00
  7.70000000E+02  8.00000000E+00  0.00000000E+00
  7.70000000E+02  6.00000000E+00  0.00000000E+00
  7.70000000E+02  4.00000000E+00  0.00000000E+00
  7.70000000E+02  2.00000000E+00  0.00000000E+00
  7.70000000E+02 -3.33066907E-14  0.00000000E+00
  7.80000000E+02  1.00000000E+02  0.00000000E+00
  7.80000000E+02  9.80000000E+01  0.00000000E+00
  7.80000000E+02  9.60000000E+01  0.00000000E+00
  7.80000000E+02  9.40000000E+01  0.00000000E+00
  7.80000000E+02  9.20000000E+01  0.00000000E+00
  7.80000000E+02  9.00000000E+01  0.00000000E+00
  7.80000000E+02  8.80000000E+01  0.00000000E+00
  7.80000000E+02  8.60000000E+01  0.00000000E+00
  7.80000000E+02  8.40000000E+01  0.00000000E+00
  7.80000000E+02  8.20000000E+01  0.00000000E+00
  7.80000000E+02  8.00000000E+01  0.00000000E+00
  7.80000000E+02  7.80000000E+01  0.00000000E+00
  7.80000000E+02  7.60000000E+01  0.00000000E+00
  7.80000000E+02  7.40000000E+01  0.00000000E+00
  7.80000000E+02  7.20000000E+01  0.00000000E+00
  7.80000000E+02  7.00000000E+01  0.00000000E+00
  7.80000000E+02  6.80000000E+01  0.00000000E+00
  7.80000000E+02  6.60000000E+01  0.00000000E+00
  7.80000000E+02  6.40000000E+01  0.00000000E+00
  7.80000000E+02  6.20000000E+01  0.00000000E+00
  7.80000000E+02  6.00000000E+01  0.00000000E+00
  7.80000000E+02  5.80000000E+01  0.00000000E+00
  7.80000000E+02  5.60000000E+01  0.00000000E+00
  7.80000000E+02  5.40000000E+01  0.00000000E+00
  7.80000000E+02  5.20000000E+01  0.00000000E+00
  7.80000000E+02  5.00000000E+01  0.00000000E+00
  7.80000000E+02  4.80000000E+01  0.00000000E+00
  7.80000000E+02  4.60000000E+01  0.00000000E+00
  7.80000000E+02  4.40000000E+01  0.00000000E+00
  7.80000000E+02  4.20000000E+01  0.00000000E+00
  7.80000000E+02  4.00000000E+01  0.00000000E+00
  7.80000000E+02  3.80000000E+01  0.00000000E+00
  7.80000000E+02  3.60000000E+01  0.00000000E+00
  7.80000000E+02  3.40000000E+01  0.00000000E+00
  7.80000000E+02  3.20000000E+01  0.00000000E+00
  7.80000000E+02  3.00000000E+01  0.00000000E+00
  7.80000000E+02  2.80000000E+01  0.00000000E+00
  7.80000000E+02  2.60000000E+01  0.00000000E+00
  7.80000000E+02  2.40000000E+01  0.00000000E+00
  7.80000000E+02  2.20000000E+01  0.00000000E+00
  7.80000000E+02  2.00000000E+01  0.00000000E+00
  7.80000000E+02  1.80000000E+01  0.00000000E+00
  7.80000000E+02  1.60000000E+01  0.00000000E+00
  7.80000000E+02  1.40000000E+01  0.00000000E+00
  7.80000000E+02  1.20000000E+01  0.00000000E+00
  7.80000000E+02  1.00000000E+01  0.00000000E+00
  7.80000000E+02  8.00000000E+00  0.00000000E+00
  7.80000000E+02  6.00000000E+00  0.00000000E+00
  7.80000000E+02  4.00000000E+00  0.00000000E+00
  7.80000000E+02  2.00000000E+00  0.00000000E+00
  7.80000000E+02 -3.33066907E-14  0.00000000E+00
  7.90000000E+02  1.00000000E+02  0.00000000E+00
  7.90000000E+02  9.80000000E+01  0.00000000E+00
  7.90000000E+02  9.60000000E+01  0.00000000E+00
  7.90000000E+02  9.40000000E+01  0.00000000E+00
  7.90000000E+02  9.20000000E+01  0.00000000E+00
  7.90000000E+02  9.00000000E+01  0.00000000E+00
  7.90000000E+02  8.80000000E+01  0.00000000E+00
  7.90000000E+02  8.60000000E+01  0.00000000E+00
  7.90000000E+02  8.40000000E+01  0.00000000E+00
  7.90000000E+02  8.20000000E+01  0.00000000E+00
  7.90000000E+02  8.00000000E+01  0.00000000E+00
  7.90000000E+02  7.80000000E+01  0.00000000E+00
  7.90000000E+02  7.60000000E+01  0.00000000E+00
  7.90000000E+02  7.40000000E+01  0.00000000E+00
  7.90000000E+02  7.20000000E+01  0.00000000E+00
  7.90000000E+02  7.00000000E+01  0.00000000E+00
  7.90000000E+02  6.80000000E+01  0.00000000E+00
  7.90000000E+02  6.60000000E+01  0.00000000E+00
  7.90000000E+02  6.40000000E+01  0.00000000E+00
  7.90000000E+02  6.20000000E+01  0.00000000E+00
  7.90000000E+02  6.00000000E+01  0.00000000E+00
  7.90000000E+02  5.80000000E+01  0.00000000E+00
  7.90000000E+02  5.60000000E+01  0.00000000E+00
  7.90000000E+02  5.40000000E+01  0.00000000E+00
  7.90000000E+02  5.20000000E+01  0.00000000E+00
  7.90000000E+02  5.00000000E+01  0.00000000E+00
  7.90000000E+02  4.80000000E+01  0.00000000E+00
  7.90000000E+02  4.60000000E+01  0.00000000E+00
  7.90000000E+02  4.40000000E+01  0.00000000E+00
  7.90000000E+02  4.20000000E+01  0.00000000E+00
  7.90000000E+02  4.00000000E+01  0.00000000E+00
  7.90000000E+02  3.80000000E+01  0.00000000E+00
  7.90000000E+02  3.60000000E+01  0.00000000E+00
  7.90000000E+02  3.40000000E+01  0.00000000E+00
  7.90000000E+02  3.20000000E+01  0.00000000E+00
  7.90000000E+02  3.00000000E+01  0.00000000E+00
  7.90000000E+02  2.80000000E+01  0.00000000E+00
  7.90000000E+02  2.60000000E+01  0.00000000E+00
  7.90000000E+02  2.40000000E+01  0.00000000E+00
  7.90000000E+02  2.20000000E+01  0.00000000E+00
  7.90000000E+02  2.00000000E+01  0.00000000E+00
  7.90000000E+02  1.80000000E+01  0.00000000E+00
  7.90000000E+02  1.60000000E+01  0.00000000E+00
  7.90000000E+02  1.40000000E+01  0.00000000E+00
  7.90000000E+02  1.20000000E+01  0.00000000E+00
  7.90000000E+02  1.00000000E+01  0.00000000E+00
  7.90000000E+02  8.00000000E+00  0.00000000E+00
  7.90000000E+02  6.00000000E+00  0.00000000E+00
  7.90000000E+02  4.00000000E+00  0.00000000E+00
  7.90000000E+02  2.00000000E+00  0.00000000E+00
  7.90000000E+02 -3.33066907E-14  0.00000000E+00
  8.00000000E+02  1.00000000E+02  0.00000000E+00
  8.00000000E+02  9.80000000E+01  0.00000000E+00
  8.00000000E+02  9.60000000E+01  0.00000000E+00
  8.00000000E+02  9.40000000E+01  0.00000000E+00
  8.00000000E+02  9.20000000E+01  0.00000000E+00
  8.00000000E+02  9.00000000E+01  0.00000000E+00
  8.00000000E+02  8.80000000E+01  0.00000000E+00
  8.00000000E+02  8.60000000E+01  0.00000000E+00
  8.00000000E+02  8.40000000E+01  0.00000000E+00
  8.00000000E+02  8.20000000E+01  0.00000000E+00
  8.00000000E+02  8.00000000E+01  0.00000000E+00
  8.00000000E+02  7.80000000E+01  0.00000000E+00
  8.00000000E+02  7.60000000E+01  0.00000000E+00
  8.00000000E+02  7.40000000E+01  0.00000000E+00
  8.00000000E+02  7.20000000E+01  0.00000000E+00
  8.00000000E+02  7.00000000E+01  0.00000000E+00
  8.00000000E+02  6.80000000E+01  0.00000000E+00
  8.00000000E+02  6.60000000E+01  0.00000000E+00
  8.00000000E+02  6.40000000E+01  0.00000000E+00
  8.00000000E+02  6.20000000E+01  0.00000000E+00
  8.00000000E+02  6.00000000E+01  0.00000000E+00
  8.00000000E+02  5.80000000E+01  0.00000000E+00
  8.00000000E+02  5.60000000E+01  0.00000000E+00
  8.00000000E+02  5.40000000E+01  0.00000000E+00
  8.00000000E+02  5.20000000E+01  0.00000000E+00
  8.00000000E+02  5.00000000E+01  0.00000000E+00
  8.00000000E+02  4.80000000E+01  0.00000000E+00
  8.00000000E+02  4.60000000E+01  0.00000000E+00
  8.00000000E+02  4.40000000E+01  0.00000000E+00
  8.00000000E+02  4.20000000E+01  0.00000000E+00
  8.00000000E+02  4.00000000E+01  0.00000000E+00
  8.00000000E+02  3.80000000E+01  0.00000000E+00
  8.00000000E+02  3.60000000E+01  0.00000000E+00
  8.00000000E+02  3.40000000E+01  0.00000000E+00
  8.00000000E+02  3.20000000E+01  0.00000000E+00
  8.00000000E+02  3.00000000E+01  0.00000000E+00
  8.00000000E+02  2.80000000E+01  0.00000000E+00
  8.00000000E+02  2.60000000E+01  0.00000000E+00
  8.00000000E+02  2.40000000E+01  0.00000000E+00
  8.00000000E+02  2.20000000E+01  0.00000000E+00
  8.00000000E+02  2.00000000E+01  0.00000000E+00
  8.00000000E+02  1.80000000E+01  0.00000000E+00
  8.00000000E+02  1.60000000E+01  0.00000000E+00
  8.00000000E+02  1.40000000E+01  0.00000000E+00
  8.00000000E+02  1.20000000E+01  0.00000000E+00
  8.00000000E+02  1.00000000E+01  0.00000000E+00
  8.00000000E+02  8.00000000E+00  0.00000000E+00
  8.00000000E+02  6.00000000E+00  0.00000000E+00
  8.00000000E+02  4.00000000E+00  0.00000000E+00
  8.00000000E+02  2.00000000E+00  0.00000000E+00
  8.00000000E+02 -3.33066907E-14  0.00000000E+00
  8.10000000E+02  1.00000000E+02  0.00000000E+00
  8.10000000E+02  9.80000000E+01  0.00000000E+00
  8.10000000E+02  9.60000000E+01  0.00000000E+00
  8.10000000E+02  9.40000000E+01  0.00000000E+00
  8.10000000E+02  9.20000000E+01  0.00000000E+00
  8.10000000E+02  9.00000000E+01  0.00000000E+00
  8.10000000E+02  8.80000000E+01  0.00000000E+00
  8.10000000E+02  8.60000000E+01  0.00000000E+00
  8.10000000E+02  8.40000000E+01  0.00000000E+00
  8.10000000E+02  8.20000000E+01  0.00000000E+00
  8.10000000E+02  8.00000000E+01  0.00000000E+00
  8.10000000E+02  7.80000000E+01  0.00000000E+00
  8.10000000E+02  7.60000000E+01  0.00000000E+00
  8.10000000E+02  7.40000000E+01  0.00000000E+00
  8.10000000E+02  7.20000000E+01  0.00000000E+00
  8.10000000E+02  7.00000000E+01  0.00000000E+00
  8.10000000E+02  6.80000000E+01  0.00000000E+00
  8.10000000E+02  6.60000000E+01  0.00000000E+00
  8.10000000E+02  6.40000000E+01  0.00000000E+00
  8.10000000E+02  6.20000000E+01  0.00000000E+00
  8.10000000E+02  6.00000000E+01  0.00000000E+00
  8.10000000E+02  5.80000000E+01  0.00000000E+00
  8.10000000E+02  5.60000000E+01  0.00000000E+00
  8.10000000E+02  5.40000000E+01  0.00000000E+00
  8.10000000E+02  5.20000000E+01  0.00000000E+00
  8.10000000E+02  5.00000000E+01  0.00000000E+00
  8.10000000E+02  4.80000000E+01  0.00000000E+00
  8.10000000E+02  4.60000000E+01  0.00000000E+00
  8.10000000E+02  4.40000000E+01  0.00000000E+00
  8.10000000E+02  4.20000000E+01  0.00000000E+00
  8.10000000E+02  4.00000000E+01  0.00000000E+00
  8.10000000E+02  3.80000000E+01  0.00000000E+00
  8.10000000E+02  3.60000000E+01  0.00000000E+00
  8.10000000E+02  3.40000000E+01  0.00000000E+00
  8.10000000E+02  3.20000000E+01  0.00000000E+00
  8.10000000E+02  3.00000000E+01  0.00000000E+00
  8.10000000E+02  2.80000000E+01  0.00000000E+00
  8.10000000E+02  2.60000000E+01  0.00000000E+00
  8.10000000E+02  2.40000000E+01  0.00000000E+00
  8.10000000E+02  2.20000000E+01  0.00000000E+00
  8.10000000E+02  2.00000000E+01  0.00000000E+00
  8.10000000E+02  1.80000000E+01  0.00000000E+00
  8.10000000E+02  1.60000000E+01  0.00000000E+00
  8.10000000E+02  1.40000000E+01  0.00000000E+00
  8.10000000E+02  1.20000000E+01  0.00000000E+00
  8.10000000E+02  1.00000000E+01  0.00000000E+00
  8.10000000E+02  8.00000000E+00  0.00000000E+00
  8.10000000E+02  6.00000000E+00  0.00000000E+00
  8.10000000E+02  4.00000000E+00  0.00000000E+00
  8.10000000E+02  2.00000000E+00  0.00000000E+00
  8.10000000E+02 -3.33066907E-14  0.00000000E+00
  8.20000000E+02  1.00000000E+02  0.00000000E+00
  8.20000000E+02  9.80000000E+01  0.00000000E+00
  8.20000000E+02  9.60000000E+01  0.00000000E+00
  8.20000000E+02  9.40000000E+01  0.00000000E+00
  8.20000000E+02  9.20000000E+01  0.00000000E+00
  8.20000000E+02  9.00000000E+01  0.00000000E+00
  8.20000000E+02  8.80000000E+01  0.00000000E+00
  8.20000000E+02  8.60000000E+01  0.00000000E+00
  8.20000000E+02  8.40000000E+01  0.00000000E+00
  8.20000000E+02  8.20000000E+01  0.00000000E+00
  8.20000000E+02  8.00000000E+01  0.00000000E+00
  8.20000000E+02  7.80000000E+01  0.00000000E+00
  8.20000000E+02  7.60000000E+01  0.00000000E+00
  8.20000000E+02  7.40000000E+01  0.00000000E+00
  8.20000000E+02  7.20000000E+01  0.00000000E+00
  8.20000000E+02  7.00000000E+01  0.00000000E+00
  8.20000000E+02  6.80000000E+01  0.00000000E+00
  8.20000000E+02  6.60000000E+01  0.00000000E+00
  8.20000000E+02  6.40000000E+01  0.00000000E+00
  8.20000000E+02  6.20000000E+01  0.00000000E+00
  8.20000000E+02  6.00000000E+01  0.00000000E+00
  8.20000000E+02  5.80000000E+01  0.00000000E+00
  8.20000000E+02  5.60000000E+01  0.00000000E+00
  8.20000000E+02  5.40000000E+01  0.00000000E+00
  8.20000000E+02  5.20000000E+01  0.00000000E+00
  8.20000000E+02  5.00000000E+01  0.00000000E+00
  8.20000000E+02  4.80000000E+01  0.00000000E+00
  8.20000000E+02  4.60000000E+01  0.00000000E+00
  8.20000000E+02  4.40000000E+01  0.00000000E+00
  8.20000000E+02  4.20000000E+01  0.00000000E+00
  8.20000000E+02  4.00000000E+01  0.00000000E+00
  8.20000000E+02  3.80000000E+01  0.00000000E+00
  8.20000000E+02  3.60000000E+01  0.00000000E+00
  8.20000000E+02  3.40000000E+01  0.00000000E+00
  8.20000000E+02  3.20000000E+01  0.00000000E+00
  8.20000000E+02  3.00000000E+01  0.00000000E+00
  8.20000000E+02  2.80000000E+01  0.00000000E+00
  8.20000000E+02  2.60000000E+01  0.00000000E+00
  8.20000000E+02  2.40000000E+01  0.00000000E+00
  8.20000000E+02  2.20000000E+01  0.00000000E+00
  8.20000000E+02  2.00000000E+01  0.00000000E+00
  8.20000000E+02  1.80000000E+01  0.00000000E+00
  8.20000000E+02  1.60000000E+01  0.00000000E+00
  8.20000000E+02  1.40000000E+01  0.00000000E+00
  8.20000000E+02  1.20000000E+01  0.00000000E+00
  8.20000000E+02  1.00000000E+01  0.00000000E+00
  8.20000000E+02  8.00000000E+00  0.00000000E+00
  8.20000000E+02  6.00000000E+00  0.00000000E+00
  8.20000000E+02  4.00000000E+00  0.00000000E+00
  8.20000000E+02  2.00000000E+00  0.00000000E+00
  8.20000000E+02 -3.33066907E-14  0.00000000E+00
  8.30000000E+02  1.00000000E+02  0.00000000E+00
  8.30000000E+02  9.80000000E+01  0.00000000E+00
  8.30000000E+02  9.60000000E+01  0.00000000E+00
  8.30000000E+02  9.40000000E+01  0.00000000E+00
  8.30000000E+02  9.20000000E+01  0.00000000E+00
  8.30000000E+02  9.00000000E+01  0.00000000E+00
  8.30000000E+02  8.80000000E+01  0.00000000E+00
  8.30000000E+02  8.60000000E+01  0.00000000E+00
  8.30000000E+02  8.40000000E+01  0.00000000E+00
  8.30000000E+02  8.20000000E+01  0.00000000E+00
  8.30000000E+02  8.00000000E+01  0.00000000E+00
  8.30000000E+02  7.80000000E+01  0.00000000E+00
  8.30000000E+02  7.60000000E+01  0.00000000E+00
  8.30000000E+02  7.40000000E+01  0.00000000E+00
  8.30000000E+02  7.20000000E+01  0.00000000E+00
  8.30000000E+02  7.00000000E+01  0.00000000E+00
  8.30000000E+02  6.80000000E+01  0.00000000E+00
  8.30000000E+02  6.60000000E+01  0.00000000E+00
  8.30000000E+02  6.40000000E+01  0.00000000E+00
  8.30000000E+02  6.20000000E+01  0.00000000E+00
  8.30000000E+02  6.00000000E+01  0.00000000E+00
  8.30000000E+02  5.80000000E+01  0.00000000E+00
  8.30000000E+02  5.60000000E+01  0.00000000E+00
  8.30000000E+02  5.40000000E+01  0.00000000E+00
  8.30000000E+02  5.20000000E+01  0.00000000E+00
  8.30000000E+02  5.00000000E+01  0.00000000E+00
  8.30000000E+02  4.80000000E+01  0.00000000E+00
  8.30000000E+02  4.60000000E+01  0.00000000E+00
  8.30000000E+02  4.40000000E+01  0.00000000E+00
  8.30000000E+02  4.20000000E+01  0.00000000E+00
  8.30000000E+02  4.00000000E+01  0.00000000E+00
  8.30000000E+02  3.80000000E+01  0.00000000E+00
  8.30000000E+02  3.60000000E+01  0.00000000E+00
  8.30000000E+02  3.40000000E+01  0.00000000E+00
  8.30000000E+02  3.20000000E+01  0.00000000E+00
  8.30000000E+02  3.00000000E+01  0.00000000E+00
  8.30000000E+02  2.80000000E+01  0.00000000E+00
  8.30000000E+02  2.60000000E+01  0.00000000E+00
  8.30000000E+02  2.40000000E+01  0.00000000E+00
  8.30000000E+02  2.20000000E+01  0.00000000E+00
  8.30000000E+02  2.00000000E+01  0.00000000E+00
  8.30000000E+02  1.80000000E+01  0.00000000E+00
  8.30000000E+02  1.60000000E+01  0.00000000E+00
  8.30000000E+02  1.40000000E+01  0.00000000E+00
  8.30000000E+02  1.20000000E+01  0.00000000E+00
  8.30000000E+02  1.00000000E+01  0.00000000E+00
  8.30000000E+02  8.00000000E+00  0.00000000E+00
  8.30000000E+02  6.00000000E+00  0.00000000E+00
  8.30000000E+02  4.00000000E+00  0.00000000E+00
  8.30000000E+02  2.00000000E+00  0.00000000E+00
  8.30000000E+02 -3.33066907E-14  0.00000000E+00
  8.40000000E+02  1.00000000E+02  0.00000000E+00
  8.40000000E+02  9.80000000E+01  0.00000000E+00
  8.40000000E+02  9.60000000E+01  0.00000000E+00
  8.40000000E+02  9.40000000E+01  0.00000000E+00
  8.40000000E+02  9.20000000E+01  0.00000000E+00
  8.40000000E+02  9.00000000E+01  0.00000000E+00
  8.40000000E+02  8.80000000E+01  0.00000000E+00
  8.40000000E+02  8.60000000E+01  0.00000000E+00
  8.40000000E+02  8.40000000E+01  0.00000000E+00
  8.40000000E+02  8.20000000E+01  0.00000000E+00
  8.40000000E+02  8.00000000E+01  0.00000000E+00
  8.40000000E+02  7.80000000E+01  0.00000000E+00
  8.40000000E+02  7.60000000E+01  0.00000000E+00
  8.40000000E+02  7.40000000E+01  0.00000000E+00
  8.40000000E+02  7.20000000E+01  0.00000000E+00
  8.40000000E+02  7.00000000E+01  0.00000000E+00
  8.40000000E+02  6.80000000E+01  0.00000000E+00
  8.40000000E+02  6.60000000E+01  0.00000000E+00
  8.40000000E+02  6.40000000E+01  0.00000000E+00
  8.40000000E+02  6.20000000E+01  0.00000000E+00
  8.40000000E+02  6.00000000E+01  0.00000000E+00
  8.40000000E+02  5.80000000E+01  0.00000000E+00
  8.40000000E+02  5.60000000E+01  0.00000000E+00
  8.40000000E+02  5.40000000E+01  0.00000000E+00
  8.40000000E+02  5.20000000E+01  0.00000000E+00
  8.40000000E+02  5.00000000E+01  0.00000000E+00
  8.40000000E+02  4.80000000E+01  0.00000000E+00
  8.40000000E+02  4.60000000E+01  0.00000000E+00
  8.40000000E+02  4.40000000E+01  0.00000000E+00
  8.40000000E+02  4.20000000E+01  0.00000000E+00
  8.40000000E+02  4.00000000E+01  0.00000000E+00
  8.40000000E+02  3.80000000E+01  0.00000000E+00
  8.40000000E+02  3.60000000E+01  0.00000000E+00
  8.40000000E+02  3.40000000E+01  0.00000000E+00
  8.40000000E+02  3.20000000E+01  0.00000000E+00
  8.40000000E+02  3.00000000E+01  0.00000000E+00
  8.40000000E+02  2.80000000E+01  0.00000000E+00
  8.40000000E+02  2.60000000E+01  0.00000000E+00
  8.40000000E+02  2.40000000E+01  0.00000000E+00
  8.40000000E+02  2.20000000E+01  0.00000000E+00
  8.40000000E+02  2.00000000E+01  0.00000000E+00
  8.40000000E+02  1.80000000E+01  0.00000000E+00
  8.40000000E+02  1.60000000E+01  0.00000000E+00
  8.40000000E+02  1.40000000E+01  0.00000000E+00
  8.40000000E+02  1.20000000E+01  0.00000000E+00
  8.40000000E+02  1.00000000E+01  0.00000000E+00
  8.40000000E+02  8.00000000E+00  0.00000000E+00
  8.40000000E+02  6.00000000E+00  0.00000000E+00
  8.40000000E+02  4.00000000E+00  0.00000000E+00
  8.40000000E+02  2.00000000E+00  0.00000000E+00
  8.40000000E+02 -3.33066907E-14  0.00000000E+00
  8.50000000E+02  1.00000000E+02  0.00000000E+00
  8.50000000E+02  9.80000000E+01  0.00000000E+00
  8.50000000E+02  9.60000000E+01  0.00000000E+00
  8.50000000E+02  9.40000000E+01  0.00000000E+00
  8.50000000E+02  9.20000000E+01  0.00000000E+00
  8.50000000E+02  9.00000000E+01  0.00000000E+00
  8.50000000E+02  8.80000000E+01  0.00000000E+00
  8.50000000E+02  8.60000000E+01  0.00000000E+00
  8.50000000E+02  8.40000000E+01  0.00000000E+00
  8.50000000E+02  8.20000000E+01  0.00000000E+00
  8.50000000E+02  8.00000000E+01  0.00000000E+00
  8.50000000E+02  7.80000000E+01  0.00000000E+00
  8.50000000E+02  7.60000000E+01  0.00000000E+00
  8.50000000E+02  7.40000000E+01  0.00000000E+00
  8.50000000E+02  7.20000000E+01  0.00000000E+00
  8.50000000E+02  7.00000000E+01  0.00000000E+00
  8.50000000E+02  6.80000000E+01  0.00000000E+00
  8.50000000E+02  6.60000000E+01  0.00000000E+00
  8.50000000E+02  6.40000000E+01  0.00000000E+00
  8.50000000E+02  6.20000000E+01  0.00000000E+00
  8.50000000E+02  6.00000000E+01  0.00000000E+00
  8.50000000E+02  5.80000000E+01  0.00000000E+00
  8.50000000E+02  5.60000000E+01  0.00000000E+00
  8.50000000E+02  5.40000000E+01  0.00000000E+00
  8.50000000E+02  5.20000000E+01  0.00000000E+00
  8.50000000E+02  5.00000000E+01  0.00000000E+00
  8.50000000E+02  4.80000000E+01  0.00000000E+00
  8.50000000E+02  4.60000000E+01  0.00000000E+00
  8.50000000E+02  4.40000000E+01  0.00000000E+00
  8.50000000E+02  4.20000000E+01  0.00000000E+00
  8.50000000E+02  4.00000000E+01  0.00000000E+00
  8.50000000E+02  3.80000000E+01  0.00000000E+00
  8.50000000E+02  3.60000000E+01  0.00000000E+00
  8.50000000E+02  3.40000000E+01  0.00000000E+00
  8.50000000E+02  3.20000000E+01  0.00000000E+00
  8.50000000E+02  3.00000000E+01  0.00000000E+00
  8.50000000E+02  2.80000000E+01  0.00000000E+00
  8.50000000E+02  2.60000000E+01  0.00000000E+00
  8.50000000E+02  2.40000000E+01  0.00000000E+00
  8.50000000E+02  2.20000000E+01  0.00000000E+00
  8.50000000E+02  2.00000000E+01  0.00000000E+00
  8.50000000E+02  1.80000000E+01  0.00000000E+00
  8.50000000E+02  1.60000000E+01  0.00000000E+00
  8.50000000E+02  1.40000000E+01  0.00000000E+00
  8.50000000E+02  1.20000000E+01  0.00000000E+00
  8.50000000E+02  1.00000000E+01  0.00000000E+00
  8.50000000E+02  8.00000000E+00  0.00000000E+00
  8.50000000E+02  6.00000000E+00  0.00000000E+00
  8.50000000E+02  4.00000000E+00  0.00000000E+00
  8.50000000E+02  2.00000000E+00  0.00000000E+00
  8.50000000E+02 -3.33066907E-14  0.00000000E+00
  8.60000000E+02  1.00000000E+02  0.00000000E+00
  8.60000000E+02  9.80000000E+01  0.00000000E+00
  8.60000000E+02  9.60000000E+01  0.00000000E+00
  8.60000000E+02  9.40000000E+01  0.00000000E+00
  8.60000000E+02  9.20000000E+01  0.00000000E+00
  8.60000000E+02  9.00000000E+01  0.00000000E+00
  8.60000000E+02  8.80000000E+01  0.00000000E+00
  8.60000000E+02  8.60000000E+01  0.00000000E+00
  8.60000000E+02  8.40000000E+01  0.00000000E+00
  8.60000000E+02  8.20000000E+01  0.00000000E+00
  8.60000000E+02  8.00000000E+01  0.00000000E+00
  8.60000000E+02  7.80000000E+01  0.00000000E+00
  8.60000000E+02  7.60000000E+01  0.00000000E+00
  8.60000000E+02  7.40000000E+01  0.00000000E+00
  8.60000000E+02  7.20000000E+01  0.00000000E+00
  8.60000000E+02  7.00000000E+01  0.00000000E+00
  8.60000000E+02  6.80000000E+01  0.00000000E+00
  8.60000000E+02  6.60000000E+01  0.00000000E+00
  8.60000000E+02  6.40000000E+01  0.00000000E+00
  8.60000000E+02  6.20000000E+01  0.00000000E+00
  8.60000000E+02  6.00000000E+01  0.00000000E+00
  8.60000000E+02  5.80000000E+01  0.00000000E+00
  8.60000000E+02  5.60000000E+01  0.00000000E+00
  8.60000000E+02  5.40000000E+01  0.00000000E+00
  8.60000000E+02  5.20000000E+01  0.00000000E+00
  8.60000000E+02  5.00000000E+01  0.00000000E+00
  8.60000000E+02  4.80000000E+01  0.00000000E+00
  8.60000000E+02  4.60000000E+01  0.00000000E+00
  8.60000000E+02  4.40000000E+01  0.00000000E+00
  8.60000000E+02  4.20000000E+01  0.00000000E+00
  8.60000000E+02  4.00000000E+01  0.00000000E+00
  8.60000000E+02  3.80000000E+01  0.00000000E+00
  8.60000000E+02  3.60000000E+01  0.00000000E+00
  8.60000000E+02  3.40000000E+01  0.00000000E+00
  8.60000000E+02  3.20000000E+01  0.00000000E+00
  8.60000000E+02  3.00000000E+01  0.00000000E+00
  8.60000000E+02  2.80000000E+01  0.00000000E+00
  8.60000000E+02  2.60000000E+01  0.00000000E+00
  8.60000000E+02  2.40000000E+01  0.00000000E+00
  8.60000000E+02  2.20000000E+01  0.00000000E+00
  8.60000000E+02  2.00000000E+01  0.00000000E+00
  8.60000000E+02  1.80000000E+01  0.00000000E+00
  8.60000000E+02  1.60000000E+01  0.00000000E+00
  8.60000000E+02  1.40000000E+01  0.00000000E+00
  8.60000000E+02  1.20000000E+01  0.00000000E+00
  8.60000000E+02  1.00000000E+01  0.00000000E+00
  8.60000000E+02  8.00000000E+00  0.00000000E+00
  8.60000000E+02  6.00000000E+00  0.00000000E+00
  8.60000000E+02  4.00000000E+00  0.00000000E+00
  8.60000000E+02  2.00000000E+00  0.00000000E+00
  8.60000000E+02 -3.33066907E-14  0.00000000E+00
  8.70000000E+02  1.00000000E+02  0.00000000E+00
  8.70000000E+02  9.80000000E+01  0.00000000E+00
  8.70000000E+02  9.60000000E+01  0.00000000E+00
  8.70000000E+02  9.40000000E+01  0.00000000E+00
  8.70000000E+02  9.20000000E+01  0.00000000E+00
  8.70000000E+02  9.00000000E+01  0.00000000E+00
  8.70000000E+02  8.80000000E+01  0.00000000E+00
  8.70000000E+02  8.60000000E+01  0.00000000E+00
  8.70000000E+02  8.40000000E+01  0.00000000E+00
  8.70000000E+02  8.20000000E+01  0.00000000E+00
  8.70000000E+02  8.00000000E+01  0.00000000E+00
  8.70000000E+02  7.80000000E+01  0.00000000E+00
  8.70000000E+02  7.60000000E+01  0.00000000E+00
  8.70000000E+02  7.40000000E+01  0.00000000E+00
  8.70000000E+02  7.20000000E+01  0.00000000E+00
  8.70000000E+02  7.00000000E+01  0.00000000E+00
  8.70000000E+02  6.80000000E+01  0.00000000E+00
  8.70000000E+02  6.60000000E+01  0.00000000E+00
  8.70000000E+02  6.40000000E+01  0.00000000E+00
  8.70000000E+02  6.20000000E+01  0.00000000E+00
  8.70000000E+02  6.00000000E+01  0.00000000E+00
  8.70000000E+02  5.80000000E+01  0.00000000E+00
  8.70000000E+02  5.60000000E+01  0.00000000E+00
  8.70000000E+02  5.40000000E+01  0.00000000E+00
  8.70000000E+02  5.20000000E+01  0.00000000E+00
  8.70000000E+02  5.00000000E+01  0.00000000E+00
  8.70000000E+02  4.80000000E+01  0.00000000E+00
  8.70000000E+02  4.60000000E+01  0.00000000E+00
  8.70000000E+02  4.40000000E+01  0.00000000E+00
  8.70000000E+02  4.20000000E+01  0.00000000E+00
  8.70000000E+02  4.00000000E+01  0.00000000E+00
  8.70000000E+02  3.80000000E+01  0.00000000E+00
  8.70000000E+02  3.60000000E+01  0.00000000E+00
  8.70000000E+02  3.40000000E+01  0.00000000E+00
  8.70000000E+02  3.20000000E+01  0.00000000E+00
  8.70000000E+02  3.00000000E+01  0.00000000E+00
  8.70000000E+02  2.80000000E+01  0.00000000E+00
  8.70000000E+02  2.60000000E+01  0.00000000E+00
  8.70000000E+02  2.40000000E+01  0.00000000E+00
  8.70000000E+02  2.20000000E+01  0.00000000E+00
  8.70000000E+02  2.00000000E+01  0.00000000E+00
  8.70000000E+02  1.80000000E+01  0.00000000E+00
  8.70000000E+02  1.60000000E+01  0.00000000E+00
  8.70000000E+02  1.40000000E+01  0.00000000E+00
  8.70000000E+02  1.20000000E+01  0.00000000E+00
  8.70000000E+02  1.00000000E+01  0.00000000E+00
  8.70000000E+02  8.00000000E+00  0.00000000E+00
  8.70000000E+02  6.00000000E+00  0.00000000E+00
  8.70000000E+02  4.00000000E+00  0.00000000E+00
  8.70000000E+02  2.00000000E+00  0.00000000E+00
  8.70000000E+02 -3.33066907E-14  0.00000000E+00
  8.80000000E+02  1.00000000E+02  0.00000000E+00
  8.80000000E+02  9.80000000E+01  0.00000000E+00
  8.80000000E+02  9.60000000E+01  0.00000000E+00
  8.80000000E+02  9.40000000E+01  0.00000000E+00
  8.80000000E+02  9.20000000E+01  0.00000000E+00
  8.80000000E+02  9.00000000E+01  0.00000000E+00
  8.80000000E+02  8.80000000E+01  0.00000000E+00
  8.80000000E+02  8.60000000E+01  0.00000000E+00
  8.80000000E+02  8.40000000E+01  0.00000000E+00
  8.80000000E+02  8.20000000E+01  0.00000000E+00
  8.80000000E+02  8.00000000E+01  0.00000000E+00
  8.80000000E+02  7.80000000E+01  0.00000000E+00
  8.80000000E+02  7.60000000E+01  0.00000000E+00
  8.80000000E+02  7.40000000E+01  0.00000000E+00
  8.80000000E+02  7.20000000E+01  0.00000000E+00
  8.80000000E+02  7.00000000E+01  0.00000000E+00
  8.80000000E+02  6.80000000E+01  0.00000000E+00
  8.80000000E+02  6.60000000E+01  0.00000000E+00
  8.80000000E+02  6.40000000E+01  0.00000000E+00
  8.80000000E+02  6.20000000E+01  0.00000000E+00
  8.80000000E+02  6.00000000E+01  0.00000000E+00
  8.80000000E+02  5.80000000E+01  0.00000000E+00
  8.80000000E+02  5.60000000E+01  0.00000000E+00
  8.80000000E+02  5.40000000E+01  0.00000000E+00
  8.80000000E+02  5.20000000E+01  0.00000000E+00
  8.80000000E+02  5.00000000E+01  0.00000000E+00
  8.80000000E+02  4.80000000E+01  0.00000000E+00
  8.80000000E+02  4.60000000E+01  0.00000000E+00
  8.80000000E+02  4.40000000E+01  0.00000000E+00
  8.80000000E+02  4.20000000E+01  0.00000000E+00
  8.80000000E+02  4.00000000E+01  0.00000000E+00
  8.80000000E+02  3.80000000E+01  0.00000000E+00
  8.80000000E+02  3.60000000E+01  0.00000000E+00
  8.80000000E+02  3.40000000E+01  0.00000000E+00
  8.80000000E+02  3.20000000E+01  0.00000000E+00
  8.80000000E+02  3.00000000E+01  0.00000000E+00
  8.80000000E+02  2.80000000E+01  0.00000000E+00
  8.80000000E+02  2.60000000E+01  0.00000000E+00
  8.80000000E+02  2.40000000E+01  0.00000000E+00
  8.80000000E+02  2.20000000E+01  0.00000000E+00
  8.80000000E+02  2.00000000E+01  0.00000000E+00
  8.80000000E+02  1.80000000E+01  0.00000000E+00
  8.80000000E+02  1.60000000E+01  0.00000000E+00
  8.80000000E+02  1.40000000E+01  0.00000000E+00
  8.80000000E+02  1.20000000E+01  0.00000000E+00
  8.80000000E+02  1.00000000E+01  0.00000000E+00
  8.80000000E+02  8.00000000E+00  0.00000000E+00
  8.80000000E+02  6.00000000E+00  0.00000000E+00
  8.80000000E+02  4.00000000E+00  0.00000000E+00
  8.80000000E+02  2.00000000E+00  0.00000000E+00
  8.80000000E+02 -3.33066907E-14  0.00000000E+00
  8.90000000E+02  1.00000000E+02  0.00000000E+00
  8.90000000E+02  9.80000000E+01  0.00000000E+00
  8.90000000E+02  9.60000000E+01  0.00000000E+00
  8.90000000E+02  9.40000000E+01  0.00000000E+00
  8.90000000E+02  9.20000000E+01  0.00000000E+00
  8.90000000E+02  9.00000000E+01  0.00000000E+00
  8.90000000E+02  8.80000000E+01  0.00000000E+00
  8.90000000E+02  8.60000000E+01  0.00000000E+00
  8.90000000E+02  8.40000000E+01  0.00000000E+00
  8.90000000E+02  8.20000000E+01  0.00000000E+00
  8.90000000E+02  8.00000000E+01  0.00000000E+00
  8.90000000E+02  7.80000000E+01  0.00000000E+00
  8.90000000E+02  7.60000000E+01  0.00000000E+00
  8.90000000E+02  7.40000000E+01  0.00000000E+00
  8.90000000E+02  7.20000000E+01  0.00000000E+00
  8.90000000E+02  7.00000000E+01  0.00000000E+00
  8.90000000E+02  6.80000000E+01  0.00000000E+00
  8.90000000E+02  6.60000000E+01  0.00000000E+00
  8.90000000E+02  6.40000000E+01  0.00000000E+00
  8.90000000E+02  6.20000000E+01  0.00000000E+00
  8.90000000E+02  6.00000000E+01  0.00000000E+00
  8.90000000E+02  5.80000000E+01  0.00000000E+00
  8.90000000E+02  5.60000000E+01  0.00000000E+00
  8.90000000E+02  5.40000000E+01  0.00000000E+00
  8.90000000E+02  5.20000000E+01  0.00000000E+00
  8.90000000E+02  5.00000000E+01  0.00000000E+00
  8.90000000E+02  4.80000000E+01  0.00000000E+00
  8.90000000E+02  4.60000000E+01  0.00000000E+00
  8.90000000E+02  4.40000000E+01  0.00000000E+00
  8.90000000E+02  4.20000000E+01  0.00000000E+00
  8.90000000E+02  4.00000000E+01  0.00000000E+00
  8.90000000E+02  3.80000000E+01  0.00000000E+00
  8.90000000E+02  3.60000000E+01  0.00000000E+00
  8.90000000E+02  3.40000000E+01  0.00000000E+00
  8.90000000E+02  3.20000000E+01  0.00000000E+00
  8.90000000E+02  3.00000000E+01  0.00000000E+00
  8.90000000E+02  2.80000000E+01  0.00000000E+00
  8.90000000E+02  2.60000000E+01  0.00000000E+00
  8.90000000E+02  2.40000000E+01  0.00000000E+00
  8.90000000E+02  2.20000000E+01  0.00000000E+00
  8.90000000E+02  2.00000000E+01  0.00000000E+00
  8.90000000E+02  1.80000000E+01  0.00000000E+00
  8.90000000E+02  1.60000000E+01  0.00000000E+00
  8.90000000E+02  1.40000000E+01  0.00000000E+00
  8.90000000E+02  1.20000000E+01  0.00000000E+00
  8.90000000E+02  1.00000000E+01  0.00000000E+00
  8.90000000E+02  8.00000000E+00  0.00000000E+00
  8.90000000E+02  6.00000000E+00  0.00000000E+00
  8.90000000E+02  4.00000000E+00  0.00000000E+00
  8.90000000E+02  2.00000000E+00  0.00000000E+00
  8.90000000E+02 -3.33066907E-14  0.00000000E+00
  9.00000000E+02  1.00000000E+02  0.00000000E+00
  9.00000000E+02  9.80000000E+01  0.00000000E+00
  9.00000000E+02  9.60000000E+01  0.00000000E+00
  9.00000000E+02  9.40000000E+01  0.00000000E+00
  9.00000000E+02  9.20000000E+01  0.00000000E+00
  9.00000000E+02  9.00000000E+01  0.00000000E+00
  9.00000000E+02  8.80000000E+01  0.00000000E+00
  9.00000000E+02  8.60000000E+01  0.00000000E+00
  9.00000000E+02  8.40000000E+01  0.00000000E+00
  9.00000000E+02  8.20000000E+01  0.00000000E+00
  9.00000000E+02  8.00000000E+01  0.00000000E+00
  9.00000000E+02  7.80000000E+01  0.00000000E+00
  9.00000000E+02  7.60000000E+01  0.00000000E+00
  9.00000000E+02  7.40000000E+01  0.00000000E+00
  9.00000000E+02  7.20000000E+01  0.00000000E+00
  9.00000000E+02  7.00000000E+01  0.00000000E+00
  9.00000000E+02  6.80000000E+01  0.00000000E+00
  9.00000000E+02  6.60000000E+01  0.00000000E+00
  9.00000000E+02  6.40000000E+01  0.00000000E+00
  9.00000000E+02  6.20000000E+01  0.00000000E+00
  9.00000000E+02  6.00000000E+01  0.00000000E+00
  9.00000000E+02  5.80000000E+01  0.00000000E+00
  9.00000000E+02  5.60000000E+01  0.00000000E+00
  9.00000000E+02  5.40000000E+01  0.00000000E+00
  9.00000000E+02  5.20000000E+01  0.00000000E+00
  9.00000000E+02  5.00000000E+01  0.00000000E+00
  9.00000000E+02  4.80000000E+01  0.00000000E+00
  9.00000000E+02  4.60000000E+01  0.00000000E+00
  9.00000000E+02  4.40000000E+01  0.00000000E+00
  9.00000000E+02  4.20000000E+01  0.00000000E+00
  9.00000000E+02  4.00000000E+01  0.00000000E+00
  9.00000000E+02  3.80000000E+01  0.00000000E+00
  9.00000000E+02  3.60000000E+01  0.00000000E+00
  9.00000000E+02  3.40000000E+01  0.00000000E+00
  9.00000000E+02  3.20000000E+01  0.00000000E+00
  9.00000000E+02  3.00000000E+01  0.00000000E+00
  9.00000000E+02  2.80000000E+01  0.00000000E+00
  9.00000000E+02  2.60000000E+01  0.00000000E+00
  9.00000000E+02  2.40000000E+01  0.00000000E+00
  9.00000000E+02  2.20000000E+01  0.00000000E+00
  9.00000000E+02  2.00000000E+01  0.00000000E+00
  9.00000000E+02  1.80000000E+01  0.00000000E+00
  9.00000000E+02  1.60000000E+01  0.00000000E+00
  9.00000000E+02  1.40000000E+01  0.00000000E+00
  9.00000000E+02  1.20000000E+01  0.00000000E+00
  9.00000000E+02  1.00000000E+01  0.00000000E+00
  9.00000000E+02  8.00000000E+00  0.00000000E+00
  9.00000000E+02  6.00000000E+00  0.00000000E+00
  9.00000000E+02  4.00000000E+00  0.00000000E+00
  9.00000000E+02  2.00000000E+00  0.00000000E+00
  9.00000000E+02 -3.33066907E-14  0.00000000E+00
  9.10000000E+02  1.00000000E+02  0.00000000E+00
  9.10000000E+02  9.80000000E+01  0.00000000E+00
  9.10000000E+02  9.60000000E+01  0.00000000E+00
  9.10000000E+02  9.40000000E+01  0.00000000E+00
  9.10000000E+02  9.20000000E+01  0.00000000E+00
  9.10000000E+02  9.00000000E+01  0.00000000E+00
  9.10000000E+02  8.80000000E+01  0.00000000E+00
  9.10000000E+02  8.60000000E+01  0.00000000E+00
  9.10000000E+02  8.40000000E+01  0.00000000E+00
  9.10000000E+02  8.20000000E+01  0.00000000E+00
  9.10000000E+02  8.00000000E+01  0.00000000E+00
  9.10000000E+02  7.80000000E+01  0.00000000E+00
  9.10000000E+02  7.60000000E+01  0.00000000E+00
  9.10000000E+02  7.40000000E+01  0.00000000E+00
  9.10000000E+02  7.20000000E+01  0.00000000E+00
  9.10000000E+02  7.00000000E+01  0.00000000E+00
  9.10000000E+02  6.80000000E+01  0.00000000E+00
  9.10000000E+02  6.60000000E+01  0.00000000E+00
  9.10000000E+02  6.40000000E+01  0.00000000E+00
  9.10000000E+02  6.20000000E+01  0.00000000E+00
  9.10000000E+02  6.00000000E+01  0.00000000E+00
  9.10000000E+02  5.80000000E+01  0.00000000E+00
  9.10000000E+02  5.60000000E+01  0.00000000E+00
  9.10000000E+02  5.40000000E+01  0.00000000E+00
  9.10000000E+02  5.20000000E+01  0.00000000E+00
  9.10000000E+02  5.00000000E+01  0.00000000E+00
  9.10000000E+02  4.80000000E+01  0.00000000E+00
  9.10000000E+02  4.60000000E+01  0.00000000E+00
  9.10000000E+02  4.40000000E+01  0.00000000E+00
  9.10000000E+02  4.20000000E+01  0.00000000E+00
  9.10000000E+02  4.00000000E+01  0.00000000E+00
  9.10000000E+02  3.80000000E+01  0.00000000E+00
  9.10000000E+02  3.60000000E+01  0.00000000E+00
  9.10000000E+02  3.40000000E+01  0.00000000E+00
  9.10000000E+02  3.20000000E+01  0.00000000E+00
  9.10000000E+02  3.00000000E+01  0.00000000E+00
  9.10000000E+02  2.80000000E+01  0.00000000E+00
  9.10000000E+02  2.60000000E+01  0.00000000E+00
  9.10000000E+02  2.40000000E+01  0.00000000E+00
  9.10000000E+02  2.20000000E+01  0.00000000E+00
  9.10000000E+02  2.00000000E+01  0.00000000E+00
  9.10000000E+02  1.80000000E+01  0.00000000E+00
  9.10000000E+02  1.60000000E+01  0.00000000E+00
  9.10000000E+02  1.40000000E+01  0.00000000E+00
  9.10000000E+02  1.20000000E+01  0.00000000E+00
  9.10000000E+02  1.00000000E+01  0.00000000E+00
  9.10000000E+02  8.00000000E+00  0.00000000E+00
  9.10000000E+02  6.00000000E+00  0.00000000E+00
  9.10000000E+02  4.00000000E+00  0.00000000E+00
  9.10000000E+02  2.00000000E+00  0.00000000E+00
  9.10000000E+02 -3.33066907E-14  0.00000000E+00
  9.20000000E+02  1.00000000E+02  0.00000000E+00
  9.20000000E+02  9.80000000E+01  0.00000000E+00
  9.20000000E+02  9.60000000E+01  0.00000000E+00
  9.20000000E+02  9.40000000E+01  0.00000000E+00
  9.20000000E+02  9.20000000E+01  0.00000000E+00
  9.20000000E+02  9.00000000E+01  0.00000000E+00
  9.20000000E+02  8.80000000E+01  0.00000000E+00
  9.20000000E+02  8.60000000E+01  0.00000000E+00
  9.20000000E+02  8.40000000E+01  0.00000000E+00
  9.20000000E+02  8.20000000E+01  0.00000000E+00
  9.20000000E+02  8.00000000E+01  0.00000000E+00
  9.20000000E+02  7.80000000E+01  0.00000000E+00
  9.20000000E+02  7.60000000E+01  0.00000000E+00
  9.20000000E+02  7.40000000E+01  0.00000000E+00
  9.20000000E+02  7.20000000E+01  0.00000000E+00
  9.20000000E+02  7.00000000E+01  0.00000000E+00
  9.20000000E+02  6.80000000E+01  0.00000000E+00
  9.20000000E+02  6.60000000E+01  0.00000000E+00
  9.20000000E+02  6.40000000E+01  0.00000000E+00
  9.20000000E+02  6.20000000E+01  0.00000000E+00
  9.20000000E+02  6.00000000E+01  0.00000000E+00
  9.20000000E+02  5.80000000E+01  0.00000000E+00
  9.20000000E+02  5.60000000E+01  0.00000000E+00
  9.20000000E+02  5.40000000E+01  0.00000000E+00
  9.20000000E+02  5.20000000E+01  0.00000000E+00
  9.20000000E+02  5.00000000E+01  0.00000000E+00
  9.20000000E+02  4.80000000E+01  0.00000000E+00
  9.20000000E+02  4.60000000E+01  0.00000000E+00
  9.20000000E+02  4.40000000E+01  0.00000000E+00
  9.20000000E+02  4.20000000E+01  0.00000000E+00
  9.20000000E+02  4.00000000E+01  0.00000000E+00
  9.20000000E+02  3.80000000E+01  0.00000000E+00
  9.20000000E+02  3.60000000E+01  0.00000000E+00
  9.20000000E+02  3.40000000E+01  0.00000000E+00
  9.20000000E+02  3.20000000E+01  0.00000000E+00
  9.20000000E+02  3.00000000E+01  0.00000000E+00
  9.20000000E+02  2.80000000E+01  0.00000000E+00
  9.20000000E+02  2.60000000E+01  0.00000000E+00
  9.20000000E+02  2.40000000E+01  0.00000000E+00
  9.20000000E+02  2.20000000E+01  0.00000000E+00
  9.20000000E+02  2.00000000E+01  0.00000000E+00
  9.20000000E+02  1.80000000E+01  0.00000000E+00
  9.20000000E+02  1.60000000E+01  0.00000000E+00
  9.20000000E+02  1.40000000E+01  0.00000000E+00
  9.20000000E+02  1.20000000E+01  0.00000000E+00
  9.20000000E+02  1.00000000E+01  0.00000000E+00
  9.20000000E+02  8.00000000E+00  0.00000000E+00
  9.20000000E+02  6.00000000E+00  0.00000000E+00
  9.20000000E+02  4.00000000E+00  0.00000000E+00
  9.20000000E+02  2.00000000E+00  0.00000000E+00
  9.20000000E+02 -3.33066907E-14  0.00000000E+00
  9.30000000E+02  1.00000000E+02  0.00000000E+00
  9.30000000E+02  9.80000000E+01  0.00000000E+00
  9.30000000E+02  9.60000000E+01  0.00000000E+00
  9.30000000E+02  9.40000000E+01  0.00000000E+00
  9.30000000E+02  9.20000000E+01  0.00000000E+00
  9.30000000E+02  9.00000000E+01  0.00000000E+00
  9.30000000E+02  8.80000000E+01  0.00000000E+00
  9.30000000E+02  8.60000000E+01  0.00000000E+00
  9.30000000E+02  8.40000000E+01  0.00000000E+00
  9.30000000E+02  8.20000000E+01  0.00000000E+00
  9.30000000E+02  8.00000000E+01  0.00000000E+00
  9.30000000E+02  7.80000000E+01  0.00000000E+00
  9.30000000E+02  7.60000000E+01  0.00000000E+00
  9.30000000E+02  7.40000000E+01  0.00000000E+00
  9.30000000E+02  7.20000000E+01  0.00000000E+00
  9.30000000E+02  7.00000000E+01  0.00000000E+00
  9.30000000E+02  6.80000000E+01  0.00000000E+00
  9.30000000E+02  6.60000000E+01  0.00000000E+00
  9.30000000E+02  6.40000000E+01  0.00000000E+00
  9.30000000E+02  6.20000000E+01  0.00000000E+00
  9.30000000E+02  6.00000000E+01  0.00000000E+00
  9.30000000E+02  5.80000000E+01  0.00000000E+00
  9.30000000E+02  5.60000000E+01  0.00000000E+00
  9.30000000E+02  5.40000000E+01  0.00000000E+00
  9.30000000E+02  5.20000000E+01  0.00000000E+00
  9.30000000E+02  5.00000000E+01  0.00000000E+00
  9.30000000E+02  4.80000000E+01  0.00000000E+00
  9.30000000E+02  4.60000000E+01  0.00000000E+00
  9.30000000E+02  4.40000000E+01  0.00000000E+00
  9.30000000E+02  4.20000000E+01  0.00000000E+00
  9.30000000E+02  4.00000000E+01  0.00000000E+00
  9.30000000E+02  3.80000000E+01  0.00000000E+00
  9.30000000E+02  3.60000000E+01  0.00000000E+00
  9.30000000E+02  3.40000000E+01  0.00000000E+00
  9.30000000E+02  3.20000000E+01  0.00000000E+00
  9.30000000E+02  3.00000000E+01  0.00000000E+00
  9.30000000E+02  2.80000000E+01  0.00000000E+00
  9.30000000E+02  2.60000000E+01  0.00000000E+00
  9.30000000E+02  2.40000000E+01  0.00000000E+00
  9.30000000E+02  2.20000000E+01  0.00000000E+00
  9.30000000E+02  2.00000000E+01  0.00000000E+00
  9.30000000E+02  1.80000000E+01  0.00000000E+00
  9.30000000E+02  1.60000000E+01  0.00000000E+00
  9.30000000E+02  1.40000000E+01  0.00000000E+00
  9.30000000E+02  1.20000000E+01  0.00000000E+00
  9.30000000E+02  1.00000000E+01  0.00000000E+00
  9.30000000E+02  8.00000000E+00  0.00000000E+00
  9.30000000E+02  6.00000000E+00  0.00000000E+00
  9.30000000E+02  4.00000000E+00  0.00000000E+00
  9.30000000E+02  2.00000000E+00  0.00000000E+00
  9.30000000E+02 -3.33066907E-14  0.00000000E+00
  9.40000000E+02  1.00000000E+02  0.00000000E+00
  9.40000000E+02  9.80000000E+01  0.00000000E+00
  9.40000000E+02  9.60000000E+01  0.00000000E+00
  9.40000000E+02  9.40000000E+01  0.00000000E+00
  9.40000000E+02  9.20000000E+01  0.00000000E+00
  9.40000000E+02  9.00000000E+01  0.00000000E+00
  9.40000000E+02  8.80000000E+01  0.00000000E+00
  9.40000000E+02  8.60000000E+01  0.00000000E+00
  9.40000000E+02  8.40000000E+01  0.00000000E+00
  9.40000000E+02  8.20000000E+01  0.00000000E+00
  9.40000000E+02  8.00000000E+01  0.00000000E+00
  9.40000000E+02  7.80000000E+01  0.00000000E+00
  9.40000000E+02  7.60000000E+01  0.00000000E+00
  9.40000000E+02  7.40000000E+01  0.00000000E+00
  9.40000000E+02  7.20000000E+01  0.00000000E+00
  9.40000000E+02  7.00000000E+01  0.00000000E+00
  9.40000000E+02  6.80000000E+01  0.00000000E+00
  9.40000000E+02  6.60000000E+01  0.00000000E+00
  9.40000000E+02  6.40000000E+01  0.00000000E+00
  9.40000000E+02  6.20000000E+01  0.00000000E+00
  9.40000000E+02  6.00000000E+01  0.00000000E+00
  9.40000000E+02  5.80000000E+01  0.00000000E+00
  9.40000000E+02  5.60000000E+01  0.00000000E+00
  9.40000000E+02  5.40000000E+01  0.00000000E+00
  9.40000000E+02  5.20000000E+01  0.00000000E+00
  9.40000000E+02  5.00000000E+01  0.00000000E+00
  9.40000000E+02  4.80000000E+01  0.00000000E+00
  9.40000000E+02  4.60000000E+01  0.00000000E+00
  9.40000000E+02  4.40000000E+01  0.00000000E+00
  9.40000000E+02  4.20000000E+01  0.00000000E+00
  9.40000000E+02  4.00000000E+01  0.00000000E+00
  9.40000000E+02  3.80000000E+01  0.00000000E+00
  9.40000000E+02  3.60000000E+01  0.00000000E+00
  9.40000000E+02  3.40000000E+01  0.00000000E+00
  9.40000000E+02  3.20000000E+01  0.00000000E+00
  9.40000000E+02  3.00000000E+01  0.00000000E+00
  9.40000000E+02  2.80000000E+01  0.00000000E+00
  9.40000000E+02  2.60000000E+01  0.00000000E+00
  9.40000000E+02  2.40000000E+01  0.00000000E+00
  9.40000000E+02  2.20000000E+01  0.00000000E+00
  9.40000000E+02  2.00000000E+01  0.00000000E+00
  9.40000000E+02  1.80000000E+01  0.00000000E+00
  9.40000000E+02  1.60000000E+01  0.00000000E+00
  9.40000000E+02  1.40000000E+01  0.00000000E+00
  9.40000000E+02  1.20000000E+01  0.00000000E+00
  9.40000000E+02  1.00000000E+01  0.00000000E+00
  9.40000000E+02  8.00000000E+00  0.00000000E+00
  9.40000000E+02  6.00000000E+00  0.00000000E+00
  9.40000000E+02  4.00000000E+00  0.00000000E+00
  9.40000000E+02  2.00000000E+00  0.00000000E+00
  9.40000000E+02 -3.33066907E-14  0.00000000E+00
  9.50000000E+02  1.00000000E+02  0.00000000E+00
  9.50000000E+02  9.80000000E+01  0.00000000E+00
  9.50000000E+02  9.60000000E+01  0.00000000E+00
  9.50000000E+02  9.40000000E+01  0.00000000E+00
  9.50000000E+02  9.20000000E+01  0.00000000E+00
  9.50000000E+02  9.00000000E+01  0.00000000E+00
  9.50000000E+02  8.80000000E+01  0.00000000E+00
  9.50000000E+02  8.60000000E+01  0.00000000E+00
  9.50000000E+02  8.40000000E+01  0.00000000E+00
  9.50000000E+02  8.20000000E+01  0.00000000E+00
  9.50000000E+02  8.00000000E+01  0.00000000E+00
  9.50000000E+02  7.80000000E+01  0.00000000E+00
  9.50000000E+02  7.60000000E+01  0.00000000E+00
  9.50000000E+02  7.40000000E+01  0.00000000E+00
  9.50000000E+02  7.20000000E+01  0.00000000E+00
  9.50000000E+02  7.00000000E+01  0.00000000E+00
  9.50000000E+02  6.80000000E+01  0.00000000E+00
  9.50000000E+02  6.60000000E+01  0.00000000E+00
  9.50000000E+02  6.40000000E+01  0.00000000E+00
  9.50000000E+02  6.20000000E+01  0.00000000E+00
  9.50000000E+02  6.00000000E+01  0.00000000E+00
  9.50000000E+02  5.80000000E+01  0.00000000E+00
  9.50000000E+02  5.60000000E+01  0.00000000E+00
  9.50000000E+02  5.40000000E+01  0.00000000E+00
  9.50000000E+02  5.20000000E+01  0.00000000E+00
  9.50000000E+02  5.00000000E+01  0.00000000E+00
  9.50000000E+02  4.80000000E+01  0.00000000E+00
  9.50000000E+02  4.60000000E+01  0.00000000E+00
  9.50000000E+02  4.40000000E+01  0.00000000E+00
  9.50000000E+02  4.20000000E+01  0.00000000E+00
  9.50000000E+02  4.00000000E+01  0.00000000E+00
  9.50000000E+02  3.80000000E+01  0.00000000E+00
  9.50000000E+02  3.60000000E+01  0.00000000E+00
  9.50000000E+02  3.40000000E+01  0.00000000E+00
  9.50000000E+02  3.20000000E+01  0.00000000E+00
  9.50000000E+02  3.00000000E+01  0.00000000E+00
  9.50000000E+02  2.80000000E+01  0.00000000E+00
  9.50000000E+02  2.60000000E+01  0.00000000E+00
  9.50000000E+02  2.40000000E+01  0.00000000E+00
  9.50000000E+02  2.20000000E+01  0.00000000E+00
  9.50000000E+02  2.00000000E+01  0.00000000E+00
  9.50000000E+02  1.80000000E+01  0.00000000E+00
  9.50000000E+02  1.60000000E+01  0.00000000E+00
  9.50000000E+02  1.40000000E+01  0.00000000E+00
  9.50000000E+02  1.20000000E+01  0.00000000E+00
  9.50000000E+02  1.00000000E+01  0.00000000E+00
  9.50000000E+02  8.00000000E+00  0.00000000E+00
  9.50000000E+02  6.00000000E+00  0.00000000E+00
  9.50000000E+02  4.00000000E+00  0.00000000E+00
  9.50000000E+02  2.00000000E+00  0.00000000E+00
  9.50000000E+02 -3.33066907E-14  0.00000000E+00
  9.60000000E+02  1.00000000E+02  0.00000000E+00
  9.60000000E+02  9.80000000E+01  0.00000000E+00
  9.60000000E+02  9.60000000E+01  0.00000000E+00
  9.60000000E+02  9.40000000E+01  0.00000000E+00
  9.60000000E+02  9.20000000E+01  0.00000000E+00
  9.60000000E+02  9.00000000E+01  0.00000000E+00
  9.60000000E+02  8.80000000E+01  0.00000000E+00
  9.60000000E+02  8.60000000E+01  0.00000000E+00
  9.60000000E+02  8.40000000E+01  0.00000000E+00
  9.60000000E+02  8.20000000E+01  0.00000000E+00
  9.60000000E+02  8.00000000E+01  0.00000000E+00
  9.60000000E+02  7.80000000E+01  0.00000000E+00
  9.60000000E+02  7.60000000E+01  0.00000000E+00
  9.60000000E+02  7.40000000E+01  0.00000000E+00
  9.60000000E+02  7.20000000E+01  0.00000000E+00
  9.60000000E+02  7.00000000E+01  0.00000000E+00
  9.60000000E+02  6.80000000E+01  0.00000000E+00
  9.60000000E+02  6.60000000E+01  0.00000000E+00
  9.60000000E+02  6.40000000E+01  0.00000000E+00
  9.60000000E+02  6.20000000E+01  0.00000000E+00
  9.60000000E+02  6.00000000E+01  0.00000000E+00
  9.60000000E+02  5.80000000E+01  0.00000000E+00
  9.60000000E+02  5.60000000E+01  0.00000000E+00
  9.60000000E+02  5.40000000E+01  0.00000000E+00
  9.60000000E+02  5.20000000E+01  0.00000000E+00
  9.60000000E+02  5.00000000E+01  0.00000000E+00
  9.60000000E+02  4.80000000E+01  0.00000000E+00
  9.60000000E+02  4.60000000E+01  0.00000000E+00
  9.60000000E+02  4.40000000E+01  0.00000000E+00
  9.60000000E+02  4.20000000E+01  0.00000000E+00
  9.60000000E+02  4.00000000E+01  0.00000000E+00
  9.60000000E+02  3.80000000E+01  0.00000000E+00
  9.60000000E+02  3.60000000E+01  0.00000000E+00
  9.60000000E+02  3.40000000E+01  0.00000000E+00
  9.60000000E+02  3.20000000E+01  0.00000000E+00
  9.60000000E+02  3.00000000E+01  0.00000000E+00
  9.60000000E+02  2.80000000E+01  0.00000000E+00
  9.60000000E+02  2.60000000E+01  0.00000000E+00
  9.60000000E+02  2.40000000E+01  0.00000000E+00
  9.60000000E+02  2.20000000E+01  0.00000000E+00
  9.60000000E+02  2.00000000E+01  0.00000000E+00
  9.60000000E+02  1.80000000E+01  0.00000000E+00
  9.60000000E+02  1.60000000E+01  0.00000000E+00
  9.60000000E+02  1.40000000E+01  0.00000000E+00
  9.60000000E+02  1.20000000E+01  0.00000000E+00
  9.60000000E+02  1.00000000E+01  0.00000000E+00
  9.60000000E+02  8.00000000E+00  0.00000000E+00
  9.60000000E+02  6.00000000E+00  0.00000000E+00
  9.60000000E+02  4.00000000E+00  0.00000000E+00
  9.60000000E+02  2.00000000E+00  0.00000000E+00
  9.60000000E+02 -3.33066907E-14  0.00000000E+00
  9.70000000E+02  1.00000000E+02  0.00000000E+00
  9.70000000E+02  9.80000000E+01  0.00000000E+00
  9.70000000E+02  9.60000000E+01  0.00000000E+00
  9.70000000E+02  9.40000000E+01  0.00000000E+00
  9.70000000E+02  9.20000000E+01  0.00000000E+00
  9.70000000E+02  9.00000000E+01  0.00000000E+00
  9.70000000E+02  8.80000000E+01  0.00000000E+00
  9.70000000E+02  8.60000000E+01  0.00000000E+00
  9.70000000E+02  8.40000000E+01  0.00000000E+00
  9.70000000E+02  8.20000000E+01  0.00000000E+00
  9.70000000E+02  8.00000000E+01  0.00000000E+00
  9.70000000E+02  7.80000000E+01  0.00000000E+00
  9.70000000E+02  7.60000000E+01  0.00000000E+00
  9.70000000E+02  7.40000000E+01  0.00000000E+00
  9.70000000E+02  7.20000000E+01  0.00000000E+00
  9.70000000E+02  7.00000000E+01  0.00000000E+00
  9.70000000E+02  6.80000000E+01  0.00000000E+00
  9.70000000E+02  6.60000000E+01  0.00000000E+00
  9.70000000E+02  6.40000000E+01  0.00000000E+00
  9.70000000E+02  6.20000000E+01  0.00000000E+00
  9.70000000E+02  6.00000000E+01  0.00000000E+00
  9.70000000E+02  5.80000000E+01  0.00000000E+00
  9.70000000E+02  5.60000000E+01  0.00000000E+00
  9.70000000E+02  5.40000000E+01  0.00000000E+00
  9.70000000E+02  5.20000000E+01  0.00000000E+00
  9.70000000E+02  5.00000000E+01  0.00000000E+00
  9.70000000E+02  4.80000000E+01  0.00000000E+00
  9.70000000E+02  4.60000000E+01  0.00000000E+00
  9.70000000E+02  4.40000000E+01  0.00000000E+00
  9.70000000E+02  4.20000000E+01  0.00000000E+00
  9.70000000E+02  4.00000000E+01  0.00000000E+00
  9.70000000E+02  3.80000000E+01  0.00000000E+00
  9.70000000E+02  3.60000000E+01  0.00000000E+00
  9.70000000E+02  3.40000000E+01  0.00000000E+00
  9.70000000E+02  3.20000000E+01  0.00000000E+00
  9.70000000E+02  3.00000000E+01  0.00000000E+00
  9.70000000E+02  2.80000000E+01  0.00000000E+00
  9.70000000E+02  2.60000000E+01  0.00000000E+00
  9.70000000E+02  2.40000000E+01  0.00000000E+00
  9.70000000E+02  2.20000000E+01  0.00000000E+00
  9.70000000E+02  2.00000000E+01  0.00000000E+00
  9.70000000E+02  1.80000000E+01  0.00000000E+00
  9.70000000E+02  1.60000000E+01  0.00000000E+00
  9.70000000E+02  1.40000000E+01  0.00000000E+00
  9.70000000E+02  1.20000000E+01  0.00000000E+00
  9.70000000E+02  1.00000000E+01  0.00000000E+00
  9.70000000E+02  8.00000000E+00  0.00000000E+00
  9.70000000E+02  6.00000000E+00  0.00000000E+00
  9.70000000E+02  4.00000000E+00  0.00000000E+00
  9.70000000E+02  2.00000000E+00  0.00000000E+00
  9.70000000E+02 -3.33066907E-14  0.00000000E+00
  9.80000000E+02  1.00000000E+02  0.00000000E+00
  9.80000000E+02  9.80000000E+01  0.00000000E+00
  9.80000000E+02  9.60000000E+01  0.00000000E+00
  9.80000000E+02  9.40000000E+01  0.00000000E+00
  9.80000000E+02  9.20000000E+01  0.00000000E+00
  9.80000000E+02  9.00000000E+01  0.00000000E+00
  9.80000000E+02  8.80000000E+01  0.00000000E+00
  9.80000000E+02  8.60000000E+01  0.00000000E+00
  9.80000000E+02  8.40000000E+01  0.00000000E+00
  9.80000000E+02  8.20000000E+01  0.00000000E+00
  9.80000000E+02  8.00000000E+01  0.00000000E+00
  9.80000000E+02  7.80000000E+01  0.00000000E+00
  9.80000000E+02  7.60000000E+01  0.00000000E+00
  9.80000000E+02  7.40000000E+01  0.00000000E+00
  9.80000000E+02  7.20000000E+01  0.00000000E+00
  9.80000000E+02  7.00000000E+01  0.00000000E+00
  9.80000000E+02  6.80000000E+01  0.00000000E+00
  9.80000000E+02  6.60000000E+01  0.00000000E+00
  9.80000000E+02  6.40000000E+01  0.00000000E+00
  9.80000000E+02  6.20000000E+01  0.00000000E+00
  9.80000000E+02  6.00000000E+01  0.00000000E+00
  9.80000000E+02  5.80000000E+01  0.00000000E+00
  9.80000000E+02  5.60000000E+01  0.00000000E+00
  9.80000000E+02  5.40000000E+01  0.00000000E+00
  9.80000000E+02  5.20000000E+01  0.00000000E+00
  9.80000000E+02  5.00000000E+01  0.00000000E+00
  9.80000000E+02  4.80000000E+01  0.00000000E+00
  9.80000000E+02  4.60000000E+01  0.00000000E+00
  9.80000000E+02  4.40000000E+01  0.00000000E+00
  9.80000000E+02  4.20000000E+01  0.00000000E+00
  9.80000000E+02  4.00000000E+01  0.00000000E+00
  9.80000000E+02  3.80000000E+01  0.00000000E+00
  9.80000000E+02  3.60000000E+01  0.00000000E+00
  9.80000000E+02  3.40000000E+01  0.00000000E+00
  9.80000000E+02  3.20000000E+01  0.00000000E+00
  9.80000000E+02  3.00000000E+01  0.00000000E+00
  9.80000000E+02  2.80000000E+01  0.00000000E+00
  9.80000000E+02  2.60000000E+01  0.00000000E+00
  9.80000000E+02  2.40000000E+01  0.00000000E+00
  9.80000000E+02  2.20000000E+01  0.00000000E+00
  9.80000000E+02  2.00000000E+01  0.00000000E+00
  9.80000000E+02  1.80000000E+01  0.00000000E+00
  9.80000000E+02  1.60000000E+01  0.00000000E+00
  9.80000000E+02  1.40000000E+01  0.00000000E+00
  9.80000000E+02  1.20000000E+01  0.00000000E+00
  9.80000000E+02  1.00000000E+01  0.00000000E+00
  9.80000000E+02  8.00000000E+00  0.00000000E+00
  9.80000000E+02  6.00000000E+00  0.00000000E+00
  9.80000000E+02  4.00000000E+00  0.00000000E+00
  9.80000000E+02  2.00000000E+00  0.00000000E+00
  9.80000000E+02 -3.33066907E-14  0.00000000E+00
  9.90000000E+02  1.00000000E+02  0.00000000E+00
  9.90000000E+02  9.80000000E+01  0.00000000E+00
  9.90000000E+02  9.60000000E+01  0.00000000E+00
  9.90000000E+02  9.40000000E+01  0.00000000E+00
  9.90000000E+02  9.20000000E+01  0.00000000E+00
  9.90000000E+02  9.00000000E+01  0.00000000E+00
  9.90000000E+02  8.80000000E+01  0.00000000E+00
  9.90000000E+02  8.60000000E+01  0.00000000E+00
  9.90000000E+02  8.40000000E+01  0.00000000E+00
  9.90000000E+02  8.20000000E+01  0.00000000E+00
  9.90000000E+02  8.00000000E+01  0.00000000E+00
  9.90000000E+02  7.80000000E+01  0.00000000E+00
  9.90000000E+02  7.60000000E+01  0.00000000E+00
  9.90000000E+02  7.40000000E+01  0.00000000E+00
  9.90000000E+02  7.20000000E+01  0.00000000E+00
  9.90000000E+02  7.00000000E+01  0.00000000E+00
  9.90000000E+02  6.80000000E+01  0.00000000E+00
  9.90000000E+02  6.60000000E+01  0.00000000E+00
  9.90000000E+02  6.40000000E+01  0.00000000E+00
  9.90000000E+02  6.20000000E+01  0.00000000E+00
  9.90000000E+02  6.00000000E+01  0.00000000E+00
  9.90000000E+02  5.80000000E+01  0.00000000E+00
  9.90000000E+02  5.60000000E+01  0.00000000E+00
  9.90000000E+02  5.40000000E+01  0.00000000E+00
  9.90000000E+02  5.20000000E+01  0.00000000E+00
  9.90000000E+02  5.00000000E+01  0.00000000E+00
  9.90000000E+02  4.80000000E+01  0.00000000E+00
  9.90000000E+02  4.60000000E+01  0.00000000E+00
  9.90000000E+02  4.40000000E+01  0.00000000E+00
  9.90000000E+02  4.20000000E+01  0.00000000E+00
  9.90000000E+02  4.00000000E+01  0.00000000E+00
  9.90000000E+02  3.80000000E+01  0.00000000E+00
  9.90000000E+02  3.60000000E+01  0.00000000E+00
  9.90000000E+02  3.40000000E+01  0.00000000E+00
  9.90000000E+02  3.20000000E+01  0.00000000E+00
  9.90000000E+02  3.00000000E+01  0.00000000E+00
  9.90000000E+02  2.80000000E+01  0.00000000E+00
  9.90000000E+02  2.60000000E+01  0.00000000E+00
  9.90000000E+02  2.40000000E+01  0.00000000E+00
  9.90000000E+02  2.20000000E+01  0.00000000E+00
  9.90000000E+02  2.00000000E+01  0.00000000E+00
  9.90000000E+02  1.80000000E+01  0.00000000E+00
  9.90000000E+02  1.60000000E+01  0.00000000E+00
  9.90000000E+02  1.40000000E+01  0.00000000E+00
  9.90000000E+02  1.20000000E+01  0.00000000E+00
  9.90000000E+02  1.00000000E+01  0.00000000E+00
  9.90000000E+02  8.00000000E+00  0.00000000E+00
  9.90000000E+02  6.00000000E+00  0.00000000E+00
  9.90000000E+02  4.00000000E+00  0.00000000E+00
  9.90000000E+02  2.00000000E+00  0.00000000E+00
  9.90000000E+02 -3.33066907E-14  0.00000000E+00
  1.00000000E+03  1.00000000E+02  0.00000000E+00
  1.00000000E+03  9.80000000E+01  0.00000000E+00
  1.00000000E+03  9.60000000E+01  0.00000000E+00
  1.00000000E+03  9.40000000E+01  0.00000000E+00
  1.00000000E+03  9.20000000E+01  0.00000000E+00
  1.00000000E+03  9.00000000E+01  0.00000000E+00
  1.00000000E+03  8.80000000E+01  0.00000000E+00
  1.00000000E+03  8.60000000E+01  0.00000000E+00
  1.00000000E+03  8.40000000E+01  0.00000000E+00
  1.00000000E+03  8.20000000E+01  0.00000000E+00
  1.00000000E+03  8.00000000E+01  0.00000000E+00
  1.00000000E+03  7.80000000E+01  0.00000000E+00
  1.00000000E+03  7.60000000E+01  0.00000000E+00
  1.00000000E+03  7.40000000E+01  0.00000000E+00
  1.00000000E+03  7.20000000E+01  0.00000000E+00
  1.00000000E+03  7.00000000E+01  0.00000000E+00
  1.00000000E+03  6.80000000E+01  0.00000000E+00
  1.00000000E+03  6.60000000E+01  0.00000000E+00
  1.00000000E+03  6.40000000E+01  0.00000000E+00
  1.00000000E+03  6.20000000E+01  0.00000000E+00
  1.00000000E+03  6.00000000E+01  0.00000000E+00
  1.00000000E+03  5.80000000E+01  0.00000000E+00
  1.00000000E+03  5.60000000E+01  0.00000000E+00
  1.00000000E+03  5.40000000E+01  0.00000000E+00
  1.00000000E+03  5.20000000E+01  0.00000000E+00
  1.00000000E+03  5.00000000E+01  0.00000000E+00
  1.00000000E+03  4.80000000E+01  0.00000000E+00
  1.00000000E+03  4.60000000E+01  0.00000000E+00
  1.00000000E+03  4.40000000E+01  0.00000000E+00
  1.00000000E+03  4.20000000E+01  0.00000000E+00
  1.00000000E+03  4.00000000E+01  0.00000000E+00
  1.00000000E+03  3.80000000E+01  0.00000000E+00
  1.00000000E+03  3.60000000E+01  0.00000000E+00
  1.00000000E+03  3.40000000E+01  0.00000000E+00
  1.00000000E+03  3.20000000E+01  0.00000000E+00
  1.00000000E+03  3.00000000E+01  0.00000000E+00
  1.00000000E+03  2.80000000E+01  0.00000000E+00
  1.00000000E+03  2.60000000E+01  0.00000000E+00
  1.00000000E+03  2.40000000E+01  0.00000000E+00
  1.00000000E+03  2.20000000E+01  0.00000000E+00
  1.00000000E+03  2.00000000E+01  0.00000000E+00
  1.00000000E+03  1.80000000E+01  0.00000000E+00
  1.00000000E+03  1.60000000E+01  0.00000000E+00
  1.00000000E+03  1.40000000E+01  0.00000000E+00
  1.00000000E+03  1.20000000E+01  0.00000000E+00
  1.00000000E+03  1.00000000E+01  0.00000000E+00
  1.00000000E+03  8.00000000E+00  0.00000000E+00
  1.00000000E+03  6.00000000E+00  0.00000000E+00
  1.00000000E+03  4.00000000E+00  0.00000000E+00
  1.00000000E+03  2.00000000E+00  0.00000000E+00
  1.00000000E+03 -3.33066907E-14  0.00000000E+00
CELLS      5000     25000
         4           0           1          52          51
         4           1           2          53          52
         4           2           3          54          53
         4           3           4          55          54
         4           4           5          56          55
         4           5           6          57          56
         4           6           7          58          57
         4           7           8          59          58
         4           8           9          60          59
         4           9          10          61          60
         4          10          11          62          61
         4          11          12          63          62
         4          12          13          64          63
         4          13          14          65          64
         4          14          15          66          65
         4          15          16          67          66
         4          16          17          68          67
         4          17          18          69          68
         4          18          19          70          69
         4          19          20          71          70
         4          20          21          72          71
         4          21          22          73          72
         4          22          23          74          73
         4          23          24          75          74
         4          24          25          76          75
         4          25          26          77          76
         4          26          27          78          77
         4          27          28          79          78
         4          28          29          80          79
         4          29          30          81          80
         4          30          31          82          81
         4          31          32          83          82
         4          32          33          84          83
         4          33          34          85          84
         4          34          35          86          85
         4          35          36          87          86
         4          36          37          88          87
         4          37          38          89          88
         4          38          39          90          89
         4          39          40          91          90
         4          40          41          92          91
         4          41          42          93          92
         4          42          43          94          93
         4          43          44          95          94
         4          44          45          96          95
         4          45          46          97          96
         4          46          47          98          97
         4          47          48          99          98
         4          48          49         100          99
         4          49          50         101         100
         4          51          52         103         102
         4          52          53         104         103
         4          53          54         105         104
         4          54          55         106         105
         4          55          56         107         106
         4          56          57         108         107
         4          57          58         109         108
         4          58          59         110         109
         4          59          60         111         110
         4          60          61         112         111
         4          61          62         113         112
         4          62          63         114         113
         4          63          64         115         114
         4          64          65         116         115
         4          65          66         117         116
         4          66          67         118         117
         4          67          68         119         118
         4          68          69         120         119
         4          69          70         121         120
         4          70          71         122         121
         4          71          72         123         122
         4          72          73         124         123
         4          73          74         125         124
         4          74          75         126         125
         4          75          76         127         126
         4          76          77         128         127
         4          77          78         129         128
         4          78          79         130         129
         4          79          80         131         130
         4          80          81         132         131
         4          81          82         133         132
         4          82          83         134         133
         4          83          84         135         134
         4          84          85         136         135
         4          85          86         137         136
         4          86          87         138         137
         4          87          88         139         138
         4          88          89         140         139
         4          89          90         141         140
         4          90          91         142         141
         4          91          92         143         142
         4          92          93         144         143
         4          93          94         145         144
         4          94          95         146         145
         4          95          96         147         146
         4          96          97         148         147
         4          97          98         149         148
         4          98          99         150         149
         4          99         100         151         150
         4         100         101         152         151
         4         102         103         154         153
         4         103         104         155         154
         4         104         105         156         155
         4         105         106         157         156
         4         106         107         158         157
         4         107         108         159         158
         4         108         109         160         159
         4         109         110         161         160
         4         110         111         162         161
         4         111         112         163         162
         4         112         113         164         163
         4         113         114         165         164
         4         114         115         166         165
         4         115         116         167         166
         4         116         117         168         167
         4         117         118         169         168
         4         118         119         170         169
         4         119         120         171         170
         4         120         121         172         171
         4         121         122         173         172
         4         122         123         174         173
         4         123         124         175         174
         4         124         125         176         175
         4         125         126         177         176
         4         126         127         178         177
         4         127         128         179         178
         4         128         129         180         179
         4         129         130         181         180
         4         130         131         182         181
         4         131         132         183         182
         4         132         133         184         183
         4         133         134         185         184
         4         134         135         186         185
         4         135         136         187         186
         4         136         137         188         187
         4         137         138         189         188
         4         138         139         190         189
         4         139         140         191         190
         4         140         141         192         191
         4         141         142         193         192
         4         142         143         194         193
         4         143         144         195         194
         4         144         145         196         195
         4         145         146         197         196
         4         146         147         198         197
         4         147         148         199         198
         4         148         149         200         199
         4         149         150         201         200
         4         150         151         202         201
         4         151         152         203         202
         4         153         154         205         204
         4         154         155         206         205
         4         155         156         207         206
         4         156         157         208         207
         4         157         158         209         208
         4         158         159         210         209
         4         159         160         211         210
         4         160         161         212         211
         4         161         162         213         212
         4         162         163         214         213
         4         163         164         215         214
         4         164         165         216         215
         4         165         166         217         216
         4         166         167         218         217
         4         167         168         219         218
         4         168         169         220         219
         4         169         170         221         220
         4         170         171         222         221
         4         171         172         223         222
         4         172         173         224         223
         4         173         174         225         224
         4         174         175         226         225
         4         175         176         227         226
         4         176         177         228         227
         4         177         178         229         228
         4         178         179         230         229
         4         179         180         231         230
         4         180         181         232         231
         4         181         182         233         232
         4         182         183         234         233
         4         183         184         235         234
         4         184         185         236         235
         4         185         186         237         236
         4         186         187         238         237
         4         187         188         239         238
         4         188         189         240         239
         4         189         190         241         240
         4         190         191         242         241
         4         191         192         243         242
         4         192         193         244         243
         4         193         194         245         244
         4         194         195         246         245
         4         195         196         247         246
         4         196         197         248         247
         4         197         198         249         248
         4         198         199         250         249
         4         199         200         251         250
         4         200         201         252         251
         4         201         202         253         252
         4         202         203         254         253
         4         204         205         256         255
         4         205         206         257         256
         4         206         207         258         257
         4         207         208         259         258
         4         208         209         260         259
         4         209         210         261         260
         4         210         211         262         261
         4         211         212         263         262
         4         212         213         264         263
         4         213         214         265         264
         4         214         215         266         265
         4         215         216         267         266
         4         216         217         268         267
         4         217         218         269         268
         4         218         219         270         269
         4         219         220         271         270
         4         220         221         272         271
         4         221         222         273         272
         4         222         223         274         273
         4         223         224         275         274
         4         224         225         276         275
         4         225         226         277         276
         4         226         227         278         277
         4         227         228         279         278
         4         228         229         280         279
         4         229         230         281         280
         4         230         231         282         281
         4         231         232         283         282
         4         232         233         284         283
         4         233         234         285         284
         4         234         235         286         285
         4         235         236         287         286
         4         236         237         288         287
         4         237         238         289         288
         4         238         239         290         289
         4         239         240         291         290
         4         240         241         292         291
         4         241         242         293         292
         4         242         243         294         293
         4         243         244         295         294
         4         244         245         296         295
         4         245         246         297         296
         4         246         247         298         297
         4         247         248         299         298
         4         248         249         300         299
         4         249         250         301         300
         4         250         251         302         301
         4         251         252         303         302
         4         252         253         304         303
         4         253         254         305         304
         4         255         256         307         306
         4         256         257         308         307
         4         257         258         309         308
         4         258         259         310         309
         4         259         260         311         310
         4         260         261         312         311
         4         261         262         313         312
         4         262         263         314         313
         4         263         264         315         314
         4         264         265         316         315
         4         265         266         317         316
         4         266         267         318         317
         4         267         268         319         318
         4         268         269         320         319
         4         269         270         321         320
         4         270         271         322         321
         4         271         272         323         322
         4         272         273         324         323
         4         273         274         325         324
         4         274         275         326         325
         4         275         276         327         326
         4         276         277         328         327
         4         277         278         329         328
         4         278         279         330         329
         4         279         280         331         330
         4         280         281         332         331
         4         281         282         333         332
         4         282         283         334         333
         4         283         284         335         334
         4         284         285         336         335
         4         285         286         337         336
         4         286         287         338         337
         4         287         288         339         338
         4         288         289         340         339
         4         289         290         341         340
         4         290         291         342         341
         4         291         292         343         342
         4         292         293         344         343
         4         293         294         345         344
         4         294         295         346         345
         4         295         296         347         346
         4         296         297         348         347
         4         297         298         349         348
         4         298         299         350         349
         4         299         300         351         350
         4         300         301         352         351
         4         301         302         353         352
         4         302         303         354         353
         4         303         304         355         354
         4         304         305         356         355
         4         306         307         358         357
         4         307         308         359         358
         4         308         309         360         359
         4         309         310         361         360
         4         310         311         362         361
         4         311         312         363         362
         4         312         313         364         363
         4         313         314         365         364
         4         314         315         366         365
         4         315         316         367         366
         4         316         317         368         367
         4         317         318         369         368
         4         318         319         370         369
         4         319         320         371         370
         4         320         321         372         371
         4         321         322         373         372
         4         322         323         374         373
         4         323         324         375         374
         4         324         325         376         375
         4         325         326         377         376
         4         326         327         378         377
         4         327         328         379         378
         4         328         329         380         379
         4         329         330         381         380
         4         330         331         382         381
         4         331         332         383         382
         4         332         333         384         383
         4         333         334         385         384
         4         334         335         386         385
         4         335         336         387         386
         4         336         337         388         387
         4         337         338         389         388
         4         338         339         390         389
         4         339         340         391         390
         4         340         341         392         391
         4         341         342         393         392
         4         342         343         394         393
         4         343         344         395         394
         4         344         345         396         395
         4         345         346         397         396
         4         346         347         398         397
         4         347         348         399         398
         4         348         349         400         399
         4         349         350         401         400
         4         350         351         402         401
         4         351         352         403         402
         4         352         353         404         403
         4         353         354         405         404
         4         354         355         406         405
         4         355         356         407         406
         4         357         358         409         408
         4         358         359         410         409
         4         359         360         411         410
         4         360         361         412         411
         4         361         362         413         412
         4         362         363         414         413
         4         363         364         415         414
         4         364         365         416         415
         4         365         366         417         416
         4         366         367         418         417
         4         367         368         419         418
         4         368         369         420         419
         4         369         370         421         420
         4         370         371         422         421
         4         371         372         423         422
         4         372         373         424         423
         4         373         374         425         424
         4         374         375         426         425
         4         375         376         427         426
         4         376         377         428         427
         4         377         378         429         428
         4         378         379         430         429
         4         379         380         431         430
         4         380         381         432         431
         4         381         382         433         432
         4         382         383         434         433
         4         383         384         435         434
         4         384         385         436         435
         4         385         386         437         436
         4         386         387         438         437
         4         387         388         439         438
         4         388         389         440         439
         4         389         390         441         440
         4         390         391         442         441
         4         391         392         443         442
         4         392         393         444         443
         4         393         394         445         444
         4         394         395         446         445
         4         395         396         447         446
         4         396         397         448         447
         4         397         398         449         448
         4         398         399         450         449
         4         399         400         451         450
         4         400         401         452         451
         4         401         402         453         452
         4         402         403         454         453
         4         403         404         455         454
         4         404         405         456         455
         4         405         406         457         456
         4         406         407         458         457
         4         408         409         460         459
         4         409         410         461         460
         4         410         411         462         461
         4         411         412         463         462
         4         412         413         464         463
         4         413         414         465         464
         4         414         415         466         465
         4         415         416         467         466
         4         416         417         468         467
         4         417         418         469         468
         4         418         419         470         469
         4         419         420         471         470
         4         420         421         472         471
         4         421         422         473         472
         4         422         423         474         473
         4         423         424         475         474
         4         424         425         476         475
         4         425         426         477         476
         4         426         427         478         477
         4         427         428         479         478
         4         428         429         480         479
         4         429         430         481         480
         4         430         431         482         481
         4         431         432         483         482
         4         432         433         484         483
         4         433         434         485         484
         4         434         435         486         485
         4         435         436         487         486
         4         436         437         488         487
         4         437         438         489         488
         4         438         439         490         489
         4         439         440         491         490
         4         440         441         492         491
         4         441         442         493         492
         4         442         443         494         493
         4         443         444         495         494
         4         444         445         496         495
         4         445         446         497         496
         4         446         447         498         497
         4         447         448         499         498
         4         448         449         500         499
         4         449         450         501         500
         4         450         451         502         501
         4         451         452         503         502
         4         452         453         504         503
         4         453         454         505         504
         4         454         455         506         505
         4         455         456         507         506
         4         456         457         508         507
         4         457         458         509         508
         4         459         460         511         510
         4         460         461         512         511
         4         461         462         513         512
         4         462         463         514         513
         4         463         464         515         514
         4         464         465         516         515
         4         465         466         517         516
         4         466         467         518         517
         4         467         468         519         518
         4         468         469         520         519
         4         469         470         521         520
         4         470         471         522         521
         4         471         472         523         522
         4         472         473         524         523
         4         473         474         525         524
         4         474         475         526         525
         4         475         476         527         526
         4         476         477         528         527
         4         477         478         529         528
         4         478         479         530         529
         4         479         480         531         530
         4         480         481         532         531
         4         481         482         533         532
         4         482         483         534         533
         4         483         484         535         534
         4         484         485         536         535
         4         485         486         537         536
         4         486         487         538         537
         4         487         488         539         538
         4         488         489         540         539
         4         489         490         541         540
         4         490         491         542         541
         4         491         492         543         542
         4         492         493         544         543
         4         493         494         545         544
         4         494         495         546         545
         4         495         496         547         546
         4         496         497         548         547
         4         497         498         549         548
         4         498         499         550         549
         4         499         500         551         550
         4         500         501         552         551
         4         501         502         553         552
         4         502         503         554         553
         4         503         504         555         554
         4         504         505         556         555
         4         505         506         557         556
         4         506         507         558         557
         4         507         508         559         558
         4         508         509         560         559
         4         510         511         562         561
         4         511         512         563         562
         4         512         513         564         563
         4         513         514         565         564
         4         514         515         566         565
         4         515         516         567         566
         4         516         517         568         567
         4         517         518         569         568
         4         518         519         570         569
         4         519         520         571         570
         4         520         521         572         571
         4         521         522         573         572
         4         522         523         574         573
         4         523         524         575         574
         4         524         525         576         575
         4         525         526         577         576
         4         526         527         578         577
         4         527         528         579         578
         4         528         529         580         579
         4         529         530         581         580
         4         530         531         582         581
         4         531         532         583         582
         4         532         533         584         583
         4         533         534         585         584
         4         534         535         586         585
         4         535         536         587         586
         4         536         537         588         587
         4         537         538         589         588
         4         538         539         590         589
         4         539         540         591         590
         4         540         541         592         591
         4         541         542         593         592
         4         542         543         594         593
         4         543         544         595         594
         4         544         545         596         595
         4         545         546         597         596
         4         546         547         598         597
         4         547         548         599         598
         4         548         549         600         599
         4         549         550         601         600
         4         550         551         602         601
         4         551         552         603         602
         4         552         553         604         603
         4         553         554         605         604
         4         554         555         606         605
         4         555         556         607         606
         4         556         557         608         607
         4         557         558         609         608
         4         558         559         610         609
         4         559         560         611         610
         4         561         562         613         612
         4         562         563         614         613
         4         563         564         615         614
         4         564         565         616         615
         4         565         566         617         616
         4         566         567         618         617
         4         567         568         619         618
         4         568         569         620         619
         4         569         570         621         620
         4         570         571         622         621
         4         571         572         623         622
         4         572         573         624         623
         4         573         574         625         624
         4         574         575         626         625
         4         575         576         627         626
         4         576         577         628         627
         4         577         578         629         628
         4         578         579         630         629
         4         579         580         631         630
         4         580         581         632         631
         4         581         582         633         632
         4         582         583         634         633
         4         583         584         635         634
         4         584         585         636         635
         4         585         586         637         636
         4         586         587         638         637
         4         587         588         639         638
         4         588         589         640         639
         4         589         590         641         640
         4         590         591         642         641
         4         591         592         643         642
         4         592         593         644         643
         4         593         594         645         644
         4         594         595         646         645
         4         595         596         647         646
         4         596         597         648         647
         4         597         598         649         648
         4         598         599         650         649
         4         599         600         651         650
         4         600         601         652         651
         4         601         602         653         652
         4         602         603         654         653
         4         603         604         655         654
         4         604         605         656         655
         4         605         606         657         656
         4         606         607         658         657
         4         607         608         659         658
         4         608         609         660         659
         4         609         610         661         660
         4         610         611         662         661
         4         612         613         664         663
         4         613         614         665         664
         4         614         615         666         665
         4         615         616         667         666
         4         616         617         668         667
         4         617         618         669         668
         4         618         619         670         669
         4         619         620         671         670
         4         620         621         672         671
         4         621         622         673         672
         4         622         623         674         673
         4         623         624         675         674
         4         624         625         676         675
         4         625         626         677         676
         4         626         627         678         677
         4         627         628         679         678
         4         628         629         680         679
         4         629         630         681         680
         4         630         631         682         681
         4         631         632         683         682
         4         632         633         684         683
         4         633         634         685         684
         4         634         635         686         685
         4         635         636         687         686
         4         636         637         688         687
         4         637         638         689         688
         4         638         639         690         689
         4         639         640         691         690
         4         640         641         692         691
         4         641         642         693         692
         4         642         643         694         693
         4         643         644         695         694
         4         644         645         696         695
         4         645         646         697         696
         4         646         647         698         697
         4         647         648         699         698
         4         648         649         700         699
         4         649         650         701         700
         4         650         651         702         701
         4         651         652         703         702
         4         652         653         704         703
         4         653         654         705         704
         4         654         655         706         705
         4         655         656         707         706
         4         656         657         708         707
         4         657         658         709         708
         4         658         659         710         709
         4         659         660         711         710
         4         660         661         712         711
         4         661         662         713         712
         4         663         664         715         714
         4         664         665         716         715
         4         665         666         717         716
         4         666         667         718         717
         4         667         668         719         718
         4         668         669         720         719
         4         669         670         721         720
         4         670         671         722         721
         4         671         672         723         722
         4         672         673         724         723
         4         673         674         725         724
         4         674         675         726         725
         4         675         676         727         726
         4         676         677         728         727
         4         677         678         729         728
         4         678         679         730         729
         4         679         680         731         730
         4         680         681         732         731
         4         681         682         733         732
         4         682         683         734         733
         4         683         684         735         734
         4         684         685         736         735
         4         685         686         737         736
         4         686         687         738         737
         4         687         688         739         738
         4         688         689         740         739
         4         689         690         741         740
         4         690         691         742         741
         4         691         692         743         742
         4         692         693         744         743
         4         693         694         745         744
         4         694         695         746         745
         4         695         696         747         746
         4         696         697         748         747
         4         697         698         749         748
         4         698         699         750         749
         4         699         700         751         750
         4         700         701         752         751
         4         701         702         753         752
         4         702         703         754         753
         4         703         704         755         754
         4         704         705         756         755
         4         705         706         757         756
         4         706         707         758         757
         4         707         708         759         758
         4         708         709         760         759
         4         709         710         761         760
         4         710         711         762         761
         4         711         712         763         762
         4         712         713         764         763
         4         714         715         766         765
         4         715         716         767         766
         4         716         717         768         767
         4         717         718         769         768
         4         718         719         770         769
         4         719         720         771         770
         4         720         721         772         771
         4         721         722         773         772
         4         722         723         774         773
         4         723         724         775         774
         4         724         725         776         775
         4         725         726         777         776
         4         726         727         778         777
         4         727         728         779         778
         4         728         729         780         779
         4         729         730         781         780
         4         730         731         782         781
         4         731         732         783         782
         4         732         733         784         783
         4         733         734         785         784
         4         734         735         786         785
         4         735         736         787         786
         4         736         737         788         787
         4         737         738         789         788
         4         738         739         790         789
         4         739         740         791         790
         4         740         741         792         791
         4         741         742         793         792
         4         742         743         794         793
         4         743         744         795         794
         4         744         745         796         795
         4         745         746         797         796
         4         746         747         798         797
         4         747         748         799         798
         4         748         749         800         799
         4         749         750         801         800
         4         750         751         802         801
         4         751         752         803         802
         4         752         753         804         803
         4         753         754         805         804
         4         754         755         806         805
         4         755         756         807         806
         4         756         757         808         807
         4         757         758         809         808
         4         758         759         810         809
         4         759         760         811         810
         4         760         761         812         811
         4         761         762         813         812
         4         762         763         814         813
         4         763         764         815         814
         4         765         766         817         816
         4         766         767         818         817
         4         767         768         819         818
         4         768         769         820         819
         4         769         770         821         820
         4         770         771         822         821
         4         771         772         823         822
         4         772         773         824         823
         4         773         774         825         824
         4         774         775         826         825
         4         775         776         827         826
         4         776         777         828         827
         4         777         778         829         828
         4         778         779         830         829
         4         779         780         831         830
         4         780         781         832         831
         4         781         782         833         832
         4         782         783         834         833
         4         783         784         835         834
         4         784         785         836         835
         4         785         786         837         836
         4         786         787         838         837
         4         787         788         839         838
         4         788         789         840         839
         4         789         790         841         840
         4         790         791         842         841
         4         791         792         843         842
         4         792         793         844         843
         4         793         794         845         844
         4         794         795         846         845
         4         795         796         847         846
         4         796         797         848         847
         4         797         798         849         848
         4         798         799         850         849
         4         799         800         851         850
         4         800         801         852         851
         4         801         802         853         852
         4         802         803         854         853
         4         803         804         855         854
         4         804         805         856         855
         4         805         806         857         856
         4         806         807         858         857
         4         807         808         859         858
         4         808         809         860         859
         4         809         810         861         860
         4         810         811         862         861
         4         811         812         863         862
         4         812         813         864         863
         4         813         814         865         864
         4         814         815         866         865
         4         816         817         868         867
         4         817         818         869         868
         4         818         819         870         869
         4         819         820         871         870
         4         820         821         872         871
         4         821         822         873         872
         4         822         823         874         873
         4         823         824         875         874
         4         824         825         876         875
         4         825         826         877         876
         4         826         827         878         877
         4         827         828         879         878
         4         828         829         880         879
         4         829         830         881         880
         4         830         831         882         881
         4         831         832         883         882
         4         832         833         884         883
         4         833         834         885         884
         4         834         835         886         885
         4         835         836         887         886
         4         836         837         888         887
         4         837         838         889         888
         4         838         839         890         889
         4         839         840         891         890
         4         840         841         892         891
         4         841         842         893         892
         4         842         843         894         893
         4         843         844         895         894
         4         844         845         896         895
         4         845         846         897         896
         4         846         847         898         897
         4         847         848         899         898
         4         848         849         900         899
         4         849         850         901         900
         4         850         851         902         901
         4         851         852         903         902
         4         852         853         904         903
         4         853         854         905         904
         4         854         855         906         905
         4         855         856         907         906
         4         856         857         908         907
         4         857         858         909         908
         4         858         859         910         909
         4         859         860         911         910
         4         860         861         912         911
         4         861         862         913         912
         4         862         863         914         913
         4         863         864         915         914
         4         864         865         916         915
         4         865         866         917         916
         4         867         868         919         918
         4         868         869         920         919
         4         869         870         921         920
         4         870         871         922         921
         4         871         872         923         922
         4         872         873         924         923
         4         873         874         925         924
         4         874         875         926         925
         4         875         876         927         926
         4         876         877         928         927
         4         877         878         929         928
         4         878         879         930         929
         4         879         880         931         930
         4         880         881         932         931
         4         881         882         933         932
         4         882         883         934         933
         4         883         884         935         934
         4         884         885         936         935
         4         885         886         937         936
         4         886         887         938         937
         4         887         888         939         938
         4         888         889         940         939
         4         889         890         941         940
         4         890         891         942         941
         4         891         892         943         942
         4         892         893         944         943
         4         893         894         945         944
         4         894         895         946         945
         4         895         896         947         946
         4         896         897         948         947
         4         897         898         949         948
         4         898         899         950         949
         4         899         900         951         950
         4         900         901         952         951
         4         901         902         953         952
         4         902         903         954         953
         4         903         904         955         954
         4         904         905         956         955
         4         905         906         957         956
         4         906         907         958         957
         4         907         908         959         958
         4         908         909         960         959
         4         909         910         961         960
         4         910         911         962         961
         4         911         912         963         962
         4         912         913         964         963
         4         913         914         965         964
         4         914         915         966         965
         4         915         916         967         966
         4         916         917         968         967
         4         918         919         970         969
         4         919         920         971         970
         4         920         921         972         971
         4         921         922         973         972
         4         922         923         974         973
         4         923         924         975         974
         4         924         925         976         975
         4         925         926         977         976
         4         926         927         978         977
         4         927         928         979         978
         4         928         929         980         979
         4         929         930         981         980
         4         930         931         982         981
         4         931         932         983         982
         4         932         933         984         983
         4         933         934         985         984
         4         934         935         986         985
         4         935         936         987         986
         4         936         937         988         987
         4         937         938         989         988
         4         938         939         990         989
         4         939         940         991         990
         4         940         941         992         991
         4         941         942         993         992
         4         942         943         994         993
         4         943         944         995         994
         4         944         945         996         995
         4         945         946         997         996
         4         946         947         998         997
         4         947         948         999         998
         4         948         949        1000         999
         4         949         950        1001        1000
         4         950         951        1002        1001
         4         951         952        1003        1002
         4         952         953        1004        1003
         4         953         954        1005        1004
         4         954         955        1006        1005
         4         955         956        1007        1006
         4         956         957        1008        1007
         4         957         958        1009        1008
         4         958         959        1010        1009
         4         959         960        1011        1010
         4         960         961        1012        1011
         4         961         962        1013        1012
         4         962         963        1014        1013
         4         963         964        1015        1014
         4         964         965        1016        1015
         4         965         966        1017        1016
         4         966         967        1018        1017
         4         967         968        1019        1018
         4         969         970        1021        1020
         4         970         971        1022        1021
         4         971         972        1023        1022
         4         972         973        1024        1023
         4         973         974        1025        1024
         4         974         975        1026        1025
         4         975         976        1027        1026
         4         976         977        1028        1027
         4         977         978        1029        1028
         4         978         979        1030        1029
         4         979         980        1031        1030
         4         980         981        1032        1031
         4         981         982        1033        1032
         4         982         983        1034        1033
         4         983         984        1035        1034
         4         984         985        1036        1035
         4         985         986        1037        1036
         4         986         987        1038        1037
         4         987         988        1039        1038
         4         988         989        1040        1039
         4         989         990        1041        1040
         4         990         991        1042        1041
         4         991         992        1043        1042
         4         992         993        1044        1043
         4         993         994        1045        1044
         4         994         995        1046        1045
         4         995         996        1047        1046
         4         996         997        1048        1047
         4         997         998        1049        1048
         4         998         999        1050        1049
         4         999        1000        1051        1050
         4        1000        1001        1052        1051
         4        1001        1002        1053        1052
         4        1002        1003        1054        1053
         4        1003        1004        1055        1054
         4        1004        1005        1056        1055
         4        1005        1006        1057        1056
         4        1006        1007        1058        1057
         4        1007        1008        1059        1058
         4        1008        1009        1060        1059
         4        1009        1010        1061        1060
         4        1010        1011        1062        1061
         4        1011        1012        1063        1062
         4        1012        1013        1064        1063
         4        1013        1014        1065        1064
         4        1014        1015        1066        1065
         4        1015        1016        1067        1066
         4        1016        1017        1068        1067
         4        1017        1018        1069        1068
         4        1018        1019        1070        1069
         4        1020        1021        1072        1071
         4        1021        1022        1073        1072
         4        1022        1023        1074        1073
         4        1023        1024        1075        1074
         4        1024        1025        1076        1075
         4        1025        1026        1077        1076
         4        1026        1027        1078        1077
         4        1027        1028        1079        1078
         4        1028        1029        1080        1079
         4        1029        1030        1081        1080
         4        1030        1031        1082        1081
         4        1031        1032        1083        1082
         4        1032        1033        1084        1083
         4        1033        1034        1085        1084
         4        1034        1035        1086        1085
         4        1035        1036        1087        1086
         4        1036        1037        1088        1087
         4        1037        1038        1089        1088
         4        1038        1039        1090        1089
         4        1039        1040        1091        1090
         4        1040        1041        1092        1091
         4        1041        1042        1093        1092
         4        1042        1043        1094        1093
         4        1043        1044        1095        1094
         4        1044        1045        1096        1095
         4        1045        1046        1097        1096
         4        1046        1047        1098        1097
         4        1047        1048        1099        1098
         4        1048        1049        1100        1099
         4        1049        1050        1101        1100
         4        1050        1051        1102        1101
         4        1051        1052        1103        1102
         4        1052        1053        1104        1103
         4        1053        1054        1105        1104
         4        1054        1055        1106        1105
         4        1055        1056        1107        1106
         4        1056        1057        1108        1107
         4        1057        1058        1109        1108
         4        1058        1059        1110        1109
         4        1059        1060        1111        1110
         4        1060        1061        1112        1111
         4        1061        1062        1113        1112
         4        1062        1063        1114        1113
         4        1063        1064        1115        1114
         4        1064        1065        1116        1115
         4        1065        1066        1117        1116
         4        1066        1067        1118        1117
         4        1067        1068        1119        1118
         4        1068        1069        1120        1119
         4        1069        1070        1121        1120
         4        1071        1072        1123        1122
         4        1072        1073        1124        1123
         4        1073        1074        1125        1124
         4        1074        1075        1126        1125
         4        1075        1076        1127        1126
         4        1076        1077        1128        1127
         4        1077        1078        1129        1128
         4        1078        1079        1130        1129
         4        1079        1080        1131        1130
         4        1080        1081        1132        1131
         4        1081        1082        1133        1132
         4        1082        1083        1134        1133
         4        1083        1084        1135        1134
         4        1084        1085        1136        1135
         4        1085        1086        1137        1136
         4        1086        1087        1138        1137
         4        1087        1088        1139        1138
         4        1088        1089        1140        1139
         4        1089        1090        1141        1140
         4        1090        1091        1142        1141
         4        1091        1092        1143        1142
         4        1092        1093        1144        1143
         4        1093        1094        1145        1144
         4        1094        1095        1146        1145
         4        1095        1096        1147        1146
         4        1096        1097        1148        1147
         4        1097        1098        1149        1148
         4        1098        1099        1150        1149
         4        1099        1100        1151        1150
         4        1100        1101        1152        1151
         4        1101        1102        1153        1152
         4        1102        1103        1154        1153
         4        1103        1104        1155        1154
         4        1104        1105        1156        1155
         4        1105        1106        1157        1156
         4        1106        1107        1158        1157
         4        1107        1108        1159        1158
         4        1108        1109        1160        1159
         4        1109        1110        1161        1160
         4        1110        1111        1162        1161
         4        1111        1112        1163        1162
         4        1112        1113        1164        1163
         4        1113        1114        1165        1164
         4        1114        1115        1166        1165
         4        1115        1116        1167        1166
         4        1116        1117        1168        1167
         4        1117        1118        1169        1168
         4        1118        1119        1170        1169
         4        1119        1120        1171        1170
         4        1120        1121        1172        1171
         4        1122        1123        1174        1173
         4        1123        1124        1175        1174
         4        1124        1125        1176        1175
         4        1125        1126        1177        1176
         4        1126        1127        1178        1177
         4        1127        1128        1179        1178
         4        1128        1129        1180        1179
         4        1129        1130        1181        1180
         4        1130        1131        1182        1181
         4        1131        1132        1183        1182
         4        1132        1133        1184        1183
         4        1133        1134        1185        1184
         4        1134        1135        1186        1185
         4        1135        1136        1187        1186
         4        1136        1137        1188        1187
         4        1137        1138        1189        1188
         4        1138        1139        1190        1189
         4        1139        1140        1191        1190
         4        1140        1141        1192        1191
         4        1141        1142        1193        1192
         4        1142        1143        1194        1193
         4        1143        1144        1195        1194
         4        1144        1145        1196        1195
         4        1145        1146        1197        1196
         4        1146        1147        1198        1197
         4        1147        1148        1199        1198
         4        1148        1149        1200        1199
         4        1149        1150        1201        1200
         4        1150        1151        1202        1201
         4        1151        1152        1203        1202
         4        1152        1153        1204        1203
         4        1153        1154        1205        1204
         4        1154        1155        1206        1205
         4        1155        1156        1207        1206
         4        1156        1157        1208        1207
         4        1157        1158        1209        1208
         4        1158        1159        1210        1209
         4        1159        1160        1211        1210
         4        1160        1161        1212        1211
         4        1161        1162        1213        1212
         4        1162        1163        1214        1213
         4        1163        1164        1215        1214
         4        1164        1165        1216        1215
         4        1165        1166        1217        1216
         4        1166        1167        1218        1217
         4        1167        1168        1219        1218
         4        1168        1169        1220        1219
         4        1169        1170        1221        1220
         4        1170        1171        1222        1221
         4        1171        1172        1223        1222
         4        1173        1174        1225        1224
         4        1174        1175        1226        1225
         4        1175        1176        1227        1226
         4        1176        1177        1228        1227
         4        1177        1178        1229        1228
         4        1178        1179        1230        1229
         4        1179        1180        1231        1230
         4        1180        1181        1232        1231
         4        1181        1182        1233        1232
         4        1182        1183        1234        1233
         4        1183        1184        1235        1234
         4        1184        1185        1236        1235
         4        1185        1186        1237        1236
         4        1186        1187        1238        1237
         4        1187        1188        1239        1238
         4        1188        1189        1240        1239
         4        1189        1190        1241        1240
         4        1190        1191        1242        1241
         4        1191        1192        1243        1242
         4        1192        1193        1244        1243
         4        1193        1194        1245        1244
         4        1194        1195        1246        1245
         4        1195        1196        1247        1246
         4        1196        1197        1248        1247
         4        1197        1198        1249        1248
         4        1198        1199        1250        1249
         4        1199        1200        1251        1250
         4        1200        1201        1252        1251
         4        1201        1202        1253        1252
         4        1202        1203        1254        1253
         4        1203        1204        1255        1254
         4        1204        1205        1256        1255
         4        1205        1206        1257        1256
         4        1206        1207        1258        1257
         4        1207        1208        1259        1258
         4        1208        1209        1260        1259
         4        1209        1210        1261        1260
         4        1210        1211        1262        1261
         4        1211        1212        1263        1262
         4        1212        1213        1264        1263
         4        1213        1214        1265        1264
         4        1214        1215        1266        1265
         4        1215        1216        1267        1266
         4        1216        1217        1268        1267
         4        1217        1218        1269        1268
         4        1218        1219        1270        1269
         4        1219        1220        1271        1270
         4        1220        1221        1272        1271
         4        1221        1222        1273        1272
         4        1222        1223        1274        1273
         4        1224        1225        1276        1275
         4        1225        1226        1277        1276
         4        1226        1227        1278        1277
         4        1227        1228        1279        1278
         4        1228        1229        1280        1279
         4        1229        1230        1281        1280
         4        1230        1231        1282        1281
         4        1231        1232        1283        1282
         4        1232        1233        1284        1283
         4        1233        1234        1285        1284
         4        1234        1235        1286        1285
         4        1235        1236        1287        1286
         4        1236        1237        1288        1287
         4        1237        1238        1289        1288
         4        1238        1239        1290        1289
         4        1239        1240        1291        1290
         4        1240        1241        1292        1291
         4        1241        1242        1293        1292
         4        1242        1243        1294        1293
         4        1243        1244        1295        1294
         4        1244        1245        1296        1295
         4        1245        1246        1297        1296
         4        1246        1247        1298        1297
         4        1247        1248        1299        1298
         4        1248        1249        1300        1299
         4        1249        1250        1301        1300
         4        1250        1251        1302        1301
         4        1251        1252        1303        1302
         4        1252        1253        1304        1303
         4        1253        1254        1305        1304
         4        1254        1255        1306        1305
         4        1255        1256        1307        1306
         4        1256        1257        1308        1307
         4        1257        1258        1309        1308
         4        1258        1259        1310        1309
         4        1259        1260        1311        1310
         4        1260        1261        1312        1311
         4        1261        1262        1313        1312
         4        1262        1263        1314        1313
         4        1263        1264        1315        1314
         4        1264        1265        1316        1315
         4        1265        1266        1317        1316
         4        1266        1267        1318        1317
         4        1267        1268        1319        1318
         4        1268        1269        1320        1319
         4        1269        1270        1321        1320
         4        1270        1271        1322        1321
         4        1271        1272        1323        1322
         4        1272        1273        1324        1323
         4        1273        1274        1325        1324
         4        1275        1276        1327        1326
         4        1276        1277        1328        1327
         4        1277        1278        1329        1328
         4        1278        1279        1330        1329
         4        1279        1280        1331        1330
         4        1280        1281        1332        1331
         4        1281        1282        1333        1332
         4        1282        1283        1334        1333
         4        1283        1284        1335        1334
         4        1284        1285        1336        1335
         4        1285        1286        1337        1336
         4        1286        1287        1338        1337
         4        1287        1288        1339        1338
         4        1288        1289        1340        1339
         4        1289        1290        1341        1340
         4        1290        1291        1342        1341
         4        1291        1292        1343        1342
         4        1292        1293        1344        1343
         4        1293        1294        1345        1344
         4        1294        1295        1346        1345
         4        1295        1296        1347        1346
         4        1296        1297        1348        1347
         4        1297        1298        1349        1348
         4        1298        1299        1350        1349
         4        1299        1300        1351        1350
         4        1300        1301        1352        1351
         4        1301        1302        1353        1352
         4        1302        1303        1354        1353
         4        1303        1304        1355        1354
         4        1304        1305        1356        1355
         4        1305        1306        1357        1356
         4        1306        1307        1358        1357
         4        1307        1308        1359        1358
         4        1308        1309        1360        1359
         4        1309        1310        1361        1360
         4        1310        1311        1362        1361
         4        1311        1312        1363        1362
         4        1312        1313        1364        1363
         4        1313        1314        1365        1364
         4        1314        1315        1366        1365
         4        1315        1316        1367        1366
         4        1316        1317        1368        1367
         4        1317        1318        1369        1368
         4        1318        1319        1370        1369
         4        1319        1320        1371        1370
         4        1320        1321        1372        1371
         4        1321        1322        1373        1372
         4        1322        1323        1374        1373
         4        1323        1324        1375        1374
         4        1324        1325        1376        1375
         4        1326        1327        1378        1377
         4        1327        1328        1379        1378
         4        1328        1329        1380        1379
         4        1329        1330        1381        1380
         4        1330        1331        1382        1381
         4        1331        1332        1383        1382
         4        1332        1333        1384        1383
         4        1333        1334        1385        1384
         4        1334        1335        1386        1385
         4        1335        1336        1387        1386
         4        1336        1337        1388        1387
         4        1337        1338        1389        1388
         4        1338        1339        1390        1389
         4        1339        1340        1391        1390
         4        1340        1341        1392        1391
         4        1341        1342        1393        1392
         4        1342        1343        1394        1393
         4        1343        1344        1395        1394
         4        1344        1345        1396        1395
         4        1345        1346        1397        1396
         4        1346        1347        1398        1397
         4        1347        1348        1399        1398
         4        1348        1349        1400        1399
         4        1349        1350        1401        1400
         4        1350        1351        1402        1401
         4        1351        1352        1403        1402
         4        1352        1353        1404        1403
         4        1353        1354        1405        1404
         4        1354        1355        1406        1405
         4        1355        1356        1407        1406
         4        1356        1357        1408        1407
         4        1357        1358        1409        1408
         4        1358        1359        1410        1409
         4        1359        1360        1411        1410
         4        1360        1361        1412        1411
         4        1361        1362        1413        1412
         4        1362        1363        1414        1413
         4        1363        1364        1415        1414
         4        1364        1365        1416        1415
         4        1365        1366        1417        1416
         4        1366        1367        1418        1417
         4        1367        1368        1419        1418
         4        1368        1369        1420        1419
         4        1369        1370        1421        1420
         4        1370        1371        1422        1421
         4        1371        1372        1423        1422
         4        1372        1373        1424        1423
         4        1373        1374        1425        1424
         4        1374        1375        1426        1425
         4        1375        1376        1427        1426
         4        1377        1378        1429        1428
         4        1378        1379        1430        1429
         4        1379        1380        1431        1430
         4        1380        1381        1432        1431
         4        1381        1382        1433        1432
         4        1382        1383        1434        1433
         4        1383        1384        1435        1434
         4        1384        1385        1436        1435
         4        1385        1386        1437        1436
         4        1386        1387        1438        1437
         4        1387        1388        1439        1438
         4        1388        1389        1440        1439
         4        1389        1390        1441        1440
         4        1390        1391        1442        1441
         4        1391        1392        1443        1442
         4        1392        1393        1444        1443
         4        1393        1394        1445        1444
         4        1394        1395        1446        1445
         4        1395        1396        1447        1446
         4        1396        1397        1448        1447
         4        1397        1398        1449        1448
         4        1398        1399        1450        1449
         4        1399        1400        1451        1450
         4        1400        1401        1452        1451
         4        1401        1402        1453        1452
         4        1402        1403        1454        1453
         4        1403        1404        1455        1454
         4        1404        1405        1456        1455
         4        1405        1406        1457        1456
         4        1406        1407        1458        1457
         4        1407        1408        1459        1458
         4        1408        1409        1460        1459
         4        1409        1410        1461        1460
         4        1410        1411        1462        1461
         4        1411        1412        1463        1462
         4        1412        1413        1464        1463
         4        1413        1414        1465        1464
         4        1414        1415        1466        1465
         4        1415        1416        1467        1466
         4        1416        1417        1468        1467
         4        1417        1418        1469        1468
         4        1418        1419        1470        1469
         4        1419        1420        1471        1470
         4        1420        1421        1472        1471
         4        1421        1422        1473        1472
         4        1422        1423        1474        1473
         4        1423        1424        1475        1474
         4        1424        1425        1476        1475
         4        1425        1426        1477        1476
         4        1426        1427        1478        1477
         4        1428        1429        1480        1479
         4        1429        1430        1481        1480
         4        1430        1431        1482        1481
         4        1431        1432        1483        1482
         4        1432        1433        1484        1483
         4        1433        1434        1485        1484
         4        1434        1435        1486        1485
         4        1435        1436        1487        1486
         4        1436        1437        1488        1487
         4        1437        1438        1489        1488
         4        1438        1439        1490        1489
         4        1439        1440        1491        1490
         4        1440        1441        1492        1491
         4        1441        1442        1493        1492
         4        1442        1443        1494        1493
         4        1443        1444        1495        1494
         4        1444        1445        1496        1495
         4        1445        1446        1497        1496
         4        1446        1447        1498        1497
         4        1447        1448        1499        1498
         4        1448        1449        1500        1499
         4        1449        1450        1501        1500
         4        1450        1451        1502        1501
         4        1451        1452        1503        1502
         4        1452        1453        1504        1503
         4        1453        1454        1505        1504
         4        1454        1455        1506        1505
         4        1455        1456        1507        1506
         4        1456        1457        1508        1507
         4        1457        1458        1509        1508
         4        1458        1459        1510        1509
         4        1459        1460        1511        1510
         4        1460        1461        1512        1511
         4        1461        1462        1513        1512
         4        1462        1463        1514        1513
         4        1463        1464        1515        1514
         4        1464        1465        1516        1515
         4        1465        1466        1517        1516
         4        1466        1467        1518        1517
         4        1467        1468        1519        1518
         4        1468        1469        1520        1519
         4        1469        1470        1521        1520
         4        1470        1471        1522        1521
         4        1471        1472        1523        1522
         4        1472        1473        1524        1523
         4        1473        1474        1525        1524
         4        1474        1475        1526        1525
         4        1475        1476        1527        1526
         4        1476        1477        1528        1527
         4        1477        1478        1529        1528
         4        1479        1480        1531        1530
         4        1480        1481        1532        1531
         4        1481        1482        1533        1532
         4        1482        1483        1534        1533
         4        1483        1484        1535        1534
         4        1484        1485        1536        1535
         4        1485        1486        1537        1536
         4        1486        1487        1538        1537
         4        1487        1488        1539        1538
         4        1488        1489        1540        1539
         4        1489        1490        1541        1540
         4        1490        1491        1542        1541
         4        1491        1492        1543        1542
         4        1492        1493        1544        1543
         4        1493        1494        1545        1544
         4        1494        1495        1546        1545
         4        1495        1496        1547        1546
         4        1496        1497        1548        1547
         4        1497        1498        1549        1548
         4        1498        1499        1550        1549
         4        1499        1500        1551        1550
         4        1500        1501        1552        1551
         4        1501        1502        1553        1552
         4        1502        1503        1554        1553
         4        1503        1504        1555        1554
         4        1504        1505        1556        1555
         4        1505        1506        1557        1556
         4        1506        1507        1558        1557
         4        1507        1508        1559        1558
         4        1508        1509        1560        1559
         4        1509        1510        1561        1560
         4        1510        1511        1562        1561
         4        1511        1512        1563        1562
         4        1512        1513        1564        1563
         4        1513        1514        1565        1564
         4        1514        1515        1566        1565
         4        1515        1516        1567        1566
         4        1516        1517        1568        1567
         4        1517        1518        1569        1568
         4        1518        1519        1570        1569
         4        1519        1520        1571        1570
         4        1520        1521        1572        1571
         4        1521        1522        1573        1572
         4        1522        1523        1574        1573
         4        1523        1524        1575        1574
         4        1524        1525        1576        1575
         4        1525        1526        1577        1576
         4        1526        1527        1578        1577
         4        1527        1528        1579        1578
         4        1528        1529        1580        1579
         4        1530        1531        1582        1581
         4        1531        1532        1583        1582
         4        1532        1533        1584        1583
         4        1533        1534        1585        1584
         4        1534        1535        1586        1585
         4        1535        1536        1587        1586
         4        1536        1537        1588        1587
         4        1537        1538        1589        1588
         4        1538        1539        1590        1589
         4        1539        1540        1591        1590
         4        1540        1541        1592        1591
         4        1541        1542        1593        1592
         4        1542        1543        1594        1593
         4        1543        1544        1595        1594
         4        1544        1545        1596        1595
         4        1545        1546        1597        1596
         4        1546        1547        1598        1597
         4        1547        1548        1599        1598
         4        1548        1549        1600        1599
         4        1549        1550        1601        1600
         4        1550        1551        1602        1601
         4        1551        1552        1603        1602
         4        1552        1553        1604        1603
         4        1553        1554        1605        1604
         4        1554        1555        1606        1605
         4        1555        1556        1607        1606
         4        1556        1557        1608        1607
         4        1557        1558        1609        1608
         4        1558        1559        1610        1609
         4        1559        1560        1611        1610
         4        1560        1561        1612        1611
         4        1561        1562        1613        1612
         4        1562        1563        1614        1613
         4        1563        1564        1615        1614
         4        1564        1565        1616        1615
         4        1565        1566        1617        1616
         4        1566        1567        1618        1617
         4        1567        1568        1619        1618
         4        1568        1569        1620        1619
         4        1569        1570        1621        1620
         4        1570        1571        1622        1621
         4        1571        1572        1623        1622
         4        1572        1573        1624        1623
         4        1573        1574        1625        1624
         4        1574        1575        1626        1625
         4        1575        1576        1627        1626
         4        1576        1577        1628        1627
         4        1577        1578        1629        1628
         4        1578        1579        1630        1629
         4        1579        1580        1631        1630
         4        1581        1582        1633        1632
         4        1582        1583        1634        1633
         4        1583        1584        1635        1634
         4        1584        1585        1636        1635
         4        1585        1586        1637        1636
         4        1586        1587        1638        1637
         4        1587        1588        1639        1638
         4        1588        1589        1640        1639
         4        1589        1590        1641        1640
         4        1590        1591        1642        1641
         4        1591        1592        1643        1642
         4        1592        1593        1644        1643
         4        1593        1594        1645        1644
         4        1594        1595        1646        1645
         4        1595        1596        1647        1646
         4        1596        1597        1648        1647
         4        1597        1598        1649        1648
         4        1598        1599        1650        1649
         4        1599        1600        1651        1650
         4        1600        1601        1652        1651
         4        1601        1602        1653        1652
         4        1602        1603        1654        1653
         4        1603        1604        1655        1654
         4        1604        1605        1656        1655
         4        1605        1606        1657        1656
         4        1606        1607        1658        1657
         4        1607        1608        1659        1658
         4        1608        1609        1660        1659
         4        1609        1610        1661        1660
         4        1610        1611        1662        1661
         4        1611        1612        1663        1662
         4        1612        1613        1664        1663
         4        1613        1614        1665        1664
         4        1614        1615        1666        1665
         4        1615        1616        1667        1666
         4        1616        1617        1668        1667
         4        1617        1618        1669        1668
         4        1618        1619        1670        1669
         4        1619        1620        1671        1670
         4        1620        1621        1672        1671
         4        1621        1622        1673        1672
         4        1622        1623        1674        1673
         4        1623        1624        1675        1674
         4        1624        1625        1676        1675
         4        1625        1626        1677        1676
         4        1626        1627        1678        1677
         4        1627        1628        1679        1678
         4        1628        1629        1680        1679
         4        1629        1630        1681        1680
         4        1630        1631        1682        1681
         4        1632        1633        1684        1683
         4        1633        1634        1685        1684
         4        1634        1635        1686        1685
         4        1635        1636        1687        1686
         4        1636        1637        1688        1687
         4        1637        1638        1689        1688
         4        1638        1639        1690        1689
         4        1639        1640        1691        1690
         4        1640        1641        1692        1691
         4        1641        1642        1693        1692
         4        1642        1643        1694        1693
         4        1643        1644        1695        1694
         4        1644        1645        1696        1695
         4        1645        1646        1697        1696
         4        1646        1647        1698        1697
         4        1647        1648        1699        1698
         4        1648        1649        1700        1699
         4        1649        1650        1701        1700
         4        1650        1651        1702        1701
         4        1651        1652        1703        1702
         4        1652        1653        1704        1703
         4        1653        1654        1705        1704
         4        1654        1655        1706        1705
         4        1655        1656        1707        1706
         4        1656        1657        1708        1707
         4        1657        1658        1709        1708
         4        1658        1659        1710        1709
         4        1659        1660        1711        1710
         4        1660        1661        1712        1711
         4        1661        1662        1713        1712
         4        1662        1663        1714        1713
         4        1663        1664        1715        1714
         4        1664        1665        1716        1715
         4        1665        1666        1717        1716
         4        1666        1667        1718        1717
         4        1667        1668        1719        1718
         4        1668        1669        1720        1719
         4        1669        1670        1721        1720
         4        1670        1671        1722        1721
         4        1671        1672        1723        1722
         4        1672        1673        1724        1723
         4        1673        1674        1725        1724
         4        1674        1675        1726        1725
         4        1675        1676        1727        1726
         4        1676        1677        1728        1727
         4        1677        1678        1729        1728
         4        1678        1679        1730        1729
         4        1679        1680        1731        1730
         4        1680        1681        1732        1731
         4        1681        1682        1733        1732
         4        1683        1684        1735        1734
         4        1684        1685        1736        1735
         4        1685        1686        1737        1736
         4        1686        1687        1738        1737
         4        1687        1688        1739        1738
         4        1688        1689        1740        1739
         4        1689        1690        1741        1740
         4        1690        1691        1742        1741
         4        1691        1692        1743        1742
         4        1692        1693        1744        1743
         4        1693        1694        1745        1744
         4        1694        1695        1746        1745
         4        1695        1696        1747        1746
         4        1696        1697        1748        1747
         4        1697        1698        1749        1748
         4        1698        1699        1750        1749
         4        1699        1700        1751        1750
         4        1700        1701        1752        1751
         4        1701        1702        1753        1752
         4        1702        1703        1754        1753
         4        1703        1704        1755        1754
         4        1704        1705        1756        1755
         4        1705        1706        1757        1756
         4        1706        1707        1758        1757
         4        1707        1708        1759        1758
         4        1708        1709        1760        1759
         4        1709        1710        1761        1760
         4        1710        1711        1762        1761
         4        1711        1712        1763        1762
         4        1712        1713        1764        1763
         4        1713        1714        1765        1764
         4        1714        1715        1766        1765
         4        1715        1716        1767        1766
         4        1716        1717        1768        1767
         4        1717        1718        1769        1768
         4        1718        1719        1770        1769
         4        1719        1720        1771        1770
         4        1720        1721        1772        1771
         4        1721        1722        1773        1772
         4        1722        1723        1774        1773
         4        1723        1724        1775        1774
         4        1724        1725        1776        1775
         4        1725        1726        1777        1776
         4        1726        1727        1778        1777
         4        1727        1728        1779        1778
         4        1728        1729        1780        1779
         4        1729        1730        1781        1780
         4        1730        1731        1782        1781
         4        1731        1732        1783        1782
         4        1732        1733        1784        1783
         4        1734        1735        1786        1785
         4        1735        1736        1787        1786
         4        1736        1737        1788        1787
         4        1737        1738        1789        1788
         4        1738        1739        1790        1789
         4        1739        1740        1791        1790
         4        1740        1741        1792        1791
         4        1741        1742        1793        1792
         4        1742        1743        1794        1793
         4        1743        1744        1795        1794
         4        1744        1745        1796        1795
         4        1745        1746        1797        1796
         4        1746        1747        1798        1797
         4        1747        1748        1799        1798
         4        1748        1749        1800        1799
         4        1749        1750        1801        1800
         4        1750        1751        1802        1801
         4        1751        1752        1803        1802
         4        1752        1753        1804        1803
         4        1753        1754        1805        1804
         4        1754        1755        1806        1805
         4        1755        1756        1807        1806
         4        1756        1757        1808        1807
         4        1757        1758        1809        1808
         4        1758        1759        1810        1809
         4        1759        1760        1811        1810
         4        1760        1761        1812        1811
         4        1761        1762        1813        1812
         4        1762        1763        1814        1813
         4        1763        1764        1815        1814
         4        1764        1765        1816        1815
         4        1765        1766        1817        1816
         4        1766        1767        1818        1817
         4        1767        1768        1819        1818
         4        1768        1769        1820        1819
         4        1769        1770        1821        1820
         4        1770        1771        1822        1821
         4        1771        1772        1823        1822
         4        1772        1773        1824        1823
         4        1773        1774        1825        1824
         4        1774        1775        1826        1825
         4        1775        1776        1827        1826
         4        1776        1777        1828        1827
         4        1777        1778        1829        1828
         4        1778        1779        1830        1829
         4        1779        1780        1831        1830
         4        1780        1781        1832        1831
         4        1781        1782        1833        1832
         4        1782        1783        1834        1833
         4        1783        1784        1835        1834
         4        1785        1786        1837        1836
         4        1786        1787        1838        1837
         4        1787        1788        1839        1838
         4        1788        1789        1840        1839
         4        1789        1790        1841        1840
         4        1790        1791        1842        1841
         4        1791        1792        1843        1842
         4        1792        1793        1844        1843
         4        1793        1794        1845        1844
         4        1794        1795        1846        1845
         4        1795        1796        1847        1846
         4        1796        1797        1848        1847
         4        1797        1798        1849        1848
         4        1798        1799        1850        1849
         4        1799        1800        1851        1850
         4        1800        1801        1852        1851
         4        1801        1802        1853        1852
         4        1802        1803        1854        1853
         4        1803        1804        1855        1854
         4        1804        1805        1856        1855
         4        1805        1806        1857        1856
         4        1806        1807        1858        1857
         4        1807        1808        1859        1858
         4        1808        1809        1860        1859
         4        1809        1810        1861        1860
         4        1810        1811        1862        1861
         4        1811        1812        1863        1862
         4        1812        1813        1864        1863
         4        1813        1814        1865        1864
         4        1814        1815        1866        1865
         4        1815        1816        1867        1866
         4        1816        1817        1868        1867
         4        1817        1818        1869        1868
         4        1818        1819        1870        1869
         4        1819        1820        1871        1870
         4        1820        1821        1872        1871
         4        1821        1822        1873        1872
         4        1822        1823        1874        1873
         4        1823        1824        1875        1874
         4        1824        1825        1876        1875
         4        1825        1826        1877        1876
         4        1826        1827        1878        1877
         4        1827        1828        1879        1878
         4        1828        1829        1880        1879
         4        1829        1830        1881        1880
         4        1830        1831        1882        1881
         4        1831        1832        1883        1882
         4        1832        1833        1884        1883
         4        1833        1834        1885        1884
         4        1834        1835        1886        1885
         4        1836        1837        1888        1887
         4        1837        1838        1889        1888
         4        1838        1839        1890        1889
         4        1839        1840        1891        1890
         4        1840        1841        1892        1891
         4        1841        1842        1893        1892
         4        1842        1843        1894        1893
         4        1843        1844        1895        1894
         4        1844        1845        1896        1895
         4        1845        1846        1897        1896
         4        1846        1847        1898        1897
         4        1847        1848        1899        1898
         4        1848        1849        1900        1899
         4        1849        1850        1901        1900
         4        1850        1851        1902        1901
         4        1851        1852        1903        1902
         4        1852        1853        1904        1903
         4        1853        1854        1905        1904
         4        1854        1855        1906        1905
         4        1855        1856        1907        1906
         4        1856        1857        1908        1907
         4        1857        1858        1909        1908
         4        1858        1859        1910        1909
         4        1859        1860        1911        1910
         4        1860        1861        1912        1911
         4        1861        1862        1913        1912
         4        1862        1863        1914        1913
         4        1863        1864        1915        1914
         4        1864        1865        1916        1915
         4        1865        1866        1917        1916
         4        1866        1867        1918        1917
         4        1867        1868        1919        1918
         4        1868        1869        1920        1919
         4        1869        1870        1921        1920
         4        1870        1871        1922        1921
         4        1871        1872        1923        1922
         4        1872        1873        1924        1923
         4        1873        1874        1925        1924
         4        1874        1875        1926        1925
         4        1875        1876        1927        1926
         4        1876        1877        1928        1927
         4        1877        1878        1929        1928
         4        1878        1879        1930        1929
         4        1879        1880        1931        1930
         4        1880        1881        1932        1931
         4        1881        1882        1933        1932
         4        1882        1883        1934        1933
         4        1883        1884        1935        1934
         4        1884        1885        1936        1935
         4        1885        1886        1937        1936
         4        1887        1888        1939        1938
         4        1888        1889        1940        1939
         4        1889        1890        1941        1940
         4        1890        1891        1942        1941
         4        1891        1892        1943        1942
         4        1892        1893        1944        1943
         4        1893        1894        1945        1944
         4        1894        1895        1946        1945
         4        1895        1896        1947        1946
         4        1896        1897        1948        1947
         4        1897        1898        1949        1948
         4        1898        1899        1950        1949
         4        1899        1900        1951        1950
         4        1900        1901        1952        1951
         4        1901        1902        1953        1952
         4        1902        1903        1954        1953
         4        1903        1904        1955        1954
         4        1904        1905        1956        1955
         4        1905        1906        1957        1956
         4        1906        1907        1958        1957
         4        1907        1908        1959        1958
         4        1908        1909        1960        1959
         4        1909        1910        1961        1960
         4        1910        1911        1962        1961
         4        1911        1912        1963        1962
         4        1912        1913        1964        1963
         4        1913        1914        1965        1964
         4        1914        1915        1966        1965
         4        1915        1916        1967        1966
         4        1916        1917        1968        1967
         4        1917        1918        1969        1968
         4        1918        1919        1970        1969
         4        1919        1920        1971        1970
         4        1920        1921        1972        1971
         4        1921        1922        1973        1972
         4        1922        1923        1974        1973
         4        1923        1924        1975        1974
         4        1924        1925        1976        1975
         4        1925        1926        1977        1976
         4        1926        1927        1978        1977
         4        1927        1928        1979        1978
         4        1928        1929        1980        1979
         4        1929        1930        1981        1980
         4        1930        1931        1982        1981
         4        1931        1932        1983        1982
         4        1932        1933        1984        1983
         4        1933        1934        1985        1984
         4        1934        1935        1986        1985
         4        1935        1936        1987        1986
         4        1936        1937        1988        1987
         4        1938        1939        1990        1989
         4        1939        1940        1991        1990
         4        1940        1941        1992        1991
         4        1941        1942        1993        1992
         4        1942        1943        1994        1993
         4        1943        1944        1995        1994
         4        1944        1945        1996        1995
         4        1945        1946        1997        1996
         4        1946        1947        1998        1997
         4        1947        1948        1999        1998
         4        1948        1949        2000        1999
         4        1949        1950        2001        2000
         4        1950        1951        2002        2001
         4        1951        1952        2003        2002
         4        1952        1953        2004        2003
         4        1953        1954        2005        2004
         4        1954        1955        2006        2005
         4        1955        1956        2007        2006
         4        1956        1957        2008        2007
         4        1957        1958        2009        2008
         4        1958        1959        2010        2009
         4        1959        1960        2011        2010
         4        1960        1961        2012        2011
         4        1961        1962        2013        2012
         4        1962        1963        2014        2013
         4        1963        1964        2015        2014
         4        1964        1965        2016        2015
         4        1965        1966        2017        2016
         4        1966        1967        2018        2017
         4        1967        1968        2019        2018
         4        1968        1969        2020        2019
         4        1969        1970        2021        2020
         4        1970        1971        2022        2021
         4        1971        1972        2023        2022
         4        1972        1973        2024        2023
         4        1973        1974        2025        2024
         4        1974        1975        2026        2025
         4        1975        1976        2027        2026
         4        1976        1977        2028        2027
         4        1977        1978        2029        2028
         4        1978        1979        2030        2029
         4        1979        1980        2031        2030
         4        1980        1981        2032        2031
         4        1981        1982        2033        2032
         4        1982        1983        2034        2033
         4        1983        1984        2035        2034
         4        1984        1985        2036        2035
         4        1985        1986        2037        2036
         4        1986        1987        2038        2037
         4        1987        1988        2039        2038
         4        1989        1990        2041        2040
         4        1990        1991        2042        2041
         4        1991        1992        2043        2042
         4        1992        1993        2044        2043
         4        1993        1994        2045        2044
         4        1994        1995        2046        2045
         4        1995        1996        2047        2046
         4        1996        1997        2048        2047
         4        1997        1998        2049        2048
         4        1998        1999        2050        2049
         4        1999        2000        2051        2050
         4        2000        2001        2052        2051
         4        2001        2002        2053        2052
         4        2002        2003        2054        2053
         4        2003        2004        2055        2054
         4        2004        2005        2056        2055
         4        2005        2006        2057        2056
         4        2006        2007        2058        2057
         4        2007        2008        2059        2058
         4        2008        2009        2060        2059
         4        2009        2010        2061        2060
         4        2010        2011        2062        2061
         4        2011        2012        2063        2062
         4        2012        2013        2064        2063
         4        2013        2014        2065        2064
         4        2014        2015        2066        2065
         4        2015        2016        2067        2066
         4        2016        2017        2068        2067
         4        2017        2018        2069        2068
         4        2018        2019        2070        2069
         4        2019        2020        2071        2070
         4        2020        2021        2072        2071
         4        2021        2022        2073        2072
         4        2022        2023        2074        2073
         4        2023        2024        2075        2074
         4        2024        2025        2076        2075
         4        2025        2026        2077        2076
         4        2026        2027        2078        2077
         4        2027        2028        2079        2078
         4        2028        2029        2080        2079
         4        2029        2030        2081        2080
         4        2030        2031        2082        2081
         4        2031        2032        2083        2082
         4        2032        2033        2084        2083
         4        2033        2034        2085        2084
         4        2034        2035        2086        2085
         4        2035        2036        2087        2086
         4        2036        2037        2088        2087
         4        2037        2038        2089        2088
         4        2038        2039        2090        2089
         4        2040        2041        2092        2091
         4        2041        2042        2093        2092
         4        2042        2043        2094        2093
         4        2043        2044        2095        2094
         4        2044        2045        2096        2095
         4        2045        2046        2097        2096
         4        2046        2047        2098        2097
         4        2047        2048        2099        2098
         4        2048        2049        2100        2099
         4        2049        2050        2101        2100
         4        2050        2051        2102        2101
         4        2051        2052        2103        2102
         4        2052        2053        2104        2103
         4        2053        2054        2105        2104
         4        2054        2055        2106        2105
         4        2055        2056        2107        2106
         4        2056        2057        2108        2107
         4        2057        2058        2109        2108
         4        2058        2059        2110        2109
         4        2059        2060        2111        2110
         4        2060        2061        2112        2111
         4        2061        2062        2113        2112
         4        2062        2063        2114        2113
         4        2063        2064        2115        2114
         4        2064        2065        2116        2115
         4        2065        2066        2117        2116
         4        2066        2067        2118        2117
         4        2067        2068        2119        2118
         4        2068        2069        2120        2119
         4        2069        2070        2121        2120
         4        2070        2071        2122        2121
         4        2071        2072        2123        2122
         4        2072        2073        2124        2123
         4        2073        2074        2125        2124
         4        2074        2075        2126        2125
         4        2075        2076        2127        2126
         4        2076        2077        2128        2127
         4        2077        2078        2129        2128
         4        2078        2079        2130        2129
         4        2079        2080        2131        2130
         4        2080        2081        2132        2131
         4        2081        2082        2133        2132
         4        2082        2083        2134        2133
         4        2083        2084        2135        2134
         4        2084        2085        2136        2135
         4        2085        2086        2137        2136
         4        2086        2087        2138        2137
         4        2087        2088        2139        2138
         4        2088        2089        2140        2139
         4        2089        2090        2141        2140
         4        2091        2092        2143        2142
         4        2092        2093        2144        2143
         4        2093        2094        2145        2144
         4        2094        2095        2146        2145
         4        2095        2096        2147        2146
         4        2096        2097        2148        2147
         4        2097        2098        2149        2148
         4        2098        2099        2150        2149
         4        2099        2100        2151        2150
         4        2100        2101        2152        2151
         4        2101        2102        2153        2152
         4        2102        2103        2154        2153
         4        2103        2104        2155        2154
         4        2104        2105        2156        2155
         4        2105        2106        2157        2156
         4        2106        2107        2158        2157
         4        2107        2108        2159        2158
         4        2108        2109        2160        2159
         4        2109        2110        2161        2160
         4        2110        2111        2162        2161
         4        2111        2112        2163        2162
         4        2112        2113        2164        2163
         4        2113        2114        2165        2164
         4        2114        2115        2166        2165
         4        2115        2116        2167        2166
         4        2116        2117        2168        2167
         4        2117        2118        2169        2168
         4        2118        2119        2170        2169
         4        2119        2120        2171        2170
         4        2120        2121        2172        2171
         4        2121        2122        2173        2172
         4        2122        2123        2174        2173
         4        2123        2124        2175        2174
         4        2124        2125        2176        2175
         4        2125        2126        2177        2176
         4        2126        2127        2178        2177
         4        2127        2128        2179        2178
         4        2128        2129        2180        2179
         4        2129        2130        2181        2180
         4        2130        2131        2182        2181
         4        2131        2132        2183        2182
         4        2132        2133        2184        2183
         4        2133        2134        2185        2184
         4        2134        2135        2186        2185
         4        2135        2136        2187        2186
         4        2136        2137        2188        2187
         4        2137        2138        2189        2188
         4        2138        2139        2190        2189
         4        2139        2140        2191        2190
         4        2140        2141        2192        2191
         4        2142        2143        2194        2193
         4        2143        2144        2195        2194
         4        2144        2145        2196        2195
         4        2145        2146        2197        2196
         4        2146        2147        2198        2197
         4        2147        2148        2199        2198
         4        2148        2149        2200        2199
         4        2149        2150        2201        2200
         4        2150        2151        2202        2201
         4        2151        2152        2203        2202
         4        2152        2153        2204        2203
         4        2153        2154        2205        2204
         4        2154        2155        2206        2205
         4        2155        2156        2207        2206
         4        2156        2157        2208        2207
         4        2157        2158        2209        2208
         4        2158        2159        2210        2209
         4        2159        2160        2211        2210
         4        2160        2161        2212        2211
         4        2161        2162        2213        2212
         4        2162        2163        2214        2213
         4        2163        2164        2215        2214
         4        2164        2165        2216        2215
         4        2165        2166        2217        2216
         4        2166        2167        2218        2217
         4        2167        2168        2219        2218
         4        2168        2169        2220        2219
         4        2169        2170        2221        2220
         4        2170        2171        2222        2221
         4        2171        2172        2223        2222
         4        2172        2173        2224        2223
         4        2173        2174        2225        2224
         4        2174        2175        2226        2225
         4        2175        2176        2227        2226
         4        2176        2177        2228        2227
         4        2177        2178        2229        2228
         4        2178        2179        2230        2229
         4        2179        2180        2231        2230
         4        2180        2181        2232        2231
         4        2181        2182        2233        2232
         4        2182        2183        2234        2233
         4        2183        2184        2235        2234
         4        2184        2185        2236        2235
         4        2185        2186        2237        2236
         4        2186        2187        2238        2237
         4        2187        2188        2239        2238
         4        2188        2189        2240        2239
         4        2189        2190        2241        2240
         4        2190        2191        2242        2241
         4        2191        2192        2243        2242
         4        2193        2194        2245        2244
         4        2194        2195        2246        2245
         4        2195        2196        2247        2246
         4        2196        2197        2248        2247
         4        2197        2198        2249        2248
         4        2198        2199        2250        2249
         4        2199        2200        2251        2250
         4        2200        2201        2252        2251
         4        2201        2202        2253        2252
         4        2202        2203        2254        2253
         4        2203        2204        2255        2254
         4        2204        2205        2256        2255
         4        2205        2206        2257        2256
         4        2206        2207        2258        2257
         4        2207        2208        2259        2258
         4        2208        2209        2260        2259
         4        2209        2210        2261        2260
         4        2210        2211        2262        2261
         4        2211        2212        2263        2262
         4        2212        2213        2264        2263
         4        2213        2214        2265        2264
         4        2214        2215        2266        2265
         4        2215        2216        2267        2266
         4        2216        2217        2268        2267
         4        2217        2218        2269        2268
         4        2218        2219        2270        2269
         4        2219        2220        2271        2270
         4        2220        2221        2272        2271
         4        2221        2222        2273        2272
         4        2222        2223        2274        2273
         4        2223        2224        2275        2274
         4        2224        2225        2276        2275
         4        2225        2226        2277        2276
         4        2226        2227        2278        2277
         4        2227        2228        2279        2278
         4        2228        2229        2280        2279
         4        2229        2230        2281        2280
         4        2230        2231        2282        2281
         4        2231        2232        2283        2282
         4        2232        2233        2284        2283
         4        2233        2234        2285        2284
         4        2234        2235        2286        2285
         4        2235        2236        2287        2286
         4        2236        2237        2288        2287
         4        2237        2238        2289        2288
         4        2238        2239        2290        2289
         4        2239        2240        2291        2290
         4        2240        2241        2292        2291
         4        2241        2242        2293        2292
         4        2242        2243        2294        2293
         4        2244        2245        2296        2295
         4        2245        2246        2297        2296
         4        2246        2247        2298        2297
         4        2247        2248        2299        2298
         4        2248        2249        2300        2299
         4        2249        2250        2301        2300
         4        2250        2251        2302        2301
         4        2251        2252        2303        2302
         4        2252        2253        2304        2303
         4        2253        2254        2305        2304
         4        2254        2255        2306        2305
         4        2255        2256        2307        2306
         4        2256        2257        2308        2307
         4        2257        2258        2309        2308
         4        2258        2259        2310        2309
         4        2259        2260        2311        2310
         4        2260        2261        2312        2311
         4        2261        2262        2313        2312
         4        2262        2263        2314        2313
         4        2263        2264        2315        2314
         4        2264        2265        2316        2315
         4        2265        2266        2317        2316
         4        2266        2267        2318        2317
         4        2267        2268        2319        2318
         4        2268        2269        2320        2319
         4        2269        2270        2321        2320
         4        2270        2271        2322        2321
         4        2271        2272        2323        2322
         4        2272        2273        2324        2323
         4        2273        2274        2325        2324
         4        2274        2275        2326        2325
         4        2275        2276        2327        2326
         4        2276        2277        2328        2327
         4        2277        2278        2329        2328
         4        2278        2279        2330        2329
         4        2279        2280        2331        2330
         4        2280        2281        2332        2331
         4        2281        2282        2333        2332
         4        2282        2283        2334        2333
         4        2283        2284        2335        2334
         4        2284        2285        2336        2335
         4        2285        2286        2337        2336
         4        2286        2287        2338        2337
         4        2287        2288        2339        2338
         4        2288        2289        2340        2339
         4        2289        2290        2341        2340
         4        2290        2291        2342        2341
         4        2291        2292        2343        2342
         4        2292        2293        2344        2343
         4        2293        2294        2345        2344
         4        2295        2296        2347        2346
         4        2296        2297        2348        2347
         4        2297        2298        2349        2348
         4        2298        2299        2350        2349
         4        2299        2300        2351        2350
         4        2300        2301        2352        2351
         4        2301        2302        2353        2352
         4        2302        2303        2354        2353
         4        2303        2304        2355        2354
         4        2304        2305        2356        2355
         4        2305        2306        2357        2356
         4        2306        2307        2358        2357
         4        2307        2308        2359        2358
         4        2308        2309        2360        2359
         4        2309        2310        2361        2360
         4        2310        2311        2362        2361
         4        2311        2312        2363        2362
         4        2312        2313        2364        2363
         4        2313        2314        2365        2364
         4        2314        2315        2366        2365
         4        2315        2316        2367        2366
         4        2316        2317        2368        2367
         4        2317        2318        2369        2368
         4        2318        2319        2370        2369
         4        2319        2320        2371        2370
         4        2320        2321        2372        2371
         4        2321        2322        2373        2372
         4        2322        2323        2374        2373
         4        2323        2324        2375        2374
         4        2324        2325        2376        2375
         4        2325        2326        2377        2376
         4        2326        2327        2378        2377
         4        2327        2328        2379        2378
         4        2328        2329        2380        2379
         4        2329        2330        2381        2380
         4        2330        2331        2382        2381
         4        2331        2332        2383        2382
         4        2332        2333        2384        2383
         4        2333        2334        2385        2384
         4        2334        2335        2386        2385
         4        2335        2336        2387        2386
         4        2336        2337        2388        2387
         4        2337        2338        2389        2388
         4        2338        2339        2390        2389
         4        2339        2340        2391        2390
         4        2340        2341        2392        2391
         4        2341        2342        2393        2392
         4        2342        2343        2394        2393
         4        2343        2344        2395        2394
         4        2344        2345        2396        2395
         4        2346        2347        2398        2397
         4        2347        2348        2399        2398
         4        2348        2349        2400        2399
         4        2349        2350        2401        2400
         4        2350        2351        2402        2401
         4        2351        2352        2403        2402
         4        2352        2353        2404        2403
         4        2353        2354        2405        2404
         4        2354        2355        2406        2405
         4        2355        2356        2407        2406
         4        2356        2357        2408        2407
         4        2357        2358        2409        2408
         4        2358        2359        2410        2409
         4        2359        2360        2411        2410
         4        2360        2361        2412        2411
         4        2361        2362        2413        2412
         4        2362        2363        2414        2413
         4        2363        2364        2415        2414
         4        2364        2365        2416        2415
         4        2365        2366        2417        2416
         4        2366        2367        2418        2417
         4        2367        2368        2419        2418
         4        2368        2369        2420        2419
         4        2369        2370        2421        2420
         4        2370        2371        2422        2421
         4        2371        2372        2423        2422
         4        2372        2373        2424        2423
         4        2373        2374        2425        2424
         4        2374        2375        2426        2425
         4        2375        2376        2427        2426
         4        2376        2377        2428        2427
         4        2377        2378        2429        2428
         4        2378        2379        2430        2429
         4        2379        2380        2431        2430
         4        2380        2381        2432        2431
         4        2381        2382        2433        2432
         4        2382        2383        2434        2433
         4        2383        2384        2435        2434
         4        2384        2385        2436        2435
         4        2385        2386        2437        2436
         4        2386        2387        2438        2437
         4        2387        2388        2439        2438
         4        2388        2389        2440        2439
         4        2389        2390        2441        2440
         4        2390        2391        2442        2441
         4        2391        2392        2443        2442
         4        2392        2393        2444        2443
         4        2393        2394        2445        2444
         4        2394        2395        2446        2445
         4        2395        2396        2447        2446
         4        2397        2398        2449        2448
         4        2398        2399        2450        2449
         4        2399        2400        2451        2450
         4        2400        2401        2452        2451
         4        2401        2402        2453        2452
         4        2402        2403        2454        2453
         4        2403        2404        2455        2454
         4        2404        2405        2456        2455
         4        2405        2406        2457        2456
         4        2406        2407        2458        2457
         4        2407        2408        2459        2458
         4        2408        2409        2460        2459
         4        2409        2410        2461        2460
         4        2410        2411        2462        2461
         4        2411        2412        2463        2462
         4        2412        2413        2464        2463
         4        2413        2414        2465        2464
         4        2414        2415        2466        2465
         4        2415        2416        2467        2466
         4        2416        2417        2468        2467
         4        2417        2418        2469        2468
         4        2418        2419        2470        2469
         4        2419        2420        2471        2470
         4        2420        2421        2472        2471
         4        2421        2422        2473        2472
         4        2422        2423        2474        2473
         4        2423        2424        2475        2474
         4        2424        2425        2476        2475
         4        2425        2426        2477        2476
         4        2426        2427        2478        2477
         4        2427        2428        2479        2478
         4        2428        2429        2480        2479
         4        2429        2430        2481        2480
         4        2430        2431        2482        2481
         4        2431        2432        2483        2482
         4        2432        2433        2484        2483
         4        2433        2434        2485        2484
         4        2434        2435        2486        2485
         4        2435        2436        2487        2486
         4        2436        2437        2488        2487
         4        2437        2438        2489        2488
         4        2438        2439        2490        2489
         4        2439        2440        2491        2490
         4        2440        2441        2492        2491
         4        2441        2442        2493        2492
         4        2442        2443        2494        2493
         4        2443        2444        2495        2494
         4        2444        2445        2496        2495
         4        2445        2446        2497        2496
         4        2446        2447        2498        2497
         4        2448        2449        2500        2499
         4        2449        2450        2501        2500
         4        2450        2451        2502        2501
         4        2451        2452        2503        2502
         4        2452        2453        2504        2503
         4        2453        2454        2505        2504
         4        2454        2455        2506        2505
         4        2455        2456        2507        2506
         4        2456        2457        2508        2507
         4        2457        2458        2509        2508
         4        2458        2459        2510        2509
         4        2459        2460        2511        2510
         4        2460        2461        2512        2511
         4        2461        2462        2513        2512
         4        2462        2463        2514        2513
         4        2463        2464        2515        2514
         4        2464        2465        2516        2515
         4        2465        2466        2517        2516
         4        2466        2467        2518        2517
         4        2467        2468        2519        2518
         4        2468        2469        2520        2519
         4        2469        2470        2521        2520
         4        2470        2471        2522        2521
         4        2471        2472        2523        2522
         4        2472        2473        2524        2523
         4        2473        2474        2525        2524
         4        2474        2475        2526        2525
         4        2475        2476        2527        2526
         4        2476        2477        2528        2527
         4        2477        2478        2529        2528
         4        2478        2479        2530        2529
         4        2479        2480        2531        2530
         4        2480        2481        2532        2531
         4        2481        2482        2533        2532
         4        2482        2483        2534        2533
         4        2483        2484        2535        2534
         4        2484        2485        2536        2535
         4        2485        2486        2537        2536
         4        2486        2487        2538        2537
         4        2487        2488        2539        2538
         4        2488        2489        2540        2539
         4        2489        2490        2541        2540
         4        2490        2491        2542        2541
         4        2491        2492        2543        2542
         4        2492        2493        2544        2543
         4        2493        2494        2545        2544
         4        2494        2495        2546        2545
         4        2495        2496        2547        2546
         4        2496        2497        2548        2547
         4        2497        2498        2549        2548
         4        2499        2500        2551        2550
         4        2500        2501        2552        2551
         4        2501        2502        2553        2552
         4        2502        2503        2554        2553
         4        2503        2504        2555        2554
         4        2504        2505        2556        2555
         4        2505        2506        2557        2556
         4        2506        2507        2558        2557
         4        2507        2508        2559        2558
         4        2508        2509        2560        2559
         4        2509        2510        2561        2560
         4        2510        2511        2562        2561
         4        2511        2512        2563        2562
         4        2512        2513        2564        2563
         4        2513        2514        2565        2564
         4        2514        2515        2566        2565
         4        2515        2516        2567        2566
         4        2516        2517        2568        2567
         4        2517        2518        2569        2568
         4        2518        2519        2570        2569
         4        2519        2520        2571        2570
         4        2520        2521        2572        2571
         4        2521        2522        2573        2572
         4        2522        2523        2574        2573
         4        2523        2524        2575        2574
         4        2524        2525        2576        2575
         4        2525        2526        2577        2576
         4        2526        2527        2578        2577
         4        2527        2528        2579        2578
         4        2528        2529        2580        2579
         4        2529        2530        2581        2580
         4        2530        2531        2582        2581
         4        2531        2532        2583        2582
         4        2532        2533        2584        2583
         4        2533        2534        2585        2584
         4        2534        2535        2586        2585
         4        2535        2536        2587        2586
         4        2536        2537        2588        2587
         4        2537        2538        2589        2588
         4        2538        2539        2590        2589
         4        2539        2540        2591        2590
         4        2540        2541        2592        2591
         4        2541        2542        2593        2592
         4        2542        2543        2594        2593
         4        2543        2544        2595        2594
         4        2544        2545        2596        2595
         4        2545        2546        2597        2596
         4        2546        2547        2598        2597
         4        2547        2548        2599        2598
         4        2548        2549        2600        2599
         4        2550        2551        2602        2601
         4        2551        2552        2603        2602
         4        2552        2553        2604        2603
         4        2553        2554        2605        2604
         4        2554        2555        2606        2605
         4        2555        2556        2607        2606
         4        2556        2557        2608        2607
         4        2557        2558        2609        2608
         4        2558        2559        2610        2609
         4        2559        2560        2611        2610
         4        2560        2561        2612        2611
         4        2561        2562        2613        2612
         4        2562        2563        2614        2613
         4        2563        2564        2615        2614
         4        2564        2565        2616        2615
         4        2565        2566        2617        2616
         4        2566        2567        2618        2617
         4        2567        2568        2619        2618
         4        2568        2569        2620        2619
         4        2569        2570        2621        2620
         4        2570        2571        2622        2621
         4        2571        2572        2623        2622
         4        2572        2573        2624        2623
         4        2573        2574        2625        2624
         4        2574        2575        2626        2625
         4        2575        2576        2627        2626
         4        2576        2577        2628        2627
         4        2577        2578        2629        2628
         4        2578        2579        2630        2629
         4        2579        2580        2631        2630
         4        2580        2581        2632        2631
         4        2581        2582        2633        2632
         4        2582        2583        2634        2633
         4        2583        2584        2635        2634
         4        2584        2585        2636        2635
         4        2585        2586        2637        2636
         4        2586        2587        2638        2637
         4        2587        2588        2639        2638
         4        2588        2589        2640        2639
         4        2589        2590        2641        2640
         4        2590        2591        2642        2641
         4        2591        2592        2643        2642
         4        2592        2593        2644        2643
         4        2593        2594        2645        2644
         4        2594        2595        2646        2645
         4        2595        2596        2647        2646
         4        2596        2597        2648        2647
         4        2597        2598        2649        2648
         4        2598        2599        2650        2649
         4        2599        2600        2651        2650
         4        2601        2602        2653        2652
         4        2602        2603        2654        2653
         4        2603        2604        2655        2654
         4        2604        2605        2656        2655
         4        2605        2606        2657        2656
         4        2606        2607        2658        2657
         4        2607        2608        2659        2658
         4        2608        2609        2660        2659
         4        2609        2610        2661        2660
         4        2610        2611        2662        2661
         4        2611        2612        2663        2662
         4        2612        2613        2664        2663
         4        2613        2614        2665        2664
         4        2614        2615        2666        2665
         4        2615        2616        2667        2666
         4        2616        2617        2668        2667
         4        2617        2618        2669        2668
         4        2618        2619        2670        2669
         4        2619        2620        2671        2670
         4        2620        2621        2672        2671
         4        2621        2622        2673        2672
         4        2622        2623        2674        2673
         4        2623        2624        2675        2674
         4        2624        2625        2676        2675
         4        2625        2626        2677        2676
         4        2626        2627        2678        2677
         4        2627        2628        2679        2678
         4        2628        2629        2680        2679
         4        2629        2630        2681        2680
         4        2630        2631        2682        2681
         4        2631        2632        2683        2682
         4        2632        2633        2684        2683
         4        2633        2634        2685        2684
         4        2634        2635        2686        2685
         4        2635        2636        2687        2686
         4        2636        2637        2688        2687
         4        2637        2638        2689        2688
         4        2638        2639        2690        2689
         4        2639        2640        2691        2690
         4        2640        2641        2692        2691
         4        2641        2642        2693        2692
         4        2642        2643        2694        2693
         4        2643        2644        2695        2694
         4        2644        2645        2696        2695
         4        2645        2646        2697        2696
         4        2646        2647        2698        2697
         4        2647        2648        2699        2698
         4        2648        2649        2700        2699
         4        2649        2650        2701        2700
         4        2650        2651        2702        2701
         4        2652        2653        2704        2703
         4        2653        2654        2705        2704
         4        2654        2655        2706        2705
         4        2655        2656        2707        2706
         4        2656        2657        2708        2707
         4        2657        2658        2709        2708
         4        2658        2659        2710        2709
         4        2659        2660        2711        2710
         4        2660        2661        2712        2711
         4        2661        2662        2713        2712
         4        2662        2663        2714        2713
         4        2663        2664        2715        2714
         4        2664        2665        2716        2715
         4        2665        2666        2717        2716
         4        2666        2667        2718        2717
         4        2667        2668        2719        2718
         4        2668        2669        2720        2719
         4        2669        2670        2721        2720
         4        2670        2671        2722        2721
         4        2671        2672        2723        2722
         4        2672        2673        2724        2723
         4        2673        2674        2725        2724
         4        2674        2675        2726        2725
         4        2675        2676        2727        2726
         4        2676        2677        2728        2727
         4        2677        2678        2729        2728
         4        2678        2679        2730        2729
         4        2679        2680        2731        2730
         4        2680        2681        2732        2731
         4        2681        2682        2733        2732
         4        2682        2683        2734        2733
         4        2683        2684        2735        2734
         4        2684        2685        2736        2735
         4        2685        2686        2737        2736
         4        2686        2687        2738        2737
         4        2687        2688        2739        2738
         4        2688        2689        2740        2739
         4        2689        2690        2741        2740
         4        2690        2691        2742        2741
         4        2691        2692        2743        2742
         4        2692        2693        2744        2743
         4        2693        2694        2745        2744
         4        2694        2695        2746        2745
         4        2695        2696        2747        2746
         4        2696        2697        2748        2747
         4        2697        2698        2749        2748
         4        2698        2699        2750        2749
         4        2699        2700        2751        2750
         4        2700        2701        2752        2751
         4        2701        2702        2753        2752
         4        2703        2704        2755        2754
         4        2704        2705        2756        2755
         4        2705        2706        2757        2756
         4        2706        2707        2758        2757
         4        2707        2708        2759        2758
         4        2708        2709        2760        2759
         4        2709        2710        2761        2760
         4        2710        2711        2762        2761
         4        2711        2712        2763        2762
         4        2712        2713        2764        2763
         4        2713        2714        2765        2764
         4        2714        2715        2766        2765
         4        2715        2716        2767        2766
         4        2716        2717        2768        2767
         4        2717        2718        2769        2768
         4        2718        2719        2770        2769
         4        2719        2720        2771        2770
         4        2720        2721        2772        2771
         4        2721        2722        2773        2772
         4        2722        2723        2774        2773
         4        2723        2724        2775        2774
         4        2724        2725        2776        2775
         4        2725        2726        2777        2776
         4        2726        2727        2778        2777
         4        2727        2728        2779        2778
         4        2728        2729        2780        2779
         4        2729        2730        2781        2780
         4        2730        2731        2782        2781
         4        2731        2732        2783        2782
         4        2732        2733        2784        2783
         4        2733        2734        2785        2784
         4        2734        2735        2786        2785
         4        2735        2736        2787        2786
         4        2736        2737        2788        2787
         4        2737        2738        2789        2788
         4        2738        2739        2790        2789
         4        2739        2740        2791        2790
         4        2740        2741        2792        2791
         4        2741        2742        2793        2792
         4        2742        2743        2794        2793
         4        2743        2744        2795        2794
         4        2744        2745        2796        2795
         4        2745        2746        2797        2796
         4        2746        2747        2798        2797
         4        2747        2748        2799        2798
         4        2748        2749        2800        2799
         4        2749        2750        2801        2800
         4        2750        2751        2802        2801
         4        2751        2752        2803        2802
         4        2752        2753        2804        2803
         4        2754        2755        2806        2805
         4        2755        2756        2807        2806
         4        2756        2757        2808        2807
         4        2757        2758        2809        2808
         4        2758        2759        2810        2809
         4        2759        2760        2811        2810
         4        2760        2761        2812        2811
         4        2761        2762        2813        2812
         4        2762        2763        2814        2813
         4        2763        2764        2815        2814
         4        2764        2765        2816        2815
         4        2765        2766        2817        2816
         4        2766        2767        2818        2817
         4        2767        2768        2819        2818
         4        2768        2769        2820        2819
         4        2769        2770        2821        2820
         4        2770        2771        2822        2821
         4        2771        2772        2823        2822
         4        2772        2773        2824        2823
         4        2773        2774        2825        2824
         4        2774        2775        2826        2825
         4        2775        2776        2827        2826
         4        2776        2777        2828        2827
         4        2777        2778        2829        2828
         4        2778        2779        2830        2829
         4        2779        2780        2831        2830
         4        2780        2781        2832        2831
         4        2781        2782        2833        2832
         4        2782        2783        2834        2833
         4        2783        2784        2835        2834
         4        2784        2785        2836        2835
         4        2785        2786        2837        2836
         4        2786        2787        2838        2837
         4        2787        2788        2839        2838
         4        2788        2789        2840        2839
         4        2789        2790        2841        2840
         4        2790        2791        2842        2841
         4        2791        2792        2843        2842
         4        2792        2793        2844        2843
         4        2793        2794        2845        2844
         4        2794        2795        2846        2845
         4        2795        2796        2847        2846
         4        2796        2797        2848        2847
         4        2797        2798        2849        2848
         4        2798        2799        2850        2849
         4        2799        2800        2851        2850
         4        2800        2801        2852        2851
         4        2801        2802        2853        2852
         4        2802        2803        2854        2853
         4        2803        2804        2855        2854
         4        2805        2806        2857        2856
         4        2806        2807        2858        2857
         4        2807        2808        2859        2858
         4        2808        2809        2860        2859
         4        2809        2810        2861        2860
         4        2810        2811        2862        2861
         4        2811        2812        2863        2862
         4        2812        2813        2864        2863
         4        2813        2814        2865        2864
         4        2814        2815        2866        2865
         4        2815        2816        2867        2866
         4        2816        2817        2868        2867
         4        2817        2818        2869        2868
         4        2818        2819        2870        2869
         4        2819        2820        2871        2870
         4        2820        2821        2872        2871
         4        2821        2822        2873        2872
         4        2822        2823        2874        2873
         4        2823        2824        2875        2874
         4        2824        2825        2876        2875
         4        2825        2826        2877        2876
         4        2826        2827        2878        2877
         4        2827        2828        2879        2878
         4        2828        2829        2880        2879
         4        2829        2830        2881        2880
         4        2830        2831        2882        2881
         4        2831        2832        2883        2882
         4        2832        2833        2884        2883
         4        2833        2834        2885        2884
         4        2834        2835        2886        2885
         4        2835        2836        2887        2886
         4        2836        2837        2888        2887
         4        2837        2838        2889        2888
         4        2838        2839        2890        2889
         4        2839        2840        2891        2890
         4        2840        2841        2892        2891
         4        2841        2842        2893        2892
         4        2842        2843        2894        2893
         4        2843        2844        2895        2894
         4        2844        2845        2896        2895
         4        2845        2846        2897        2896
         4        2846        2847        2898        2897
         4        2847        2848        2899        2898
         4        2848        2849        2900        2899
         4        2849        2850        2901        2900
         4        2850        2851        2902        2901
         4        2851        2852        2903        2902
         4        2852        2853        2904        2903
         4        2853        2854        2905        2904
         4        2854        2855        2906        2905
         4        2856        2857        2908        2907
         4        2857        2858        2909        2908
         4        2858        2859        2910        2909
         4        2859        2860        2911        2910
         4        2860        2861        2912        2911
         4        2861        2862        2913        2912
         4        2862        2863        2914        2913
         4        2863        2864        2915        2914
         4        2864        2865        2916        2915
         4        2865        2866        2917        2916
         4        2866        2867        2918        2917
         4        2867        2868        2919        2918
         4        2868        2869        2920        2919
         4        2869        2870        2921        2920
         4        2870        2871        2922        2921
         4        2871        2872        2923        2922
         4        2872        2873        2924        2923
         4        2873        2874        2925        2924
         4        2874        2875        2926        2925
         4        2875        2876        2927        2926
         4        2876        2877        2928        2927
         4        2877        2878        2929        2928
         4        2878        2879        2930        2929
         4        2879        2880        2931        2930
         4        2880        2881        2932        2931
         4        2881        2882        2933        2932
         4        2882        2883        2934        2933
         4        2883        2884        2935        2934
         4        2884        2885        2936        2935
         4        2885        2886        2937        2936
         4        2886        2887        2938        2937
         4        2887        2888        2939        2938
         4        2888        2889        2940        2939
         4        2889        2890        2941        2940
         4        2890        2891        2942        2941
         4        2891        2892        2943        2942
         4        2892        2893        2944        2943
         4        2893        2894        2945        2944
         4        2894        2895        2946        2945
         4        2895        2896        2947        2946
         4        2896        2897        2948        2947
         4        2897        2898        2949        2948
         4        2898        2899        2950        2949
         4        2899        2900        2951        2950
         4        2900        2901        2952        2951
         4        2901        2902        2953        2952
         4        2902        2903        2954        2953
         4        2903        2904        2955        2954
         4        2904        2905        2956        2955
         4        2905        2906        2957        2956
         4        2907        2908        2959        2958
         4        2908        2909        2960        2959
         4        2909        2910        2961        2960
         4        2910        2911        2962        2961
         4        2911        2912        2963        2962
         4        2912        2913        2964        2963
         4        2913        2914        2965        2964
         4        2914        2915        2966        2965
         4        2915        2916        2967        2966
         4        2916        2917        2968        2967
         4        2917        2918        2969        2968
         4        2918        2919        2970        2969
         4        2919        2920        2971        2970
         4        2920        2921        2972        2971
         4        2921        2922        2973        2972
         4        2922        2923        2974        2973
         4        2923        2924        2975        2974
         4        2924        2925        2976        2975
         4        2925        2926        2977        2976
         4        2926        2927        2978        2977
         4        2927        2928        2979        2978
         4        2928        2929        2980        2979
         4        2929        2930        2981        2980
         4        2930        2931        2982        2981
         4        2931        2932        2983        2982
         4        2932        2933        2984        2983
         4        2933        2934        2985        2984
         4        2934        2935        2986        2985
         4        2935        2936        2987        2986
         4        2936        2937        2988        2987
         4        2937        2938        2989        2988
         4        2938        2939        2990        2989
         4        2939        2940        2991        2990
         4        2940        2941        2992        2991
         4        2941        2942        2993        2992
         4        2942        2943        2994        2993
         4        2943        2944        2995        2994
         4        2944        2945        2996        2995
         4        2945        2946        2997        2996
         4        2946        2947        2998        2997
         4        2947        2948        2999        2998
         4        2948        2949        3000        2999
         4        2949        2950        3001        3000
         4        2950        2951        3002        3001
         4        2951        2952        3003        3002
         4        2952        2953        3004        3003
         4        2953        2954        3005        3004
         4        2954        2955        3006        3005
         4        2955        2956        3007        3006
         4        2956        2957        3008        3007
         4        2958        2959        3010        3009
         4        2959        2960        3011        3010
         4        2960        2961        3012        3011
         4        2961        2962        3013        3012
         4        2962        2963        3014        3013
         4        2963        2964        3015        3014
         4        2964        2965        3016        3015
         4        2965        2966        3017        3016
         4        2966        2967        3018        3017
         4        2967        2968        3019        3018
         4        2968        2969        3020        3019
         4        2969        2970        3021        3020
         4        2970        2971        3022        3021
         4        2971        2972        3023        3022
         4        2972        2973        3024        3023
         4        2973        2974        3025        3024
         4        2974        2975        3026        3025
         4        2975        2976        3027        3026
         4        2976        2977        3028        3027
         4        2977        2978        3029        3028
         4        2978        2979        3030        3029
         4        2979        2980        3031        3030
         4        2980        2981        3032        3031
         4        2981        2982        3033        3032
         4        2982        2983        3034        3033
         4        2983        2984        3035        3034
         4        2984        2985        3036        3035
         4        2985        2986        3037        3036
         4        2986        2987        3038        3037
         4        2987        2988        3039        3038
         4        2988        2989        3040        3039
         4        2989        2990        3041        3040
         4        2990        2991        3042        3041
         4        2991        2992        3043        3042
         4        2992        2993        3044        3043
         4        2993        2994        3045        3044
         4        2994        2995        3046        3045
         4        2995        2996        3047        3046
         4        2996        2997        3048        3047
         4        2997        2998        3049        3048
         4        2998        2999        3050        3049
         4        2999        3000        3051        3050
         4        3000        3001        3052        3051
         4        3001        3002        3053        3052
         4        3002        3003        3054        3053
         4        3003        3004        3055        3054
         4        3004        3005        3056        3055
         4        3005        3006        3057        3056
         4        3006        3007        3058        3057
         4        3007        3008        3059        3058
         4        3009        3010        3061        3060
         4        3010        3011        3062        3061
         4        3011        3012        3063        3062
         4        3012        3013        3064        3063
         4        3013        3014        3065        3064
         4        3014        3015        3066        3065
         4        3015        3016        3067        3066
         4        3016        3017        3068        3067
         4        3017        3018        3069        3068
         4        3018        3019        3070        3069
         4        3019        3020        3071        3070
         4        3020        3021        3072        3071
         4        3021        3022        3073        3072
         4        3022        3023        3074        3073
         4        3023        3024        3075        3074
         4        3024        3025        3076        3075
         4        3025        3026        3077        3076
         4        3026        3027        3078        3077
         4        3027        3028        3079        3078
         4        3028        3029        3080        3079
         4        3029        3030        3081        3080
         4        3030        3031        3082        3081
         4        3031        3032        3083        3082
         4        3032        3033        3084        3083
         4        3033        3034        3085        3084
         4        3034        3035        3086        3085
         4        3035        3036        3087        3086
         4        3036        3037        3088        3087
         4        3037        3038        3089        3088
         4        3038        3039        3090        3089
         4        3039        3040        3091        3090
         4        3040        3041        3092        3091
         4        3041        3042        3093        3092
         4        3042        3043        3094        3093
         4        3043        3044        3095        3094
         4        3044        3045        3096        3095
         4        3045        3046        3097        3096
         4        3046        3047        3098        3097
         4        3047        3048        3099        3098
         4        3048        3049        3100        3099
         4        3049        3050        3101        3100
         4        3050        3051        3102        3101
         4        3051        3052        3103        3102
         4        3052        3053        3104        3103
         4        3053        3054        3105        3104
         4        3054        3055        3106        3105
         4        3055        3056        3107        3106
         4        3056        3057        3108        3107
         4        3057        3058        3109        3108
         4        3058        3059        3110        3109
         4        3060        3061        3112        3111
         4        3061        3062        3113        3112
         4        3062        3063        3114        3113
         4        3063        3064        3115        3114
         4        3064        3065        3116        3115
         4        3065        3066        3117        3116
         4        3066        3067        3118        3117
         4        3067        3068        3119        3118
         4        3068        3069        3120        3119
         4        3069        3070        3121        3120
         4        3070        3071        3122        3121
         4        3071        3072        3123        3122
         4        3072        3073        3124        3123
         4        3073        3074        3125        3124
         4        3074        3075        3126        3125
         4        3075        3076        3127        3126
         4        3076        3077        3128        3127
         4        3077        3078        3129        3128
         4        3078        3079        3130        3129
         4        3079        3080        3131        3130
         4        3080        3081        3132        3131
         4        3081        3082        3133        3132
         4        3082        3083        3134        3133
         4        3083        3084        3135        3134
         4        3084        3085        3136        3135
         4        3085        3086        3137        3136
         4        3086        3087        3138        3137
         4        3087        3088        3139        3138
         4        3088        3089        3140        3139
         4        3089        3090        3141        3140
         4        3090        3091        3142        3141
         4        3091        3092        3143        3142
         4        3092        3093        3144        3143
         4        3093        3094        3145        3144
         4        3094        3095        3146        3145
         4        3095        3096        3147        3146
         4        3096        3097        3148        3147
         4        3097        3098        3149        3148
         4        3098        3099        3150        3149
         4        3099        3100        3151        3150
         4        3100        3101        3152        3151
         4        3101        3102        3153        3152
         4        3102        3103        3154        3153
         4        3103        3104        3155        3154
         4        3104        3105        3156        3155
         4        3105        3106        3157        3156
         4        3106        3107        3158        3157
         4        3107        3108        3159        3158
         4        3108        3109        3160        3159
         4        3109        3110        3161        3160
         4        3111        3112        3163        3162
         4        3112        3113        3164        3163
         4        3113        3114        3165        3164
         4        3114        3115        3166        3165
         4        3115        3116        3167        3166
         4        3116        3117        3168        3167
         4        3117        3118        3169        3168
         4        3118        3119        3170        3169
         4        3119        3120        3171        3170
         4        3120        3121        3172        3171
         4        3121        3122        3173        3172
         4        3122        3123        3174        3173
         4        3123        3124        3175        3174
         4        3124        3125        3176        3175
         4        3125        3126        3177        3176
         4        3126        3127        3178        3177
         4        3127        3128        3179        3178
         4        3128        3129        3180        3179
         4        3129        3130        3181        3180
         4        3130        3131        3182        3181
         4        3131        3132        3183        3182
         4        3132        3133        3184        3183
         4        3133        3134        3185        3184
         4        3134        3135        3186        3185
         4        3135        3136        3187        3186
         4        3136        3137        3188        3187
         4        3137        3138        3189        3188
         4        3138        3139        3190        3189
         4        3139        3140        3191        3190
         4        3140        3141        3192        3191
         4        3141        3142        3193        3192
         4        3142        3143        3194        3193
         4        3143        3144        3195        3194
         4        3144        3145        3196        3195
         4        3145        3146        3197        3196
         4        3146        3147        3198        3197
         4        3147        3148        3199        3198
         4        3148        3149        3200        3199
         4        3149        3150        3201        3200
         4        3150        3151        3202        3201
         4        3151        3152        3203        3202
         4        3152        3153        3204        3203
         4        3153        3154        3205        3204
         4        3154        3155        3206        3205
         4        3155        3156        3207        3206
         4        3156        3157        3208        3207
         4        3157        3158        3209        3208
         4        3158        3159        3210        3209
         4        3159        3160        3211        3210
         4        3160        3161        3212        3211
         4        3162        3163        3214        3213
         4        3163        3164        3215        3214
         4        3164        3165        3216        3215
         4        3165        3166        3217        3216
         4        3166        3167        3218        3217
         4        3167        3168        3219        3218
         4        3168        3169        3220        3219
         4        3169        3170        3221        3220
         4        3170        3171        3222        3221
         4        3171        3172        3223        3222
         4        3172        3173        3224        3223
         4        3173        3174        3225        3224
         4        3174        3175        3226        3225
         4        3175        3176        3227        3226
         4        3176        3177        3228        3227
         4        3177        3178        3229        3228
         4        3178        3179        3230        3229
         4        3179        3180        3231        3230
         4        3180        3181        3232        3231
         4        3181        3182        3233        3232
         4        3182        3183        3234        3233
         4        3183        3184        3235        3234
         4        3184        3185        3236        3235
         4        3185        3186        3237        3236
         4        3186        3187        3238        3237
         4        3187        3188        3239        3238
         4        3188        3189        3240        3239
         4        3189        3190        3241        3240
         4        3190        3191        3242        3241
         4        3191        3192        3243        3242
         4        3192        3193        3244        3243
         4        3193        3194        3245        3244
         4        3194        3195        3246        3245
         4        3195        3196        3247        3246
         4        3196        3197        3248        3247
         4        3197        3198        3249        3248
         4        3198        3199        3250        3249
         4        3199        3200        3251        3250
         4        3200        3201        3252        3251
         4        3201        3202        3253        3252
         4        3202        3203        3254        3253
         4        3203        3204        3255        3254
         4        3204        3205        3256        3255
         4        3205        3206        3257        3256
         4        3206        3207        3258        3257
         4        3207        3208        3259        3258
         4        3208        3209        3260        3259
         4        3209        3210        3261        3260
         4        3210        3211        3262        3261
         4        3211        3212        3263        3262
         4        3213        3214        3265        3264
         4        3214        3215        3266        3265
         4        3215        3216        3267        3266
         4        3216        3217        3268        3267
         4        3217        3218        3269        3268
         4        3218        3219        3270        3269
         4        3219        3220        3271        3270
         4        3220        3221        3272        3271
         4        3221        3222        3273        3272
         4        3222        3223        3274        3273
         4        3223        3224        3275        3274
         4        3224        3225        3276        3275
         4        3225        3226        3277        3276
         4        3226        3227        3278        3277
         4        3227        3228        3279        3278
         4        3228        3229        3280        3279
         4        3229        3230        3281        3280
         4        3230        3231        3282        3281
         4        3231        3232        3283        3282
         4        3232        3233        3284        3283
         4        3233        3234        3285        3284
         4        3234        3235        3286        3285
         4        3235        3236        3287        3286
         4        3236        3237        3288        3287
         4        3237        3238        3289        3288
         4        3238        3239        3290        3289
         4        3239        3240        3291        3290
         4        3240        3241        3292        3291
         4        3241        3242        3293        3292
         4        3242        3243        3294        3293
         4        3243        3244        3295        3294
         4        3244        3245        3296        3295
         4        3245        3246        3297        3296
         4        3246        3247        3298        3297
         4        3247        3248        3299        3298
         4        3248        3249        3300        3299
         4        3249        3250        3301        3300
         4        3250        3251        3302        3301
         4        3251        3252        3303        3302
         4        3252        3253        3304        3303
         4        3253        3254        3305        3304
         4        3254        3255        3306        3305
         4        3255        3256        3307        3306
         4        3256        3257        3308        3307
         4        3257        3258        3309        3308
         4        3258        3259        3310        3309
         4        3259        3260        3311        3310
         4        3260        3261        3312        3311
         4        3261        3262        3313        3312
         4        3262        3263        3314        3313
         4        3264        3265        3316        3315
         4        3265        3266        3317        3316
         4        3266        3267        3318        3317
         4        3267        3268        3319        3318
         4        3268        3269        3320        3319
         4        3269        3270        3321        3320
         4        3270        3271        3322        3321
         4        3271        3272        3323        3322
         4        3272        3273        3324        3323
         4        3273        3274        3325        3324
         4        3274        3275        3326        3325
         4        3275        3276        3327        3326
         4        3276        3277        3328        3327
         4        3277        3278        3329        3328
         4        3278        3279        3330        3329
         4        3279        3280        3331        3330
         4        3280        3281        3332        3331
         4        3281        3282        3333        3332
         4        3282        3283        3334        3333
         4        3283        3284        3335        3334
         4        3284        3285        3336        3335
         4        3285        3286        3337        3336
         4        3286        3287        3338        3337
         4        3287        3288        3339        3338
         4        3288        3289        3340        3339
         4        3289        3290        3341        3340
         4        3290        3291        3342        3341
         4        3291        3292        3343        3342
         4        3292        3293        3344        3343
         4        3293        3294        3345        3344
         4        3294        3295        3346        3345
         4        3295        3296        3347        3346
         4        3296        3297        3348        3347
         4        3297        3298        3349        3348
         4        3298        3299        3350        3349
         4        3299        3300        3351        3350
         4        3300        3301        3352        3351
         4        3301        3302        3353        3352
         4        3302        3303        3354        3353
         4        3303        3304        3355        3354
         4        3304        3305        3356        3355
         4        3305        3306        3357        3356
         4        3306        3307        3358        3357
         4        3307        3308        3359        3358
         4        3308        3309        3360        3359
         4        3309        3310        3361        3360
         4        3310        3311        3362        3361
         4        3311        3312        3363        3362
         4        3312        3313        3364        3363
         4        3313        3314        3365        3364
         4        3315        3316        3367        3366
         4        3316        3317        3368        3367
         4        3317        3318        3369        3368
         4        3318        3319        3370        3369
         4        3319        3320        3371        3370
         4        3320        3321        3372        3371
         4        3321        3322        3373        3372
         4        3322        3323        3374        3373
         4        3323        3324        3375        3374
         4        3324        3325        3376        3375
         4        3325        3326        3377        3376
         4        3326        3327        3378        3377
         4        3327        3328        3379        3378
         4        3328        3329        3380        3379
         4        3329        3330        3381        3380
         4        3330        3331        3382        3381
         4        3331        3332        3383        3382
         4        3332        3333        3384        3383
         4        3333        3334        3385        3384
         4        3334        3335        3386        3385
         4        3335        3336        3387        3386
         4        3336        3337        3388        3387
         4        3337        3338        3389        3388
         4        3338        3339        3390        3389
         4        3339        3340        3391        3390
         4        3340        3341        3392        3391
         4        3341        3342        3393        3392
         4        3342        3343        3394        3393
         4        3343        3344        3395        3394
         4        3344        3345        3396        3395
         4        3345        3346        3397        3396
         4        3346        3347        3398        3397
         4        3347        3348        3399        3398
         4        3348        3349        3400        3399
         4        3349        3350        3401        3400
         4        3350        3351        3402        3401
         4        3351        3352        3403        3402
         4        3352        3353        3404        3403
         4        3353        3354        3405        3404
         4        3354        3355        3406        3405
         4        3355        3356        3407        3406
         4        3356        3357        3408        3407
         4        3357        3358        3409        3408
         4        3358        3359        3410        3409
         4        3359        3360        3411        3410
         4        3360        3361        3412        3411
         4        3361        3362        3413        3412
         4        3362        3363        3414        3413
         4        3363        3364        3415        3414
         4        3364        3365        3416        3415
         4        3366        3367        3418        3417
         4        3367        3368        3419        3418
         4        3368        3369        3420        3419
         4        3369        3370        3421        3420
         4        3370        3371        3422        3421
         4        3371        3372        3423        3422
         4        3372        3373        3424        3423
         4        3373        3374        3425        3424
         4        3374        3375        3426        3425
         4        3375        3376        3427        3426
         4        3376        3377        3428        3427
         4        3377        3378        3429        3428
         4        3378        3379        3430        3429
         4        3379        3380        3431        3430
         4        3380        3381        3432        3431
         4        3381        3382        3433        3432
         4        3382        3383        3434        3433
         4        3383        3384        3435        3434
         4        3384        3385        3436        3435
         4        3385        3386        3437        3436
         4        3386        3387        3438        3437
         4        3387        3388        3439        3438
         4        3388        3389        3440        3439
         4        3389        3390        3441        3440
         4        3390        3391        3442        3441
         4        3391        3392        3443        3442
         4        3392        3393        3444        3443
         4        3393        3394        3445        3444
         4        3394        3395        3446        3445
         4        3395        3396        3447        3446
         4        3396        3397        3448        3447
         4        3397        3398        3449        3448
         4        3398        3399        3450        3449
         4        3399        3400        3451        3450
         4        3400        3401        3452        3451
         4        3401        3402        3453        3452
         4        3402        3403        3454        3453
         4        3403        3404        3455        3454
         4        3404        3405        3456        3455
         4        3405        3406        3457        3456
         4        3406        3407        3458        3457
         4        3407        3408        3459        3458
         4        3408        3409        3460        3459
         4        3409        3410        3461        3460
         4        3410        3411        3462        3461
         4        3411        3412        3463        3462
         4        3412        3413        3464        3463
         4        3413        3414        3465        3464
         4        3414        3415        3466        3465
         4        3415        3416        3467        3466
         4        3417        3418        3469        3468
         4        3418        3419        3470        3469
         4        3419        3420        3471        3470
         4        3420        3421        3472        3471
         4        3421        3422        3473        3472
         4        3422        3423        3474        3473
         4        3423        3424        3475        3474
         4        3424        3425        3476        3475
         4        3425        3426        3477        3476
         4        3426        3427        3478        3477
         4        3427        3428        3479        3478
         4        3428        3429        3480        3479
         4        3429        3430        3481        3480
         4        3430        3431        3482        3481
         4        3431        3432        3483        3482
         4        3432        3433        3484        3483
         4        3433        3434        3485        3484
         4        3434        3435        3486        3485
         4        3435        3436        3487        3486
         4        3436        3437        3488        3487
         4        3437        3438        3489        3488
         4        3438        3439        3490        3489
         4        3439        3440        3491        3490
         4        3440        3441        3492        3491
         4        3441        3442        3493        3492
         4        3442        3443        3494        3493
         4        3443        3444        3495        3494
         4        3444        3445        3496        3495
         4        3445        3446        3497        3496
         4        3446        3447        3498        3497
         4        3447        3448        3499        3498
         4        3448        3449        3500        3499
         4        3449        3450        3501        3500
         4        3450        3451        3502        3501
         4        3451        3452        3503        3502
         4        3452        3453        3504        3503
         4        3453        3454        3505        3504
         4        3454        3455        3506        3505
         4        3455        3456        3507        3506
         4        3456        3457        3508        3507
         4        3457        3458        3509        3508
         4        3458        3459        3510        3509
         4        3459        3460        3511        3510
         4        3460        3461        3512        3511
         4        3461        3462        3513        3512
         4        3462        3463        3514        3513
         4        3463        3464        3515        3514
         4        3464        3465        3516        3515
         4        3465        3466        3517        3516
         4        3466        3467        3518        3517
         4        3468        3469        3520        3519
         4        3469        3470        3521        3520
         4        3470        3471        3522        3521
         4        3471        3472        3523        3522
         4        3472        3473        3524        3523
         4        3473        3474        3525        3524
         4        3474        3475        3526        3525
         4        3475        3476        3527        3526
         4        3476        3477        3528        3527
         4        3477        3478        3529        3528
         4        3478        3479        3530        3529
         4        3479        3480        3531        3530
         4        3480        3481        3532        3531
         4        3481        3482        3533        3532
         4        3482        3483        3534        3533
         4        3483        3484        3535        3534
         4        3484        3485        3536        3535
         4        3485        3486        3537        3536
         4        3486        3487        3538        3537
         4        3487        3488        3539        3538
         4        3488        3489        3540        3539
         4        3489        3490        3541        3540
         4        3490        3491        3542        3541
         4        3491        3492        3543        3542
         4        3492        3493        3544        3543
         4        3493        3494        3545        3544
         4        3494        3495        3546        3545
         4        3495        3496        3547        3546
         4        3496        3497        3548        3547
         4        3497        3498        3549        3548
         4        3498        3499        3550        3549
         4        3499        3500        3551        3550
         4        3500        3501        3552        3551
         4        3501        3502        3553        3552
         4        3502        3503        3554        3553
         4        3503        3504        3555        3554
         4        3504        3505        3556        3555
         4        3505        3506        3557        3556
         4        3506        3507        3558        3557
         4        3507        3508        3559        3558
         4        3508        3509        3560        3559
         4        3509        3510        3561        3560
         4        3510        3511        3562        3561
         4        3511        3512        3563        3562
         4        3512        3513        3564        3563
         4        3513        3514        3565        3564
         4        3514        3515        3566        3565
         4        3515        3516        3567        3566
         4        3516        3517        3568        3567
         4        3517        3518        3569        3568
         4        3519        3520        3571        3570
         4        3520        3521        3572        3571
         4        3521        3522        3573        3572
         4        3522        3523        3574        3573
         4        3523        3524        3575        3574
         4        3524        3525        3576        3575
         4        3525        3526        3577        3576
         4        3526        3527        3578        3577
         4        3527        3528        3579        3578
         4        3528        3529        3580        3579
         4        3529        3530        3581        3580
         4        3530        3531        3582        3581
         4        3531        3532        3583        3582
         4        3532        3533        3584        3583
         4        3533        3534        3585        3584
         4        3534        3535        3586        3585
         4        3535        3536        3587        3586
         4        3536        3537        3588        3587
         4        3537        3538        3589        3588
         4        3538        3539        3590        3589
         4        3539        3540        3591        3590
         4        3540        3541        3592        3591
         4        3541        3542        3593        3592
         4        3542        3543        3594        3593
         4        3543        3544        3595        3594
         4        3544        3545        3596        3595
         4        3545        3546        3597        3596
         4        3546        3547        3598        3597
         4        3547        3548        3599        3598
         4        3548        3549        3600        3599
         4        3549        3550        3601        3600
         4        3550        3551        3602        3601
         4        3551        3552        3603        3602
         4        3552        3553        3604        3603
         4        3553        3554        3605        3604
         4        3554        3555        3606        3605
         4        3555        3556        3607        3606
         4        3556        3557        3608        3607
         4        3557        3558        3609        3608
         4        3558        3559        3610        3609
         4        3559        3560        3611        3610
         4        3560        3561        3612        3611
         4        3561        3562        3613        3612
         4        3562        3563        3614        3613
         4        3563        3564        3615        3614
         4        3564        3565        3616        3615
         4        3565        3566        3617        3616
         4        3566        3567        3618        3617
         4        3567        3568        3619        3618
         4        3568        3569        3620        3619
         4        3570        3571        3622        3621
         4        3571        3572        3623        3622
         4        3572        3573        3624        3623
         4        3573        3574        3625        3624
         4        3574        3575        3626        3625
         4        3575        3576        3627        3626
         4        3576        3577        3628        3627
         4        3577        3578        3629        3628
         4        3578        3579        3630        3629
         4        3579        3580        3631        3630
         4        3580        3581        3632        3631
         4        3581        3582        3633        3632
         4        3582        3583        3634        3633
         4        3583        3584        3635        3634
         4        3584        3585        3636        3635
         4        3585        3586        3637        3636
         4        3586        3587        3638        3637
         4        3587        3588        3639        3638
         4        3588        3589        3640        3639
         4        3589        3590        3641        3640
         4        3590        3591        3642        3641
         4        3591        3592        3643        3642
         4        3592        3593        3644        3643
         4        3593        3594        3645        3644
         4        3594        3595        3646        3645
         4        3595        3596        3647        3646
         4        3596        3597        3648        3647
         4        3597        3598        3649        3648
         4        3598        3599        3650        3649
         4        3599        3600        3651        3650
         4        3600        3601        3652        3651
         4        3601        3602        3653        3652
         4        3602        3603        3654        3653
         4        3603        3604        3655        3654
         4        3604        3605        3656        3655
         4        3605        3606        3657        3656
         4        3606        3607        3658        3657
         4        3607        3608        3659        3658
         4        3608        3609        3660        3659
         4        3609        3610        3661        3660
         4        3610        3611        3662        3661
         4        3611        3612        3663        3662
         4        3612        3613        3664        3663
         4        3613        3614        3665        3664
         4        3614        3615        3666        3665
         4        3615        3616        3667        3666
         4        3616        3617        3668        3667
         4        3617        3618        3669        3668
         4        3618        3619        3670        3669
         4        3619        3620        3671        3670
         4        3621        3622        3673        3672
         4        3622        3623        3674        3673
         4        3623        3624        3675        3674
         4        3624        3625        3676        3675
         4        3625        3626        3677        3676
         4        3626        3627        3678        3677
         4        3627        3628        3679        3678
         4        3628        3629        3680        3679
         4        3629        3630        3681        3680
         4        3630        3631        3682        3681
         4        3631        3632        3683        3682
         4        3632        3633        3684        3683
         4        3633        3634        3685        3684
         4        3634        3635        3686        3685
         4        3635        3636        3687        3686
         4        3636        3637        3688        3687
         4        3637        3638        3689        3688
         4        3638        3639        3690        3689
         4        3639        3640        3691        3690
         4        3640        3641        3692        3691
         4        3641        3642        3693        3692
         4        3642        3643        3694        3693
         4        3643        3644        3695        3694
         4        3644        3645        3696        3695
         4        3645        3646        3697        3696
         4        3646        3647        3698        3697
         4        3647        3648        3699        3698
         4        3648        3649        3700        3699
         4        3649        3650        3701        3700
         4        3650        3651        3702        3701
         4        3651        3652        3703        3702
         4        3652        3653        3704        3703
         4        3653        3654        3705        3704
         4        3654        3655        3706        3705
         4        3655        3656        3707        3706
         4        3656        3657        3708        3707
         4        3657        3658        3709        3708
         4        3658        3659        3710        3709
         4        3659        3660        3711        3710
         4        3660        3661        3712        3711
         4        3661        3662        3713        3712
         4        3662        3663        3714        3713
         4        3663        3664        3715        3714
         4        3664        3665        3716        3715
         4        3665        3666        3717        3716
         4        3666        3667        3718        3717
         4        3667        3668        3719        3718
         4        3668        3669        3720        3719
         4        3669        3670        3721        3720
         4        3670        3671        3722        3721
         4        3672        3673        3724        3723
         4        3673        3674        3725        3724
         4        3674        3675        3726        3725
         4        3675        3676        3727        3726
         4        3676        3677        3728        3727
         4        3677        3678        3729        3728
         4        3678        3679        3730        3729
         4        3679        3680        3731        3730
         4        3680        3681        3732        3731
         4        3681        3682        3733        3732
         4        3682        3683        3734        3733
         4        3683        3684        3735        3734
         4        3684        3685        3736        3735
         4        3685        3686        3737        3736
         4        3686        3687        3738        3737
         4        3687        3688        3739        3738
         4        3688        3689        3740        3739
         4        3689        3690        3741        3740
         4        3690        3691        3742        3741
         4        3691        3692        3743        3742
         4        3692        3693        3744        3743
         4        3693        3694        3745        3744
         4        3694        3695        3746        3745
         4        3695        3696        3747        3746
         4        3696        3697        3748        3747
         4        3697        3698        3749        3748
         4        3698        3699        3750        3749
         4        3699        3700        3751        3750
         4        3700        3701        3752        3751
         4        3701        3702        3753        3752
         4        3702        3703        3754        3753
         4        3703        3704        3755        3754
         4        3704        3705        3756        3755
         4        3705        3706        3757        3756
         4        3706        3707        3758        3757
         4        3707        3708        3759        3758
         4        3708        3709        3760        3759
         4        3709        3710        3761        3760
         4        3710        3711        3762        3761
         4        3711        3712        3763        3762
         4        3712        3713        3764        3763
         4        3713        3714        3765        3764
         4        3714        3715        3766        3765
         4        3715        3716        3767        3766
         4        3716        3717        3768        3767
         4        3717        3718        3769        3768
         4        3718        3719        3770        3769
         4        3719        3720        3771        3770
         4        3720        3721        3772        3771
         4        3721        3722        3773        3772
         4        3723        3724        3775        3774
         4        3724        3725        3776        3775
         4        3725        3726        3777        3776
         4        3726        3727        3778        3777
         4        3727        3728        3779        3778
         4        3728        3729        3780        3779
         4        3729        3730        3781        3780
         4        3730        3731        3782        3781
         4        3731        3732        3783        3782
         4        3732        3733        3784        3783
         4        3733        3734        3785        3784
         4        3734        3735        3786        3785
         4        3735        3736        3787        3786
         4        3736        3737        3788        3787
         4        3737        3738        3789        3788
         4        3738        3739        3790        3789
         4        3739        3740        3791        3790
         4        3740        3741        3792        3791
         4        3741        3742        3793        3792
         4        3742        3743        3794        3793
         4        3743        3744        3795        3794
         4        3744        3745        3796        3795
         4        3745        3746        3797        3796
         4        3746        3747        3798        3797
         4        3747        3748        3799        3798
         4        3748        3749        3800        3799
         4        3749        3750        3801        3800
         4        3750        3751        3802        3801
         4        3751        3752        3803        3802
         4        3752        3753        3804        3803
         4        3753        3754        3805        3804
         4        3754        3755        3806        3805
         4        3755        3756        3807        3806
         4        3756        3757        3808        3807
         4        3757        3758        3809        3808
         4        3758        3759        3810        3809
         4        3759        3760        3811        3810
         4        3760        3761        3812        3811
         4        3761        3762        3813        3812
         4        3762        3763        3814        3813
         4        3763        3764        3815        3814
         4        3764        3765        3816        3815
         4        3765        3766        3817        3816
         4        3766        3767        3818        3817
         4        3767        3768        3819        3818
         4        3768        3769        3820        3819
         4        3769        3770        3821        3820
         4        3770        3771        3822        3821
         4        3771        3772        3823        3822
         4        3772        3773        3824        3823
         4        3774        3775        3826        3825
         4        3775        3776        3827        3826
         4        3776        3777        3828        3827
         4        3777        3778        3829        3828
         4        3778        3779        3830        3829
         4        3779        3780        3831        3830
         4        3780        3781        3832        3831
         4        3781        3782        3833        3832
         4        3782        3783        3834        3833
         4        3783        3784        3835        3834
         4        3784        3785        3836        3835
         4        3785        3786        3837        3836
         4        3786        3787        3838        3837
         4        3787        3788        3839        3838
         4        3788        3789        3840        3839
         4        3789        3790        3841        3840
         4        3790        3791        3842        3841
         4        3791        3792        3843        3842
         4        3792        3793        3844        3843
         4        3793        3794        3845        3844
         4        3794        3795        3846        3845
         4        3795        3796        3847        3846
         4        3796        3797        3848        3847
         4        3797        3798        3849        3848
         4        3798        3799        3850        3849
         4        3799        3800        3851        3850
         4        3800        3801        3852        3851
         4        3801        3802        3853        3852
         4        3802        3803        3854        3853
         4        3803        3804        3855        3854
         4        3804        3805        3856        3855
         4        3805        3806        3857        3856
         4        3806        3807        3858        3857
         4        3807        3808        3859        3858
         4        3808        3809        3860        3859
         4        3809        3810        3861        3860
         4        3810        3811        3862        3861
         4        3811        3812        3863        3862
         4        3812        3813        3864        3863
         4        3813        3814        3865        3864
         4        3814        3815        3866        3865
         4        3815        3816        3867        3866
         4        3816        3817        3868        3867
         4        3817        3818        3869        3868
         4        3818        3819        3870        3869
         4        3819        3820        3871        3870
         4        3820        3821        3872        3871
         4        3821        3822        3873        3872
         4        3822        3823        3874        3873
         4        3823        3824        3875        3874
         4        3825        3826        3877        3876
         4        3826        3827        3878        3877
         4        3827        3828        3879        3878
         4        3828        3829        3880        3879
         4        3829        3830        3881        3880
         4        3830        3831        3882        3881
         4        3831        3832        3883        3882
         4        3832        3833        3884        3883
         4        3833        3834        3885        3884
         4        3834        3835        3886        3885
         4        3835        3836        3887        3886
         4        3836        3837        3888        3887
         4        3837        3838        3889        3888
         4        3838        3839        3890        3889
         4        3839        3840        3891        3890
         4        3840        3841        3892        3891
         4        3841        3842        3893        3892
         4        3842        3843        3894        3893
         4        3843        3844        3895        3894
         4        3844        3845        3896        3895
         4        3845        3846        3897        3896
         4        3846        3847        3898        3897
         4        3847        3848        3899        3898
         4        3848        3849        3900        3899
         4        3849        3850        3901        3900
         4        3850        3851        3902        3901
         4        3851        3852        3903        3902
         4        3852        3853        3904        3903
         4        3853        3854        3905        3904
         4        3854        3855        3906        3905
         4        3855        3856        3907        3906
         4        3856        3857        3908        3907
         4        3857        3858        3909        3908
         4        3858        3859        3910        3909
         4        3859        3860        3911        3910
         4        3860        3861        3912        3911
         4        3861        3862        3913        3912
         4        3862        3863        3914        3913
         4        3863        3864        3915        3914
         4        3864        3865        3916        3915
         4        3865        3866        3917        3916
         4        3866        3867        3918        3917
         4        3867        3868        3919        3918
         4        3868        3869        3920        3919
         4        3869        3870        3921        3920
         4        3870        3871        3922        3921
         4        3871        3872        3923        3922
         4        3872        3873        3924        3923
         4        3873        3874        3925        3924
         4        3874        3875        3926        3925
         4        3876        3877        3928        3927
         4        3877        3878        3929        3928
         4        3878        3879        3930        3929
         4        3879        3880        3931        3930
         4        3880        3881        3932        3931
         4        3881        3882        3933        3932
         4        3882        3883        3934        3933
         4        3883        3884        3935        3934
         4        3884        3885        3936        3935
         4        3885        3886        3937        3936
         4        3886        3887        3938        3937
         4        3887        3888        3939        3938
         4        3888        3889        3940        3939
         4        3889        3890        3941        3940
         4        3890        3891        3942        3941
         4        3891        3892        3943        3942
         4        3892        3893        3944        3943
         4        3893        3894        3945        3944
         4        3894        3895        3946        3945
         4        3895        3896        3947        3946
         4        3896        3897        3948        3947
         4        3897        3898        3949        3948
         4        3898        3899        3950        3949
         4        3899        3900        3951        3950
         4        3900        3901        3952        3951
         4        3901        3902        3953        3952
         4        3902        3903        3954        3953
         4        3903        3904        3955        3954
         4        3904        3905        3956        3955
         4        3905        3906        3957        3956
         4        3906        3907        3958        3957
         4        3907        3908        3959        3958
         4        3908        3909        3960        3959
         4        3909        3910        3961        3960
         4        3910        3911        3962        3961
         4        3911        3912        3963        3962
         4        3912        3913        3964        3963
         4        3913        3914        3965        3964
         4        3914        3915        3966        3965
         4        3915        3916        3967        3966
         4        3916        3917        3968        3967
         4        3917        3918        3969        3968
         4        3918        3919        3970        3969
         4        3919        3920        3971        3970
         4        3920        3921        3972        3971
         4        3921        3922        3973        3972
         4        3922        3923        3974        3973
         4        3923        3924        3975        3974
         4        3924        3925        3976        3975
         4        3925        3926        3977        3976
         4        3927        3928        3979        3978
         4        3928        3929        3980        3979
         4        3929        3930        3981        3980
         4        3930        3931        3982        3981
         4        3931        3932        3983        3982
         4        3932        3933        3984        3983
         4        3933        3934        3985        3984
         4        3934        3935        3986        3985
         4        3935        3936        3987        3986
         4        3936        3937        3988        3987
         4        3937        3938        3989        3988
         4        3938        3939        3990        3989
         4        3939        3940        3991        3990
         4        3940        3941        3992        3991
         4        3941        3942        3993        3992
         4        3942        3943        3994        3993
         4        3943        3944        3995        3994
         4        3944        3945        3996        3995
         4        3945        3946        3997        3996
         4        3946        3947        3998        3997
         4        3947        3948        3999        3998
         4        3948        3949        4000        3999
         4        3949        3950        4001        4000
         4        3950        3951        4002        4001
         4        3951        3952        4003        4002
         4        3952        3953        4004        4003
         4        3953        3954        4005        4004
         4        3954        3955        4006        4005
         4        3955        3956        4007        4006
         4        3956        3957        4008        4007
         4        3957        3958        4009        4008
         4        3958        3959        4010        4009
         4        3959        3960        4011        4010
         4        3960        3961        4012        4011
         4        3961        3962        4013        4012
         4        3962        3963        4014        4013
         4        3963        3964        4015        4014
         4        3964        3965        4016        4015
         4        3965        3966        4017        4016
         4        3966        3967        4018        4017
         4        3967        3968        4019        4018
         4        3968        3969        4020        4019
         4        3969        3970        4021        4020
         4        3970        3971        4022        4021
         4        3971        3972        4023        4022
         4        3972        3973        4024        4023
         4        3973        3974        4025        4024
         4        3974        3975        4026        4025
         4        3975        3976        4027        4026
         4        3976        3977        4028        4027
         4        3978        3979        4030        4029
         4        3979        3980        4031        4030
         4        3980        3981        4032        4031
         4        3981        3982        4033        4032
         4        3982        3983        4034        4033
         4        3983        3984        4035        4034
         4        3984        3985        4036        4035
         4        3985        3986        4037        4036
         4        3986        3987        4038        4037
         4        3987        3988        4039        4038
         4        3988        3989        4040        4039
         4        3989        3990        4041        4040
         4        3990        3991        4042        4041
         4        3991        3992        4043        4042
         4        3992        3993        4044        4043
         4        3993        3994        4045        4044
         4        3994        3995        4046        4045
         4        3995        3996        4047        4046
         4        3996        3997        4048        4047
         4        3997        3998        4049        4048
         4        3998        3999        4050        4049
         4        3999        4000        4051        4050
         4        4000        4001        4052        4051
         4        4001        4002        4053        4052
         4        4002        4003        4054        4053
         4        4003        4004        4055        4054
         4        4004        4005        4056        4055
         4        4005        4006        4057        4056
         4        4006        4007        4058        4057
         4        4007        4008        4059        4058
         4        4008        4009        4060        4059
         4        4009        4010        4061        4060
         4        4010        4011        4062        4061
         4        4011        4012        4063        4062
         4        4012        4013        4064        4063
         4        4013        4014        4065        4064
         4        4014        4015        4066        4065
         4        4015        4016        4067        4066
         4        4016        4017        4068        4067
         4        4017        4018        4069        4068
         4        4018        4019        4070        4069
         4        4019        4020        4071        4070
         4        4020        4021        4072        4071
         4        4021        4022        4073        4072
         4        4022        4023        4074        4073
         4        4023        4024        4075        4074
         4        4024        4025        4076        4075
         4        4025        4026        4077        4076
         4        4026        4027        4078        4077
         4        4027        4028        4079        4078
         4        4029        4030        4081        4080
         4        4030        4031        4082        4081
         4        4031        4032        4083        4082
         4        4032        4033        4084        4083
         4        4033        4034        4085        4084
         4        4034        4035        4086        4085
         4        4035        4036        4087        4086
         4        4036        4037        4088        4087
         4        4037        4038        4089        4088
         4        4038        4039        4090        4089
         4        4039        4040        4091        4090
         4        4040        4041        4092        4091
         4        4041        4042        4093        4092
         4        4042        4043        4094        4093
         4        4043        4044        4095        4094
         4        4044        4045        4096        4095
         4        4045        4046        4097        4096
         4        4046        4047        4098        4097
         4        4047        4048        4099        4098
         4        4048        4049        4100        4099
         4        4049        4050        4101        4100
         4        4050        4051        4102        4101
         4        4051        4052        4103        4102
         4        4052        4053        4104        4103
         4        4053        4054        4105        4104
         4        4054        4055        4106        4105
         4        4055        4056        4107        4106
         4        4056        4057        4108        4107
         4        4057        4058        4109        4108
         4        4058        4059        4110        4109
         4        4059        4060        4111        4110
         4        4060        4061        4112        4111
         4        4061        4062        4113        4112
         4        4062        4063        4114        4113
         4        4063        4064        4115        4114
         4        4064        4065        4116        4115
         4        4065        4066        4117        4116
         4        4066        4067        4118        4117
         4        4067        4068        4119        4118
         4        4068        4069        4120        4119
         4        4069        4070        4121        4120
         4        4070        4071        4122        4121
         4        4071        4072        4123        4122
         4        4072        4073        4124        4123
         4        4073        4074        4125        4124
         4        4074        4075        4126        4125
         4        4075        4076        4127        4126
         4        4076        4077        4128        4127
         4        4077        4078        4129        4128
         4        4078        4079        4130        4129
         4        4080        4081        4132        4131
         4        4081        4082        4133        4132
         4        4082        4083        4134        4133
         4        4083        4084        4135        4134
         4        4084        4085        4136        4135
         4        4085        4086        4137        4136
         4        4086        4087        4138        4137
         4        4087        4088        4139        4138
         4        4088        4089        4140        4139
         4        4089        4090        4141        4140
         4        4090        4091        4142        4141
         4        4091        4092        4143        4142
         4        4092        4093        4144        4143
         4        4093        4094        4145        4144
         4        4094        4095        4146        4145
         4        4095        4096        4147        4146
         4        4096        4097        4148        4147
         4        4097        4098        4149        4148
         4        4098        4099        4150        4149
         4        4099        4100        4151        4150
         4        4100        4101        4152        4151
         4        4101        4102        4153        4152
         4        4102        4103        4154        4153
         4        4103        4104        4155        4154
         4        4104        4105        4156        4155
         4        4105        4106        4157        4156
         4        4106        4107        4158        4157
         4        4107        4108        4159        4158
         4        4108        4109        4160        4159
         4        4109        4110        4161        4160
         4        4110        4111        4162        4161
         4        4111        4112        4163        4162
         4        4112        4113        4164        4163
         4        4113        4114        4165        4164
         4        4114        4115        4166        4165
         4        4115        4116        4167        4166
         4        4116        4117        4168        4167
         4        4117        4118        4169        4168
         4        4118        4119        4170        4169
         4        4119        4120        4171        4170
         4        4120        4121        4172        4171
         4        4121        4122        4173        4172
         4        4122        4123        4174        4173
         4        4123        4124        4175        4174
         4        4124        4125        4176        4175
         4        4125        4126        4177        4176
         4        4126        4127        4178        4177
         4        4127        4128        4179        4178
         4        4128        4129        4180        4179
         4        4129        4130        4181        4180
         4        4131        4132        4183        4182
         4        4132        4133        4184        4183
         4        4133        4134        4185        4184
         4        4134        4135        4186        4185
         4        4135        4136        4187        4186
         4        4136        4137        4188        4187
         4        4137        4138        4189        4188
         4        4138        4139        4190        4189
         4        4139        4140        4191        4190
         4        4140        4141        4192        4191
         4        4141        4142        4193        4192
         4        4142        4143        4194        4193
         4        4143        4144        4195        4194
         4        4144        4145        4196        4195
         4        4145        4146        4197        4196
         4        4146        4147        4198        4197
         4        4147        4148        4199        4198
         4        4148        4149        4200        4199
         4        4149        4150        4201        4200
         4        4150        4151        4202        4201
         4        4151        4152        4203        4202
         4        4152        4153        4204        4203
         4        4153        4154        4205        4204
         4        4154        4155        4206        4205
         4        4155        4156        4207        4206
         4        4156        4157        4208        4207
         4        4157        4158        4209        4208
         4        4158        4159        4210        4209
         4        4159        4160        4211        4210
         4        4160        4161        4212        4211
         4        4161        4162        4213        4212
         4        4162        4163        4214        4213
         4        4163        4164        4215        4214
         4        4164        4165        4216        4215
         4        4165        4166        4217        4216
         4        4166        4167        4218        4217
         4        4167        4168        4219        4218
         4        4168        4169        4220        4219
         4        4169        4170        4221        4220
         4        4170        4171        4222        4221
         4        4171        4172        4223        4222
         4        4172        4173        4224        4223
         4        4173        4174        4225        4224
         4        4174        4175        4226        4225
         4        4175        4176        4227        4226
         4        4176        4177        4228        4227
         4        4177        4178        4229        4228
         4        4178        4179        4230        4229
         4        4179        4180        4231        4230
         4        4180        4181        4232        4231
         4        4182        4183        4234        4233
         4        4183        4184        4235        4234
         4        4184        4185        4236        4235
         4        4185        4186        4237        4236
         4        4186        4187        4238        4237
         4        4187        4188        4239        4238
         4        4188        4189        4240        4239
         4        4189        4190        4241        4240
         4        4190        4191        4242        4241
         4        4191        4192        4243        4242
         4        4192        4193        4244        4243
         4        4193        4194        4245        4244
         4        4194        4195        4246        4245
         4        4195        4196        4247        4246
         4        4196        4197        4248        4247
         4        4197        4198        4249        4248
         4        4198        4199        4250        4249
         4        4199        4200        4251        4250
         4        4200        4201        4252        4251
         4        4201        4202        4253        4252
         4        4202        4203        4254        4253
         4        4203        4204        4255        4254
         4        4204        4205        4256        4255
         4        4205        4206        4257        4256
         4        4206        4207        4258        4257
         4        4207        4208        4259        4258
         4        4208        4209        4260        4259
         4        4209        4210        4261        4260
         4        4210        4211        4262        4261
         4        4211        4212        4263        4262
         4        4212        4213        4264        4263
         4        4213        4214        4265        4264
         4        4214        4215        4266        4265
         4        4215        4216        4267        4266
         4        4216        4217        4268        4267
         4        4217        4218        4269        4268
         4        4218        4219        4270        4269
         4        4219        4220        4271        4270
         4        4220        4221        4272        4271
         4        4221        4222        4273        4272
         4        4222        4223        4274        4273
         4        4223        4224        4275        4274
         4        4224        4225        4276        4275
         4        4225        4226        4277        4276
         4        4226        4227        4278        4277
         4        4227        4228        4279        4278
         4        4228        4229        4280        4279
         4        4229        4230        4281        4280
         4        4230        4231        4282        4281
         4        4231        4232        4283        4282
         4        4233        4234        4285        4284
         4        4234        4235        4286        4285
         4        4235        4236        4287        4286
         4        4236        4237        4288        4287
         4        4237        4238        4289        4288
         4        4238        4239        4290        4289
         4        4239        4240        4291        4290
         4        4240        4241        4292        4291
         4        4241        4242        4293        4292
         4        4242        4243        4294        4293
         4        4243        4244        4295        4294
         4        4244        4245        4296        4295
         4        4245        4246        4297        4296
         4        4246        4247        4298        4297
         4        4247        4248        4299        4298
         4        4248        4249        4300        4299
         4        4249        4250        4301        4300
         4        4250        4251        4302        4301
         4        4251        4252        4303        4302
         4        4252        4253        4304        4303
         4        4253        4254        4305        4304
         4        4254        4255        4306        4305
         4        4255        4256        4307        4306
         4        4256        4257        4308        4307
         4        4257        4258        4309        4308
         4        4258        4259        4310        4309
         4        4259        4260        4311        4310
         4        4260        4261        4312        4311
         4        4261        4262        4313        4312
         4        4262        4263        4314        4313
         4        4263        4264        4315        4314
         4        4264        4265        4316        4315
         4        4265        4266        4317        4316
         4        4266        4267        4318        4317
         4        4267        4268        4319        4318
         4        4268        4269        4320        4319
         4        4269        4270        4321        4320
         4        4270        4271        4322        4321
         4        4271        4272        4323        4322
         4        4272        4273        4324        4323
         4        4273        4274        4325        4324
         4        4274        4275        4326        4325
         4        4275        4276        4327        4326
         4        4276        4277        4328        4327
         4        4277        4278        4329        4328
         4        4278        4279        4330        4329
         4        4279        4280        4331        4330
         4        4280        4281        4332        4331
         4        4281        4282        4333        4332
         4        4282        4283        4334        4333
         4        4284        4285        4336        4335
         4        4285        4286        4337        4336
         4        4286        4287        4338        4337
         4        4287        4288        4339        4338
         4        4288        4289        4340        4339
         4        4289        4290        4341        4340
         4        4290        4291        4342        4341
         4        4291        4292        4343        4342
         4        4292        4293        4344        4343
         4        4293        4294        4345        4344
         4        4294        4295        4346        4345
         4        4295        4296        4347        4346
         4        4296        4297        4348        4347
         4        4297        4298        4349        4348
         4        4298        4299        4350        4349
         4        4299        4300        4351        4350
         4        4300        4301        4352        4351
         4        4301        4302        4353        4352
         4        4302        4303        4354        4353
         4        4303        4304        4355        4354
         4        4304        4305        4356        4355
         4        4305        4306        4357        4356
         4        4306        4307        4358        4357
         4        4307        4308        4359        4358
         4        4308        4309        4360        4359
         4        4309        4310        4361        4360
         4        4310        4311        4362        4361
         4        4311        4312        4363        4362
         4        4312        4313        4364        4363
         4        4313        4314        4365        4364
         4        4314        4315        4366        4365
         4        4315        4316        4367        4366
         4        4316        4317        4368        4367
         4        4317        4318        4369        4368
         4        4318        4319        4370        4369
         4        4319        4320        4371        4370
         4        4320        4321        4372        4371
         4        4321        4322        4373        4372
         4        4322        4323        4374        4373
         4        4323        4324        4375        4374
         4        4324        4325        4376        4375
         4        4325        4326        4377        4376
         4        4326        4327        4378        4377
         4        4327        4328        4379        4378
         4        4328        4329        4380        4379
         4        4329        4330        4381        4380
         4        4330        4331        4382        4381
         4        4331        4332        4383        4382
         4        4332        4333        4384        4383
         4        4333        4334        4385        4384
         4        4335        4336        4387        4386
         4        4336        4337        4388        4387
         4        4337        4338        4389        4388
         4        4338        4339        4390        4389
         4        4339        4340        4391        4390
         4        4340        4341        4392        4391
         4        4341        4342        4393        4392
         4        4342        4343        4394        4393
         4        4343        4344        4395        4394
         4        4344        4345        4396        4395
         4        4345        4346        4397        4396
         4        4346        4347        4398        4397
         4        4347        4348        4399        4398
         4        4348        4349        4400        4399
         4        4349        4350        4401        4400
         4        4350        4351        4402        4401
         4        4351        4352        4403        4402
         4        4352        4353        4404        4403
         4        4353        4354        4405        4404
         4        4354        4355        4406        4405
         4        4355        4356        4407        4406
         4        4356        4357        4408        4407
         4        4357        4358        4409        4408
         4        4358        4359        4410        4409
         4        4359        4360        4411        4410
         4        4360        4361        4412        4411
         4        4361        4362        4413        4412
         4        4362        4363        4414        4413
         4        4363        4364        4415        4414
         4        4364        4365        4416        4415
         4        4365        4366        4417        4416
         4        4366        4367        4418        4417
         4        4367        4368        4419        4418
         4        4368        4369        4420        4419
         4        4369        4370        4421        4420
         4        4370        4371        4422        4421
         4        4371        4372        4423        4422
         4        4372        4373        4424        4423
         4        4373        4374        4425        4424
         4        4374        4375        4426        4425
         4        4375        4376        4427        4426
         4        4376        4377        4428        4427
         4        4377        4378        4429        4428
         4        4378        4379        4430        4429
         4        4379        4380        4431        4430
         4        4380        4381        4432        4431
         4        4381        4382        4433        4432
         4        4382        4383        4434        4433
         4        4383        4384        4435        4434
         4        4384        4385        4436        4435
         4        4386        4387        4438        4437
         4        4387        4388        4439        4438
         4        4388        4389        4440        4439
         4        4389        4390        4441        4440
         4        4390        4391        4442        4441
         4        4391        4392        4443        4442
         4        4392        4393        4444        4443
         4        4393        4394        4445        4444
         4        4394        4395        4446        4445
         4        4395        4396        4447        4446
         4        4396        4397        4448        4447
         4        4397        4398        4449        4448
         4        4398        4399        4450        4449
         4        4399        4400        4451        4450
         4        4400        4401        4452        4451
         4        4401        4402        4453        4452
         4        4402        4403        4454        4453
         4        4403        4404        4455        4454
         4        4404        4405        4456        4455
         4        4405        4406        4457        4456
         4        4406        4407        4458        4457
         4        4407        4408        4459        4458
         4        4408        4409        4460        4459
         4        4409        4410        4461        4460
         4        4410        4411        4462        4461
         4        4411        4412        4463        4462
         4        4412        4413        4464        4463
         4        4413        4414        4465        4464
         4        4414        4415        4466        4465
         4        4415        4416        4467        4466
         4        4416        4417        4468        4467
         4        4417        4418        4469        4468
         4        4418        4419        4470        4469
         4        4419        4420        4471        4470
         4        4420        4421        4472        4471
         4        4421        4422        4473        4472
         4        4422        4423        4474        4473
         4        4423        4424        4475        4474
         4        4424        4425        4476        4475
         4        4425        4426        4477        4476
         4        4426        4427        4478        4477
         4        4427        4428        4479        4478
         4        4428        4429        4480        4479
         4        4429        4430        4481        4480
         4        4430        4431        4482        4481
         4        4431        4432        4483        4482
         4        4432        4433        4484        4483
         4        4433        4434        4485        4484
         4        4434        4435        4486        4485
         4        4435        4436        4487        4486
         4        4437        4438        4489        4488
         4        4438        4439        4490        4489
         4        4439        4440        4491        4490
         4        4440        4441        4492        4491
         4        4441        4442        4493        4492
         4        4442        4443        4494        4493
         4        4443        4444        4495        4494
         4        4444        4445        4496        4495
         4        4445        4446        4497        4496
         4        4446        4447        4498        4497
         4        4447        4448        4499        4498
         4        4448        4449        4500        4499
         4        4449        4450        4501        4500
         4        4450        4451        4502        4501
         4        4451        4452        4503        4502
         4        4452        4453        4504        4503
         4        4453        4454        4505        4504
         4        4454        4455        4506        4505
         4        4455        4456        4507        4506
         4        4456        4457        4508        4507
         4        4457        4458        4509        4508
         4        4458        4459        4510        4509
         4        4459        4460        4511        4510
         4        4460        4461        4512        4511
         4        4461        4462        4513        4512
         4        4462        4463        4514        4513
         4        4463        4464        4515        4514
         4        4464        4465        4516        4515
         4        4465        4466        4517        4516
         4        4466        4467        4518        4517
         4        4467        4468        4519        4518
         4        4468        4469        4520        4519
         4        4469        4470        4521        4520
         4        4470        4471        4522        4521
         4        4471        4472        4523        4522
         4        4472        4473        4524        4523
         4        4473        4474        4525        4524
         4        4474        4475        4526        4525
         4        4475        4476        4527        4526
         4        4476        4477        4528        4527
         4        4477        4478        4529        4528
         4        4478        4479        4530        4529
         4        4479        4480        4531        4530
         4        4480        4481        4532        4531
         4        4481        4482        4533        4532
         4        4482        4483        4534        4533
         4        4483        4484        4535        4534
         4        4484        4485        4536        4535
         4        4485        4486        4537        4536
         4        4486        4487        4538        4537
         4        4488        4489        4540        4539
         4        4489        4490        4541        4540
         4        4490        4491        4542        4541
         4        4491        4492        4543        4542
         4        4492        4493        4544        4543
         4        4493        4494        4545        4544
         4        4494        4495        4546        4545
         4        4495        4496        4547        4546
         4        4496        4497        4548        4547
         4        4497        4498        4549        4548
         4        4498        4499        4550        4549
         4        4499        4500        4551        4550
         4        4500        4501        4552        4551
         4        4501        4502        4553        4552
         4        4502        4503        4554        4553
         4        4503        4504        4555        4554
         4        4504        4505        4556        4555
         4        4505        4506        4557        4556
         4        4506        4507        4558        4557
         4        4507        4508        4559        4558
         4        4508        4509        4560        4559
         4        4509        4510        4561        4560
         4        4510        4511        4562        4561
         4        4511        4512        4563        4562
         4        4512        4513        4564        4563
         4        4513        4514        4565        4564
         4        4514        4515        4566        4565
         4        4515        4516        4567        4566
         4        4516        4517        4568        4567
         4        4517        4518        4569        4568
         4        4518        4519        4570        4569
         4        4519        4520        4571        4570
         4        4520        4521        4572        4571
         4        4521        4522        4573        4572
         4        4522        4523        4574        4573
         4        4523        4524        4575        4574
         4        4524        4525        4576        4575
         4        4525        4526        4577        4576
         4        4526        4527        4578        4577
         4        4527        4528        4579        4578
         4        4528        4529        4580        4579
         4        4529        4530        4581        4580
         4        4530        4531        4582        4581
         4        4531        4532        4583        4582
         4        4532        4533        4584        4583
         4        4533        4534        4585        4584
         4        4534        4535        4586        4585
         4        4535        4536        4587        4586
         4        4536        4537        4588        4587
         4        4537        4538        4589        4588
         4        4539        4540        4591        4590
         4        4540        4541        4592        4591
         4        4541        4542        4593        4592
         4        4542        4543        4594        4593
         4        4543        4544        4595        4594
         4        4544        4545        4596        4595
         4        4545        4546        4597        4596
         4        4546        4547        4598        4597
         4        4547        4548        4599        4598
         4        4548        4549        4600        4599
         4        4549        4550        4601        4600
         4        4550        4551        4602        4601
         4        4551        4552        4603        4602
         4        4552        4553        4604        4603
         4        4553        4554        4605        4604
         4        4554        4555        4606        4605
         4        4555        4556        4607        4606
         4        4556        4557        4608        4607
         4        4557        4558        4609        4608
         4        4558        4559        4610        4609
         4        4559        4560        4611        4610
         4        4560        4561        4612        4611
         4        4561        4562        4613        4612
         4        4562        4563        4614        4613
         4        4563        4564        4615        4614
         4        4564        4565        4616        4615
         4        4565        4566        4617        4616
         4        4566        4567        4618        4617
         4        4567        4568        4619        4618
         4        4568        4569        4620        4619
         4        4569        4570        4621        4620
         4        4570        4571        4622        4621
         4        4571        4572        4623        4622
         4        4572        4573        4624        4623
         4        4573        4574        4625        4624
         4        4574        4575        4626        4625
         4        4575        4576        4627        4626
         4        4576        4577        4628        4627
         4        4577        4578        4629        4628
         4        4578        4579        4630        4629
         4        4579        4580        4631        4630
         4        4580        4581        4632        4631
         4        4581        4582        4633        4632
         4        4582        4583        4634        4633
         4        4583        4584        4635        4634
         4        4584        4585        4636        4635
         4        4585        4586        4637        4636
         4        4586        4587        4638        4637
         4        4587        4588        4639        4638
         4        4588        4589        4640        4639
         4        4590        4591        4642        4641
         4        4591        4592        4643        4642
         4        4592        4593        4644        4643
         4        4593        4594        4645        4644
         4        4594        4595        4646        4645
         4        4595        4596        4647        4646
         4        4596        4597        4648        4647
         4        4597        4598        4649        4648
         4        4598        4599        4650        4649
         4        4599        4600        4651        4650
         4        4600        4601        4652        4651
         4        4601        4602        4653        4652
         4        4602        4603        4654        4653
         4        4603        4604        4655        4654
         4        4604        4605        4656        4655
         4        4605        4606        4657        4656
         4        4606        4607        4658        4657
         4        4607        4608        4659        4658
         4        4608        4609        4660        4659
         4        4609        4610        4661        4660
         4        4610        4611        4662        4661
         4        4611        4612        4663        4662
         4        4612        4613        4664        4663
         4        4613        4614        4665        4664
         4        4614        4615        4666        4665
         4        4615        4616        4667        4666
         4        4616        4617        4668        4667
         4        4617        4618        4669        4668
         4        4618        4619        4670        4669
         4        4619        4620        4671        4670
         4        4620        4621        4672        4671
         4        4621        4622        4673        4672
         4        4622        4623        4674        4673
         4        4623        4624        4675        4674
         4        4624        4625        4676        4675
         4        4625        4626        4677        4676
         4        4626        4627        4678        4677
         4        4627        4628        4679        4678
         4        4628        4629        4680        4679
         4        4629        4630        4681        4680
         4        4630        4631        4682        4681
         4        4631        4632        4683        4682
         4        4632        4633        4684        4683
         4        4633        4634        4685        4684
         4        4634        4635        4686        4685
         4        4635        4636        4687        4686
         4        4636        4637        4688        4687
         4        4637        4638        4689        4688
         4        4638        4639        4690        4689
         4        4639        4640        4691        4690
         4        4641        4642        4693        4692
         4        4642        4643        4694        4693
         4        4643        4644        4695        4694
         4        4644        4645        4696        4695
         4        4645        4646        4697        4696
         4        4646        4647        4698        4697
         4        4647        4648        4699        4698
         4        4648        4649        4700        4699
         4        4649        4650        4701        4700
         4        4650        4651        4702        4701
         4        4651        4652        4703        4702
         4        4652        4653        4704        4703
         4        4653        4654        4705        4704
         4        4654        4655        4706        4705
         4        4655        4656        4707        4706
         4        4656        4657        4708        4707
         4        4657        4658        4709        4708
         4        4658        4659        4710        4709
         4        4659        4660        4711        4710
         4        4660        4661        4712        4711
         4        4661        4662        4713        4712
         4        4662        4663        4714        4713
         4        4663        4664        4715        4714
         4        4664        4665        4716        4715
         4        4665        4666        4717        4716
         4        4666        4667        4718        4717
         4        4667        4668        4719        4718
         4        4668        4669        4720        4719
         4        4669        4670        4721        4720
         4        4670        4671        4722        4721
         4        4671        4672        4723        4722
         4        4672        4673        4724        4723
         4        4673        4674        4725        4724
         4        4674        4675        4726        4725
         4        4675        4676        4727        4726
         4        4676        4677        4728        4727
         4        4677        4678        4729        4728
         4        4678        4679        4730        4729
         4        4679        4680        4731        4730
         4        4680        4681        4732        4731
         4        4681        4682        4733        4732
         4        4682        4683        4734        4733
         4        4683        4684        4735        4734
         4        4684        4685        4736        4735
         4        4685        4686        4737        4736
         4        4686        4687        4738        4737
         4        4687        4688        4739        4738
         4        4688        4689        4740        4739
         4        4689        4690        4741        4740
         4        4690        4691        4742        4741
         4        4692        4693        4744        4743
         4        4693        4694        4745        4744
         4        4694        4695        4746        4745
         4        4695        4696        4747        4746
         4        4696        4697        4748        4747
         4        4697        4698        4749        4748
         4        4698        4699        4750        4749
         4        4699        4700        4751        4750
         4        4700        4701        4752        4751
         4        4701        4702        4753        4752
         4        4702        4703        4754        4753
         4        4703        4704        4755        4754
         4        4704        4705        4756        4755
         4        4705        4706        4757        4756
         4        4706        4707        4758        4757
         4        4707        4708        4759        4758
         4        4708        4709        4760        4759
         4        4709        4710        4761        4760
         4        4710        4711        4762        4761
         4        4711        4712        4763        4762
         4        4712        4713        4764        4763
         4        4713        4714        4765        4764
         4        4714        4715        4766        4765
         4        4715        4716        4767        4766
         4        4716        4717        4768        4767
         4        4717        4718        4769        4768
         4        4718        4719        4770        4769
         4        4719        4720        4771        4770
         4        4720        4721        4772        4771
         4        4721        4722        4773        4772
         4        4722        4723        4774        4773
         4        4723        4724        4775        4774
         4        4724        4725        4776        4775
         4        4725        4726        4777        4776
         4        4726        4727        4778        4777
         4        4727        4728        4779        4778
         4        4728        4729        4780        4779
         4        4729        4730        4781        4780
         4        4730        4731        4782        4781
         4        4731        4732        4783        4782
         4        4732        4733        4784        4783
         4        4733        4734        4785        4784
         4        4734        4735        4786        4785
         4        4735        4736        4787        4786
         4        4736        4737        4788        4787
         4        4737        4738        4789        4788
         4        4738        4739        4790        4789
         4        4739        4740        4791        4790
         4        4740        4741        4792        4791
         4        4741        4742        4793        4792
         4        4743        4744        4795        4794
         4        4744        4745        4796        4795
         4        4745        4746        4797        4796
         4        4746        4747        4798        4797
         4        4747        4748        4799        4798
         4        4748        4749        4800        4799
         4        4749        4750        4801        4800
         4        4750        4751        4802        4801
         4        4751        4752        4803        4802
         4        4752        4753        4804        4803
         4        4753        4754        4805        4804
         4        4754        4755        4806        4805
         4        4755        4756        4807        4806
         4        4756        4757        4808        4807
         4        4757        4758        4809        4808
         4        4758        4759        4810        4809
         4        4759        4760        4811        4810
         4        4760        4761        4812        4811
         4        4761        4762        4813        4812
         4        4762        4763        4814        4813
         4        4763        4764        4815        4814
         4        4764        4765        4816        4815
         4        4765        4766        4817        4816
         4        4766        4767        4818        4817
         4        4767        4768        4819        4818
         4        4768        4769        4820        4819
         4        4769        4770        4821        4820
         4        4770        4771        4822        4821
         4        4771        4772        4823        4822
         4        4772        4773        4824        4823
         4        4773        4774        4825        4824
         4        4774        4775        4826        4825
         4        4775        4776        4827        4826
         4        4776        4777        4828        4827
         4        4777        4778        4829        4828
         4        4778        4779        4830        4829
         4        4779        4780        4831        4830
         4        4780        4781        4832        4831
         4        4781        4782        4833        4832
         4        4782        4783        4834        4833
         4        4783        4784        4835        4834
         4        4784        4785        4836        4835
         4        4785        4786        4837        4836
         4        4786        4787        4838        4837
         4        4787        4788        4839        4838
         4        4788        4789        4840        4839
         4        4789        4790        4841        4840
         4        4790        4791        4842        4841
         4        4791        4792        4843        4842
         4        4792        4793        4844        4843
         4        4794        4795        4846        4845
         4        4795        4796        4847        4846
         4        4796        4797        4848        4847
         4        4797        4798        4849        4848
         4        4798        4799        4850        4849
         4        4799        4800        4851        4850
         4        4800        4801        4852        4851
         4        4801        4802        4853        4852
         4        4802        4803        4854        4853
         4        4803        4804        4855        4854
         4        4804        4805        4856        4855
         4        4805        4806        4857        4856
         4        4806        4807        4858        4857
         4        4807        4808        4859        4858
         4        4808        4809        4860        4859
         4        4809        4810        4861        4860
         4        4810        4811        4862        4861
         4        4811        4812        4863        4862
         4        4812        4813        4864        4863
         4        4813        4814        4865        4864
         4        4814        4815        4866        4865
         4        4815        4816        4867        4866
         4        4816        4817        4868        4867
         4        4817        4818        4869        4868
         4        4818        4819        4870        4869
         4        4819        4820        4871        4870
         4        4820        4821        4872        4871
         4        4821        4822        4873        4872
         4        4822        4823        4874        4873
         4        4823        4824        4875        4874
         4        4824        4825        4876        4875
         4        4825        4826        4877        4876
         4        4826        4827        4878        4877
         4        4827        4828        4879        4878
         4        4828        4829        4880        4879
         4        4829        4830        4881        4880
         4        4830        4831        4882        4881
         4        4831        4832        4883        4882
         4        4832        4833        4884        4883
         4        4833        4834        4885        4884
         4        4834        4835        4886        4885
         4        4835        4836        4887        4886
         4        4836        4837        4888        4887
         4        4837        4838        4889        4888
         4        4838        4839        4890        4889
         4        4839        4840        4891        4890
         4        4840        4841        4892        4891
         4        4841        4842        4893        4892
         4        4842        4843        4894        4893
         4        4843        4844        4895        4894
         4        4845        4846        4897        4896
         4        4846        4847        4898        4897
         4        4847        4848        4899        4898
         4        4848        4849        4900        4899
         4        4849        4850        4901        4900
         4        4850        4851        4902        4901
         4        4851        4852        4903        4902
         4        4852        4853        4904        4903
         4        4853        4854        4905        4904
         4        4854        4855        4906        4905
         4        4855        4856        4907        4906
         4        4856        4857        4908        4907
         4        4857        4858        4909        4908
         4        4858        4859        4910        4909
         4        4859        4860        4911        4910
         4        4860        4861        4912        4911
         4        4861        4862        4913        4912
         4        4862        4863        4914        4913
         4        4863        4864        4915        4914
         4        4864        4865        4916        4915
         4        4865        4866        4917        4916
         4        4866        4867        4918        4917
         4        4867        4868        4919        4918
         4        4868        4869        4920        4919
         4        4869        4870        4921        4920
         4        4870        4871        4922        4921
         4        4871        4872        4923        4922
         4        4872        4873        4924        4923
         4        4873        4874        4925        4924
         4        4874        4875        4926        4925
         4        4875        4876        4927        4926
         4        4876        4877        4928        4927
         4        4877        4878        4929        4928
         4        4878        4879        4930        4929
         4        4879        4880        4931        4930
         4        4880        4881        4932        4931
         4        4881        4882        4933        4932
         4        4882        4883        4934        4933
         4        4883        4884        4935        4934
         4        4884        4885        4936        4935
         4        4885        4886        4937        4936
         4        4886        4887        4938        4937
         4        4887        4888        4939        4938
         4        4888        4889        4940        4939
         4        4889        4890        4941        4940
         4        4890        4891        4942        4941
         4        4891        4892        4943        4942
         4        4892        4893        4944        4943
         4        4893        4894        4945        4944
         4        4894        4895        4946        4945
         4        4896        4897        4948        4947
         4        4897        4898        4949        4948
         4        4898        4899        4950        4949
         4        4899        4900        4951        4950
         4        4900        4901        4952        4951
         4        4901        4902        4953        4952
         4        4902        4903        4954        4953
         4        4903        4904        4955        4954
         4        4904        4905        4956        4955
         4        4905        4906        4957        4956
         4        4906        4907        4958        4957
         4        4907        4908        4959        4958
         4        4908        4909        4960        4959
         4        4909        4910        4961        4960
         4        4910        4911        4962        4961
         4        4911        4912        4963        4962
         4        4912        4913        4964        4963
         4        4913        4914        4965        4964
         4        4914        4915        4966        4965
         4        4915        4916        4967        4966
         4        4916        4917        4968        4967
         4        4917        4918        4969        4968
         4        4918        4919        4970        4969
         4        4919        4920        4971        4970
         4        4920        4921        4972        4971
         4        4921        4922        4973        4972
         4        4922        4923        4974        4973
         4        4923        4924        4975        4974
         4        4924        4925        4976        4975
         4        4925        4926        4977        4976
         4        4926        4927        4978        4977
         4        4927        4928        4979        4978
         4        4928        4929        4980        4979
         4        4929        4930        4981        4980
         4        4930        4931        4982        4981
         4        4931        4932        4983        4982
         4        4932        4933        4984        4983
         4        4933        4934        4985        4984
         4        4934        4935        4986        4985
         4        4935        4936        4987        4986
         4        4936        4937        4988        4987
         4        4937        4938        4989        4988
         4        4938        4939        4990        4989
         4        4939        4940        4991        4990
         4        4940        4941        4992        4991
         4        4941        4942        4993        4992
         4        4942        4943        4994        4993
         4        4943        4944        4995        4994
         4        4944        4945        4996        4995
         4        4945        4946        4997        4996
         4        4947        4948        4999        4998
         4        4948        4949        5000        4999
         4        4949        4950        5001        5000
         4        4950        4951        5002        5001
         4        4951        4952        5003        5002
         4        4952        4953        5004        5003
         4        4953        4954        5005        5004
         4        4954        4955        5006        5005
         4        4955        4956        5007        5006
         4        4956        4957        5008        5007
         4        4957        4958        5009        5008
         4        4958        4959        5010        5009
         4        4959        4960        5011        5010
         4        4960        4961        5012        5011
         4        4961        4962        5013        5012
         4        4962        4963        5014        5013
         4        4963        4964        5015        5014
         4        4964        4965        5016        5015
         4        4965        4966        5017        5016
         4        4966        4967        5018        5017
         4        4967        4968        5019        5018
         4        4968        4969        5020        5019
         4        4969        4970        5021        5020
         4        4970        4971        5022        5021
         4        4971        4972        5023        5022
         4        4972        4973        5024        5023
         4        4973        4974        5025        5024
         4        4974        4975        5026        5025
         4        4975        4976        5027        5026
         4        4976        4977        5028        5027
         4        4977        4978        5029        5028
         4        4978        4979        5030        5029
         4        4979        4980        5031        5030
         4        4980        4981        5032        5031
         4        4981        4982        5033        5032
         4        4982        4983        5034        5033
         4        4983        4984        5035        5034
         4        4984        4985        5036        5035
         4        4985        4986        5037        5036
         4        4986        4987        5038        5037
         4        4987        4988        5039        5038
         4        4988        4989        5040        5039
         4        4989        4990        5041        5040
         4        4990        4991        5042        5041
         4        4991        4992        5043        5042
         4        4992        4993        5044        5043
         4        4993        4994        5045        5044
         4        4994        4995        5046        5045
         4        4995        4996        5047        5046
         4        4996        4997        5048        5047
         4        4998        4999        5050        5049
         4        4999        5000        5051        5050
         4        5000        5001        5052        5051
         4        5001        5002        5053        5052
         4        5002        5003        5054        5053
         4        5003        5004        5055        5054
         4        5004        5005        5056        5055
         4        5005        5006        5057        5056
         4        5006        5007        5058        5057
         4        5007        5008        5059        5058
         4        5008        5009        5060        5059
         4        5009        5010        5061        5060
         4        5010        5011        5062        5061
         4        5011        5012        5063        5062
         4        5012        5013        5064        5063
         4        5013        5014        5065        5064
         4        5014        5015        5066        5065
         4        5015        5016        5067        5066
         4        5016        5017        5068        5067
         4        5017        5018        5069        5068
         4        5018        5019        5070        5069
         4        5019        5020        5071        5070
         4        5020        5021        5072        5071
         4        5021        5022        5073        5072
         4        5022        5023        5074        5073
         4        5023        5024        5075        5074
         4        5024        5025        5076        5075
         4        5025        5026        5077        5076
         4        5026        5027        5078        5077
         4        5027        5028        5079        5078
         4        5028        5029        5080        5079
         4        5029        5030        5081        5080
         4        5030        5031        5082        5081
         4        5031        5032        5083        5082
         4        5032        5033        5084        5083
         4        5033        5034        5085        5084
         4        5034        5035        5086        5085
         4        5035        5036        5087        5086
         4        5036        5037        5088        5087
         4        5037        5038        5089        5088
         4        5038        5039        5090        5089
         4        5039        5040        5091        5090
         4        5040        5041        5092        5091
         4        5041        5042        5093        5092
         4        5042        5043        5094        5093
         4        5043        5044        5095        5094
         4        5044        5045        5096        5095
         4        5045        5046        5097        5096
         4        5046        5047        5098        5097
         4        5047        5048        5099        5098
         4        5049        5050        5101        5100
         4        5050        5051        5102        5101
         4        5051        5052        5103        5102
         4        5052        5053        5104        5103
         4        5053        5054        5105        5104
         4        5054        5055        5106        5105
         4        5055        5056        5107        5106
         4        5056        5057        5108        5107
         4        5057        5058        5109        5108
         4        5058        5059        5110        5109
         4        5059        5060        5111        5110
         4        5060        5061        5112        5111
         4        5061        5062        5113        5112
         4        5062        5063        5114        5113
         4        5063        5064        5115        5114
         4        5064        5065        5116        5115
         4        5065        5066        5117        5116
         4        5066        5067        5118        5117
         4        5067        5068        5119        5118
         4        5068        5069        5120        5119
         4        5069        5070        5121        5120
         4        5070        5071        5122        5121
         4        5071        5072        5123        5122
         4        5072        5073        5124        5123
         4        5073        5074        5125        5124
         4        5074        5075        5126        5125
         4        5075        5076        5127        5126
         4        5076        5077        5128        5127
         4        5077        5078        5129        5128
         4        5078        5079        5130        5129
         4        5079        5080        5131        5130
         4        5080        5081        5132        5131
         4        5081        5082        5133        5132
         4        5082        5083        5134        5133
         4        5083        5084        5135        5134
         4        5084        5085        5136        5135
         4        5085        5086        5137        5136
         4        5086        5087        5138        5137
         4        5087        5088        5139        5138
         4        5088        5089        5140        5139
         4        5089        5090        5141        5140
         4        5090        5091        5142        5141
         4        5091        5092        5143        5142
         4        5092        5093        5144        5143
         4        5093        5094        5145        5144
         4        5094        5095        5146        5145
         4        5095        5096        5147        5146
         4        5096        5097        5148        5147
         4        5097        5098        5149        5148
         4        5098        5099        5150        5149
CELL_TYPES       5000
9
9
9
9
9
9
9
9
9
9
9
9
9
9
9
9
9
9
9
9
9
9
9
9
9
9
9
9
9
9
9
9
9
9
9
9
9
9
9
9
9
9
9
9
9
9
9
9
9
9
9
9
9
9
9
9
9
9
9
9
9
9
9
9
9
9
9
9
9
9
9
9
9
9
9
9
9
9
9
9
9
9
9
9
9
9
9
9
9
9
9
9
9
9
9
9
9
9
9
9
9
9
9
9
9
9
9
9
9
9
9
9
9
9
9
9
9
9
9
9
9
9
9
9
9
9
9
9
9
9
9
9
9
9
9
9
9
9
9
9
9
9
9
9
9
9
9
9
9
9
9
9
9
9
9
9
9
9
9
9
9
9
9
9
9
9
9
9
9
9
9
9
9
9
9
9
9
9
9
9
9
9
9
9
9
9
9
9
9
9
9
9
9
9
9
9
9
9
9
9
9
9
9
9
9
9
9
9
9
9
9
9
9
9
9
9
9
9
9
9
9
9
9
9
9
9
9
9
9
9
9
9
9
9
9
9
9
9
9
9
9
9
9
9
9
9
9
9
9
9
9
9
9
9
9
9
9
9
9
9
9
9
9
9
9
9
9
9
9
9
9
9
9
9
9
9
9
9
9
9
9
9
9
9
9
9
9
9
9
9
9
9
9
9
9
9
9
9
9
9
9
9
9
9
9
9
9
9
9
9
9
9
9
9
9
9
9
9
9
9
9
9
9
9
9
9
9
9
9
9
9
9
9
9
9
9
9
9
9
9
9
9
9
9
9
9
9
9
9
9
9
9
9
9
9
9
9
9
9
9
9
9
9
9
9
9
9
9
9
9
9
9
9
9
9
9
9
9
9
9
9
9
9
9
9
9
9
9
9
9
9
9
9
9
9
9
9
9
9
9
9
9
9
9
9
9
9
9
9
9
9
9
9
9
9
9
9
9
9
9
9
9
9
9
9
9
9
9
9
9
9
9
9
9
9
9
9
9
9
9
9
9
9
9
9
9
9
9
9
9
9
9
9
9
9
9
9
9
9
9
9
9
9
9
9
9
9
9
9
9
9
9
9
9
9
9
9
9
9
9
9
9
9
9
9
9
9
9
9
9
9
9
9
9
9
9
9
9
9
9
9
9
9
9
9
9
9
9
9
9
9
9
9
9
9
9
9
9
9
9
9
9
9
9
9
9
9
9
9
9
9
9
9
9
9
9
9
9
9
9
9
9
9
9
9
9
9
9
9
9
9
9
9
9
9
9
9
9
9
9
9
9
9
9
9
9
9
9
9
9
9
9
9
9
9
9
9
9
9
9
9
9
9
9
9
9
9
9
9
9
9
9
9
9
9
9
9
9
9
9
9
9
9
9
9
9
9
9
9
9
9
9
9
9
9
9
9
9
9
9
9
9
9
9
9
9
9
9
9
9
9
9
9
9
9
9
9
9
9
9
9
9
9
9
9
9
9
9
9
9
9
9
9
9
9
9
9
9
9
9
9
9
9
9
9
9
9
9
9
9
9
9
9
9
9
9
9
9
9
9
9
9
9
9
9
9
9
9
9
9
9
9
9
9
9
9
9
9
9
9
9
9
9
9
9
9
9
9
9
9
9
9
9
9
9
9
9
9
9
9
9
9
9
9
9
9
9
9
9
9
9
9
9
9
9
9
9
9
9
9
9
9
9
9
9
9
9
9
9
9
9
9
9
9
9
9
9
9
9
9
9
9
9
9
9
9
9
9
9
9
9
9
9
9
9
9
9
9
9
9
9
9
9
9
9
9
9
9
9
9
9
9
9
9
9
9
9
9
9
9
9
9
9
9
9
9
9
9
9
9
9
9
9
9
9
9
9
9
9
9
9
9
9
9
9
9
9
9
9
9
9
9
9
9
9
9
9
9
9
9
9
9
9
9
9
9
9
9
9
9
9
9
9
9
9
9
9
9
9
9
9
9
9
9
9
9
9
9
9
9
9
9
9
9
9
9
9
9
9
9
9
9
9
9
9
9
9
9
9
9
9
9
9
9
9
9
9
9
9
9
9
9
9
9
9
9
9
9
9
9
9
9
9
9
9
9
9
9
9
9
9
9
9
9
9
9
9
9
9
9
9
9
9
9
9
9
9
9
9
9
9
9
9
9
9
9
9
9
9
9
9
9
9
9
9
9
9
9
9
9
9
9
9
9
9
9
9
9
9
9
9
9
9
9
9
9
9
9
9
9
9
9
9
9
9
9
9
9
9
9
9
9
9
9
9
9
9
9
9
9
9
9
9
9
9
9
9
9
9
9
9
9
9
9
9
9
9
9
9
9
9
9
9
9
9
9
9
9
9
9
9
9
9
9
9
9
9
9
9
9
9
9
9
9
9
9
9
9
9
9
9
9
9
9
9
9
9
9
9
9
9
9
9
9
9
9
9
9
9
9
9
9
9
9
9
9
9
9
9
9
9
9
9
9
9
9
9
9
9
9
9
9
9
9
9
9
9
9
9
9
9
9
9
9
9
9
9
9
9
9
9
9
9
9
9
9
9
9
9
9
9
9
9
9
9
9
9
9
9
9
9
9
9
9
9
9
9
9
9
9
9
9
9
9
9
9
9
9
9
9
9
9
9
9
9
9
9
9
9
9
9
9
9
9
9
9
9
9
9
9
9
9
9
9
9
9
9
9
9
9
9
9
9
9
9
9
9
9
9
9
9
9
9
9
9
9
9
9
9
9
9
9
9
9
9
9
9
9
9
9
9
9
9
9
9
9
9
9
9
9
9
9
9
9
9
9
9
9
9
9
9
9
9
9
9
9
9
9
9
9
9
9
9
9
9
9
9
9
9
9
9
9
9
9
9
9
9
9
9
9
9
9
9
9
9
9
9
9
9
9
9
9
9
9
9
9
9
9
9
9
9
9
9
9
9
9
9
9
9
9
9
9
9
9
9
9
9
9
9
9
9
9
9
9
9
9
9
9
9
9
9
9
9
9
9
9
9
9
9
9
9
9
9
9
9
9
9
9
9
9
9
9
9
9
9
9
9
9
9
9
9
9
9
9
9
9
9
9
9
9
9
9
9
9
9
9
9
9
9
9
9
9
9
9
9
9
9
9
9
9
9
9
9
9
9
9
9
9
9
9
9
9
9
9
9
9
9
9
9
9
9
9
9
9
9
9
9
9
9
9
9
9
9
9
9
9
9
9
9
9
9
9
9
9
9
9
9
9
9
9
9
9
9
9
9
9
9
9
9
9
9
9
9
9
9
9
9
9
9
9
9
9
9
9
9
9
9
9
9
9
9
9
9
9
9
9
9
9
9
9
9
9
9
9
9
9
9
9
9
9
9
9
9
9
9
9
9
9
9
9
9
9
9
9
9
9
9
9
9
9
9
9
9
9
9
9
9
9
9
9
9
9
9
9
9
9
9
9
9
9
9
9
9
9
9
9
9
9
9
9
9
9
9
9
9
9
9
9
9
9
9
9
9
9
9
9
9
9
9
9
9
9
9
9
9
9
9
9
9
9
9
9
9
9
9
9
9
9
9
9
9
9
9
9
9
9
9
9
9
9
9
9
9
9
9
9
9
9
9
9
9
9
9
9
9
9
9
9
9
9
9
9
9
9
9
9
9
9
9
9
9
9
9
9
9
9
9
9
9
9
9
9
9
9
9
9
9
9
9
9
9
9
9
9
9
9
9
9
9
9
9
9
9
9
9
9
9
9
9
9
9
9
9
9
9
9
9
9
9
9
9
9
9
9
9
9
9
9
9
9
9
9
9
9
9
9
9
9
9
9
9
9
9
9
9
9
9
9
9
9
9
9
9
9
9
9
9
9
9
9
9
9
9
9
9
9
9
9
9
9
9
9
9
9
9
9
9
9
9
9
9
9
9
9
9
9
9
9
9
9
9
9
9
9
9
9
9
9
9
9
9
9
9
9
9
9
9
9
9
9
9
9
9
9
9
9
9
9
9
9
9
9
9
9
9
9
9
9
9
9
9
9
9
9
9
9
9
9
9
9
9
9
9
9
9
9
9
9
9
9
9
9
9
9
9
9
9
9
9
9
9
9
9
9
9
9
9
9
9
9
9
9
9
9
9
9
9
9
9
9
9
9
9
9
9
9
9
9
9
9
9
9
9
9
9
9
9
9
9
9
9
9
9
9
9
9
9
9
9
9
9
9
9
9
9
9
9
9
9
9
9
9
9
9
9
9
9
9
9
9
9
9
9
9
9
9
9
9
9
9
9
9
9
9
9
9
9
9
9
9
9
9
9
9
9
9
9
9
9
9
9
9
9
9
9
9
9
9
9
9
9
9
9
9
9
9
9
9
9
9
9
9
9
9
9
9
9
9
9
9
9
9
9
9
9
9
9
9
9
9
9
9
9
9
9
9
9
9
9
9
9
9
9
9
9
9
9
9
9
9
9
9
9
9
9
9
9
9
9
9
9
9
9
9
9
9
9
9
9
9
9
9
9
9
9
9
9
9
9
9
9
9
9
9
9
9
9
9
9
9
9
9
9
9
9
9
9
9
9
9
9
9
9
9
9
9
9
9
9
9
9
9
9
9
9
9
9
9
9
9
9
9
9
9
9
9
9
9
9
9
9
9
9
9
9
9
9
9
9
9
9
9
9
9
9
9
9
9
9
9
9
9
9
9
9
9
9
9
9
9
9
9
9
9
9
9
9
9
9
9
9
9
9
9
9
9
9
9
9
9
9
9
9
9
9
9
9
9
9
9
9
9
9
9
9
9
9
9
9
9
9
9
9
9
9
9
9
9
9
9
9
9
9
9
9
9
9
9
9
9
9
9
9
9
9
9
9
9
9
9
9
9
9
9
9
9
9
9
9
9
9
9
9
9
9
9
9
9
9
9
9
9
9
9
9
9
9
9
9
9
9
9
9
9
9
9
9
9
9
9
9
9
9
9
9
9
9
9
9
9
9
9
9
9
9
9
9
9
9
9
9
9
9
9
9
9
9
9
9
9
9
9
9
9
9
9
9
9
9
9
9
9
9
9
9
9
9
9
9
9
9
9
9
9
9
9
9
9
9
9
9
9
9
9
9
9
9
9
9
9
9
9
9
9
9
9
9
9
9
9
9
9
9
9
9
9
9
9
9
9
9
9
9
9
9
9
9
9
9
9
9
9
9
9
9
9
9
9
9
9
9
9
9
9
9
9
9
9
9
9
9
9
9
9
9
9
9
9
9
9
9
9
9
9
9
9
9
9
9
9
9
9
9
9
9
9
9
9
9
9
9
9
9
9
9
9
9
9
9
9
9
9
9
9
9
9
9
9
9
9
9
9
9
9
9
9
9
9
9
9
9
9
9
9
9
9
9
9
9
9
9
9
9
9
9
9
9
9
9
9
9
9
9
9
9
9
9
9
9
9
9
9
9
9
9
9
9
9
9
9
9
9
9
9
9
9
9
9
9
9
9
9
9
9
9
9
9
9
9
9
9
9
9
9
9
9
9
9
9
9
9
9
9
9
9
9
9
9
9
9
9
9
9
9
9
9
9
9
9
9
9
9
9
9
9
9
9
9
9
9
9
9
9
9
9
9
9
9
9
9
9
9
9
9
9
9
9
9
9
9
9
9
9
9
9
9
9
9
9
9
9
9
9
9
9
9
9
9
9
9
9
9
9
9
9
9
9
9
9
9
9
9
9
9
9
9
9
9
9
9
9
9
9
9
9
9
9
9
9
9
9
9
9
9
9
9
9
9
9
9
9
9
9
9
9
9
9
9
9
9
9
9
9
9
9
9
9
9
9
9
9
9
9
9
9
9
9
9
9
9
9
9
9
9
9
9
9
9
9
9
9
9
9
9
9
9
9
9
9
9
9
9
9
9
9
9
9
9
9
9
9
9
9
9
9
9
9
9
9
9
9
9
9
9
9
9
9
9
9
9
9
9
9
9
9
9
9
9
9
9
9
9
9
9
9
9
9
9
9
9
9
9
9
9
9
9
9
9
9
9
9
9
9
9
9
9
9
9
9
9
9
9
9
9
9
9
9
9
9
9
9
9
9
9
9
9
9
9
9
9
9
9
9
9
9
9
9
9
9
9
9
9
9
9
9
9
9
9
9
9
9
9
9
9
9
9
9
9
9
9
9
9
9
9
9
9
9
9
9
9
9
9
9
9
9
9
9
9
9
9
9
9
9
9
9
9
9
9
9
9
9
9
9
9
9
9
9
9
9
9
9
9
9
9
9
9
9
9
9
9
9
9
9
9
9
9
9
9
9
9
9
9
9
9
9
9
9
9
9
9
9
9
9
9
9
9
9
9
9
9
9
9
9
9
9
9
9
9
9
9
9
9
9
9
9
9
9
9
9
9
9
9
9
9
9
9
9
9
9
9
9
9
9
9
9
9
9
9
9
9
9
9
9
9
9
9
9
9
9
9
9
9
9
9
9
9
9
9
9
9
9
9
9
9
9
9
9
9
9
9
9
9
9
9
9
9
9
9
9
9
9
9
9
9
9
9
9
9
9
9
9
9
9
9
9
9
9
9
9
9
9
9
9
9
9
9
9
9
9
9
9
9
9
9
9
9
9
9
9
9
9
9
9
9
9
9
9
9
9
9
9
9
9
9
9
9
9
9
9
9
9
9
9
9
9
9
9
9
9
9
9
9
9
9
9
9
9
9
9
9
9
9
9
9
9
9
9
9
9
9
9
9
9
9
9
9
9
9
9
9
9
9
9
9
9
9
9
9
9
9
9
9
9
9
9
9
9
9
9
9
9
9
9
9
9
9
9
9
9
9
9
9
9
9
9
9
9
9
9
9
9
9
9
9
9
9
9
9
9
9
9
9
9
9
9
9
9
9
9
9
9
9
9
9
9
9
9
9
9
9
9
9
9
9
9
9
9
9
9
9
9
9
9
9
9
9
9
9
9
9
9
9
9
9
9
9
9
9
9
9
9
9
9
9
9
9
9
9
9
9
9
9
9
9
9
9
9
9
9
9
9
9
9
9
9
9
9
9
9
9
9
9
9
9
9
9
9
9
9
9
9
9
9
9
9
9
9
9
9
9
9
9
9
9
9
9
9
9
9
9
9
9
9
9
9
9
9
9
9
9
9
9
9
9
9
9
9
9
9
9
9
9
9
9
9
9
9
9
9
9
9
9
9
9
9
9
9
9
9
9
9
9
9
9
9
9
9
9
9
9
9
9
9
9
9
9
9
9
9
9
9
9
9
9
9
9
9
9
9
9
9
9
9
9
9
9
9
9
9
9
9
9
9
9
9
9
9
9
9
9
9
9
9
9
9
9
9
9
9
9
9
9
9
9
9
9
9
9
9
9
9
9
9
9
9
9
9
9
9
9
9
9
9
9
9
9
9
9
9
9
9
9
9
9
9
9
9
9
9
9
9
9
9
9
9
9
9
9
9
9
9
9
9
9
9
9
9
9
9
9
9
9
9
9
9
9
9
9
9
9
9
9
9
9
9
9
9
9
9
9
9
9
9
9
9
9
9
9
9
9
9
9
9
9
9
9
9
9
9
9
9
9
9
9
9
9
9
9
9
9
9
9
9
9
9
9
9
9
9
9
9
9
9
9
9
9
9
9
9
9
9
9
9
9
9
9
9
9
9
9
9
9
9
9
9
9
9
9
9
9
9
9
9
9
9
9
9
9
9
9
9
9
9
9
9
9
9
9
9
9
9
9
9
9
9
9
9
9
9
9
9
9
9
9
9
9
9
9
9
9
9
9
9
9
9
9
9
9
9
9
9
9
9
9
9
9
9
9
9
9
9
9
9
9
9
9
9
9
9
9
9
9
9
9
9
9
9
9
9
9
9
9
9
9
9
9
9
9
9
9
9
9
9
9
9
9
9
9
9
9
9
9
9
9
9
9
9
9
9
9
9
9
9
9
9
9
9
9
9
9
9
9
9
9
9
9
9
9
9
9
9
9
9
9
9
9
9
9
9
9
9
9
9
9
9
9
9
9
9
9
9
9
9
9
9
9
9
9
9
9
9
9
9
9
9
9
9
9
9
9
9
9
9
9
9
9
9
9
9
9
9
9
9
9
9
9
9
9
9
9
9
9
9
9
9
9
9
9
9
9
9
9
9
9
9
9
9
9
9
9
9
9
9
9
9
9
9
9
9
9
9
9
9
9
9
9
9
9
9
9
9
9
9
9
9
9
9
9
9
9
9
9
9
9
9
9
9
9
9
9
9
9
9
9
9
9
9
9
9
9
9
9
9
9
9
9
9
9
9
9
9
9
9
9
9
9
9
9
9
9
9
9
9
9
9
9
9
9
9
9
9
9
9
9
9
9
9
9
9
9
9
9
9
9
9
9
9
9
9
9
9
9
9
9
9
9
9
9
9
9
9
9
9
9
9
9
9
9
9
9
9
9
9
9
9
9
9
9
9
9
9
9
9
9
9
9
9
9
9
9
9
9
9
9
9
9
9
9
9
9
9
9
9
9
9
9
9
9
9
9
9
9
9
9
9
9
9
9
9
9
9
9
9
9
9
9
9
9
9
9
9
9
9
9
9
9
9
9
9
9
9
9
9
9
9
9
9
9
9
9
9
9
9
9
9
9
9
9
9
9
9
9
9
9
9
9
9
9
9
9
9
9
9
9
9
9
9
9
9
9
9
9
9
9
9
9
9
9
9
9
9
9
9
9
9
9
9
9
9
9
9
9
9
9
9
9
9
9
9
9
9
9
9
9
9
9
9
9
9
9
9
9
9
9
9
9
9
9
9
9
9
9
9
9
9
9
9
9
9
9
9
9
9
9
9
9
9
9
9
9
9
9
9
9
9
9
9
9
9
9
9
9
9
9
9
9
9
9
9
9
9
9
9
9
9
9
9
9
9
9
9
9
9
9
9
9
9
9
9
9
9
9
9
9
9
9
9
9
9
9
9
9
9
9
9
9
9
9
9
9
9
9
9
9
9
9
9
9
9
9
9
9
9
9
9
9
9
9
9
9
9
9
9
9
9
9
9
9
9
9
9
9
9
9
9
9
9
9
9
9
9
9
9
9
9
9
9
9
9
9
9
9
9
9
9
9
9
9
9
9
9
9
9
9
9
9
9
9
9
9
9
9
9
9
9
9
9
9
9
9
9
9
9
9
9
9
9
9
9
9
9
9
9
9
9
9
9
9
9
9
9
9
9
9
9
9
9
9
9
9
9
9
9
9
9
9
9
9
9
9
9
9
9
9
9
9
9
9
9
9
9
9
9
9
9
9
9
9
9
9
9
9
9
9
9
9
9
9
9
9
9
9
9
9
9
9
9
9
9
9
9
9
9
9
9
9
9
9
9
9
9
9
9
9
9
9
9
9
9
9
9
9
9
9
9
9
9
9
9
9
9
9
9
9
9
9
9
9
9
9
9
9
9
9
9
9
9
9
9
9
9
9
9
9
9
9
9
9
9
9
9
9
9
9
9
9
9
9
9
9
9
9
9
9
9
9
9
9
9
9
9
9
9
9
9
9
9
9
9
9
9
9
9
9
9
9
9
9
9
9
9
9
9
9
9
9
9
9
9
9
9
9
9
9
9
9
9
9
9
9
9
9
9
9
9
9
9
9
9
9
9
9
9
9
9
9
9
9
9
9
9
9
9
9
9
9
9
9
9
9
9
9
9
9
9
9
9
9
9
9
9
9
9
9
9
9
9
9
9
9
9
9
9
9
9
9
9
9
9
9
9
9
9
9
9
9
9
9
9
9
9
9
9
9
9
9
9
9
9
9
9
9
9
9
9
9
9
9
9
9
9
9
9
9
9
9
9
9
9
9
9
9
9
9
9
9
9
9
9
9
9
9
9
9
9
9
9
9
9
9
9
9
9
9
9
9
9
9
9
9
9
9
9
9
9
9
9
9
9
9
9
9
9
9
9
9
9
9
9
9
9
9
9
9
9
9
9
9
9
9
9
9
9
9
9
9
9
9
9
9
9
9
9
9
9
9
9
9
9
9
9
9
9
9
9
9
9
9
9
9
9
9
9
9
9
9
9
9
9
9
9
9
9
9
9
9
9
9
9
9
9
9
9
9
9
9
9
9
9
9
9
9
9
9
9
9
9
9
9
9
9
9
9
9
9
9
9
9
9
9
9
9
9
9
9
9
9
9
9
9
9
9
9
9
9
9
9
9
9
9
9
9
9
9
9
9
9
9
9
9
9
9
9
9
9
9
9
9
9
9
9
9
9
9
9
9
9
9
9
9
9
9
9
9
9
9
9
9
9
9
9
9
9
9
9
9
9
9
9
9
9
9
9
9
9
9
9
9
9
9
9
9
9
9
9
9
9
9
9
9
9
9
9
9
9
9
9
9
9
9
9
9
9
9
9
9
9
9
9
9
9
9
9
9
9
9
9
9
9
9
9
9
9
9
9
9
9
9
9
9
9
9
9
9
9
9
9
9
9
9
9
9
9
9
9
9
9
9
9
9
9
9
9
9
9
9
9
9
9
9
9
9
9
9
9
9
9
9
9
9
9
9
9
9
9
9
9
9
9
9
9
9
9
9
9
9
9
9
9
9
9
9
9
9
9
9
9
9
9
9
9
9
9
9
9
9
9
9
9
9
9
9
9
9
9
9
9
9
9
9
9
9
9
9
9
9
9
9
9
9
9
9
9
9
9
9
9
9
9
9
9
9
9
9
9
9
9
9
9
9
9
9
9
9
9
9
9
9
9
9
9
9
9
9
9
9
9
9
9
9
9
9
9
9
9
9
9
9
9
9
9
9
9
9
9
9
9
9
9
9
9
9
9
9
9
9
9
9
9
9
9
9
9
9
9
9
9
9
9
9
9
9
9
9
9
9
9
9
9
9
9
9
9
9
9
9
9
9
9
9
9
9
9
9
9
9
9
9
9
9
9
9
9
9
9
9
9
9
9
9
9
9
9
9
9
9
9
9
9
9
9
9
9
9
9
9
9
9
9
9
9
9
9
9
9
9
9
9
9
9
9
9
9
9
9
9
9
9
9
9
9
9
9
9
9
9
9
9
9
9
9
9
9
9
9
9
9
9
9
9
9
9
9
9
9
9
9
9
9
9
9
9
9
9
9
9
9
9
9
9
9
9
9
9
9
9
9
9
9
9
9
9
9
9
9
9
9
9
9
9
9
9
9
9
9
9
9
9
9
9
9
9
9
9
9
9
9
9
9
9
9
9
9
9
9
9
9
9
9
9
9
9
9
9
9
9
9
9
9
9
9
9
9
9
9
9
9
9
9
9
9
9
9
9
9
9
9
9
9
9
9
9
9
9
9
9
9
9
9
9
9
9
9
9
9
9
9
9
9
9
9
9
9
9
9
9
9
9
9
9
POINT_DATA      5151
SCALARS p double 
LOOKUP_TABLE default
   70000000.0000000     
   70000000.0000000     
   70000000.0000000     
   70000000.0000000     
   70000000.0000000     
   70000000.0000000     
   70000000.0000000     
   70000000.0000000     
   70000000.0000000     
   70000000.0000000     
   70000000.0000000     
   70000000.0000000     
   70000000.0000000     
   70000000.0000000     
   70000000.0000000     
   70000000.0000000     
   70000000.0000000     
   70000000.0000000     
   70000000.0000000     
   70000000.0000000     
   70000000.0000000     
   70000000.0000000     
   70000000.0000000     
   70000000.0000000     
   70000000.0000000     
   70000000.0000000     
   70000000.0000000     
   70000000.0000000     
   70000000.0000000     
   70000000.0000000     
   70000000.0000000     
   70000000.0000000     
   70000000.0000000     
   70000000.0000000     
   70000000.0000000     
   70000000.0000000     
   70000000.0000000     
   70000000.0000000     
   70000000.0000000     
   70000000.0000000     
   70000000.0000000     
   70000000.0000000     
   70000000.0000000     
   70000000.0000000     
   70000000.0000000     
   70000000.0000000     
   70000000.0000000     
   70000000.0000000     
   70000000.0000000     
   70000000.0000000     
   70000000.0000000     
   69335131.0361866     
   69335011.1856887     
   69334660.0880662     
   69334117.3100407     
   69333420.1193415     
   69332591.9481679     
   69331665.8044259     
   69330662.5452789     
   69329601.6407875     
   69328501.4919289     
   69327379.3372966     
   69326251.1300472     
   69325131.4344018     
   69324033.5144719     
   69322969.4218936     
   69321949.4872316     
   69320982.1652382     
   69320074.3992496     
   69319231.3695639     
   69318456.4489730     
   69317751.2852670     
   69317116.5544407     
   69316553.1153720     
   69316062.4583570     
   69315645.4048484     
   69315301.2501113     
   69315028.7721913     
   69314826.4783489     
   69314692.3493178     
   69314623.9960801     
   69314618.7779673     
   69314673.8874281     
   69314786.5306307     
   69314954.0343062     
   69315173.6730127     
   69315442.3335190     
   69315755.6551156     
   69316108.5979220     
   69316496.5162609     
   69316914.4636550     
   69317356.8787254     
   69317817.6871063     
   69318290.1179610     
   69318766.3777529     
   69319237.2541994     
   69319691.6464487     
   69320115.9036849     
   69320493.1268618     
   69320801.7844267     
   69321013.5685549     
   69321090.7156364     
   68671598.9585681     
   68671477.1816406     
   68671121.6392087     
   68670550.0749643     
   68669784.4176469     
   68668847.4366607     
   68667760.0961859     
   68666547.6090989     
   68665235.3588893     
   68663847.8420751     
   68662408.3344691     
   68660938.4963187     
   68659458.1774608     
   68657985.6564860     
   68656537.5654413     
   68655128.7273650     
   68653772.1849763     
   68652479.3265833     
   68651260.0524017     
   68650122.8685453     
   68649074.9407908     
   68648121.9026319     
   68647267.7830862     
   68646515.1983307     
   68645865.6065078     
   68645319.3826370     
   68644875.7852158     
   68644533.6962170     
   68644291.8065498     
   68644147.8019260     
   68644098.4696065     
   68644140.1680574     
   68644268.6965695     
   68644479.1907985     
   68644766.3396938     
   68645124.4562424     
   68645547.5204543     
   68646029.1257033     
   68646562.4737450     
   68647139.9573036     
   68647752.2954476     
   68648388.7461771     
   68649037.2290525     
   68649684.1279870     
   68650314.1527016     
   68650909.9334419     
   68651451.7945571     
   68651917.5503305     
   68652282.5970880     
   68652520.4196687     
   68652603.9803589     
   68015428.2020546     
   68015320.2009512     
   68015010.0583900     
   68014523.1585891     
   68013873.7325050     
   68013071.9164332     
   68012133.0363609     
   68011074.5578598     
   68009914.0176700     
   68008669.1585510     
   68007357.5810442     
   68005996.4646268     
   68004602.3791599     
   68003191.1287747     
   68001777.7690057     
   68000376.6741722     
   67999001.5572960     
   67997665.4763001     
   67996380.7724414     
   67995158.9620226     
   67994010.5886720     
   67992945.0911254     
   67991970.6341176     
   67991093.9450008     
   67990320.2834646     
   67989653.5136231     
   67989096.1900671     
   67988649.5055053     
   67988313.2897422     
   67988086.0846403     
   67987965.2700617     
   67987947.0698003     
   67988026.8055960     
   67988199.4083848     
   67988459.0400786     
   67988798.9741957     
   67989211.9803650     
   67989690.1958075     
   67990224.9594672     
   67990806.8284585     
   67991425.7486977     
   67992071.0637093     
   67992729.9120038     
   67993386.4042635     
   67994023.0008635     
   67994620.9807674     
   67995160.2689711     
   67995619.5721448     
   67995976.4747761     
   67996207.6254790     
   67996288.6311326     
   67370344.3600459     
   67370278.6434766     
   67370082.3680113     
   67369760.5155402     
   67369318.7801894     
   67368765.9827482     
   67368111.7962890     
   67367365.0648145     
   67366533.6078005     
   67365624.6520599     
   67364645.4020806     
   67363603.4695963     
   67362507.1770228     
   67361365.7022600     
   67360189.1401075     
   67358988.4893482     
   67357775.5292067     
   67356562.5915329     
   67355362.3948143     
   67354187.8728363     
   67353051.9179973     
   67351967.1459162     
   67350945.6100952     
   67349998.5020239     
   67349135.8330717     
   67348366.1530372     
   67347696.3556283     
   67347131.5122067     
   67346674.7776869     
   67346327.4329362     
   67346088.9804615     
   67345957.3142111     
   67345928.8771834     
   67345998.7211019     
   67346160.6375215     
   67346407.3689606     
   67346730.5409826     
   67347120.9658231     
   67347569.1178233     
   67348065.0676432     
   67348598.3953964     
   67349158.0742105     
   67349732.7723008     
   67350309.8213867     
   67350873.0864170     
   67351404.0888132     
   67351883.8210861     
   67352292.6443447     
   67352610.3319210     
   67352816.0289309     
   67352888.1418873     
   66739349.2768411     
   66739326.6339227     
   66739253.5808575     
   66739127.4963253     
   66738947.1043375     
   66738708.6248086     
   66738406.1328627     
   66738033.1221913     
   66737583.9205931     
   66737054.3972993     
   66736442.3709847     
   66735747.8149948     
   66734972.8169727     
   66734121.6705712     
   66733200.7817036     
   66732218.2973271     
   66731183.8687992     
   66730108.4844927     
   66729004.3639526     
   66727884.8173860     
   66726763.9711277     
   66725656.4576789     
   66724577.1456771     
   66723540.7758112     
   66722561.5493908     
   66721652.6908664     
   66720825.9189019     
   66720091.0524747     
   66719455.7360917     
   66718925.2311930     
   66718502.3625619     
   66718187.5872690     
   66717979.1636399     
   66717873.3929288     
   66717864.8886988     
   66717946.8298693     
   66718111.2085696     
   66718348.9174894     
   66718649.7061505     
   66719002.3944967     
   66719395.2081382     
   66719816.6499353     
   66720255.8325283     
   66720702.0335777     
   66721144.2108412     
   66721568.0626625     
   66721955.9579559     
   66722289.8222216     
   66722551.2707362     
   66722721.4123529     
   66722781.2181316     
   66124854.3697171     
   66124882.4528601     
   66124954.2344310     
   66125052.4463707     
   66125146.9743292     
   66125206.7101731     
   66125206.1371142     
   66125126.6793462     
   66124954.8534853     
   66124681.9213391     
   66124303.4409914     
   66123818.5262351     
   66123229.3764275     
   66122539.9982643     
   66121755.3083854     
   66120881.4321471     
   66119926.0371406     
   66118898.4597456     
   66117809.7399646     
   66116672.4724463     
   66115500.5121733     
   66114308.7536575     
   66113112.8039489     
   66111928.8630201     
   66110773.4608030     
   66109662.8046005     
   66108612.2333176     
   66107635.6882914     
   66106745.2972505     
   66105951.0332432     
   66105260.3762477     
   66104678.0426986     
   66104205.8906789     
   66103843.0708240     
   66103586.2885689     
   66103430.0614447     
   66103367.0228303     
   66103388.2931944     
   66103483.8164726     
   66103642.6206895     
   66103853.0373837     
   66104102.7694191     
   66104379.1853344     
   66104670.5841861     
   66104966.6253068     
   66105257.5928700     
   66105531.9752255     
   66105774.5754448     
   66105968.4637751     
   66106096.7444517     
   66106142.3495211     
   65528918.6589341     
   65529002.6458113     
   65529189.2618288     
   65529391.5166202     
   65529554.6733911     
   65529651.2525173     
   65529664.8550586     
   65529582.2937071     
   65529396.6763104     
   65529104.0467347     
   65528702.3874615     
   65528192.2933848     
   65527574.2619380     
   65526849.3414040     
   65526021.0362159     
   65525094.4111574     
   65524075.8997629     
   65522973.2925722     
   65521795.0184934     
   65520550.3003951     
   65519250.1996547     
   65517907.5523824     
   65516536.7140440     
   65515152.5766460     
   65513769.8399034     
   65512403.7034291     
   65511070.0842060     
   65509785.5501131     
   65508566.5942304     
   65507428.5639674     
   65506384.9224859     
   65505446.7372641     
   65504622.1679239     
   65503915.8242308     
   65503328.3590133     
   65502856.8056748     
   65502495.2460846     
   65502235.4510078     
   65502067.6002942     
   65501980.9056422     
   65501964.0777646     
   65502005.4629219     
   65502093.0783639     
   65502214.4299044     
   65502356.9023124     
   65502508.8768347     
   65502660.4857557     
   65502801.9092601     
   65502920.7158935     
   65503002.4928683     
   65503032.2881666     
   64951712.5738339     
   64951722.7691446     
   64951709.0170921     
   64951613.9087996     
   64951428.3844953     
   64951163.4788124     
   64950826.0624402     
   64950414.2789752     
   64949929.5450887     
   64949379.5098528     
   64948763.9214399     
   64948063.1370844     
   64947259.2911165     
   64946348.2177583     
   64945335.3970908     
   64944232.8855521     
   64943050.4765165     
   64941792.4420649     
   64940462.8688385     
   64939066.9973387     
   64937609.5114991     
   64936097.3194971     
   64934538.5081097     
   64932941.6531524     
   64931317.4999433     
   64929678.4825405     
   64928039.8734324     
   64926418.8296562     
   64924833.7872026     
   64923304.5136215     
   64921850.6493806     
   64920490.3355765     
   64919238.8383718     
   64918107.5993840     
   64917104.3232974     
   64916232.5302559     
   64915491.3397488     
   64914876.1930235     
   64914379.5853707     
   64913991.9771366     
   64913702.1227058     
   64913497.6832579     
   64913365.8197135     
   64913293.5669181     
   64913268.0541194     
   64913276.6236439     
   64913307.3178006     
   64913349.7020987     
   64913394.5265480     
   64913430.8377853     
   64913445.2870383     
   64388141.0172208     
   64388051.0464194     
   64387814.9599139     
   64387468.0389213     
   64387028.1658086     
   64386505.6539254     
   64385908.7055255     
   64385244.0812691     
   64384513.9788429     
   64383714.4479711     
   64382834.1093362     
   64381869.8484928     
   64380827.0178342     
   64379703.5803939     
   64378488.8765907     
   64377184.8790945     
   64375814.7049437     
   64374392.2690626     
   64372918.9721940     
   64371399.8201426     
   64369838.4613944     
   64368219.1527616     
   64366523.1912627     
   64364751.0200481     
   64362918.0607706     
   64361045.6208117     
   64359147.7334086     
   64357236.1196107     
   64355325.6696161     
   64353434.2393007     
   64351583.6386302     
   64349794.4891958     
   64348084.8663561     
   64346473.7297246     
   64344979.6236676     
   64343618.8845160     
   64342403.9138213     
   64341341.6962108     
   64340433.8747847     
   64339674.8689982     
   64339053.6139724     
   64338555.9842093     
   64338166.5224489     
   64337870.1625147     
   64337653.2002955     
   64337502.8338296     
   64337406.3073464     
   64337350.6088756     
   64337323.5000077     
   64337314.7799577     
   64337313.9654894     
   63834909.6701763     
   63834829.0431712     
   63834597.0556530     
   63834228.6358585     
   63833739.3985372     
   63833143.0327832     
   63832450.2853742     
   63831669.0436906     
   63830805.3242902     
   63829864.0653335     
   63828850.3877611     
   63827766.8895183     
   63826613.8514605     
   63825392.8542293     
   63824107.0858115     
   63822760.0272043     
   63821354.8656172     
   63819895.7375113     
   63818384.4274911     
   63816816.1079068     
   63815177.1944211     
   63813463.0705160     
   63811677.8459316     
   63809814.9608313     
   63807861.3397914     
   63805840.5340790     
   63803785.9667086     
   63801704.1514960     
   63799609.2176131     
   63797506.5538448     
   63795385.4586128     
   63793252.4940415     
   63791138.8702776     
   63789074.1660772     
   63787083.4577662     
   63785193.1158947     
   63783434.3943537     
   63781836.1705977     
   63780411.9550742     
   63779169.2134014     
   63778109.6408759     
   63777226.2459516     
   63776506.4887835     
   63775934.7420886     
   63775492.5181986     
   63775160.3451378     
   63774919.9815569     
   63774755.3300822     
   63774652.3957954     
   63774598.5257005     
   63774582.3867272     
   63292074.5988000     
   63292002.5290668     
   63291791.8915440     
   63291451.7332992     
   63290990.7863112     
   63290417.5590134     
   63289740.2230316     
   63288966.4354070     
   63288103.0802719     
   63287156.1603114     
   63286130.5695898     
   63285030.8577993     
   63283861.3709882     
   63282625.5641765     
   63281326.1378519     
   63279965.5034288     
   63278545.8735586     
   63277068.4687886     
   63275533.7926864     
   63273942.5588616     
   63272296.8342415     
   63270596.6065979     
   63268839.9514861     
   63267027.4810830     
   63265162.2203377     
   63263245.4599456     
   63261278.6060415     
   63259261.6652677     
   63257182.6134450     
   63255033.6799522     
   63252817.0601381     
   63250522.6686301     
   63248166.2274454     
   63245792.7812666     
   63243434.0646553     
   63241134.7189566     
   63238913.3232069     
   63236774.0030193     
   63234761.7017082     
   63232914.8773566     
   63231258.9028514     
   63229821.9633918     
   63228621.1638661     
   63227651.2994568     
   63226891.7977614     
   63226314.3136470     
   63225889.2047790     
   63225591.8456897     
   63225402.3154614     
   63225301.7871590     
   63225271.4829120     
   62759880.6587403     
   62759815.7146200     
   62759625.2518377     
   62759315.4773486     
   62758892.6391343     
   62758362.9107903     
   62757732.2974423     
   62757006.5643803     
   62756191.2140019     
   62755291.4501626     
   62754312.2067582     
   62753257.9482242     
   62752132.6417650     
   62750939.9588557     
   62749683.2506044     
   62748365.4193718     
   62746988.8904868     
   62745555.8772432     
   62744068.3878635     
   62742528.0456905     
   62740935.8068650     
   62739292.8221951     
   62737600.4981636     
   62735859.5023759     
   62734069.9102280     
   62732232.3119751     
   62730347.0149482     
   62728413.8110508     
   62726434.7785829     
   62724410.8777458     
   62722340.6978074     
   62720225.5319982     
   62718065.8179522     
   62715860.6363341     
   62713605.2386430     
   62711285.8936623     
   62708902.5998224     
   62706454.4908028     
   62703981.3268878     
   62701562.1469047     
   62699269.1567144     
   62697163.6585560     
   62695285.6145799     
   62693674.8651954     
   62692353.4654967     
   62691324.2066558     
   62690575.4578159     
   62690071.4801481     
   62689760.2301776     
   62689594.6450166     
   62689543.2933817     
   62238438.8926572     
   62238380.8139720     
   62238209.6211790     
   62237930.0885510     
   62237547.0157182     
   62237065.1799658     
   62236489.3003171     
   62235824.0012826     
   62235073.7677685     
   62234242.9108927     
   62233335.5245845     
   62232355.5113987     
   62231306.5701619     
   62230192.1264839     
   62229015.3339158     
   62227779.1142108     
   62226486.1791195     
   62225138.9715594     
   62223739.6819495     
   62222290.3189626     
   62220792.8092128     
   62219248.7989793     
   62217659.6573948     
   62216026.7590398     
   62214351.4479989     
   62212634.7243920     
   62210877.4896991     
   62209080.7034634     
   62207244.6310847     
   62205369.6423714     
   62203456.5289199     
   62201505.2874728     
   62199516.2541255     
   62197490.2098182     
   62195428.7056882     
   62193335.5800091     
   62191211.2954834     
   62189055.8073974     
   62186866.5514660     
   62184637.2758474     
   62182351.7085097     
   62180012.6988758     
   62177632.8476648     
   62175301.4150589     
   62173170.1984856     
   62171361.4556013     
   62169949.6936511     
   62168944.0927087     
   62168311.1631544     
   62167987.0314090     
   62167893.0824225     
   61727794.2826612     
   61727742.3935374     
   61727589.3885042     
   61727339.2159528     
   61726995.8283399     
   61726563.1579360     
   61726045.0896922     
   61725445.4380776     
   61724767.9303081     
   61724016.1899510     
   61723193.7265238     
   61722303.9095371     
   61721349.9570299     
   61720334.9447733     
   61719261.8000163     
   61718133.2882081     
   61716952.0081574     
   61715720.4133531     
   61714440.8142065     
   61713115.3675663     
   61711746.0613346     
   61710334.7809076     
   61708883.3207458     
   61707393.3169967     
   61705866.2707423     
   61704303.6552314     
   61702706.8647180     
   61701077.1802256     
   61699416.0012411     
   61697724.6670452     
   61696004.4034664     
   61694256.6743460     
   61692482.8657259     
   61690684.2657580     
   61688862.0232239     
   61687016.6633156     
   61685149.4727579     
   61683261.7767947     
   61681355.9214477     
   61679435.8264591     
   61677508.8352858     
   61675578.0868712     
   61673643.1417756     
   61671697.5457322     
   61669723.9813525     
   61667731.4446311     
   61665755.0741472     
   61663957.1221125     
   61662598.3272447     
   61661810.8280038     
   61661564.6736838     
   61227931.3871851     
   61227885.6129754     
   61227750.6155711     
   61227529.8683684     
   61227226.7965166     
   61226844.7725254     
   61226387.1117463     
   61225857.0660630     
   61225257.8160212     
   61224592.4637142     
   61223864.0252001     
   61223075.4289059     
   61222229.5117750     
   61221329.0114080     
   61220376.5644312     
   61219374.7086463     
   61218325.8847718     
   61217232.4327294     
   61216096.5953938     
   61214920.5276017     
   61213706.3078758     
   61212455.9289489     
   61211171.3055593     
   61209854.3070544     
   61208506.7664602     
   61207130.4667177     
   61205727.1737312     
   61204298.6670598     
   61202846.6956263     
   61201373.0490926     
   61199879.5949347     
   61198368.2032121     
   61196840.8658997     
   61195299.7387499     
   61193747.1912665     
   61192186.0133702     
   61190619.1365598     
   61189049.9356052     
   61187481.9984444     
   61185919.0439315     
   61184364.4720690     
   61182823.4278019     
   61181302.9519789     
   61179814.1255803     
   61178374.5587809     
   61176999.3272612     
   61175700.2464235     
   61174482.5528545     
   61173364.4539635     
   61172442.8866743     
   61172050.4429939     
   60738788.3378409     
   60738748.8400154     
   60738632.4272289     
   60738442.1611443     
   60738181.0346038     
   60737851.9748456     
   60737457.8452845     
   60737001.4467355     
   60736485.5182895     
   60735912.7375603     
   60735285.7210318     
   60734607.0229172     
   60733879.1350925     
   60733104.4888235     
   60732285.4556045     
   60731424.3480003     
   60730523.4217223     
   60729584.8804544     
   60728610.8798495     
   60727603.5314766     
   60726564.9075212     
   60725497.0531264     
   60724401.9955574     
   60723281.7479385     
   60722138.3213237     
   60720973.7452625     
   60719790.0772142     
   60718589.4152295     
   60717373.9351331     
   60716145.8981323     
   60714907.6730419     
   60713661.7969773     
   60712410.9868539     
   60711158.1803219     
   60709906.5839543     
   60708659.6838779     
   60707421.4034386     
   60706196.1145113     
   60704988.8372071     
   60703805.4355964     
   60702652.9770739     
   60701539.4923803     
   60700474.3310978     
   60699467.8364960     
   60698531.0795860     
   60697678.8697980     
   60696931.0657769     
   60696316.3728854     
   60695869.1757423     
   60695611.1797298     
   60695530.6177271     
   60260268.7554660     
   60260235.8448666     
   60260138.8893490     
   60259980.5008630     
   60259763.2233178     
   60259489.5397145     
   60259161.8779164     
   60258782.6152292     
   60258354.0820980     
   60257878.5652817     
   60257358.3105347     
   60256795.5255032     
   60256192.3823351     
   60255551.0199948     
   60254873.5472029     
   60254162.0458842     
   60253418.5749536     
   60252645.1741459     
   60251843.8690186     
   60251016.6770160     
   60250165.6145216     
   60249292.7030122     
   60248399.9774902     
   60247489.4980232     
   60246563.3607296     
   60245623.7083328     
   60244672.7460870     
   60243712.7591686     
   60242746.1258057     
   60241775.3421573     
   60240803.0464259     
   60239832.0354881     
   60238865.2999524     
   60237906.0558470     
   60236957.7801666     
   60236024.2646846     
   60235109.6358124     
   60234218.4252063     
   60233355.5918158     
   60232526.5484908     
   60231737.1392830     
   60230993.7713672     
   60230303.3574843     
   60229673.4609668     
   60229112.3634223     
   60228628.1277869     
   60228227.8925603     
   60227915.7656039     
   60227692.1526270     
   60227556.7528576     
   60227512.3092219     
   59792252.7002533     
   59792226.6129307     
   59792149.7581162     
   59792024.2110829     
   59791852.0039603     
   59791635.1311046     
   59791375.5538163     
   59791075.2045184     
   59790735.9904740     
   59790359.7971225     
   59789948.4911985     
   59789503.9235788     
   59789027.9321408     
   59788522.3447638     
   59787988.9823449     
   59787429.6619813     
   59786846.2004631     
   59786240.4182585     
   59785614.1437703     
   59784969.2179810     
   59784307.4995657     
   59783630.8711057     
   59782941.2455866     
   59782240.5730058     
   59781530.8481477     
   59780814.1195434     
   59780092.4980064     
   59779368.1658837     
   59778643.3886255     
   59777920.5239530     
   59777202.0321368     
   59776490.4892056     
   59775788.5952757     
   59775099.1836979     
   59774425.2279891     
   59773769.8410044     
   59773136.2796932     
   59772527.9282244     
   59771948.2854387     
   59771400.9376756     
   59770889.5276452     
   59770417.6546343     
   59769988.7956890     
   59769606.1135222     
   59769272.2239583     
   59768989.1736275     
   59768758.2886993     
   59768580.4622417     
   59768456.0792623     
   59768384.0464855     
   59768360.8376535     
   59334604.6326667     
   59334585.3947655     
   59334528.6660150     
   59334435.9175094     
   59334308.6130059     
   59334148.2109668     
   59333956.1664411     
   59333733.9328145     
   59333482.9634637     
   59333204.7133516     
   59332900.6405738     
   59332572.2079361     
   59332220.8845453     
   59331848.1474333     
   59331455.4833023     
   59331044.3903961     
   59330616.3805024     
   59330172.9810710     
   59329715.7375335     
   59329246.2158117     
   59328766.0050055     
   59328276.7200704     
   59327780.0046842     
   59327277.5343116     
   59326771.0191125     
   59326262.2065936     
   59325752.8843222     
   59325244.8822018     
   59324740.0736227     
   59324240.3765611     
   59323747.7532382     
   59323264.2073083     
   59322791.7802045     
   59322332.5442618     
   59321888.5926456     
   59321462.0266738     
   59321054.9354437     
   59320669.3744331     
   59320307.3340359     
   59319970.7017538     
   59319661.2133011     
   59319380.4103093     
   59319129.5785833     
   59318909.7099624     
   59318721.4718012     
   59318565.1196717     
   59318440.4588108     
   59318346.6820324     
   59318282.3272172     
   59318245.5098256     
   59318234.1441843     
   58887177.9291666     
   58887165.2974016     
   58887127.9487925     
   58887066.7263984     
   58886982.5030210     
   58886876.1794163     
   58886748.6828083     
   58886600.9656469     
   58886434.0045725     
   58886248.7995541     
   58886046.3731843     
   58885827.7701011     
   58885594.0565316     
   58885346.3199484     
   58885085.6688064     
   58884813.2323525     
   58884530.1604912     
   58884237.6236943     
   58883936.8129056     
   58883628.9394109     
   58883315.2346288     
   58882996.9498186     
   58882675.3555817     
   58882351.7410621     
   58882027.4128356     
   58881703.6933823     
   58881381.9188982     
   58881063.4364014     
   58880749.6001122     
   58880441.7665463     
   58880141.2884320     
   58879849.5074375     
   58879567.7449075     
   58879297.2909351     
   58879039.3913823     
   58878795.2323127     
   58878565.9230086     
   58878352.4753590     
   58878155.7821303     
   58877976.5932428     
   58877815.4919568     
   58877672.8666191     
   58877548.8867613     
   58877443.4719201     
   58877356.2585537     
   58877286.5849135     
   58877233.4644255     
   58877195.6023681     
   58877171.3853872     
   58877158.7938656     
   58877155.3226399     
   58449816.1214945     
   58449809.6018599     
   58449790.1714972     
   58449758.0706808     
   58449713.6001088     
   58449657.1161619     
   58449589.0266544     
   58449509.7870118     
   58449419.8968151     
   58449319.8966589     
   58449210.3652726     
   58449091.9168651     
   58448965.1986496     
   58448830.8885100     
   58448689.6927755     
   58448542.3440650     
   58448389.5991649     
   58448232.2368980     
   58448071.0559476     
   58447906.8725930     
   58447740.5183095     
   58447572.8371665     
   58447404.6829869     
   58447236.9162079     
   58447070.4003604     
   58446905.9980947     
   58446744.5667121     
   58446586.9531015     
   58446433.9879629     
   58446286.4793523     
   58446145.2053950     
   58446010.9060488     
   58445884.2740356     
   58445765.9447581     
   58445656.4852581     
   58445556.3823542     
   58445466.0296590     
   58445385.7142309     
   58445315.6023370     
   58445255.7248252     
   58445205.9618526     
   58445166.0286251     
   58445135.4599847     
   58445113.5977794     
   58445099.5802644     
   58445092.3283069     
   58445090.5374454     
   58445092.6592577     
   58445096.8925387     
   58445101.2021253     
   58445103.3431794     
   58022351.6394191     
   58022350.5519133     
   58022347.0475712     
   58022340.8276924     
   58022331.6750327     
   58022319.4472893     
   58022304.0711151     
   58022285.5365978     
   58022263.8921448     
   58022239.2397197     
   58022211.7303801     
   58022181.5600687     
   58022148.9656153     
   58022114.2209057     
   58022077.6331781     
   58022039.5394069     
   58022000.3027363     
   58021960.3089252     
   58021919.9627650     
   58021879.6844316     
   58021839.9057335     
   58021801.0662205     
   58021763.6091094     
   58021727.9769876     
   58021694.6072619     
   58021663.9273152     
   58021636.3493283     
   58021612.2647419     
   58021592.0383437     
   58021576.0019281     
   58021564.4475394     
   58021557.6203089     
   58021555.7108478     
   58021558.8472610     
   58021567.0867990     
   58021580.4071659     
   58021598.6976576     
   58021621.7500203     
   58021649.2493152     
   58021680.7648082     
   58021715.7411602     
   58021753.4896452     
   58021793.1802671     
   58021833.8338622     
   58021874.3145264     
   58021913.3240955     
   58021949.3962637     
   58021980.8956970     
   58022006.0167734     
   58022022.7759748     
   58022029.0029466     
   57604603.0753687     
   57604606.6342973     
   57604616.7620792     
   57604632.7079261     
   57604653.8136808     
   57604679.5066547     
   57604709.2929229     
   57604742.7510292     
   57604779.5260591     
   57604819.3240349     
   57604861.9065959     
   57604907.0859220     
   57604954.7198664     
   57605004.7072605     
   57605056.9833576     
   57605111.5153830     
   57605168.2981592     
   57605227.3497760     
   57605288.7072767     
   57605352.4223323     
   57605418.5568780     
   57605487.1786854     
   57605558.3568482     
   57605632.1571604     
   57605708.6373662     
   57605787.8422648     
   57605869.7986602     
   57605954.5101432     
   57606041.9516987     
   57606132.0641458     
   57606224.7484107     
   57606319.8596385     
   57606417.2011768     
   57606516.5184413     
   57606617.4927019     
   57606719.7348380     
   57606822.7790749     
   57606926.0768124     
   57607028.9905493     
   57607130.7879940     
   57607230.6363828     
   57607327.5971903     
   57607420.6210855     
   57607508.5435051     
   57607590.0808938     
   57607663.8272306     
   57607728.2516572     
   57607781.6956503     
   57607822.3711641     
   57607848.3617616     
   57607857.6259610     
   57196371.9269514     
   57196379.3145216     
   57196400.6889408     
   57196434.9426017     
   57196481.0634533     
   57196538.1280121     
   57196605.2947190     
   57196681.7976156     
   57196766.9403097     
   57196860.0902043     
   57196960.6729622     
   57197068.1671806     
   57197182.0992493     
   57197302.0383694     
   57197427.5917068     
   57197558.3996604     
   57197694.1312202     
   57197834.4793980     
   57197979.1567095     
   57198127.8906906     
   57198280.4194309     
   57198436.4871114     
   57198595.8395305     
   57198758.2196098     
   57198923.3628706     
   57199090.9928732     
   57199260.8166166     
   57199432.5198974     
   57199605.7626307     
   57199780.1741365     
   57199955.3484023     
   57200130.8393352     
   57200306.1560154     
   57200480.7579752     
   57200654.0505247     
   57200825.3801473     
   57200994.0300045     
   57201159.2155659     
   57201320.0804132     
   57201475.6922462     
   57201625.0391436     
   57201767.0260827     
   57201900.4718212     
   57202024.1060954     
   57202136.5671655     
   57202236.3998627     
   57202322.0539376     
   57202391.8832199     
   57202444.1452836     
   57202477.0010199     
   57202488.5141279     
   56797439.5237007     
   56797449.9463505     
   56797480.2517541     
   56797529.0682880     
   56797595.1167796     
   56797677.2041904     
   56797774.2175320     
   56797885.1180044     
   56798008.9353407     
   56798144.7623453     
   56798291.7496095     
   56798449.1003905     
   56798616.0656397     
   56798791.9391641     
   56798976.0529090     
   56799167.7723466     
   56799366.4919595     
   56799571.6308048     
   56799782.6281500     
   56799998.9391697     
   56800220.0306926     
   56800445.3769941     
   56800674.4556254     
   56800906.7432755     
   56801141.7116630     
   56801378.8234547     
   56801617.5282125     
   56801857.2583710     
   56802097.4252468     
   56802337.4150897     
   56802576.5851801     
   56802814.2599835     
   56803049.7273752     
   56803282.2349465     
   56803510.9864090     
   56803735.1381151     
   56803953.7957081     
   56804166.0109292     
   56804370.7785941     
   56804567.0337656     
   56804753.6491367     
   56804929.4326559     
   56805093.1253953     
   56805243.3997029     
   56805378.8576619     
   56805498.0298385     
   56805599.3744053     
   56805681.2765108     
   56805742.0479744     
   56805779.9274940     
   56805793.0814446     
   56407564.5534164     
   56407577.2788828     
   56407614.3763233     
   56407674.2938309     
   56407755.5649497     
   56407856.8032626     
   56407976.6971203     
   56408114.0045064     
   56408267.5480366     
   56408436.2100850     
   56408618.9280334     
   56408814.6896366     
   56409022.5284974     
   56409241.5196458     
   56409470.7752143     
   56409709.4402045     
   56409956.6883380     
   56410211.7179860     
   56410473.7481734     
   56410742.0146514     
   56411015.7660357     
   56411294.2600067     
   56411576.7595702     
   56411862.5293756     
   56412150.8320933     
   56412440.9248504     
   56412732.0557270     
   56413023.4603161     
   56413314.3583510     
   56413603.9504041     
   56413891.4146656     
   56414175.9038071     
   56414456.5419389     
   56414732.4216711     
   56415002.6012873     
   56415266.1020414     
   56415521.9055912     
   56415768.9515767     
   56416006.1353581     
   56416232.3059249     
   56416446.2639880     
   56416646.7602659     
   56416832.4939803     
   56417002.1115678     
   56417154.2056148     
   56417287.3140357     
   56417399.9194786     
   56417490.4490067     
   56417557.2740470     
   56417598.7105606     
   56417613.0193928     
   56026481.3612550     
   56026495.7390349     
   56026537.7257900     
   56026605.6608670     
   56026697.9599018     
   56026813.1103694     
   56026949.6672039     
   56027106.2484903     
   56027281.5312303     
   56027474.2471833     
   56027683.1787818     
   56027907.1551221     
   56028145.0480288     
   56028395.7681916     
   56028658.2613742     
   56028931.5046932     
   56029214.5029655     
   56029506.2851231     
   56029805.9006942     
   56030112.4163501     
   56030424.9125162     
   56030742.4800481     
   56031064.2169727     
   56031389.2252946     
   56031716.6078706     
   56032045.4653511     
   56032374.8931950     
   56032703.9787574     
   56033031.7984555     
   56033357.4150171     
   56033679.8748154     
   56033998.2052959     
   56034311.4125018     
   56034618.4787028     
   56034918.3601345     
   56035209.9848565     
   56035492.2507338     
   56035764.0235514     
   56036024.1352677     
   56036271.3824145     
   56036504.5246519     
   56036722.2834827     
   56036923.3411355     
   56037106.3396197     
   56037269.8799623     
   56037412.5216260     
   56037532.7821212     
   56037629.1368048     
   56037700.0188673     
   56037743.8195270     
   56037758.8884479     
   55653899.0319625     
   55653914.5013762     
   55653959.7348920     
   55654033.0216908     
   55654132.7171888     
   55654257.2395013     
   55654405.0659270     
   55654574.7294576     
   55654764.8153179     
   55654973.9575410     
   55655200.8355801     
   55655444.1709636     
   55655702.7239913     
   55655975.2904785     
   55656260.6985461     
   55656557.8054606     
   55656865.4945248     
   55657182.6720201     
   55657508.2642031     
   55657841.2143565     
   55658180.4798963     
   55658525.0295382     
   55658873.8405225     
   55659225.8959016     
   55659580.1818920     
   55659935.6852923     
   55660291.3909708     
   55660646.2794260     
   55660999.3244225     
   55661349.4907057     
   55661695.7318004     
   55662036.9878962     
   55662372.1838241     
   55662700.2271288     
   55663020.0062420     
   55663330.3887596     
   55663630.2198300     
   55663918.3206554     
   55664193.4871132     
   55664454.4885007     
   55664700.0664080     
   55664928.9337230     
   55665139.7737728     
   55665331.2396054     
   55665501.9534139     
   55665650.5061068     
   55665775.4570264     
   55665875.3338172     
   55665948.6324492     
   55665993.8173899     
   55666009.3219216     
   55289501.1748258     
   55289517.2647607     
   55289564.3625261     
   55289640.7534001     
   55289744.7788083     
   55289874.8336011     
   55290029.3633196     
   55290206.8614551     
   55290405.8667090     
   55290624.9602589     
   55290862.7630352     
   55291117.9330140     
   55291389.1625291     
   55291675.1756077     
   55291974.7253335     
   55292286.5912401     
   55292609.5767380     
   55292942.5065778     
   55293284.2243533     
   55293633.5900456     
   55293989.4776130     
   55294350.7726277     
   55294716.3699621     
   55295085.1715288     
   55295456.0840753     
   55295828.0170374     
   55296199.8804537     
   55296570.5829440     
   55296939.0297550     
   55297304.1208768     
   55297664.7492319     
   55298019.7989421     
   55298368.1436746     
   55298708.6450719     
   55299040.1512683     
   55299361.4954968     
   55299671.4947885     
   55299968.9487702     
   55300252.6385597     
   55300521.3257657     
   55300773.7515922     
   55301008.6360519     
   55301224.6772895     
   55301420.5510190     
   55301594.9100749     
   55301746.3840807     
   55301873.5792353     
   55301975.0782178     
   55302049.4402114     
   55302095.2010478     
   55302110.8734731     
   54932946.2911611     
   54932962.6147465     
   54933010.4393815     
   54933088.0817226     
   54933193.9049914     
   54933326.3169468     
   54933483.7678254     
   54933664.7482558     
   54933867.7871543     
   54934091.4496074     
   54934334.3347458     
   54934595.0736164     
   54934872.3270559     
   54935164.7835716     
   54935471.1572331     
   54935790.1855783     
   54936120.6275389     
   54936461.2613879     
   54936810.8827134     
   54937168.3024208     
   54937532.3447685     
   54937901.8454380     
   54938275.6496438     
   54938652.6102840     
   54939031.5861361     
   54939411.4401000     
   54939791.0374913     
   54940169.2443884     
   54940544.9260349     
   54940916.9453016     
   54941284.1612100     
   54941645.4275198     
   54941999.5913843     
   54942345.4920750     
   54942681.9597792     
   54943007.8144724     
   54943321.8648676     
   54943622.9074454     
   54943909.7255657     
   54944181.0886635     
   54944435.7515309     
   54944672.4536872     
   54944889.9188386     
   54945086.8544288     
   54945261.9512820     
   54945413.8833387     
   54945541.3074861     
   54945642.8634823     
   54945717.1739758     
   54945762.8446198     
   54945778.4642790     
   54583868.5952330     
   54583884.8417845     
   54583932.4780545     
   54584009.8779720     
   54584115.4532640     
   54584247.6520035     
   54584404.9571135     
   54584585.8848351     
   54584788.9831640     
   54585012.8302620     
   54585256.0328484     
   54585517.2245762     
   54585795.0643983     
   54586088.2349280     
   54586395.4407986     
   54586715.4070258     
   54587046.8773768     
   54587388.6127502     
   54587739.3895705     
   54588097.9982004     
   54588463.2413741     
   54588833.9326553     
   54589208.8949228     
   54589586.9588868     
   54589966.9616386     
   54590347.7452372     
   54590728.1553351     
   54591107.0398453     
   54591483.2476544     
   54591855.6273813     
   54592223.0261869     
   54592584.2886350     
   54592938.2556080     
   54593283.7632793     
   54593619.6421441     
   54593944.7161115     
   54594257.8016592     
   54594557.7070532     
   54594843.2316331     
   54595113.1651663     
   54595366.2872710     
   54595601.3669101     
   54595817.1619570     
   54596012.4188342     
   54596185.8722259     
   54596336.2448640     
   54596462.2473901     
   54596562.5782913     
   54596635.9239114     
   54596680.9585372     
   54596696.3445592     
   54241879.1668470     
   54241895.0926334     
   54241941.8208984     
   54242017.8009502     
   54242121.5120976     
   54242251.4626623     
   54242406.1889447     
   54242584.2541462     
   54242784.2472543     
   54243004.7818957     
   54243244.4951622     
   54243502.0464133     
   54243776.1160609     
   54244065.4043401     
   54244368.6300698     
   54244684.5294080     
   54245011.8546046     
   54245349.3727559     
   54245695.8645644     
   54246050.1231069     
   54246410.9526143     
   54246777.1672672     
   54247147.5900080     
   54247521.0513749     
   54247896.3883597     
   54248272.4432908     
   54248648.0627470     
   54249022.0965009     
   54249393.3964981     
   54249760.8158710     
   54250123.2079924     
   54250479.4255690     
   54250828.3197778     
   54251168.7394473     
   54251499.5302847     
   54251819.5341520     
   54252127.5883911     
   54252422.5252011     
   54252703.1710674     
   54252968.3462456     
   54253216.8643002     
   54253447.5316995     
   54253659.1474672     
   54253850.5028923     
   54254020.3812965     
   54254167.5578618     
   54254290.7995153     
   54254388.8648743     
   54254460.5042503     
   54254504.4597116     
   54254519.4652042     
   53906567.3284149     
   53906582.7472227     
   53906628.0161684     
   53906701.6717389     
   53906802.2736446     
   53906928.4042017     
   53907078.6676649     
   53907251.6895157     
   53907446.1157115     
   53907660.6118982     
   53907893.8625930     
   53908144.5703383     
   53908411.4548339     
   53908693.2520492     
   53908988.7133199     
   53909296.6044331     
   53909615.7047035     
   53909944.8060445     
   53910282.7120375     
   53910628.2370027     
   53910980.2050736     
   53911337.4492788     
   53911698.8106346     
   53912063.1372485     
   53912429.2834398     
   53912796.1088763     
   53913162.4777327     
   53913527.2578698     
   53913889.3200397     
   53914247.5371168     
   53914600.7833575     
   53914947.9336916     
   53915287.8630447     
   53915619.4456956     
   53915941.5546688     
   53916253.0611651     
   53916552.8340301     
   53916839.7392624     
   53917112.6395638     
   53917370.3939310     
   53917611.8572899     
   53917835.8801751     
   53918041.3084524     
   53918226.9830882     
   53918391.7399630     
   53918534.4097314     
   53918653.8177289     
   53918748.7839235     
   53918818.1229151     
   53918860.6439789     
   53918875.1511562     
   53577502.1560551     
   53577516.9301218     
   53577560.3304638     
   53577630.9875446     
   53577727.5492843     
   53577848.6807285     
   53577993.0636681     
   53578159.3962173     
   53578346.3923496     
   53578552.7813990     
   53578777.3075279     
   53579018.7291658     
   53579275.8184228     
   53579547.3604805     
   53579832.1529636     
   53580129.0052957     
   53580436.7380429     
   53580754.1822463     
   53581080.1787491     
   53581413.5775176     
   53581753.2369628     
   53582098.0232612     
   53582446.8096809     
   53582798.4759121     
   53583151.9074076     
   53583505.9947325     
   53583859.6329277     
   53584211.7208876     
   53584561.1607548     
   53584906.8573337     
   53585247.7175238     
   53585582.6497758     
   53585910.5635716     
   53586230.3689285     
   53586540.9759310     
   53586841.2942902     
   53587130.2329324     
   53587406.6996177     
   53587669.6005903     
   53587917.8402611     
   53588150.3209221     
   53588365.9424965     
   53588563.6023213     
   53588742.1949653     
   53588900.6120830     
   53589037.7423028     
   53589152.4711515     
   53589243.6810138     
   53589310.2511284     
   53589351.0576182     
   53589364.9735566     
   53254234.0507512     
   53254248.0823775     
   53254289.3224627     
   53254356.4983652     
   53254448.3500943     
   53254563.6301953     
   53254701.1035902     
   53254859.5473777     
   53255037.7505934     
   53255234.5139351     
   53255448.6494557     
   53255678.9802264     
   53255924.3399735     
   53256183.5726917     
   53256455.5322364     
   53256739.0818974     
   53257033.0939577     
   53257336.4492393     
   53257648.0366377     
   53257966.7526497     
   53258291.5008949     
   53258621.1916332     
   53258954.7412826     
   53259291.0719367     
   53259629.1108859     
   53259967.7901431     
   53260306.0459773     
   53260642.8184542     
   53260977.0509893     
   53261307.6899113     
   53261633.6840404     
   53261953.9842812     
   53262267.5432319     
   53262573.3148124     
   53262870.2539103     
   53263157.3160482     
   53263433.4570716     
   53263697.6328597     
   53263948.7990588     
   53264185.9108404     
   53264407.9226832     
   53264613.7881816     
   53264802.4598786     
   53264972.8891260     
   53265124.0259712     
   53265254.8190699     
   53265364.2156274     
   53265451.1613652     
   53265514.6005161     
   53265553.4758450     
   53265566.7286971     
   52936296.3106359     
   52936309.5346165     
   52936348.4183561     
   52936411.7860930     
   52936498.4708005     
   52936607.3142323     
   52936737.1669286     
   52936886.8881812     
   52937055.3459638     
   52937241.4168287     
   52937443.9857715     
   52937661.9460678     
   52937894.1990835     
   52938139.6540610     
   52938397.2278845     
   52938665.8448255     
   52938944.4362718     
   52939231.9404412     
   52939527.3020836     
   52939829.4721713     
   52940137.4075820     
   52940450.0707742     
   52940766.4294592     
   52941085.4562694     
   52941406.1284257     
   52941727.4274063     
   52942048.3386173     
   52942367.8510669     
   52942684.9570464     
   52942998.6518168     
   52943307.9333042     
   52943611.8018051     
   52943909.2597020     
   52944199.3111913     
   52944480.9620242     
   52944753.2192615     
   52945015.0910442     
   52945265.5863787     
   52945503.7149396     
   52945728.4868898     
   52945938.9127182     
   52946134.0030961     
   52946312.7687527     
   52946474.2203702     
   52946617.3684977     
   52946741.2234864     
   52946844.7954438     
   52946927.0942084     
   52946987.1293446     
   52947023.9101576     
   52947036.4457280     
   52623206.6587359     
   52623219.0356491     
   52623255.4429172     
   52623314.7994962     
   52623396.0299726     
   52623498.0647232     
   52623619.8400380     
   52623760.2982074     
   52623918.3875761     
   52624093.0625654     
   52624283.2836669     
   52624488.0174086     
   52624706.2362962     
   52624936.9187304     
   52625179.0489043     
   52625431.6166804     
   52625693.6174506     
   52625964.0519805     
   52626241.9262403     
   52626526.2512235     
   52626816.0427550     
   52627110.3212912     
   52627408.1117127     
   52627708.4431117     
   52628010.3485760     
   52628312.8649699     
   52628615.0327145     
   52628915.8955685     
   52629214.5004105     
   52629509.8970246     
   52629801.1378893     
   52630087.2779727     
   52630367.3745337     
   52630640.4869302     
   52630905.6764359     
   52631162.0060661     
   52631408.5404142     
   52631644.3454979     
   52631868.4886175     
   52632080.0382260     
   52632278.0638122     
   52632461.6357965     
   52632629.8254404     
   52632781.7047701     
   52632916.3465139     
   52633032.8240540     
   52633130.2113936     
   52633207.5831377     
   52633264.0144892     
   52633298.5812591     
   52633310.3598919     
   52314468.6919730     
   52314480.2023085     
   52314514.0717597     
   52314569.3103418     
   52314644.9313254     
   52314739.9514730     
   52314853.3912411     
   52314984.2749511     
   52315131.6309291     
   52315294.4916184     
   52315471.8936634     
   52315662.8779702     
   52315866.4897417     
   52316081.7784921     
   52316307.7980409     
   52316543.6064868     
   52316788.2661667     
   52317040.8435967     
   52317300.4094009     
   52317566.0382261     
   52317836.8086459     
   52318111.8030555     
   52318390.1075570     
   52318670.8118382     
   52318953.0090460     
   52319235.7956540     
   52319518.2713284     
   52319799.5387904     
   52320078.7036781     
   52320354.8744084     
   52320627.1620400     
   52320894.6801380     
   52321156.5446421     
   52321411.8737380     
   52321659.7877338     
   52321899.4089418     
   52322129.8615659     
   52322350.2715966     
   52322559.7667124     
   52322757.4761903     
   52322942.5308238     
   52323114.0628499     
   52323271.2058859     
   52323413.0948749     
   52323538.8660421     
   52323647.6568604     
   52323738.6060265     
   52323810.8534479     
   52323863.5402389     
   52323895.8087283     
   52323906.8024771     
   52009573.2270131     
   52009583.8660843     
   52009615.1802452     
   52009666.2659495     
   52009736.2211806     
   52009824.1457330     
   52009929.1414642     
   52010050.3125172     
   52010186.7655176     
   52010337.6097428     
   52010501.9572686     
   52010678.9230918     
   52010867.6252311     
   52011067.1848078     
   52011276.7261077     
   52011495.3766244     
   52011722.2670867     
   52011956.5314713     
   52012197.3069998     
   52012443.7341252     
   52012694.9565053     
   52012950.1209660     
   52013208.3774560     
   52013468.8789927     
   52013730.7816019     
   52013993.2442508     
   52014255.4287763     
   52014516.4998098     
   52014775.6246986     
   52015031.9734251     
   52015284.7185255     
   52015533.0350072     
   52015776.1002677     
   52016013.0940135     
   52016243.1981817     
   52016465.5968643     
   52016679.4762348     
   52016884.0244794     
   52017078.4317321     
   52017261.8900144     
   52017433.5931808     
   52017592.7368690     
   52017738.5184571     
   52017870.1370261     
   52017986.7933298     
   52018087.6897702     
   52018172.0303812     
   52018239.0208183     
   52018287.8683555     
   52018317.7818897     
   52018327.9719522     
   51707999.5268650     
   51708009.3004365     
   51708038.0728768     
   51708085.0219320     
   51708149.3257244     
   51708230.1630544     
   51708326.7136766     
   51708438.1585506     
   51708563.6800678     
   51708702.4622552     
   51708853.6909573     
   51709016.5539973     
   51709190.2413185     
   51709373.9451071     
   51709566.8598972     
   51709768.1826595     
   51709977.1128751     
   51710192.8525934     
   51710414.6064785     
   51710641.5818417     
   51710872.9886636     
   51711108.0396054     
   51711345.9500109     
   51711585.9378997     
   51711827.2239535     
   51712069.0314951     
   51712310.5864616     
   51712551.1173730     
   51712789.8552959     
   51713026.0338050     
   51713258.8889399     
   51713487.6591620     
   51713711.5853088     
   51713929.9105478     
   51714141.8803305     
   51714346.7423470     
   51714543.7464807     
   51714732.1447661     
   51714911.1913471     
   51715080.1424385     
   51715238.2562903     
   51715384.7931549     
   51715519.0152575     
   51715640.1867713     
   51715747.5737955     
   51715840.4443381     
   51715918.0683028     
   51715979.7174807     
   51716024.6655461     
   51716052.1880576     
   51716061.5624625     
   51409216.3991510     
   51409225.3197059     
   51409251.5840753     
   51409294.4459820     
   51409353.1588719     
   51409426.9762168     
   51409515.1517948     
   51409616.9399489     
   51409731.5958236     
   51409858.3755825     
   51409996.5366055     
   51410145.3376682     
   51410304.0391028     
   51410471.9029435     
   51410648.1930547     
   51410832.1752449     
   51411023.1173663     
   51411220.2894010     
   51411422.9635347     
   51411630.4142190     
   51411841.9182222     
   51412056.7546713     
   51412274.2050831     
   51412493.5533886     
   51412714.0859481     
   51412935.0915607     
   51413155.8614665     
   51413375.6893435     
   51413593.8713000     
   51413809.7058626     
   51414022.4939598     
   51414231.5389041     
   51414436.1463696     
   51414635.6243699     
   51414829.2832327     
   51415016.4355747     
   51415196.3962753     
   51415368.4824506     
   51415532.0134280     
   51415686.3107212     
   51415830.6980059     
   51415964.5010978     
   51416087.0479316     
   51416197.6685422     
   51416295.6950479     
   51416380.4616358     
   51416451.3045504     
   51416507.5620835     
   51416548.5745683     
   51416573.6843751     
   51416582.2359106     
   51112683.1628773     
   51112691.2464509     
   51112715.0471694     
   51112753.8895365     
   51112807.0975601     
   51112873.9950401     
   51112953.9058371     
   51113046.1541224     
   51113150.0646085     
   51113264.9627635     
   51113390.1750071     
   51113525.0288914     
   51113668.8532657     
   51113820.9784262     
   51113980.7362524     
   51114147.4603288     
   51114320.4860553     
   51114499.1507437     
   51114682.7937051     
   51114870.7563245     
   51115062.3821263     
   51115257.0168309     
   51115454.0084011     
   51115652.7070825     
   51115852.4654340     
   51116052.6383533     
   51116252.5830956     
   51116451.6592860     
   51116649.2289276     
   51116844.6564043     
   51117037.3084799     
   51117226.5542937     
   51117411.7653525     
   51117592.3155203     
   51117767.5810056     
   51117936.9403472     
   51118099.7743982     
   51118255.4663089     
   51118403.4015095     
   51118542.9676919     
   51118673.5547917     
   51118794.5549700     
   51118905.3625961     
   51119005.3742306     
   51119093.9886092     
   51119170.6066279     
   51119234.6313290     
   51119285.4678886     
   51119322.5236055     
   51119345.2078914     
   51119352.9322630     
   50817850.4854871     
   50817857.7489964     
   50817879.1333975     
   50817914.0291339     
   50817961.8263075     
   50818021.9149389     
   50818093.6852120     
   50818176.5277012     
   50818269.8335835     
   50818372.9948357     
   50818485.4044165     
   50818606.4564349     
   50818735.5463045     
   50818872.0708857     
   50819015.4286152     
   50819165.0196232     
   50819320.2458400     
   50819480.5110916     
   50819645.2211853     
   50819813.7839855     
   50819985.6094806     
   50820160.1098412     
   50820336.6994709     
   50820514.7950485     
   50820693.8155643     
   50820873.1823495     
   50821052.3190996     
   50821230.6518920     
   50821407.6091995     
   50821582.6218977     
   50821755.1232698     
   50821924.5490065     
   50822090.3372025     
   50822251.9283514     
   50822408.7653359     
   50822560.2934172     
   50822705.9602224     
   50822845.2157291     
   50822977.5122497     
   50823102.3044148     
   50823219.0491545     
   50823327.2056804     
   50823426.2354666     
   50823515.6022305     
   50823594.7719140     
   50823663.2126644     
   50823720.3948159     
   50823765.7908712     
   50823798.8754843     
   50823819.1254426     
   50823826.0196515     
   50524161.0961224     
   50524167.5551293     
   50524186.5668733     
   50524217.5834422     
   50524260.0570532     
   50524313.4402766     
   50524377.1862440     
   50524450.7488447     
   50524533.5829074     
   50524625.1443698     
   50524724.8904353     
   50524832.2797189     
   50524946.7723800     
   50525067.8302456     
   50525194.9169223     
   50525327.4978978     
   50525465.0406336     
   50525607.0146475     
   50525752.8915882     
   50525902.1453007     
   50526054.2518842     
   50526208.6897424     
   50526364.9396272     
   50526522.4846749     
   50526680.8104362     
   50526839.4049015     
   50526997.7585193     
   50527155.3642105     
   50527311.7173775     
   50527466.3159091     
   50527618.6601816     
   50527768.2530558     
   50527914.5998713     
   50528057.2084370     
   50528195.5890199     
   50528329.2543302     
   50528457.7195056     
   50528580.5020926     
   50528697.1220272     
   50528807.1016126     
   50528909.9654978     
   50529005.2406532     
   50529092.4563470     
   50529171.1441194     
   50529240.8377581     
   50529301.0732715     
   50529351.3888635     
   50529391.3249066     
   50529420.4239164     
   50529438.2305248     
   50529444.2914546     
   50231050.3844835     
   50231056.0513354     
   50231072.7249328     
   50231099.9154118     
   50231137.1337745     
   50231183.8920671     
   50231239.7035456     
   50231304.0828305     
   50231376.5460507     
   50231456.6109772     
   50231543.7971460     
   50231637.6259713     
   50231737.6208493     
   50231843.3072530     
   50231954.2128178     
   50232069.8674192     
   50232189.8032414     
   50232313.5548396     
   50232440.6591933     
   50232570.6557539     
   50232703.0864849     
   50232837.4958957     
   50232973.4310695     
   50233110.4416857     
   50233248.0800369     
   50233385.9010402     
   50233523.4622447     
   50233660.3238340     
   50233796.0486243     
   50233930.2020599     
   50234062.3522034     
   50234192.0697241     
   50234318.9278822     
   50234442.5025114     
   50234562.3719980     
   50234678.1172580     
   50234789.3217126     
   50234895.5712607     
   50234996.4542512     
   50235091.5614527     
   50235180.4860221     
   50235262.8234727     
   50235338.1716406     
   50235406.1306507     
   50235466.3028813     
   50235518.2929297     
   50235561.7075750     
   50235596.1557431     
   50235621.2484690     
   50235636.5988607     
   50235641.8220620     
   49937946.8975551     
   49937951.7798569     
   49937966.1361643     
   49937989.5318900     
   49938021.5342671     
   49938061.7124742     
   49938109.6377523     
   49938164.8835120     
   49938227.0254322     
   49938295.6415508     
   49938370.3123467     
   49938450.6208145     
   49938536.1525316     
   49938626.4957171     
   49938721.2412851     
   49938819.9828897     
   49938922.3169648     
   49939027.8427571     
   49939136.1623530     
   49939246.8807000     
   49939359.6056228     
   49939473.9478341     
   49939589.5209408     
   49939705.9414451     
   49939822.8287411     
   49939939.8051085     
   49940056.4957010     
   49940172.5285315     
   49940287.5344545     
   49940401.1471443     
   49940513.0030711     
   49940622.7414742     
   49940730.0043316     
   49940834.4363294     
   49940935.6848268     
   49941033.3998204     
   49941127.2339067     
   49941216.8422422     
   49941301.8825030     
   49941382.0148423     
   49941456.9018472     
   49941526.2084943     
   49941589.6021044     
   49941646.7522961     
   49941697.3309395     
   49941741.0121084     
   49941777.4720327     
   49941806.3890498     
   49941827.4435558     
   49941840.3179574     
   49941844.6966215     
   49644272.7488767     
   49644276.8482534     
   49644288.8908270     
   49644308.4954403     
   49644335.2838822     
   49644368.8809564     
   49644408.9145426     
   49644455.0156520     
   49644506.8184754     
   49644563.9604255     
   49644626.0821729     
   49644692.8276762     
   49644763.8442067     
   49644838.7823673     
   49644917.2961063     
   49644999.0427259     
   49645083.6828858     
   49645170.8806029     
   49645260.3032456     
   49645351.6215240     
   49645444.5094767     
   49645538.6444529     
   49645633.7070914     
   49645729.3812959     
   49645825.3542071     
   49645921.3161716     
   49646016.9607079     
   49646111.9844700     
   49646206.0872077     
   49646298.9717254     
   49646390.3438380     
   49646479.9123252     
   49646567.3888832     
   49646652.4880758     
   49646734.9272826     
   49646814.4266465     
   49646890.7090198     
   49646963.4999087     
   49647032.5274172     
   49647097.5221896     
   49647158.2173519     
   49647214.3484536     
   49647265.6534071     
   49647311.8724281     
   49647352.7479745     
   49647388.0246848     
   49647417.4493170     
   49647440.7706866     
   49647457.7396040     
   49647468.1088123     
   49647471.6329249     
   49349443.9570359     
   49349447.2681555     
   49349456.9803723     
   49349472.7651166     
   49349494.2980198     
   49349521.2589217     
   49349553.3318738     
   49349590.2051371     
   49349631.5711770     
   49349677.1266524     
   49349726.5724017     
   49349779.6134246     
   49349835.9588597     
   49349895.3219589     
   49349957.4200584     
   49350021.9745458     
   49350088.7108243     
   49350157.3582738     
   49350227.6502090     
   49350299.3238347     
   49350372.1201986     
   49350445.7841412     
   49350520.0642436     
   49350594.7127734     
   49350669.4856275     
   49350744.1422738     
   49350818.4456909     
   49350892.1623055     
   49350965.0619290     
   49351036.9176916     
   49351107.5059764     
   49351176.6063505     
   49351244.0014967     
   49351309.4771424     
   49351372.8219893     
   49351433.8276405     
   49351492.2885281     
   49351548.0018396     
   49351600.7674435     
   49351650.3878146     
   49351696.6679588     
   49351739.4153379     
   49351778.4397930     
   49351813.5534685     
   49351844.5707362     
   49351871.3081177     
   49351893.5842087     
   49351911.2196014     
   49351924.0368083     
   49351931.8601847     
   49351934.5158524     
   49052870.7317421     
   49052873.2415747     
   49052880.5844503     
   49052892.4846111     
   49052908.6718420     
   49052928.8814147     
   49052952.8540290     
   49052980.3357516     
   49053011.0779529     
   49053044.8372412     
   49053081.3753953     
   49053120.4592946     
   49053161.8608477     
   49053205.3569188     
   49053250.7292523     
   49053297.7643961     
   49053346.2536235     
   49053395.9928524     
   49053446.7825650     
   49053498.4277247     
   49053550.7376922     
   49053603.5261408     
   49053656.6109699     
   49053709.8142188     
   49053762.9619778     
   49053815.8843003     
   49053868.4151129     
   49053920.3921253     
   49053971.6567396     
   49054022.0539587     
   49054071.4322948     
   49054119.6436774     
   49054166.5433599     
   49054211.9898276     
   49054255.8447041     
   49054297.9726579     
   49054338.2413094     
   49054376.5211370     
   49054412.6853834     
   49054446.6099623     
   49054478.1733647     
   49054507.2565651     
   49054533.7429285     
   49054557.5181168     
   49054578.4699961     
   49054596.4885430     
   49054611.4657528     
   49054623.2955464     
   49054631.8736780     
   49054637.0976437     
   49054638.8665892     
   48753957.7272341     
   48753959.4145312     
   48753964.3251878     
   48753972.2375953     
   48753982.9370760     
   48753996.2157608     
   48754011.8724673     
   48754029.7125770     
   48754049.5479132     
   48754071.1966175     
   48754094.4830268     
   48754119.2375509     
   48754145.2965489     
   48754172.5022059     
   48754200.7024108     
   48754229.7506324     
   48754259.5057973     
   48754289.8321668     
   48754320.5992148     
   48754351.6815052     
   48754382.9585700     
   48754414.3147876     
   48754445.6392614     
   48754476.8256984     
   48754507.7722892     
   48754538.3815869     
   48754568.5603874     
   48754598.2196100     
   48754627.2741780     
   48754655.6429006     
   48754683.2483542     
   48754710.0167649     
   48754735.8778916     
   48754760.7649091     
   48754784.6142919     
   48754807.3656993     
   48754828.9618593     
   48754849.3484554     
   48754868.4740118     
   48754886.2897804     
   48754902.7496283     
   48754917.8099254     
   48754931.4294329     
   48754943.5691926     
   48754954.1924162     
   48754963.2643757     
   48754970.7522942     
   48754976.6252375     
   48754980.8540060     
   48754983.4110270     
   48754984.2702485     
   48452104.2839526     
   48452105.1189359     
   48452107.5096914     
   48452111.2912427     
   48452116.3069364     
   48452122.4082539     
   48452129.4546243     
   48452137.3132395     
   48452145.8588710     
   48452154.9736887     
   48452164.5470822     
   48452174.4754829     
   48452184.6621892     
   48452195.0171923     
   48452205.4570054     
   48452215.9044933     
   48452226.2887048     
   48452236.5447065     
   48452246.6134184     
   48452256.4414518     
   48452265.9809478     
   48452275.1894191     
   48452284.0295920     
   48452292.4692511     
   48452300.4810851     
   48452308.0425343     
   48452315.1356402     
   48452321.7468956     
   48452327.8670973     
   48452333.4911999     
   48452338.6181705     
   48452343.2508459     
   48452347.3957902     
   48452351.0631546     
   48452354.2665375     
   48452357.0228475     
   48452359.3521656     
   48452361.2776106     
   48452362.8252047     
   48452364.0237399     
   48452364.9046469     
   48452365.5018638     
   48452365.8517065     
   48452365.9927402     
   48452365.9656517     
   48452365.8131232     
   48452365.5797062     
   48452365.3116971     
   48452365.0570138     
   48452364.8650727     
   48452364.7866668     
   48146704.6803734     
   48146704.6246320     
   48146704.3827029     
   48146703.8498873     
   48146702.9311653     
   48146701.5409395     
   48146699.6027837     
   48146697.0491954     
   48146693.8213520     
   48146689.8688721     
   48146685.1495799     
   48146679.6292738     
   48146673.2814993     
   48146666.0873249     
   48146658.0351226     
   48146649.1203517     
   48146639.3453458     
   48146628.7191042     
   48146617.2570860     
   48146604.9810080     
   48146591.9186453     
   48146578.1036360     
   48146563.5752884     
   48146548.3783909     
   48146532.5630261     
   48146516.1843861     
   48146499.3025921     
   48146481.9825156     
   48146464.2936030     
   48146446.3097020     
   48146428.1088912     
   48146409.7733112     
   48146391.3889992     
   48146373.0457243     
   48146354.8368265     
   48146336.8590561     
   48146319.2124171     
   48146302.0000103     
   48146285.3278800     
   48146269.3048617     
   48146254.0424316     
   48146239.6545576     
   48146226.2575526     
   48146213.9699282     
   48146202.9122510     
   48146193.2069996     
   48146184.9784230     
   48146178.3524010     
   48146173.4563049     
   48146170.4188601     
   48146169.3700099     
   47837148.4176905     
   47837147.4242886     
   47837144.4121160     
   47837139.3415639     
   47837132.1839763     
   47837122.9213278     
   47837111.5459083     
   47837098.0600138     
   47837082.4756437     
   47837064.8142048     
   47837045.1062208     
   47837023.3910488     
   47836999.7166006     
   47836974.1390708     
   47836946.7226697     
   47836917.5393629     
   47836886.6686151     
   47836854.1971398     
   47836820.2186536     
   47836784.8336367     
   47836748.1490966     
   47836710.2783377     
   47836671.3407347     
   47836631.4615109     
   47836590.7715205     
   47836549.4070351     
   47836507.5095340     
   47836465.2254985     
   47836422.7062102     
   47836380.1075517     
   47836337.5898124     
   47836295.3174960     
   47836253.4591324     
   47836212.1870918     
   47836171.6774020     
   47836132.1095685     
   47836093.6663973     
   47836056.5338202     
   47836020.9007227     
   47835986.9587737     
   47835954.9022582     
   47835924.9279115     
   47835897.2347559     
   47835872.0239393     
   47835849.4985750     
   47835829.8635845     
   47835813.3255407     
   47835800.0925136     
   47835790.3739176     
   47835784.3803596     
   47835782.3234891     
   47522820.5606539     
   47522818.5744596     
   47522812.6306882     
   47522802.7607854     
   47522789.0082969     
   47522771.4284824     
   47522750.0879379     
   47522725.0642276     
   47522696.4455242     
   47522664.3302581     
   47522628.8267747     
   47522590.0530006     
   47522548.1361172     
   47522503.2122422     
   47522455.4261197     
   47522404.9308163     
   47522351.8874257     
   47522296.4647794     
   47522238.8391648     
   47522179.1940499     
   47522117.7198138     
   47522054.6134839     
   47521990.0784794     
   47521924.3243593     
   47521857.5665776     
   47521790.0262420     
   47521721.9298797     
   47521653.5092065     
   47521585.0009013     
   47521516.6463855     
   47521448.6916057     
   47521381.3868219     
   47521314.9863983     
   47521249.7485990     
   47521185.9353866     
   47521123.8122248     
   47521063.6478837     
   47521005.7142487     
   47520950.2861320     
   47520897.6410876     
   47520848.0592277     
   47520801.8230433     
   47520759.2172256     
   47520720.5284911     
   47520686.0454078     
   47520656.0582241     
   47520630.8586995     
   47520610.7399368     
   47520595.9962170     
   47520586.9228344     
   47520583.8159350     
   47203102.1582924     
   47203099.1165432     
   47203090.0576977     
   47203075.0913412     
   47203054.3401320     
   47203027.9393528     
   47202996.0364758     
   47202958.7907381     
   47202916.3727292     
   47202868.9639888     
   47202816.7566164     
   47202759.9528910     
   47202698.7649005     
   47202633.4141823     
   47202564.1313724     
   47202491.1558647     
   47202414.7354790     
   47202335.1261380     
   47202252.5915528     
   47202167.4029165     
   47202079.8386060     
   47201990.1838914     
   47201898.7306523     
   47201805.7771021     
   47201711.6275178     
   47201616.5919780     
   47201520.9861054     
   47201425.1308164     
   47201329.3520763     
   47201233.9806592     
   47201139.3519140     
   47201045.8055349     
   47200953.6853364     
   47200863.3390332     
   47200775.1180243     
   47200689.3771806     
   47200606.4746367     
   47200526.7715865     
   47200450.6320814     
   47200378.4228329     
   47200310.5130167     
   47200247.2740814     
   47200189.0795579     
   47200136.3048732     
   47200089.3271653     
   47200048.5251008     
   47200014.2786947     
   47199986.9691318     
   47199966.9785900     
   47199954.6900663     
   47199950.4872027     
   46877370.7684774     
   46877366.6016036     
   46877354.2245253     
   46877333.8331214     
   46877305.6370886     
   46877269.8594378     
   46877226.7360043     
   46877176.5149740     
   46877119.4564217     
   46877055.8318650     
   46876985.9238296     
   46876910.0254292     
   46876828.4399572     
   46876741.4804901     
   46876649.4695035     
   46876552.7384996     
   46876451.6276443     
   46876346.4854169     
   46876237.6682686     
   46876125.5402913     
   46876010.4728960     
   46875892.8445000     
   46875773.0402233     
   46875651.4515928     
   46875528.4762548     
   46875404.5176949     
   46875279.9849653     
   46875155.2924194     
   46875030.8594522     
   46874907.1102472     
   46874784.4735299     
   46874663.3823259     
   46874544.2737248     
   46874427.5886492     
   46874313.7716283     
   46874203.2705755     
   46874096.5365708     
   46873994.0236471     
   46873896.1885793     
   46873803.4906777     
   46873716.3915846     
   46873635.3550729     
   46873560.8468486     
   46873493.3343554     
   46873433.2865815     
   46873381.1738688     
   46873337.4677245     
   46873302.6406340     
   46873277.1658759     
   46873261.5173389     
   46873256.1693398     
   46545001.1102722     
   46544995.7430058     
   46544979.8281293     
   46544953.6569583     
   46544917.5350892     
   46544871.7818463     
   46544816.7297454     
   46544752.7239765     
   46544680.1219018     
   46544599.2925708     
   46544510.6162514     
   46544414.4839758     
   46544311.2971022     
   46544201.4668898     
   46544085.4140888     
   46543963.5685429     
   46543836.3688054     
   46543704.2617673     
   46543567.7022974     
   46543427.1528938     
   46543283.0833466     
   46543135.9704106     
   46542986.2974886     
   46542834.5543235     
   46542681.2366999     
   46542526.8461543     
   46542371.8896936     
   46542216.8795206     
   46542062.3327678     
   46541908.7712372     
   46541756.7211472     
   46541606.7128856     
   46541459.2807677     
   46541314.9628004     
   46541174.3004509     
   46541037.8384204     
   46540906.1244218     
   46540779.7089614     
   46540659.1451249     
   46540544.9883658     
   46540437.7962981     
   46540338.1284908     
   46540246.5462660     
   46540163.6124989     
   46540089.8914198     
   46540025.9484187     
   46539972.3498515     
   46539929.6628476     
   46539898.4551193     
   46539879.2947722     
   46539872.7501174     
   46205365.8677093     
   46205359.2205103     
   46205339.5360719     
   46205307.2111718     
   46205262.6569899     
   46205206.2985150     
   46205138.5739720     
   46205059.9342694     
   46204970.8424670     
   46204871.7732625     
   46204763.2124969     
   46204645.6566773     
   46204519.6125181     
   46204385.5964974     
   46204244.1344307     
   46204095.7610592     
   46203941.0196535     
   46203780.4616306     
   46203614.6461854     
   46203444.1399346     
   46203269.5165725     
   46203091.3565397     
   46202910.2467016     
   46202726.7800383     
   46202541.5553440     
   46202355.1769366     
   46202168.2543751     
   46201981.4021857     
   46201795.2395968     
   46201610.3902794     
   46201427.4820961     
   46201247.1468553     
   46201070.0200721     
   46200896.7407339     
   46200727.9510719     
   46200564.2963365     
   46200406.4245773     
   46200254.9864266     
   46200110.6348874     
   46199974.0251229     
   46199845.8142508     
   46199726.6611384     
   46199617.2262009     
   46199518.1712018     
   46199430.1590544     
   46199353.8536253     
   46199289.9195391     
   46199239.0219841     
   46199201.8265192     
   46199178.9988812     
   46199171.2047930     
   45857836.6679900     
   45857828.6588268     
   45857804.9661137     
   45857766.1028539     
   45857712.5961700     
   45857644.9866821     
   45857563.8279093     
   45857469.6856958     
   45857363.1376595     
   45857244.7726629     
   45857115.1903048     
   45856975.0004334     
   45856824.8226781     
   45856665.2860010     
   45856497.0282661     
   45856320.6958256     
   45856136.9431237     
   45855946.4323153     
   45855749.8328997     
   45855547.8213695     
   45855341.0808715     
   45855130.3008821     
   45854916.1768933     
   45854699.4101111     
   45854480.7071640     
   45854260.7798219     
   45854040.3447238     
   45853820.1231149     
   45853600.8405913     
   45853383.2268526     
   45853168.0154606     
   45852955.9436056     
   45852747.7518773     
   45852544.1840417     
   45852345.9868225     
   45852153.9096869     
   45851968.7046349     
   45851791.1259927     
   45851621.9302080     
   45851461.8756490     
   45851311.7224051     
   45851172.2320890     
   45851044.1676413     
   45850928.2931354     
   45850825.3735840     
   45850736.1747458     
   45850661.4629331     
   45850602.0048194     
   45850558.5672470     
   45850531.9170342     
   45850522.8207834     
   45501785.2560464     
   45501775.8025723     
   45501747.8623295     
   45501702.0758644     
   45501639.0970878     
   45501559.5926399     
   45501464.2412817     
   45501353.7333151     
   45501228.7700274     
   45501090.0631621     
   45500938.3344135     
   45500774.3149438     
   45500598.7449226     
   45500412.3730879     
   45500215.9563264     
   45500010.2592736     
   45499796.0539318     
   45499574.1193050     
   45499345.2410513     
   45499110.2111490     
   45498869.8275785     
   45498624.8940177     
   45498376.2195492     
   45498124.6183805     
   45497870.9095751     
   45497615.9167932     
   45497360.4680426     
   45497105.3954381     
   45496851.5349692     
   45496599.7262742     
   45496350.8124225     
   45496105.6397010     
   45495865.0574073     
   45495629.9176467     
   45495401.0751340     
   45495179.3869979     
   45494965.7125895     
   45494760.9132925     
   45494565.8523358     
   45494381.3946074     
   45494208.4064699     
   45494047.7555762     
   45493900.3106860     
   45493766.9414819     
   45493648.5183859     
   45493545.9123744     
   45493459.9947934     
   45493391.6371716     
   45493341.7110334     
   45493311.0877093     
   45493300.6381454     
   45136584.8858332     
   45136573.9080026     
   45136541.4881275     
   45136488.4059332     
   45136415.4532130     
   45136323.4331978     
   45136213.1599572     
   45136085.4578321     
   45135941.1608960     
   45135781.1124435     
   45135606.1645071     
   45135417.1773980     
   45135215.0192720     
   45135000.5657182     
   45134774.6993699     
   45134538.3095358     
   45134292.2918513     
   45134037.5479475     
   45133774.9851384     
   45133505.5161236     
   45133230.0587066     
   45132949.5355271     
   45132664.8738063     
   45132377.0051043     
   45132086.8650889     
   45131795.3933141     
   45131503.5330082     
   45131212.2308703     
   45130922.4368740     
   45130635.1040778     
   45130351.1884419     
   45130071.6486492     
   45129797.4459317     
   45129529.5438994     
   45129268.9083730     
   45129016.5072189     
   45128773.3101851     
   45128540.2887395     
   45128318.4159071     
   45128108.6661092     
   45127912.0150005     
   45127729.4393062     
   45127561.9166576     
   45127410.4254261     
   45127275.9445551     
   45127159.4533895     
   45127061.9315027     
   45126984.3585209     
   45126927.7139439     
   45126892.9769632     
   45126881.1262762     
   44761611.9465710     
   44761599.3697412     
   44761562.2543942     
   44761501.5310969     
   44761418.1405712     
   44761313.0330933     
   44761187.1679286     
   44761041.5128002     
   44760877.0433898     
   44760694.7428688     
   44760495.6014597     
   44760280.6160241     
   44760050.7896775     
   44759807.1314292     
   44759550.6558449     
   44759282.3827316     
   44759003.3368436     
   44758714.5476068     
   44758417.0488620     
   44758111.8786238     
   44757800.0788555     
   44757482.6952584     
   44757160.7770734     
   44756835.3768945     
   44756507.5504937     
   44756178.3566544     
   44755848.8570138     
   44755520.1159129     
   44755193.2002526     
   44754869.1793557     
   44754549.1248327     
   44754234.1104524     
   44753925.2120140     
   44753623.5072224     
   44753330.0755644     
   44753045.9981848     
   44752772.3577628     
   44752510.2383878     
   44752260.7254332     
   44752024.9054281     
   44751803.8659272     
   44751598.6953765     
   44751410.4829764     
   44751240.3185399     
   44751089.2923473     
   44750958.4949958     
   44750849.0172439     
   44750761.9498508     
   44750698.3834106     
   44750659.4081800     
   44750646.1139012     
   44376247.8392987     
   44376233.5978618     
   44376191.5981241     
   44376122.9328199     
   44376028.7022367     
   44375910.0136726     
   44375767.9809343     
   44375603.7238702     
   44375418.3679401     
   44375213.0438173     
   44374988.8870221     
   44374747.0375851     
   44374488.6397383     
   44374214.8416323     
   44373926.7950777     
   44373625.6553095     
   44373312.5807728     
   44372988.7329276     
   44372655.2760721     
   44372313.3771819     
   44371964.2057650     
   44371608.9337297     
   44371248.7352652     
   44370884.7867328     
   44370518.2665667     
   44370150.3551834     
   44369782.2348977     
   44369415.0898448     
   44369050.1059074     
   44368688.4706460     
   44368331.3732321     
   44367980.0043830     
   44367635.5562968     
   44367299.2225878     
   44366972.1982205     
   44366655.6794409     
   44366350.8637059     
   44366058.9496087     
   44365781.1368002     
   44365518.6259051     
   44365272.6184330     
   44365044.3166833     
   44364834.9236430     
   44364645.6428787     
   44364477.6784195     
   44364332.2346338     
   44364210.5160967     
   44364113.7274496     
   44364043.0732513     
   44363999.7578197     
   44363984.9850650     
   43979881.1154252     
   43979865.1570124     
   43979818.1232018     
   43979741.2794456     
   43979635.8953846     
   43979503.2444009     
   43979344.6032124     
   43979161.2515075     
   43978954.4716168     
   43978725.5482199     
   43978475.7680852     
   43978206.4198405     
   43977918.7937725     
   43977614.1816531     
   43977293.8765901     
   43976959.1729013     
   43976611.3660091     
   43976251.7523548     
   43975881.6293293     
   43975502.2952206     
   43975115.0491746     
   43974721.1911682     
   43974322.0219933     
   43973918.8432502     
   43973512.9573483     
   43973105.6675135     
   43972698.2778004     
   43972292.0931079     
   43971888.4191975     
   43971488.5627120     
   43971093.8311948     
   43970705.5331075     
   43970324.9778451     
   43969953.4757482     
   43969592.3381104     
   43969242.8771805     
   43968906.4061588     
   43968584.2391858     
   43968277.6913235     
   43967988.0785280     
   43967716.7176131     
   43967464.9262036     
   43967234.0226787     
   43967025.3261043     
   43966840.1561535     
   43966679.8330164     
   43966545.6772967     
   43966439.0098965     
   43966361.1518884     
   43966313.4243747     
   43966297.1483340     
   43571909.8843736     
   43571892.1746596     
   43571840.0103890     
   43571754.8389740     
   43571638.1078218     
   43571491.2640248     
   43571315.7540955     
   43571113.0237429     
   43570884.5176872     
   43570631.6795115     
   43570355.9515462     
   43570058.7747858     
   43569741.5888333     
   43569405.8318718     
   43569052.9406602     
   43568684.3505508     
   43568301.4955271     
   43567905.8082587     
   43567498.7201729     
   43567081.6615396     
   43566656.0615683     
   43566223.3485155     
   43565784.9498001     
   43565342.2921260     
   43564896.8016091     
   43564449.9039084     
   43564003.0243587     
   43563557.5881035     
   43563115.0202274     
   43562676.7458856     
   43562244.1904302     
   43561818.7795307     
   43561401.9392894     
   43560995.0963485     
   43560599.6779889     
   43560217.1122203     
   43559848.8278595     
   43559496.2545981     
   43559160.8230577     
   43558843.9648318     
   43558547.1125140     
   43558271.6997117     
   43558019.1610440     
   43557790.9321247     
   43557588.4495280     
   43557413.1507387     
   43557266.4740842     
   43557149.8586498     
   43557064.7441759     
   43557012.5709381     
   43556994.7796085     
   43151744.4917507     
   43151725.0198718     
   43151667.6978735     
   43151574.1624276     
   43151446.0451224     
   43151284.9723420     
   43151092.5651908     
   43150870.4394605     
   43150620.2056357     
   43150343.4689357     
   43150041.8293891     
   43149716.8819390     
   43149370.2165754     
   43149003.4184927     
   43148618.0682697     
   43148215.7420693     
   43147798.0118566     
   43147366.4456308     
   43146922.6076722     
   43146468.0587985     
   43146004.3566312     
   43145533.0558687     
   43145055.7085639     
   43144573.8644060     
   43144089.0710030     
   43143602.8741636     
   43143116.8181784     
   43142632.4460956     
   43142151.2999932     
   43141674.9212432     
   43141204.8507684     
   43140742.6292889     
   43140289.7975583     
   43139847.8965870     
   43139418.4678527     
   43139003.0534951     
   43138603.1964963     
   43138220.4408427     
   43137856.3316705     
   43137512.4153912     
   43137190.2397983     
   43136891.3541529     
   43136617.3092490     
   43136369.6574560     
   43136149.9527393     
   43135959.7506585     
   43135800.6083416     
   43135674.0844357     
   43135581.7390345     
   43135525.1335811     
   43135505.8307470     
   42718810.4626466     
   42718789.2472090     
   42718726.8268515     
   42718625.0321138     
   42718485.6824537     
   42718310.5863757     
   42718101.5416027     
   42717860.3352897     
   42717588.7442734     
   42717288.5353568     
   42716961.4656235     
   42716609.2827795     
   42716233.7255201     
   42715836.5239182     
   42715419.3998313     
   42714984.0673255     
   42714532.2331132     
   42714065.5970018     
   42713585.8523524     
   42713094.6865452     
   42712593.7814492     
   42712084.8138952     
   42711569.4561494     
   42711049.3763855     
   42710526.2391538     
   42710001.7058452     
   42709477.4351483     
   42708955.0834982     
   42708436.3055144     
   42707922.7544274     
   42707416.0824912     
   42706917.9413811     
   42706429.9825745     
   42705953.8577137     
   42705491.2189491     
   42705043.7192620     
   42704613.0127643     
   42704200.7549758     
   42703808.6030763     
   42703438.2161324     
   42703091.2552975     
   42702769.3839846     
   42702474.2680101     
   42702207.5757088     
   42701970.9780191     
   42701766.1485378     
   42701594.7635438     
   42701458.5019908     
   42701359.0454681     
   42701298.0781302     
   42701277.2865940     
   42272551.6965740     
   42272528.7921766     
   42272461.4384353     
   42272351.6608061     
   42272201.4667446     
   42272012.8461513     
   42271787.7718570     
   42271528.2001440     
   42271236.0713005     
   42270913.3102029     
   42270561.8269243     
   42270183.5173647     
   42269780.2639010     
   42269353.9360527     
   42268906.3911613     
   42268439.4750813     
   42267955.0228788     
   42267454.8595373     
   42266940.8006663     
   42266414.6532124     
   42265878.2161691     
   42265333.2812849     
   42264781.6337661     
   42264225.0529733     
   42263665.3131094     
   42263104.1838969     
   42262543.4312433     
   42261984.8178917     
   42261430.1040559     
   42260881.0480374     
   42260339.4068227     
   42259806.9366595     
   42259285.3936096     
   42258776.5340772     
   42258282.1153104     
   42257803.8958753     
   42257343.6361002     
   42256903.0984886     
   42256484.0481002     
   42256088.2528984     
   42255717.4840617     
   42255373.5162602     
   42255058.1278943     
   42254773.1012952     
   42254520.2228869     
   42254301.2833077     
   42254118.0774926     
   42253972.4047134     
   42253866.0685789     
   42253800.8769935     
   42253778.6420740     
   41812433.8911392     
   41812409.3952433     
   41812337.3986264     
   41812220.1181626     
   41812059.7449410     
   41811858.4451029     
   41811618.3607105     
   41811341.6106423     
   41811030.2915135     
   41810686.4786150     
   41810312.2268703     
   41809909.5718049     
   41809480.5305280     
   41809027.1027214     
   41808551.2716344     
   41808055.0050832     
   41807540.2564504     
   41807008.9656844     
   41806463.0602960     
   41805904.4563499     
   41805335.0594502     
   41804756.7657167     
   41804171.4627511     
   41803581.0305910     
   41802987.3426495     
   41802392.2666384     
   41801797.6654743     
   41801205.3981642     
   41800617.3206686     
   41800035.2867420     
   41799461.1487466     
   41798896.7584381     
   41798343.9677225     
   41797804.6293795     
   41797280.5977534     
   41796773.7294073     
   41796285.8837399     
   41795818.9235622     
   41795374.7156330     
   41794955.1311510     
   41794562.0462022     
   41794197.3421605     
   41793862.9060409     
   41793560.6308032     
   41793292.4156054     
   41793060.1660060     
   41792865.7941146     
   41792711.2186886     
   41792598.3651782     
   41792529.1657166     
   41792505.5590571     
   41337948.1608629     
   41337922.2207041     
   41337846.0172221     
   41337721.9495844     
   41337552.3826600     
   41337339.6483255     
   41337086.0467883     
   41336793.8479218     
   41336465.2926094     
   41336102.5940954     
   41335707.9393381     
   41335283.4903652     
   41334831.3856276     
   41334353.7413512     
   41333852.6528829     
   41333330.1960322     
   41332788.4284046     
   41332229.3907256     
   41331655.1081556     
   41331067.5915927     
   41330468.8389625     
   41329860.8364934     
   41329245.5599765     
   41328624.9760077     
   41328001.0432107     
   41327375.7134391     
   41326750.9329558     
   41326128.6435874     
   41325510.7838521     
   41324899.2900581     
   41324296.0973706     
   41323703.1408449     
   41323122.3564237     
   41322555.6818948     
   41322005.0578075     
   41321472.4283451     
   41320959.7421510     
   41320468.9531041     
   41320002.0210445     
   41319560.9124429     
   41319147.6010145     
   41318764.0682741     
   41318412.3040292     
   41318094.3068115     
   41317812.0842433     
   41317567.6533375     
   41317363.0407318     
   41317200.2828529     
   41317081.4260129     
   41317008.5264364     
   41316983.6502196     
   40848614.8059047     
   40848587.6249215     
   40848507.8145656     
   40848377.9404283     
   40848200.5248200     
   40847978.0486180     
   40847712.9531055     
   40847407.6417990     
   40847064.4822642     
   40846685.8079160     
   40846273.9198043     
   40845831.0883829     
   40845359.5552623     
   40844861.5349450     
   40844339.2165443     
   40843794.7654859     
   40843230.3251921     
   40842648.0187488     
   40842049.9505556     
   40841438.2079576     
   40840814.8628597     
   40840181.9733226     
   40839541.5851386     
   40838895.7333882     
   40838246.4439738     
   40837595.7351322     
   40836945.6189202     
   40836298.1026750     
   40835655.1904446     
   40835018.8843864     
   40834391.1861316     
   40833774.0981114     
   40833169.6248431     
   40832579.7741704     
   40832006.5584574     
   40831451.9957292     
   40830918.1107582     
   40830406.9360902     
   40829920.5130074     
   40829460.8924252     
   40829030.1357172     
   40828630.3154671     
   40828263.5161432     
   40827931.8346917     
   40827637.3810483     
   40827382.2785633     
   40827168.6643394     
   40826998.6894824     
   40826874.5192600     
   40826798.3331706     
   40826772.3249152     
   40343987.1734394     
   40343959.0163795     
   40343876.3776565     
   40343741.9656359     
   40343558.4363887     
   40343328.3961277     
   40343054.4035994     
   40342738.9724299     
   40342384.5734290     
   40341993.6368497     
   40341568.5546092     
   40341111.6824704     
   40340625.3421873     
   40340111.8236180     
   40339573.3868050     
   40339012.2640284     
   40338430.6618315     
   40337830.7630231     
   40337214.7286569     
   40336584.6999909     
   40335942.8004265     
   40335291.1374304     
   40334631.8044371     
   40333966.8827345     
   40333298.4433307     
   40332628.5488010     
   40331959.2551148     
   40331292.6134382     
   40330630.6719127     
   40329975.4774032     
   40329329.0772157     
   40328693.5207769     
   40328070.8612733     
   40327463.1572446     
   40326872.4741251     
   40326300.8857286     
   40325750.4756692     
   40325223.3387150     
   40324721.5820648     
   40324247.3265450     
   40323802.7077186     
   40323389.8769015     
   40323011.0020794     
   40322668.2687239     
   40322363.8804971     
   40322100.0598485     
   40321879.0484931     
   40321703.1077670     
   40321574.5188700     
   40321495.5829851     
   40321468.6212938     
   39823655.5434859     
   39823626.7389032     
   39823542.2357158     
   39823404.8529028     
   39823217.3487715     
   39822982.4239812     
   39822702.7244726     
   39822380.8443056     
   39822019.3284147     
   39821620.6752857     
   39821187.3395609     
   39820721.7345810     
   39820226.2348678     
   39819703.1785566     
   39819154.8697838     
   39818583.5810353     
   39817991.5554636     
   39817381.0091763     
   39816754.1335037     
   39816113.0972484     
   39815460.0489208     
   39814797.1189647     
   39814126.4219750     
   39813450.0589089     
   39812770.1192913     
   39812088.6834160     
   39811407.8245398     
   39810729.6110687     
   39810056.1087336     
   39809389.3827505     
   39808731.4999625     
   39808084.5309554     
   39807450.5521426     
   39806831.6478101     
   39806229.9121142     
   39805647.4510242     
   39805086.3841969     
   39804548.8467769     
   39804036.9911109     
   39803552.9883657     
   39803099.0300382     
   39802677.3293530     
   39802290.1225313     
   39801939.6699198     
   39801628.2569849     
   39801358.1951406     
   39801131.8224358     
   39800951.5040895     
   39800819.6328304     
   39800738.6290709     
   39800710.9408649     
   39287250.9636347     
   39287221.9019437     
   39287136.6775550     
   39286998.1793205     
   39286809.2286267     
   39286572.5829155     
   39286290.9390467     
   39285966.9365150     
   39285603.1605357     
   39285202.1450126     
   39284766.3753998     
   39284298.2914729     
   39283800.2900200     
   39283274.7274666     
   39282723.9224444     
   39282150.1583179     
   39281555.6856766     
   39280942.7248057     
   39280313.4681422     
   39279670.0827272     
   39279014.7126605     
   39278349.4815656     
   39277676.4950702     
   39276997.8433064     
   39276315.6034355     
   39275631.8421982     
   39274948.6184914     
   39274267.9859707     
   39273591.9956762     
   39272922.6986777     
   39272262.1487329     
   39271612.4049513     
   39270975.5344549     
   39270353.6150237     
   39269748.7377151     
   39269163.0094389     
   39268598.5554800     
   39268057.5219459     
   39267542.0781214     
   39267054.4187151     
   39266596.7659809     
   39266171.3716824     
   39265780.5189020     
   39265426.5236863     
   39265111.7364661     
   39264838.5433083     
   39264609.3668822     
   39264426.6671651     
   39264292.9420245     
   39264210.7275528     
   39264182.5982498     
   38734448.9578604     
   38734420.0825507     
   38734335.4338234     
   38734197.9222035     
   38734010.3867627     
   38733775.5989062     
   38733496.2659335     
   38733175.0343967     
   38732814.4932792     
   38732417.1770184     
   38731985.5683910     
   38731522.1012850     
   38731029.1633747     
   38730509.0987200     
   38729964.2103063     
   38729396.7625439     
   38728808.9837422     
   38728203.0685745     
   38727581.1805488     
   38726945.4544994     
   38726297.9991099     
   38725640.8994833     
   38724976.2197667     
   38724306.0058440     
   38723632.2881018     
   38722957.0842773     
   38722282.4023915     
   38721610.2437722     
   38720942.6061656     
   38720281.4869339     
   38719628.8863338     
   38718986.8108701     
   38718357.2767090     
   38717742.3131361     
   38717143.9660424     
   38716564.3014220     
   38716005.4088380     
   38715469.4048455     
   38714958.4363458     
   38714474.6838291     
   38714020.3644662     
   38713597.7350564     
   38713209.0947252     
   38712856.7873199     
   38712543.2036357     
   38712270.7832038     
   38712042.0159895     
   38711859.4437734     
   38711725.6606979     
   38711643.3134364     
   38711615.1008952     
   38164973.0503635     
   38164944.8396888     
   38164862.1640386     
   38164727.9029186     
   38164544.8645712     
   38164315.7896133     
   38164043.3543931     
   38163730.1741012     
   38163378.8056706     
   38162991.7504930     
   38162571.4569834     
   38162120.3230180     
   38161640.6982720     
   38161134.8864809     
   38160605.1476492     
   38160053.7002288     
   38159482.7232881     
   38158894.3586935     
   38158290.7133242     
   38157673.8613391     
   38157045.8465175     
   38156408.6846920     
   38155764.3662928     
   38155114.8590202     
   38154462.1106655     
   38153808.0520952     
   38153154.6004117     
   38152503.6623047     
   38151857.1375988     
   38151216.9230151     
   38150584.9161328     
   38149963.0195537     
   38149353.1452638     
   38148757.2191781     
   38148177.1858413     
   38147615.0132363     
   38147072.6977232     
   38146552.2690026     
   38146055.7950418     
   38145585.3869385     
   38145143.2036883     
   38144731.4566624     
   38144352.4139775     
   38144008.4047033     
   38143701.8222605     
   38143435.1277319     
   38143210.8518004     
   38143031.5962070     
   38142900.0363912     
   38142818.9233323     
   38142791.0841113     
   37578598.0855561     
   37578571.0225220     
   37578491.7315675     
   37578363.0093938     
   37578187.5870051     
   37577968.1325836     
   37577707.2540763     
   37577407.5015353     
   37577071.3692494     
   37576701.2977011     
   37576299.6753821     
   37575868.8404939     
   37575411.0825616     
   37574928.6439867     
   37574423.7215612     
   37573898.4679681     
   37573354.9932911     
   37572795.3665551     
   37572221.6173247     
   37571635.7373819     
   37571039.6825102     
   37570435.3744110     
   37569824.7027793     
   37569209.5275772     
   37568591.6815211     
   37567972.9728245     
   37567355.1882286     
   37566740.0963522     
   37566129.4514038     
   37565524.9972484     
   37564928.4719104     
   37564341.6125124     
   37563766.1606511     
   37563203.8682092     
   37562656.5036065     
   37562125.8585241     
   37561613.7548587     
   37561122.0520746     
   37560652.6548740     
   37560207.5209727     
   37559788.6687567     
   37559398.1850531     
   37559038.2320728     
   37558711.0534962     
   37558418.9815572     
   37558164.4423288     
   37557949.9628967     
   37557778.1764567     
   37557651.8196726     
   37557573.7303762     
   37557546.8492461     
   36975153.3992976     
   36975127.9298579     
   36975053.3297119     
   36974932.2698313     
   36974767.3668593     
   36974561.1844903     
   36974316.2346376     
   36974034.9784272     
   36973719.8270528     
   36973373.1425169     
   36972997.2382835     
   36972594.3798643     
   36972166.7853544     
   36971716.6259380     
   36971246.0263777     
   36970757.0655046     
   36970251.7767291     
   36969732.1485851     
   36969200.1253290     
   36968657.6076154     
   36968106.4532742     
   36967548.4782206     
   36966985.4575305     
   36966419.1266925     
   36965851.1831316     
   36965283.2880183     
   36964717.0684256     
   36964154.1199017     
   36963596.0094884     
   36963044.2794002     
   36962500.4512467     
   36961966.0309810     
   36961442.5147026     
   36960931.3954028     
   36960434.1707045     
   36959952.3514384     
   36959487.4717105     
   36959041.0996169     
   36958614.8486093     
   36958210.3897478     
   36957829.4650364     
   36957473.9004575     
   36957145.6208422     
   36956846.6653720     
   36956579.1965121     
   36956345.5112791     
   36956148.0430378     
   36955989.3675050     
   36955872.2302167     
   36955799.5617621     
   36955774.4636153     
   36354526.0070955     
   36354502.4907899     
   36354433.6411539     
   36354321.9788640     
   36354169.9863289     
   36353980.1069098     
   36353754.7441290     
   36353496.2608804     
   36353206.9786497     
   36352889.1767507     
   36352545.0915802     
   36352176.9158916     
   36351786.7980865     
   36351376.8415216     
   36350949.1038312     
   36350505.5962631     
   36350048.2830181     
   36349579.0806031     
   36349099.8572058     
   36348612.4320898     
   36348118.5750156     
   36347620.0057025     
   36347118.3933442     
   36346615.3562980     
   36346112.4618056     
   36345611.2259214     
   36345113.1136840     
   36344619.5395962     
   36344131.8686548     
   36343651.4175893     
   36343179.4571257     
   36342717.2150782     
   36342265.8803616     
   36341826.6081605     
   36341400.5265740     
   36340988.7457789     
   36340592.3680973     
   36340212.5020691     
   36339850.2801875     
   36339506.8791269     
   36339183.5408241     
   36338881.5976162     
   36338602.4934964     
   36338347.8041722     
   36338119.2779724     
   36337918.8634786     
   36337748.7561081     
   36337611.4173459     
   36337509.5100918     
   36337445.8813482     
   36337423.6526905     
   35716664.1071774     
   35716642.7707720     
   35716580.3526445     
   35716479.2254050     
   35716341.7408142     
   35716170.2266120     
   35715966.9836293     
   35715734.2831611     
   35715474.3645742     
   35715189.4331144     
   35714881.6578843     
   35714553.1699638     
   35714206.0606352     
   35713842.3796902     
   35713464.1337786     
   35713073.2847773     
   35712671.7481772     
   35712261.3914393     
   35711844.0322706     
   35711421.4368227     
   35710995.3178180     
   35710567.3325838     
   35710139.0810065     
   35709712.1030914     
   35709287.8767371     
   35708867.8152655     
   35708453.2648495     
   35708045.5018762     
   35707645.7297714     
   35707255.0769077     
   35706874.5935039     
   35706505.2490460     
   35706147.9306987     
   35705803.4429315     
   35705472.5087279     
   35705155.7701684     
   35704853.7950808     
   35704567.0817413     
   35704296.0659189     
   35704041.1365800     
   35703802.6684162     
   35703581.0607034     
   35703376.8046519     
   35703190.5670684     
   35703023.2066199     
   35702875.8348852     
   35702749.8212481     
   35702646.8618898     
   35702569.3009609     
   35702520.2029346     
   35702502.9980026     
   35061581.3067555     
   35061562.2174688     
   35061506.4561311     
   35061416.2793214     
   35061293.9361812     
   35061141.6633063     
   35060961.6803014     
   35060756.1858948     
   35060527.3545153     
   35060277.3332768     
   35060008.2392759     
   35059722.1571365     
   35059421.1367592     
   35059107.1911998     
   35058782.2946584     
   35058448.3805117     
   35058107.3392512     
   35057761.0163595     
   35057411.2101916     
   35057059.6697326     
   35056708.0920689     
   35056358.1195311     
   35056011.3363787     
   35055669.2660028     
   35055333.3665594     
   35055005.0265918     
   35054685.5600359     
   35054376.2005752     
   35054078.0971999     
   35053792.3055371     
   35053519.7819202     
   35053261.3752174     
   35053017.8160262     
   35052789.7036184     
   35052577.4903909     
   35052381.4742715     
   35052201.7799869     
   35052038.3568986     
   35051890.9820939     
   35051759.2523320     
   35051642.5419694     
   35051539.9817080     
   35051450.4099735     
   35051372.3419825     
   35051304.2793042     
   35051244.9564839     
   35051193.7720584     
   35051151.0996789     
   35051117.6521437     
   35051094.6765309     
   35051085.3465902     
   34389362.0008211     
   34389345.0771853     
   34389295.7704636     
   34389216.2765006     
   34389108.7865728     
   34388975.4820290     
   34388818.5297318     
   34388640.0781948     
   34388442.2543317     
   34388227.1606506     
   34387996.8728761     
   34387753.4379267     
   34387498.8720904     
   34387235.1593810     
   34386964.2498795     
   34386688.0580500     
   34386408.4613041     
   34386127.2984854     
   34385846.3677697     
   34385567.4242093     
   34385292.1773972     
   34385022.2892202     
   34384759.3719149     
   34384504.9827419     
   34384260.6218352     
   34384027.7277155     
   34383807.6725219     
   34383601.7565473     
   34383411.1948431     
   34383237.1145547     
   34383080.5404058     
   34382942.3842009     
   34382823.4374485     
   34382724.3648644     
   34382645.6990862     
   34382587.7956697     
   34382550.8145802     
   34382534.6471505     
   34382538.8210738     
   34382562.4517037     
   34382604.3397190     
   34382662.9793390     
   34382736.6204897     
   34382823.3498458     
   34382919.9868974     
   34383021.4261649     
   34383120.1018616     
   34383206.0431285     
   34383271.2287041     
   34383311.3481925     
   34383323.9644947     
   33700168.2029554     
   33700153.2732130     
   33700109.9537828     
   33700040.4379202     
   33699946.9028169     
   33699831.5059016     
   33699696.3821229     
   33699543.6419930     
   33699375.3701539     
   33699193.6245217     
   33699000.4355749     
   33698797.8056323     
   33698587.7083078     
   33698372.0879271     
   33698152.8593138     
   33697931.9077181     
   33697711.0875441     
   33697492.2207944     
   33697277.0969715     
   33697067.4734025     
   33696865.0738101     
   33696671.5847307     
   33696488.6489187     
   33696317.8690546     
   33696160.7999367     
   33696018.9463488     
   33695893.7586172     
   33695786.6269166     
   33695698.8997075     
   33695631.8584824     
   33695586.7207841     
   33695564.6234057     
   33695566.5883001     
   33695593.4756482     
   33695645.9281629     
   33695724.4637130     
   33695829.4535547     
   33695961.2105160     
   33696120.1520550     
   33696306.7174183     
   33696520.5950883     
   33696760.3866405     
   33697023.2466323     
   33697304.0434823     
   33697598.9340839     
   33697906.7160066     
   33698227.4230943     
   33698560.7473808     
   33698888.9747736     
   33699154.4687265     
   33699261.6613691     
   32994247.8406690     
   32994234.7422518     
   32994196.9499306     
   32994136.6878806     
   32994056.1358381     
   32993957.4310331     
   32993842.6703071     
   32993713.9124627     
   32993573.1808473     
   32993422.4653343     
   32993263.7246827     
   32993098.8893041     
   32992929.8633123     
   32992758.5261795     
   32992586.7323082     
   32992416.3093655     
   32992249.0606416     
   32992086.7678196     
   32991931.1875055     
   32991784.0451285     
   32991647.0340862     
   32991521.8226380     
   32991410.0706332     
   32991313.4049285     
   32991233.4277150     
   32991171.7065191     
   32991129.7694874     
   32991109.1029972     
   32991111.0637837     
   32991136.9525921     
   32991188.0020507     
   32991265.3971692     
   32991370.3515253     
   32991504.2377576     
   32991668.6804678     
   32991864.9921880     
   32992094.1066628     
   32992356.3731505     
   32992650.7604032     
   32992975.0719891     
   32993329.0950343     
   32993714.9666161     
   32994136.5913757     
   32994602.6840867     
   32995112.6623861     
   32995643.5171395     
   32996147.4584404     
   32996569.3857901     
   32996868.0872868     
   32997034.2415308     
   32997086.4748201     
   32271944.1384991     
   32271932.8298513     
   32271900.4302014     
   32271849.1547190     
   32271781.1395735     
   32271698.4507518     
   32271603.0937832     
   32271497.0225300     
   32271382.1464768     
   32271260.3390424     
   32271133.4432490     
   32271003.2744911     
   32270871.6242419     
   32270740.2634729     
   32270610.9513222     
   32270485.4445783     
   32270365.4873859     
   32270252.7976494     
   32270149.0744967     
   32270056.0135928     
   32269975.3051094     
   32269908.6007084     
   32269857.4454725     
   32269823.3727367     
   32269807.8889895     
   32269812.4899052     
   32269838.6763790     
   32269887.9687083     
   32269962.1903092     
   32270063.1029145     
   32270192.3334380     
   32270351.4085672     
   32270541.4864759     
   32270762.7002012     
   32271013.9692721     
   32271295.6749890     
   32271609.6264462     
   32271958.3272789     
   32272348.4407036     
   32272790.1223150     
   32273283.9134922     
   32273812.0122527     
   32274338.4408392     
   32274822.3448581     
   32275230.3745652     
   32275550.5723545     
   32275788.9082434     
   32275952.4095432     
   32276053.8087435     
   32276107.1410408     
   32276123.3727824     
   31533705.4529728     
   31533696.1282513     
   31533669.5764802     
   31533627.8503818     
   31533572.8805096     
   31533506.5097590     
   31533430.5166553     
   31533346.6360216     
   31533256.5783716     
   31533162.0380527     
   31533064.7021798     
   31532966.2614761     
   31532868.4106289     
   31532772.8439543     
   31532681.2293905     
   31532595.1827988     
   31532516.3192942     
   31532446.2991634     
   31532386.7912529     
   31532339.4155074     
   31532305.7337044     
   31532287.3558953     
   31532286.1647198     
   31532303.8956247     
   31532342.1709781     
   31532402.6053971     
   31532486.6861449     
   31532595.5350119     
   31532728.9400511     
   31532887.1420902     
   31533071.3275814     
   31533282.4891551     
   31533522.3698888     
   31533797.1933559     
   31534117.9190351     
   31534487.9933029     
   31534901.8536304     
   31535340.6442319     
   31535770.5071743     
   31536165.9878520     
   31536508.1434179     
   31536789.9835542     
   31537015.5809072     
   31537185.8751217     
   31537306.8346162     
   31537386.5174166     
   31537431.6606184     
   31537451.0611958     
   31537453.4140863     
   31537447.6024666     
   31537444.1317182     
   30780094.7686218     
   30780087.9216573     
   30780068.4239359     
   30780037.7233196     
   30779997.1856551     
   30779948.1085858     
   30779891.7799902     
   30779829.5298418     
   30779762.7572398     
   30779692.9627482     
   30779621.7441636     
   30779550.7557610     
   30779481.6829959     
   30779416.2234307     
   30779356.1425429     
   30779303.3163311     
   30779259.5000290     
   30779226.2386525     
   30779205.0683126     
   30779197.6478190     
   30779205.7211254     
   30779230.6682765     
   30779272.7448220     
   30779332.9163478     
   30779412.4911609     
   30779511.7680103     
   30779631.2686389     
   30779774.3404966     
   30779950.7207723     
   30780167.4878820     
   30780426.7524331     
   30780723.9530603     
   30781042.8231161     
   30781360.9425117     
   30781662.0242827     
   30781931.7004857     
   30782162.4543642     
   30782357.4634967     
   30782514.1566280     
   30782629.9973031     
   30782707.8629853     
   30782750.9853497     
   30782762.1937775     
   30782746.9462234     
   30782710.7726004     
   30782659.4926463     
   30782600.1186974     
   30782539.8972710     
   30782486.7165081     
   30782448.9625115     
   30782435.0408364     
   30011798.2176070     
   30011794.4097560     
   30011783.2451000     
   30011764.7995407     
   30011738.9965166     
   30011706.0270913     
   30011666.4499597     
   30011621.1780530     
   30011571.4642249     
   30011518.8083737     
   30011464.9515464     
   30011411.9564154     
   30011362.1665480     
   30011318.0602287     
   30011281.7790417     
   30011254.7759026     
   30011238.4927761     
   30011234.1120009     
   30011241.7983158     
   30011261.5244312     
   30011294.5907201     
   30011345.8617861     
   30011425.4224800     
   30011539.0045579     
   30011689.1245614     
   30011872.4333485     
   30012077.7284379     
   30012294.1542335     
   30012509.5804947     
   30012714.4432856     
   30012901.3640477     
   30013069.3378759     
   30013219.5623958     
   30013346.0910421     
   30013443.1104658     
   30013509.8944248     
   30013546.2477974     
   30013551.0662764     
   30013526.1108480     
   30013474.3556720     
   30013398.6802832     
   30013302.8759023     
   30013191.8363390     
   30013070.6026948     
   30012944.7825373     
   30012820.3650600     
   30012703.4172141     
   30012600.3919220     
   30012518.0544450     
   30012463.4793866     
   30012444.0892812     
   29229623.8228337     
   29229624.3185116     
   29229620.2602935     
   29229607.0745838     
   29229583.6191277     
   29229550.4621034     
   29229508.9988754     
   29229460.9856275     
   29229408.2053532     
   29229352.6238687     
   29229296.4130615     
   29229241.7873358     
   29229191.3714160     
   29229148.8829164     
   29229120.5390348     
   29229114.9198046     
   29229138.5908110     
   29229190.7042614     
   29229266.6051734     
   29229363.8464133     
   29229480.7698303     
   29229612.9142545     
   29229752.3643270     
   29229891.6769939     
   29230027.0709265     
   29230160.7538836     
   29230294.2752995     
   29230421.8313499     
   29230535.2870788     
   29230629.5113412     
   29230702.2518540     
   29230750.3239663     
   29230770.8077504     
   29230763.1904728     
   29230727.7737937     
   29230664.8272712     
   29230575.5970900     
   29230462.6749873     
   29230328.9663137     
   29230177.8654687     
   29230013.3160305     
   29229839.4804590     
   29229660.6607037     
   29229481.5866265     
   29229307.3251500     
   29229143.2976188     
   29228995.2963406     
   29228869.3219992     
   29228771.5582603     
   29228708.3533292     
   29228686.1995662     
   28434611.4271477     
   28434593.6838281     
   28434545.9787009     
   28434479.1317801     
   28434400.8105202     
   28434316.6108667     
   28434230.7595359     
   28434146.8846756     
   28434069.0863677     
   28434001.2583320     
   28433946.9561218     
   28433910.2560773     
   28433895.0289696     
   28433904.0266337     
   28433937.4341477     
   28433989.8003686     
   28434052.6539526     
   28434124.0434123     
   28434208.9493157     
   28434310.2216446     
   28434425.1013039     
   28434547.2183024     
   28434669.0621433     
   28434785.7931441     
   28434894.4362786     
   28434990.5582597     
   28435069.7908660     
   28435129.3241086     
   28435166.9638421     
   28435180.5072989     
   28435168.0552188     
   28435128.9528421     
   28435063.5540551     
   28434972.6387218     
   28434857.5882664     
   28434720.3636561     
   28434563.2156575     
   28434388.5667190     
   28434199.2752206     
   28433998.5969535     
   28433790.1589615     
   28433577.9812128     
   28433366.4365097     
   28433160.1239282     
   28432963.8710952     
   28432782.7172635     
   28432621.8939632     
   28432486.8519760     
   28432383.2410570     
   28432316.8854938     
   28432293.7680306     
   27627391.2030791     
   27627352.7465610     
   27627257.4607889     
   27627131.4218046     
   27626994.7031595     
   27626860.9002182     
   27626737.8812348     
   27626628.4654939     
   27626531.6824042     
   27626450.7754417     
   27626393.3377364     
   27626363.9860122     
   27626364.2790149     
   27626393.0779676     
   27626446.8232360     
   27626520.3583767     
   27626609.6377880     
   27626711.7226085     
   27626822.6406191     
   27626938.1538073     
   27627054.3087657     
   27627167.1922010     
   27627272.9375836     
   27627367.4246996     
   27627446.6843625     
   27627507.7507661     
   27627548.4224541     
   27627566.9559500     
   27627562.2032315     
   27627533.5771971     
   27627480.9396858     
   27627404.4178790     
   27627304.4790693     
   27627182.0772321     
   27627038.6067307     
   27626875.8830355     
   27626696.1440904     
   27626502.0238687     
   27626296.4454093     
   27626082.6123733     
   27625864.0050298     
   27625644.3661147     
   27625427.6916747     
   27625218.2391455     
   27625020.4941361     
   27624839.1482336     
   27624679.0882057     
   27624545.3737398     
   27624443.2338386     
   27624378.0651042     
   27624355.4155799     
   26807920.3767529     
   26807890.8510548     
   26807818.6380792     
   26807721.9432211     
   26807616.0603207     
   26807513.2754419     
   26807422.7411584     
   26807350.6759498     
   26807300.6228655     
   26807274.6823237     
   26807274.3817641     
   26807300.1695256     
   26807351.1538501     
   26807425.2410741     
   26807519.5089356     
   26807630.5512896     
   26807754.3084265     
   26807886.3310458     
   26808022.3936539     
   26808158.4815260     
   26808290.8179839     
   26808415.9588487     
   26808530.7390956     
   26808632.3107485     
   26808718.1320486     
   26808785.8840044     
   26808833.6031893     
   26808859.7914545     
   26808863.4004726     
   26808843.8477722     
   26808801.0002829     
   26808735.1649829     
   26808647.0371687     
   26808537.6477530     
   26808408.3680797     
   26808260.9106866     
   26808097.3251934     
   26807919.9865554     
   26807731.5952234     
   26807535.1482354     
   26807333.9113406     
   26807131.3985354     
   26806931.3574414     
   26806737.7516264     
   26806554.7580910     
   26806386.7593361     
   26806238.3262561     
   26806114.2096592     
   26806019.3254882     
   26805958.7410771     
   26805937.6815986     
   25976908.9063619     
   25976904.7325230     
   25976897.5774762     
   25976893.1625242     
   25976896.7615808     
   25976912.9645601     
   25976945.5307987     
   25976997.2729084     
   25977070.0454114     
   25977164.6304840     
   25977280.7372324     
   25977417.2738087     
   25977572.5717244     
   25977744.4951062     
   25977930.4764797     
   25978127.5310738     
   25978332.4004432     
   25978541.6381636     
   25978751.6533377     
   25978958.8747180     
   25979159.8584807     
   25979351.3582330     
   25979530.4112173     
   25979694.3731395     
   25979840.9299855     
   25979968.1200325     
   25980074.3138390     
   25980158.2076787     
   25980218.8460082     
   25980255.6302192     
   25980268.3352336     
   25980257.1116407     
   25980222.4858219     
   25980165.3550200     
   25980086.9662586     
   25979988.8977454     
   25979873.0424185     
   25979741.5961356     
   25979597.0435667     
   25979442.1505441     
   25979279.9546710     
   25979113.7538869     
   25978947.0911134     
   25978783.7396689     
   25978627.6820428     
   25978483.0924410     
   25978354.3287604     
   25978245.9185910     
   25978162.5478580     
   25978109.0554576     
   25978090.4204578     
   25135900.6963933     
   25135919.2320822     
   25135974.3521280     
   25136064.4084994     
   25136187.7534768     
   25136342.7296130     
   25136527.6185425     
   25136740.5978925     
   25136979.6581295     
   25137242.5618725     
   25137526.8324503     
   25137829.7444605     
   25138148.3403065     
   25138479.4758895     
   25138819.8725592     
   25139166.1790063     
   25139515.0116759     
   25139863.0030510     
   25140206.8448266     
   25140543.3087615     
   25140869.2911656     
   25141181.8629703     
   25141478.3055734     
   25141756.1461177     
   25142013.1925735     
   25142247.5568616     
   25142457.6745367     
   25142642.3104992     
   25142800.5584560     
   25142931.8460163     
   25143035.9338916     
   25143112.9184471     
   25143163.2325328     
   25143187.6426687     
   25143187.2463062     
   25143163.4658391     
   25143118.0405414     
   25143053.0172650     
   25142970.7415141     
   25142873.8461685     
   25142765.2380863     
   25142648.0821958     
   25142525.7883759     
   25142401.9972802     
   25142280.5676696     
   25142165.5636088     
   25142061.2364664     
   25141972.0121622     
   25141902.4813636     
   25141857.3819993     
   25141841.5803452     
   24286762.9960972     
   24286800.5604327     
   24286909.7547932     
   24287084.5607264     
   24287318.9991385     
   24287607.1513537     
   24287943.2034466     
   24288321.4286035     
   24288736.2639492     
   24289182.3310387     
   24289654.4349710     
   24290147.5563400     
   24290656.8323830     
   24291177.5534616     
   24291705.1813757     
   24292235.3632130     
   24292763.9518161     
   24293287.0152604     
   24293800.8496304     
   24294302.0042022     
   24294787.2942349     
   24295253.8059896     
   24295698.8984745     
   24296120.2105615     
   24296515.6727894     
   24296883.5139055     
   24297222.2651578     
   24297530.7663979     
   24297808.1697608     
   24298053.9387887     
   24298267.8487697     
   24298449.9848562     
   24298600.7402179     
   24298720.8162567     
   24298811.2233994     
   24298873.2825711     
   24298908.6248074     
   24298919.1881429     
   24298907.2112257     
   24298875.2245781     
   24298826.0410629     
   24298762.7464824     
   24298688.6870712     
   24298607.4560292     
   24298522.8799215     
   24298439.0058146     
   24298360.0925798     
   24298290.5958684     
   24298235.1402618     
   24298198.4925697     
   24298185.5427506     
   23431549.7805983     
   23431604.7068669     
   23431763.0185126     
   23432014.4958959     
   23432349.1897819     
   23432757.4411638     
   23433229.9110007     
   23433757.8585420     
   23434332.9706295     
   23434947.2987450     
   23435593.2574500     
   23436263.6386254     
   23436951.6359616     
   23437650.8722363     
   23438355.4137447     
   23439059.7701028     
   23439758.8848380     
   23440448.1362845     
   23441123.3360800     
   23441780.7131626     
   23442416.8972984     
   23443028.9041424     
   23443614.1186272     
   23444170.2765700     
   23444695.4483122     
   23445188.0255895     
   23445646.7083935     
   23446070.4934703     
   23446458.6647808     
   23446810.7880214     
   23447126.7043638     
   23447406.5255764     
   23447650.6359508     
   23447859.6943084     
   23448034.6338818     
   23448176.6657935     
   23448287.2860582     
   23448368.2793008     
   23448421.7226432     
   23448449.9921417     
   23448455.7658239     
   23448442.0226034     
   23448412.0391270     
   23448369.3844377     
   23448317.9119905     
   23448261.7404541     
   23448205.2221497     
   23448152.9146542     
   23448109.5631958     
   23448080.0871484     
   23448069.5362131     
   22572500.0566897     
   22572570.2570879     
   22572770.5383686     
   22573085.5671535     
   22573500.9602916     
   22574003.7951539     
   22574582.4990573     
   22575225.4510018     
   22575921.4211433     
   22576659.8307401     
   22577430.8643281     
   22578225.5131686     
   22579035.5850809     
   22579853.6777290     
   22580673.1354957     
   22581488.0004702     
   22582292.9702105     
   22583083.3533628     
   22583855.0205377     
   22584604.3593156     
   22585328.2320767     
   22586023.9369001     
   22586689.1709898     
   22587321.9975716     
   22587920.8172761     
   22588484.3417033     
   22589011.5691877     
   22589501.7618237     
   22589954.4293238     
   22590369.3176919     
   22590746.3971954     
   22591085.8554493     
   22591388.0918049     
   22591653.7164137     
   22591883.5547879     
   22592078.6525871     
   22592240.2822782     
   22592369.9536600     
   22592469.4324750     
   22592540.7628906     
   22592586.2899717     
   22592608.6828162     
   22592610.9551487     
   22592596.4797066     
   22592568.9948020     
   22592532.5994097     
   22592491.7323304     
   22592451.1333913     
   22592415.7961226     
   22592390.9214440     
   22592381.9560463     
   21712078.3912457     
   21712156.1788009     
   21712379.2362176     
   21712729.4035509     
   21713191.5727525     
   21713748.5475416     
   21714380.2495993     
   21715070.1085019     
   21715804.2854160     
   21716571.0150593     
   21717360.2325612     
   21718163.2821060     
   21718972.6642850     
   21719781.8758394     
   21720585.2801252     
   21721378.0019702     
   21722155.8330165     
   21722915.1488996     
   21723652.8418819     
   21724366.2615274     
   21725053.1638587     
   21725711.6669634     
   21726340.2126547     
   21726937.5334127     
   21727502.6230402     
   21728034.7111334     
   21728533.2393549     
   21728997.8411623     
   21729428.3271797     
   21729824.6728315     
   21730187.0056393     
   21730515.5958819     
   21730810.8519212     
   21731073.3166668     
   21731303.6675757     
   21731502.7206526     
   21731671.4347860     
   21731810.9205860     
   21731922.4614075     
   21732007.5409518     
   21732067.8737594     
   21732105.4439755     
   21732122.5534511     
   21732121.8774484     
   21732106.5178173     
   21732080.0583788     
   21732046.6441377     
   21732011.0477695     
   21731978.6385814     
   21731955.2306755     
   21731946.6752499     
   20853040.1342391     
   20853133.7936007     
   20853393.9303295     
   20853784.8444131     
   20854251.4694927     
   20854756.3276083     
   20855290.7609380     
   20855847.3254069     
   20856419.2414666     
   20857000.6855739     
   20857586.5112114     
   20858172.1168077     
   20858753.5518044     
   20859327.4714610     
   20859891.0605329     
   20860441.9333701     
   20860978.0690788     
   20861497.7720190     
   20861999.6253446     
   20862482.4534986     
   20862945.2901290     
   20863387.3540946     
   20863808.0287635     
   20864206.8426671     
   20864583.4531346     
   20864937.6323621     
   20865269.2555549     
   20865578.2907666     
   20865864.7897132     
   20866128.8801968     
   20866370.7590109     
   20866590.6850070     
   20866788.9767343     
   20866966.0113630     
   20867122.2216843     
   20867258.0973546     
   20867374.1887328     
   20867471.1088185     
   20867549.5373784     
   20867610.2342743     
   20867654.0625075     
   20867682.0166989     
   20867695.2596064     
   20867695.1753049     
   20867683.4476798     
   20867662.1645803     
   20867633.9510430     
   20867602.1627116     
   20867571.2542548     
   20867547.2959848     
   20867538.6847055     
   20000000.0000000     
   20000000.0000000     
   20000000.0000000     
   20000000.0000000     
   20000000.0000000     
   20000000.0000000     
   20000000.0000000     
   20000000.0000000     
   20000000.0000000     
   20000000.0000000     
   20000000.0000000     
   20000000.0000000     
   20000000.0000000     
   20000000.0000000     
   20000000.0000000     
   20000000.0000000     
   20000000.0000000     
   20000000.0000000     
   20000000.0000000     
   20000000.0000000     
   20000000.0000000     
   20000000.0000000     
   20000000.0000000     
   20000000.0000000     
   20000000.0000000     
   20000000.0000000     
   20000000.0000000     
   20000000.0000000     
   20000000.0000000     
   20000000.0000000     
   20000000.0000000     
   20000000.0000000     
   20000000.0000000     
   20000000.0000000     
   20000000.0000000     
   20000000.0000000     
   20000000.0000000     
   20000000.0000000     
   20000000.0000000     
   20000000.0000000     
   20000000.0000000     
   20000000.0000000     
   20000000.0000000     
   20000000.0000000     
   20000000.0000000     
   20000000.0000000     
   20000000.0000000     
   20000000.0000000     
   20000000.0000000     
   20000000.0000000     
   20000000.0000000     
VECTORS u double 
    0.00000E+00         0.13189E+00         0.00000E+00
    0.00000E+00         0.12956E+00         0.00000E+00
    0.00000E+00         0.12725E+00         0.00000E+00
    0.00000E+00         0.12497E+00         0.00000E+00
    0.00000E+00         0.12274E+00         0.00000E+00
    0.00000E+00         0.12044E+00         0.00000E+00
    0.00000E+00         0.11807E+00         0.00000E+00
    0.00000E+00         0.11565E+00         0.00000E+00
    0.00000E+00         0.11317E+00         0.00000E+00
    0.00000E+00         0.11066E+00         0.00000E+00
    0.00000E+00         0.10811E+00         0.00000E+00
    0.00000E+00         0.10552E+00         0.00000E+00
    0.00000E+00         0.10290E+00         0.00000E+00
    0.00000E+00         0.10025E+00         0.00000E+00
    0.00000E+00         0.97583E-01         0.00000E+00
    0.00000E+00         0.94893E-01         0.00000E+00
    0.00000E+00         0.92187E-01         0.00000E+00
    0.00000E+00         0.89469E-01         0.00000E+00
    0.00000E+00         0.86740E-01         0.00000E+00
    0.00000E+00         0.84005E-01         0.00000E+00
    0.00000E+00         0.81266E-01         0.00000E+00
    0.00000E+00         0.78524E-01         0.00000E+00
    0.00000E+00         0.75781E-01         0.00000E+00
    0.00000E+00         0.73039E-01         0.00000E+00
    0.00000E+00         0.70302E-01         0.00000E+00
    0.00000E+00         0.67569E-01         0.00000E+00
    0.00000E+00         0.64844E-01         0.00000E+00
    0.00000E+00         0.62127E-01         0.00000E+00
    0.00000E+00         0.59419E-01         0.00000E+00
    0.00000E+00         0.56720E-01         0.00000E+00
    0.00000E+00         0.54032E-01         0.00000E+00
    0.00000E+00         0.51353E-01         0.00000E+00
    0.00000E+00         0.48683E-01         0.00000E+00
    0.00000E+00         0.46023E-01         0.00000E+00
    0.00000E+00         0.43371E-01         0.00000E+00
    0.00000E+00         0.40726E-01         0.00000E+00
    0.00000E+00         0.38087E-01         0.00000E+00
    0.00000E+00         0.35453E-01         0.00000E+00
    0.00000E+00         0.32822E-01         0.00000E+00
    0.00000E+00         0.30191E-01         0.00000E+00
    0.00000E+00         0.27557E-01         0.00000E+00
    0.00000E+00         0.24919E-01         0.00000E+00
    0.00000E+00         0.22273E-01         0.00000E+00
    0.00000E+00         0.19616E-01         0.00000E+00
    0.00000E+00         0.16942E-01         0.00000E+00
    0.00000E+00         0.14247E-01         0.00000E+00
    0.00000E+00         0.11523E-01         0.00000E+00
    0.00000E+00         0.87602E-02         0.00000E+00
    0.00000E+00         0.59422E-02         0.00000E+00
    0.00000E+00         0.30412E-02         0.00000E+00
    0.00000E+00         0.00000E+00         0.00000E+00
    0.97257E-02         0.12897E+00         0.00000E+00
    0.89709E-02         0.12696E+00         0.00000E+00
    0.83139E-02         0.12491E+00         0.00000E+00
    0.77315E-02         0.12282E+00         0.00000E+00
    0.72022E-02         0.12066E+00         0.00000E+00
    0.67154E-02         0.11845E+00         0.00000E+00
    0.62696E-02         0.11617E+00         0.00000E+00
    0.58602E-02         0.11385E+00         0.00000E+00
    0.54832E-02         0.11147E+00         0.00000E+00
    0.51349E-02         0.10905E+00         0.00000E+00
    0.48116E-02         0.10658E+00         0.00000E+00
    0.45114E-02         0.10408E+00         0.00000E+00
    0.42327E-02         0.10155E+00         0.00000E+00
    0.39745E-02         0.98985E-01         0.00000E+00
    0.37346E-02         0.96396E-01         0.00000E+00
    0.35130E-02         0.93784E-01         0.00000E+00
    0.33089E-02         0.91154E-01         0.00000E+00
    0.31216E-02         0.88508E-01         0.00000E+00
    0.29500E-02         0.85849E-01         0.00000E+00
    0.27929E-02         0.83181E-01         0.00000E+00
    0.26500E-02         0.80505E-01         0.00000E+00
    0.25208E-02         0.77824E-01         0.00000E+00
    0.24048E-02         0.75140E-01         0.00000E+00
    0.23011E-02         0.72454E-01         0.00000E+00
    0.22088E-02         0.69769E-01         0.00000E+00
    0.21270E-02         0.67086E-01         0.00000E+00
    0.20550E-02         0.64406E-01         0.00000E+00
    0.19915E-02         0.61730E-01         0.00000E+00
    0.19352E-02         0.59060E-01         0.00000E+00
    0.18848E-02         0.56396E-01         0.00000E+00
    0.18395E-02         0.53739E-01         0.00000E+00
    0.17982E-02         0.51088E-01         0.00000E+00
    0.17603E-02         0.48445E-01         0.00000E+00
    0.17248E-02         0.45809E-01         0.00000E+00
    0.16911E-02         0.43179E-01         0.00000E+00
    0.16582E-02         0.40554E-01         0.00000E+00
    0.16254E-02         0.37934E-01         0.00000E+00
    0.15919E-02         0.35316E-01         0.00000E+00
    0.15568E-02         0.32700E-01         0.00000E+00
    0.15190E-02         0.30083E-01         0.00000E+00
    0.14776E-02         0.27463E-01         0.00000E+00
    0.14315E-02         0.24837E-01         0.00000E+00
    0.13790E-02         0.22202E-01         0.00000E+00
    0.13184E-02         0.19553E-01         0.00000E+00
    0.12473E-02         0.16885E-01         0.00000E+00
    0.11624E-02         0.14194E-01         0.00000E+00
    0.10589E-02         0.11473E-01         0.00000E+00
    0.92305E-03         0.87105E-02         0.00000E+00
    0.73470E-03         0.58934E-02         0.00000E+00
    0.45714E-03         0.29998E-02         0.00000E+00
    0.00000E+00         0.00000E+00         0.00000E+00
    0.15941E-01         0.12511E+00         0.00000E+00
    0.15078E-01         0.12295E+00         0.00000E+00
    0.14227E-01         0.12080E+00         0.00000E+00
    0.13400E-01         0.11865E+00         0.00000E+00
    0.12606E-01         0.11649E+00         0.00000E+00
    0.11851E-01         0.11432E+00         0.00000E+00
    0.11135E-01         0.11212E+00         0.00000E+00
    0.10457E-01         0.10990E+00         0.00000E+00
    0.98192E-02         0.10765E+00         0.00000E+00
    0.92194E-02         0.10536E+00         0.00000E+00
    0.86566E-02         0.10304E+00         0.00000E+00
    0.81297E-02         0.10069E+00         0.00000E+00
    0.76374E-02         0.98315E-01         0.00000E+00
    0.71788E-02         0.95911E-01         0.00000E+00
    0.67529E-02         0.93481E-01         0.00000E+00
    0.63580E-02         0.91030E-01         0.00000E+00
    0.59926E-02         0.88559E-01         0.00000E+00
    0.56556E-02         0.86070E-01         0.00000E+00
    0.53456E-02         0.83565E-01         0.00000E+00
    0.50615E-02         0.81047E-01         0.00000E+00
    0.48018E-02         0.78518E-01         0.00000E+00
    0.45652E-02         0.75978E-01         0.00000E+00
    0.43503E-02         0.73431E-01         0.00000E+00
    0.41556E-02         0.70876E-01         0.00000E+00
    0.39798E-02         0.68317E-01         0.00000E+00
    0.38214E-02         0.65753E-01         0.00000E+00
    0.36788E-02         0.63186E-01         0.00000E+00
    0.35505E-02         0.60616E-01         0.00000E+00
    0.34352E-02         0.58045E-01         0.00000E+00
    0.33311E-02         0.55473E-01         0.00000E+00
    0.32368E-02         0.52900E-01         0.00000E+00
    0.31507E-02         0.50328E-01         0.00000E+00
    0.30714E-02         0.47757E-01         0.00000E+00
    0.29972E-02         0.45186E-01         0.00000E+00
    0.29265E-02         0.42616E-01         0.00000E+00
    0.28578E-02         0.40045E-01         0.00000E+00
    0.27893E-02         0.37474E-01         0.00000E+00
    0.27194E-02         0.34902E-01         0.00000E+00
    0.26460E-02         0.32327E-01         0.00000E+00
    0.25673E-02         0.29747E-01         0.00000E+00
    0.24807E-02         0.27160E-01         0.00000E+00
    0.23839E-02         0.24563E-01         0.00000E+00
    0.22737E-02         0.21954E-01         0.00000E+00
    0.21466E-02         0.19327E-01         0.00000E+00
    0.19980E-02         0.16678E-01         0.00000E+00
    0.18227E-02         0.14002E-01         0.00000E+00
    0.16140E-02         0.11291E-01         0.00000E+00
    0.13510E-02         0.85402E-02         0.00000E+00
    0.10105E-02         0.57419E-02         0.00000E+00
    0.56469E-03         0.28922E-02         0.00000E+00
    0.00000E+00         0.00000E+00         0.00000E+00
    0.21003E-01         0.11987E+00         0.00000E+00
    0.19851E-01         0.11778E+00         0.00000E+00
    0.18772E-01         0.11567E+00         0.00000E+00
    0.17751E-01         0.11355E+00         0.00000E+00
    0.16779E-01         0.11143E+00         0.00000E+00
    0.15852E-01         0.10930E+00         0.00000E+00
    0.14968E-01         0.10717E+00         0.00000E+00
    0.14126E-01         0.10502E+00         0.00000E+00
    0.13325E-01         0.10286E+00         0.00000E+00
    0.12564E-01         0.10068E+00         0.00000E+00
    0.11844E-01         0.98495E-01         0.00000E+00
    0.11163E-01         0.96288E-01         0.00000E+00
    0.10521E-01         0.94063E-01         0.00000E+00
    0.99175E-02         0.91822E-01         0.00000E+00
    0.93511E-02         0.89564E-01         0.00000E+00
    0.88210E-02         0.87290E-01         0.00000E+00
    0.83260E-02         0.85000E-01         0.00000E+00
    0.78648E-02         0.82694E-01         0.00000E+00
    0.74363E-02         0.80375E-01         0.00000E+00
    0.70392E-02         0.78041E-01         0.00000E+00
    0.66722E-02         0.75694E-01         0.00000E+00
    0.63339E-02         0.73334E-01         0.00000E+00
    0.60230E-02         0.70961E-01         0.00000E+00
    0.57381E-02         0.68576E-01         0.00000E+00
    0.54775E-02         0.66180E-01         0.00000E+00
    0.52396E-02         0.63774E-01         0.00000E+00
    0.50228E-02         0.61357E-01         0.00000E+00
    0.48253E-02         0.58930E-01         0.00000E+00
    0.46453E-02         0.56494E-01         0.00000E+00
    0.44810E-02         0.54049E-01         0.00000E+00
    0.43306E-02         0.51597E-01         0.00000E+00
    0.41919E-02         0.49136E-01         0.00000E+00
    0.40631E-02         0.46669E-01         0.00000E+00
    0.39420E-02         0.44193E-01         0.00000E+00
    0.38265E-02         0.41711E-01         0.00000E+00
    0.37143E-02         0.39221E-01         0.00000E+00
    0.36031E-02         0.36722E-01         0.00000E+00
    0.34902E-02         0.34215E-01         0.00000E+00
    0.33728E-02         0.31698E-01         0.00000E+00
    0.32480E-02         0.29169E-01         0.00000E+00
    0.31120E-02         0.26629E-01         0.00000E+00
    0.29614E-02         0.24073E-01         0.00000E+00
    0.27919E-02         0.21501E-01         0.00000E+00
    0.25985E-02         0.18909E-01         0.00000E+00
    0.23762E-02         0.16293E-01         0.00000E+00
    0.21194E-02         0.13651E-01         0.00000E+00
    0.18224E-02         0.10979E-01         0.00000E+00
    0.14775E-02         0.82752E-02         0.00000E+00
    0.10660E-02         0.55409E-02         0.00000E+00
    0.57681E-03         0.27810E-02         0.00000E+00
    0.00000E+00         0.00000E+00         0.00000E+00
    0.25096E-01         0.11337E+00         0.00000E+00
    0.23753E-01         0.11141E+00         0.00000E+00
    0.22491E-01         0.10944E+00         0.00000E+00
    0.21301E-01         0.10745E+00         0.00000E+00
    0.20177E-01         0.10545E+00         0.00000E+00
    0.19112E-01         0.10345E+00         0.00000E+00
    0.18099E-01         0.10143E+00         0.00000E+00
    0.17137E-01         0.99409E-01         0.00000E+00
    0.16221E-01         0.97380E-01         0.00000E+00
    0.15350E-01         0.95343E-01         0.00000E+00
    0.14522E-01         0.93300E-01         0.00000E+00
    0.13735E-01         0.91248E-01         0.00000E+00
    0.12989E-01         0.89188E-01         0.00000E+00
    0.12282E-01         0.87119E-01         0.00000E+00
    0.11613E-01         0.85040E-01         0.00000E+00
    0.10982E-01         0.82950E-01         0.00000E+00
    0.10387E-01         0.80848E-01         0.00000E+00
    0.98268E-02         0.78734E-01         0.00000E+00
    0.93009E-02         0.76607E-01         0.00000E+00
    0.88080E-02         0.74467E-01         0.00000E+00
    0.83472E-02         0.72313E-01         0.00000E+00
    0.79173E-02         0.70144E-01         0.00000E+00
    0.75173E-02         0.67960E-01         0.00000E+00
    0.71458E-02         0.65761E-01         0.00000E+00
    0.68018E-02         0.63545E-01         0.00000E+00
    0.64837E-02         0.61314E-01         0.00000E+00
    0.61900E-02         0.59066E-01         0.00000E+00
    0.59190E-02         0.56801E-01         0.00000E+00
    0.56690E-02         0.54520E-01         0.00000E+00
    0.54380E-02         0.52223E-01         0.00000E+00
    0.52239E-02         0.49909E-01         0.00000E+00
    0.50246E-02         0.47580E-01         0.00000E+00
    0.48378E-02         0.45235E-01         0.00000E+00
    0.46609E-02         0.42874E-01         0.00000E+00
    0.44916E-02         0.40498E-01         0.00000E+00
    0.43270E-02         0.38106E-01         0.00000E+00
    0.41643E-02         0.35699E-01         0.00000E+00
    0.40006E-02         0.33275E-01         0.00000E+00
    0.38327E-02         0.30834E-01         0.00000E+00
    0.36570E-02         0.28375E-01         0.00000E+00
    0.34697E-02         0.25897E-01         0.00000E+00
    0.32665E-02         0.23399E-01         0.00000E+00
    0.30431E-02         0.20881E-01         0.00000E+00
    0.27947E-02         0.18342E-01         0.00000E+00
    0.25167E-02         0.15781E-01         0.00000E+00
    0.22053E-02         0.13199E-01         0.00000E+00
    0.18563E-02         0.10595E-01         0.00000E+00
    0.14672E-02         0.79704E-02         0.00000E+00
    0.10359E-02         0.53284E-02         0.00000E+00
    0.55055E-03         0.26705E-02         0.00000E+00
    0.00000E+00         0.00000E+00         0.00000E+00
    0.28274E-01         0.10616E+00         0.00000E+00
    0.26828E-01         0.10434E+00         0.00000E+00
    0.25461E-01         0.10253E+00         0.00000E+00
    0.24168E-01         0.10070E+00         0.00000E+00
    0.22944E-01         0.98865E-01         0.00000E+00
    0.21784E-01         0.97024E-01         0.00000E+00
    0.20683E-01         0.95175E-01         0.00000E+00
    0.19638E-01         0.93321E-01         0.00000E+00
    0.18645E-01         0.91460E-01         0.00000E+00
    0.17699E-01         0.89595E-01         0.00000E+00
    0.16799E-01         0.87724E-01         0.00000E+00
    0.15941E-01         0.85848E-01         0.00000E+00
    0.15124E-01         0.83965E-01         0.00000E+00
    0.14346E-01         0.82075E-01         0.00000E+00
    0.13606E-01         0.80178E-01         0.00000E+00
    0.12901E-01         0.78271E-01         0.00000E+00
    0.12231E-01         0.76355E-01         0.00000E+00
    0.11595E-01         0.74429E-01         0.00000E+00
    0.10992E-01         0.72491E-01         0.00000E+00
    0.10421E-01         0.70540E-01         0.00000E+00
    0.98811E-02         0.68575E-01         0.00000E+00
    0.93715E-02         0.66595E-01         0.00000E+00
    0.88914E-02         0.64599E-01         0.00000E+00
    0.84400E-02         0.62585E-01         0.00000E+00
    0.80164E-02         0.60552E-01         0.00000E+00
    0.76196E-02         0.58500E-01         0.00000E+00
    0.72485E-02         0.56426E-01         0.00000E+00
    0.69017E-02         0.54331E-01         0.00000E+00
    0.65777E-02         0.52213E-01         0.00000E+00
    0.62748E-02         0.50073E-01         0.00000E+00
    0.59911E-02         0.47910E-01         0.00000E+00
    0.57246E-02         0.45724E-01         0.00000E+00
    0.54728E-02         0.43514E-01         0.00000E+00
    0.52333E-02         0.41280E-01         0.00000E+00
    0.50033E-02         0.39024E-01         0.00000E+00
    0.47799E-02         0.36744E-01         0.00000E+00
    0.45602E-02         0.34442E-01         0.00000E+00
    0.43410E-02         0.32116E-01         0.00000E+00
    0.41191E-02         0.29768E-01         0.00000E+00
    0.38912E-02         0.27398E-01         0.00000E+00
    0.36538E-02         0.25004E-01         0.00000E+00
    0.34033E-02         0.22589E-01         0.00000E+00
    0.31361E-02         0.20151E-01         0.00000E+00
    0.28491E-02         0.17691E-01         0.00000E+00
    0.25386E-02         0.15212E-01         0.00000E+00
    0.21995E-02         0.12714E-01         0.00000E+00
    0.18290E-02         0.10198E-01         0.00000E+00
    0.14261E-02         0.76677E-02         0.00000E+00
    0.98633E-03         0.51219E-02         0.00000E+00
    0.51007E-03         0.25640E-02         0.00000E+00
    0.00000E+00         0.00000E+00         0.00000E+00
    0.30635E-01         0.98606E-01         0.00000E+00
    0.29155E-01         0.96957E-01         0.00000E+00
    0.27752E-01         0.95308E-01         0.00000E+00
    0.26421E-01         0.93658E-01         0.00000E+00
    0.25159E-01         0.92007E-01         0.00000E+00
    0.23960E-01         0.90353E-01         0.00000E+00
    0.22819E-01         0.88694E-01         0.00000E+00
    0.21734E-01         0.87028E-01         0.00000E+00
    0.20699E-01         0.85355E-01         0.00000E+00
    0.19711E-01         0.83675E-01         0.00000E+00
    0.18768E-01         0.81988E-01         0.00000E+00
    0.17865E-01         0.80293E-01         0.00000E+00
    0.17002E-01         0.78590E-01         0.00000E+00
    0.16176E-01         0.76878E-01         0.00000E+00
    0.15385E-01         0.75158E-01         0.00000E+00
    0.14627E-01         0.73429E-01         0.00000E+00
    0.13902E-01         0.71690E-01         0.00000E+00
    0.13208E-01         0.69940E-01         0.00000E+00
    0.12544E-01         0.68179E-01         0.00000E+00
    0.11910E-01         0.66405E-01         0.00000E+00
    0.11305E-01         0.64617E-01         0.00000E+00
    0.10727E-01         0.62814E-01         0.00000E+00
    0.10177E-01         0.60995E-01         0.00000E+00
    0.96538E-02         0.59157E-01         0.00000E+00
    0.91569E-02         0.57300E-01         0.00000E+00
    0.86858E-02         0.55422E-01         0.00000E+00
    0.82397E-02         0.53521E-01         0.00000E+00
    0.78178E-02         0.51595E-01         0.00000E+00
    0.74191E-02         0.49643E-01         0.00000E+00
    0.70425E-02         0.47665E-01         0.00000E+00
    0.66863E-02         0.45658E-01         0.00000E+00
    0.63489E-02         0.43623E-01         0.00000E+00
    0.60281E-02         0.41558E-01         0.00000E+00
    0.57219E-02         0.39464E-01         0.00000E+00
    0.54276E-02         0.37340E-01         0.00000E+00
    0.51427E-02         0.35186E-01         0.00000E+00
    0.48640E-02         0.33004E-01         0.00000E+00
    0.45888E-02         0.30793E-01         0.00000E+00
    0.43140E-02         0.28555E-01         0.00000E+00
    0.40368E-02         0.26290E-01         0.00000E+00
    0.37543E-02         0.23999E-01         0.00000E+00
    0.34636E-02         0.21685E-01         0.00000E+00
    0.31623E-02         0.19347E-01         0.00000E+00
    0.28464E-02         0.16988E-01         0.00000E+00
    0.25135E-02         0.14609E-01         0.00000E+00
    0.21601E-02         0.12210E-01         0.00000E+00
    0.17844E-02         0.97945E-02         0.00000E+00
    0.13840E-02         0.73643E-02         0.00000E+00
    0.95273E-03         0.49211E-02         0.00000E+00
    0.49314E-03         0.24668E-02         0.00000E+00
    0.00000E+00         0.00000E+00         0.00000E+00
    0.32256E-01         0.91073E-01         0.00000E+00
    0.30815E-01         0.89593E-01         0.00000E+00
    0.29448E-01         0.88129E-01         0.00000E+00
    0.28147E-01         0.86670E-01         0.00000E+00
    0.26906E-01         0.85210E-01         0.00000E+00
    0.25720E-01         0.83744E-01         0.00000E+00
    0.24585E-01         0.82271E-01         0.00000E+00
    0.23496E-01         0.80788E-01         0.00000E+00
    0.22452E-01         0.79294E-01         0.00000E+00
    0.21449E-01         0.77790E-01         0.00000E+00
    0.20486E-01         0.76274E-01         0.00000E+00
    0.19560E-01         0.74749E-01         0.00000E+00
    0.18670E-01         0.73212E-01         0.00000E+00
    0.17813E-01         0.71666E-01         0.00000E+00
    0.16988E-01         0.70109E-01         0.00000E+00
    0.16193E-01         0.68542E-01         0.00000E+00
    0.15427E-01         0.66964E-01         0.00000E+00
    0.14690E-01         0.65375E-01         0.00000E+00
    0.13979E-01         0.63774E-01         0.00000E+00
    0.13295E-01         0.62161E-01         0.00000E+00
    0.12636E-01         0.60535E-01         0.00000E+00
    0.12002E-01         0.58893E-01         0.00000E+00
    0.11392E-01         0.57236E-01         0.00000E+00
    0.10807E-01         0.55562E-01         0.00000E+00
    0.10245E-01         0.53868E-01         0.00000E+00
    0.97064E-02         0.52154E-01         0.00000E+00
    0.91911E-02         0.50417E-01         0.00000E+00
    0.86984E-02         0.48655E-01         0.00000E+00
    0.82279E-02         0.46867E-01         0.00000E+00
    0.77790E-02         0.45050E-01         0.00000E+00
    0.73509E-02         0.43202E-01         0.00000E+00
    0.69423E-02         0.41323E-01         0.00000E+00
    0.65518E-02         0.39410E-01         0.00000E+00
    0.61778E-02         0.37464E-01         0.00000E+00
    0.58184E-02         0.35484E-01         0.00000E+00
    0.54713E-02         0.33470E-01         0.00000E+00
    0.51344E-02         0.31423E-01         0.00000E+00
    0.48050E-02         0.29343E-01         0.00000E+00
    0.44805E-02         0.27232E-01         0.00000E+00
    0.41583E-02         0.25091E-01         0.00000E+00
    0.38355E-02         0.22921E-01         0.00000E+00
    0.35090E-02         0.20724E-01         0.00000E+00
    0.31764E-02         0.18501E-01         0.00000E+00
    0.28358E-02         0.16255E-01         0.00000E+00
    0.24849E-02         0.13986E-01         0.00000E+00
    0.21212E-02         0.11698E-01         0.00000E+00
    0.17428E-02         0.93913E-02         0.00000E+00
    0.13442E-02         0.70667E-02         0.00000E+00
    0.92414E-03         0.47257E-02         0.00000E+00
    0.47667E-03         0.23696E-02         0.00000E+00
    0.00000E+00         0.00000E+00         0.00000E+00
    0.33220E-01         0.83977E-01         0.00000E+00
    0.31913E-01         0.82672E-01         0.00000E+00
    0.30655E-01         0.81374E-01         0.00000E+00
    0.29439E-01         0.80075E-01         0.00000E+00
    0.28265E-01         0.78768E-01         0.00000E+00
    0.27128E-01         0.77451E-01         0.00000E+00
    0.26029E-01         0.76124E-01         0.00000E+00
    0.24966E-01         0.74785E-01         0.00000E+00
    0.23938E-01         0.73436E-01         0.00000E+00
    0.22942E-01         0.72076E-01         0.00000E+00
    0.21980E-01         0.70707E-01         0.00000E+00
    0.21049E-01         0.69327E-01         0.00000E+00
    0.20147E-01         0.67934E-01         0.00000E+00
    0.19275E-01         0.66531E-01         0.00000E+00
    0.18430E-01         0.65115E-01         0.00000E+00
    0.17613E-01         0.63689E-01         0.00000E+00
    0.16821E-01         0.62253E-01         0.00000E+00
    0.16052E-01         0.60805E-01         0.00000E+00
    0.15307E-01         0.59345E-01         0.00000E+00
    0.14585E-01         0.57874E-01         0.00000E+00
    0.13884E-01         0.56390E-01         0.00000E+00
    0.13205E-01         0.54892E-01         0.00000E+00
    0.12547E-01         0.53380E-01         0.00000E+00
    0.11910E-01         0.51853E-01         0.00000E+00
    0.11294E-01         0.50309E-01         0.00000E+00
    0.10697E-01         0.48746E-01         0.00000E+00
    0.10121E-01         0.47162E-01         0.00000E+00
    0.95645E-02         0.45556E-01         0.00000E+00
    0.90285E-02         0.43925E-01         0.00000E+00
    0.85122E-02         0.42266E-01         0.00000E+00
    0.80156E-02         0.40577E-01         0.00000E+00
    0.75383E-02         0.38856E-01         0.00000E+00
    0.70800E-02         0.37102E-01         0.00000E+00
    0.66398E-02         0.35312E-01         0.00000E+00
    0.62165E-02         0.33486E-01         0.00000E+00
    0.58086E-02         0.31623E-01         0.00000E+00
    0.54144E-02         0.29724E-01         0.00000E+00
    0.50317E-02         0.27789E-01         0.00000E+00
    0.46582E-02         0.25818E-01         0.00000E+00
    0.42916E-02         0.23814E-01         0.00000E+00
    0.39298E-02         0.21777E-01         0.00000E+00
    0.35704E-02         0.19710E-01         0.00000E+00
    0.32105E-02         0.17614E-01         0.00000E+00
    0.28477E-02         0.15491E-01         0.00000E+00
    0.24792E-02         0.13343E-01         0.00000E+00
    0.21014E-02         0.11170E-01         0.00000E+00
    0.17118E-02         0.89745E-02         0.00000E+00
    0.13089E-02         0.67581E-02         0.00000E+00
    0.89156E-03         0.45226E-02         0.00000E+00
    0.45808E-03         0.22698E-02         0.00000E+00
    0.00000E+00         0.00000E+00         0.00000E+00
    0.33709E-01         0.77799E-01         0.00000E+00
    0.32564E-01         0.76572E-01         0.00000E+00
    0.31437E-01         0.75344E-01         0.00000E+00
    0.30330E-01         0.74113E-01         0.00000E+00
    0.29245E-01         0.72879E-01         0.00000E+00
    0.28184E-01         0.71641E-01         0.00000E+00
    0.27147E-01         0.70398E-01         0.00000E+00
    0.26134E-01         0.69150E-01         0.00000E+00
    0.25147E-01         0.67897E-01         0.00000E+00
    0.24183E-01         0.66638E-01         0.00000E+00
    0.23243E-01         0.65374E-01         0.00000E+00
    0.22327E-01         0.64101E-01         0.00000E+00
    0.21434E-01         0.62820E-01         0.00000E+00
    0.20563E-01         0.61531E-01         0.00000E+00
    0.19714E-01         0.60236E-01         0.00000E+00
    0.18887E-01         0.58931E-01         0.00000E+00
    0.18081E-01         0.57611E-01         0.00000E+00
    0.17296E-01         0.56280E-01         0.00000E+00
    0.16529E-01         0.54938E-01         0.00000E+00
    0.15781E-01         0.53588E-01         0.00000E+00
    0.15051E-01         0.52228E-01         0.00000E+00
    0.14340E-01         0.50857E-01         0.00000E+00
    0.13646E-01         0.49473E-01         0.00000E+00
    0.12969E-01         0.48076E-01         0.00000E+00
    0.12310E-01         0.46663E-01         0.00000E+00
    0.11667E-01         0.45236E-01         0.00000E+00
    0.11041E-01         0.43793E-01         0.00000E+00
    0.10431E-01         0.42329E-01         0.00000E+00
    0.98382E-02         0.40845E-01         0.00000E+00
    0.92623E-02         0.39336E-01         0.00000E+00
    0.87040E-02         0.37802E-01         0.00000E+00
    0.81635E-02         0.36239E-01         0.00000E+00
    0.76410E-02         0.34645E-01         0.00000E+00
    0.71368E-02         0.33018E-01         0.00000E+00
    0.66508E-02         0.31354E-01         0.00000E+00
    0.61824E-02         0.29653E-01         0.00000E+00
    0.57305E-02         0.27914E-01         0.00000E+00
    0.52938E-02         0.26134E-01         0.00000E+00
    0.48709E-02         0.24316E-01         0.00000E+00
    0.44600E-02         0.22460E-01         0.00000E+00
    0.40583E-02         0.20568E-01         0.00000E+00
    0.36635E-02         0.18641E-01         0.00000E+00
    0.32729E-02         0.16680E-01         0.00000E+00
    0.28839E-02         0.14687E-01         0.00000E+00
    0.24944E-02         0.12664E-01         0.00000E+00
    0.21026E-02         0.10614E-01         0.00000E+00
    0.17053E-02         0.85370E-02         0.00000E+00
    0.12993E-02         0.64362E-02         0.00000E+00
    0.88207E-03         0.43121E-02         0.00000E+00
    0.44970E-03         0.21659E-02         0.00000E+00
    0.00000E+00         0.00000E+00         0.00000E+00
    0.33892E-01         0.72355E-01         0.00000E+00
    0.32864E-01         0.71171E-01         0.00000E+00
    0.31845E-01         0.69988E-01         0.00000E+00
    0.30838E-01         0.68805E-01         0.00000E+00
    0.29845E-01         0.67621E-01         0.00000E+00
    0.28866E-01         0.66434E-01         0.00000E+00
    0.27902E-01         0.65246E-01         0.00000E+00
    0.26954E-01         0.64055E-01         0.00000E+00
    0.26023E-01         0.62860E-01         0.00000E+00
    0.25109E-01         0.61660E-01         0.00000E+00
    0.24212E-01         0.60456E-01         0.00000E+00
    0.23331E-01         0.59247E-01         0.00000E+00
    0.22468E-01         0.58034E-01         0.00000E+00
    0.21621E-01         0.56814E-01         0.00000E+00
    0.20790E-01         0.55589E-01         0.00000E+00
    0.19974E-01         0.54357E-01         0.00000E+00
    0.19174E-01         0.53119E-01         0.00000E+00
    0.18390E-01         0.51875E-01         0.00000E+00
    0.17621E-01         0.50624E-01         0.00000E+00
    0.16866E-01         0.49368E-01         0.00000E+00
    0.16125E-01         0.48106E-01         0.00000E+00
    0.15398E-01         0.46835E-01         0.00000E+00
    0.14684E-01         0.45555E-01         0.00000E+00
    0.13982E-01         0.44269E-01         0.00000E+00
    0.13294E-01         0.42976E-01         0.00000E+00
    0.12618E-01         0.41665E-01         0.00000E+00
    0.11955E-01         0.40339E-01         0.00000E+00
    0.11304E-01         0.38999E-01         0.00000E+00
    0.10666E-01         0.37647E-01         0.00000E+00
    0.10042E-01         0.36277E-01         0.00000E+00
    0.94314E-02         0.34887E-01         0.00000E+00
    0.88361E-02         0.33474E-01         0.00000E+00
    0.82568E-02         0.32036E-01         0.00000E+00
    0.76937E-02         0.30571E-01         0.00000E+00
    0.71470E-02         0.29074E-01         0.00000E+00
    0.66175E-02         0.27541E-01         0.00000E+00
    0.61060E-02         0.25971E-01         0.00000E+00
    0.56122E-02         0.24361E-01         0.00000E+00
    0.51355E-02         0.22709E-01         0.00000E+00
    0.46750E-02         0.21015E-01         0.00000E+00
    0.42289E-02         0.19280E-01         0.00000E+00
    0.37949E-02         0.17504E-01         0.00000E+00
    0.33705E-02         0.15689E-01         0.00000E+00
    0.29534E-02         0.13837E-01         0.00000E+00
    0.25410E-02         0.11951E-01         0.00000E+00
    0.21300E-02         0.10031E-01         0.00000E+00
    0.17178E-02         0.80812E-02         0.00000E+00
    0.13004E-02         0.61012E-02         0.00000E+00
    0.87701E-03         0.40935E-02         0.00000E+00
    0.44575E-03         0.20599E-02         0.00000E+00
    0.00000E+00         0.00000E+00         0.00000E+00
    0.33844E-01         0.67424E-01         0.00000E+00
    0.32907E-01         0.66288E-01         0.00000E+00
    0.31977E-01         0.65152E-01         0.00000E+00
    0.31056E-01         0.64015E-01         0.00000E+00
    0.30142E-01         0.62877E-01         0.00000E+00
    0.29238E-01         0.61738E-01         0.00000E+00
    0.28344E-01         0.60597E-01         0.00000E+00
    0.27460E-01         0.59454E-01         0.00000E+00
    0.26587E-01         0.58308E-01         0.00000E+00
    0.25726E-01         0.57160E-01         0.00000E+00
    0.24876E-01         0.56008E-01         0.00000E+00
    0.24038E-01         0.54852E-01         0.00000E+00
    0.23211E-01         0.53693E-01         0.00000E+00
    0.22397E-01         0.52528E-01         0.00000E+00
    0.21594E-01         0.51360E-01         0.00000E+00
    0.20804E-01         0.50186E-01         0.00000E+00
    0.20025E-01         0.49007E-01         0.00000E+00
    0.19258E-01         0.47822E-01         0.00000E+00
    0.18502E-01         0.46632E-01         0.00000E+00
    0.17758E-01         0.45436E-01         0.00000E+00
    0.17024E-01         0.44233E-01         0.00000E+00
    0.16300E-01         0.43024E-01         0.00000E+00
    0.15586E-01         0.41809E-01         0.00000E+00
    0.14882E-01         0.40588E-01         0.00000E+00
    0.14187E-01         0.39359E-01         0.00000E+00
    0.13500E-01         0.38125E-01         0.00000E+00
    0.12822E-01         0.36884E-01         0.00000E+00
    0.12153E-01         0.35637E-01         0.00000E+00
    0.11492E-01         0.34384E-01         0.00000E+00
    0.10840E-01         0.33123E-01         0.00000E+00
    0.10197E-01         0.31851E-01         0.00000E+00
    0.95635E-02         0.30572E-01         0.00000E+00
    0.89398E-02         0.29274E-01         0.00000E+00
    0.83267E-02         0.27954E-01         0.00000E+00
    0.77255E-02         0.26612E-01         0.00000E+00
    0.71387E-02         0.25246E-01         0.00000E+00
    0.65671E-02         0.23849E-01         0.00000E+00
    0.60126E-02         0.22417E-01         0.00000E+00
    0.54769E-02         0.20947E-01         0.00000E+00
    0.49598E-02         0.19435E-01         0.00000E+00
    0.44604E-02         0.17877E-01         0.00000E+00
    0.39787E-02         0.16273E-01         0.00000E+00
    0.35123E-02         0.14622E-01         0.00000E+00
    0.30594E-02         0.12926E-01         0.00000E+00
    0.26169E-02         0.11187E-01         0.00000E+00
    0.21816E-02         0.94090E-02         0.00000E+00
    0.17499E-02         0.75934E-02         0.00000E+00
    0.13193E-02         0.57431E-02         0.00000E+00
    0.88787E-03         0.38600E-02         0.00000E+00
    0.44895E-03         0.19450E-02         0.00000E+00
    0.00000E+00         0.00000E+00         0.00000E+00
    0.33603E-01         0.62935E-01         0.00000E+00
    0.32747E-01         0.61844E-01         0.00000E+00
    0.31896E-01         0.60753E-01         0.00000E+00
    0.31049E-01         0.59662E-01         0.00000E+00
    0.30207E-01         0.58570E-01         0.00000E+00
    0.29370E-01         0.57476E-01         0.00000E+00
    0.28540E-01         0.56381E-01         0.00000E+00
    0.27716E-01         0.55285E-01         0.00000E+00
    0.26899E-01         0.54186E-01         0.00000E+00
    0.26089E-01         0.53085E-01         0.00000E+00
    0.25286E-01         0.51981E-01         0.00000E+00
    0.24492E-01         0.50874E-01         0.00000E+00
    0.23705E-01         0.49764E-01         0.00000E+00
    0.22926E-01         0.48650E-01         0.00000E+00
    0.22156E-01         0.47532E-01         0.00000E+00
    0.21394E-01         0.46410E-01         0.00000E+00
    0.20640E-01         0.45283E-01         0.00000E+00
    0.19895E-01         0.44151E-01         0.00000E+00
    0.19158E-01         0.43015E-01         0.00000E+00
    0.18429E-01         0.41873E-01         0.00000E+00
    0.17708E-01         0.40726E-01         0.00000E+00
    0.16995E-01         0.39573E-01         0.00000E+00
    0.16290E-01         0.38414E-01         0.00000E+00
    0.15592E-01         0.37249E-01         0.00000E+00
    0.14902E-01         0.36079E-01         0.00000E+00
    0.14219E-01         0.34902E-01         0.00000E+00
    0.13543E-01         0.33719E-01         0.00000E+00
    0.12873E-01         0.32529E-01         0.00000E+00
    0.12211E-01         0.31332E-01         0.00000E+00
    0.11554E-01         0.30128E-01         0.00000E+00
    0.10904E-01         0.28919E-01         0.00000E+00
    0.10258E-01         0.27702E-01         0.00000E+00
    0.96183E-02         0.26479E-01         0.00000E+00
    0.89842E-02         0.25250E-01         0.00000E+00
    0.83569E-02         0.24016E-01         0.00000E+00
    0.77365E-02         0.22774E-01         0.00000E+00
    0.71240E-02         0.21520E-01         0.00000E+00
    0.65220E-02         0.20255E-01         0.00000E+00
    0.59306E-02         0.18961E-01         0.00000E+00
    0.53518E-02         0.17635E-01         0.00000E+00
    0.47898E-02         0.16273E-01         0.00000E+00
    0.42459E-02         0.14867E-01         0.00000E+00
    0.37220E-02         0.13409E-01         0.00000E+00
    0.32192E-02         0.11902E-01         0.00000E+00
    0.27346E-02         0.10341E-01         0.00000E+00
    0.22645E-02         0.87273E-02         0.00000E+00
    0.18056E-02         0.70643E-02         0.00000E+00
    0.13542E-02         0.53562E-02         0.00000E+00
    0.90582E-03         0.36081E-02         0.00000E+00
    0.45477E-03         0.18220E-02         0.00000E+00
    0.00000E+00         0.00000E+00         0.00000E+00
    0.33207E-01         0.58841E-01         0.00000E+00
    0.32426E-01         0.57795E-01         0.00000E+00
    0.31645E-01         0.56748E-01         0.00000E+00
    0.30866E-01         0.55701E-01         0.00000E+00
    0.30089E-01         0.54654E-01         0.00000E+00
    0.29314E-01         0.53605E-01         0.00000E+00
    0.28543E-01         0.52555E-01         0.00000E+00
    0.27774E-01         0.51504E-01         0.00000E+00
    0.27009E-01         0.50451E-01         0.00000E+00
    0.26248E-01         0.49395E-01         0.00000E+00
    0.25491E-01         0.48338E-01         0.00000E+00
    0.24739E-01         0.47278E-01         0.00000E+00
    0.23992E-01         0.46214E-01         0.00000E+00
    0.23249E-01         0.45148E-01         0.00000E+00
    0.22512E-01         0.44079E-01         0.00000E+00
    0.21780E-01         0.43005E-01         0.00000E+00
    0.21054E-01         0.41928E-01         0.00000E+00
    0.20333E-01         0.40847E-01         0.00000E+00
    0.19618E-01         0.39761E-01         0.00000E+00
    0.18908E-01         0.38671E-01         0.00000E+00
    0.18204E-01         0.37576E-01         0.00000E+00
    0.17505E-01         0.36476E-01         0.00000E+00
    0.16812E-01         0.35370E-01         0.00000E+00
    0.16125E-01         0.34260E-01         0.00000E+00
    0.15443E-01         0.33144E-01         0.00000E+00
    0.14766E-01         0.32022E-01         0.00000E+00
    0.14095E-01         0.30895E-01         0.00000E+00
    0.13429E-01         0.29761E-01         0.00000E+00
    0.12768E-01         0.28621E-01         0.00000E+00
    0.12112E-01         0.27476E-01         0.00000E+00
    0.11461E-01         0.26323E-01         0.00000E+00
    0.10815E-01         0.25164E-01         0.00000E+00
    0.10174E-01         0.23999E-01         0.00000E+00
    0.95386E-02         0.22826E-01         0.00000E+00
    0.89075E-02         0.21647E-01         0.00000E+00
    0.82808E-02         0.20460E-01         0.00000E+00
    0.76586E-02         0.19267E-01         0.00000E+00
    0.70400E-02         0.18066E-01         0.00000E+00
    0.64255E-02         0.16861E-01         0.00000E+00
    0.58172E-02         0.15649E-01         0.00000E+00
    0.52166E-02         0.14432E-01         0.00000E+00
    0.46247E-02         0.13199E-01         0.00000E+00
    0.40476E-02         0.11951E-01         0.00000E+00
    0.34820E-02         0.10655E-01         0.00000E+00
    0.29340E-02         0.93119E-02         0.00000E+00
    0.24060E-02         0.79093E-02         0.00000E+00
    0.18987E-02         0.64417E-02         0.00000E+00
    0.14119E-02         0.49150E-02         0.00000E+00
    0.93806E-03         0.33276E-02         0.00000E+00
    0.46928E-03         0.16873E-02         0.00000E+00
    0.00000E+00         0.00000E+00         0.00000E+00
    0.32695E-01         0.55106E-01         0.00000E+00
    0.31981E-01         0.54103E-01         0.00000E+00
    0.31265E-01         0.53101E-01         0.00000E+00
    0.30548E-01         0.52098E-01         0.00000E+00
    0.29831E-01         0.51094E-01         0.00000E+00
    0.29113E-01         0.50089E-01         0.00000E+00
    0.28395E-01         0.49083E-01         0.00000E+00
    0.27678E-01         0.48076E-01         0.00000E+00
    0.26961E-01         0.47068E-01         0.00000E+00
    0.26246E-01         0.46057E-01         0.00000E+00
    0.25533E-01         0.45045E-01         0.00000E+00
    0.24821E-01         0.44030E-01         0.00000E+00
    0.24112E-01         0.43013E-01         0.00000E+00
    0.23405E-01         0.41994E-01         0.00000E+00
    0.22701E-01         0.40971E-01         0.00000E+00
    0.21999E-01         0.39945E-01         0.00000E+00
    0.21301E-01         0.38917E-01         0.00000E+00
    0.20605E-01         0.37884E-01         0.00000E+00
    0.19913E-01         0.36848E-01         0.00000E+00
    0.19224E-01         0.35808E-01         0.00000E+00
    0.18539E-01         0.34764E-01         0.00000E+00
    0.17857E-01         0.33715E-01         0.00000E+00
    0.17178E-01         0.32662E-01         0.00000E+00
    0.16504E-01         0.31605E-01         0.00000E+00
    0.15833E-01         0.30543E-01         0.00000E+00
    0.15165E-01         0.29475E-01         0.00000E+00
    0.14501E-01         0.28403E-01         0.00000E+00
    0.13841E-01         0.27325E-01         0.00000E+00
    0.13185E-01         0.26242E-01         0.00000E+00
    0.12532E-01         0.25154E-01         0.00000E+00
    0.11883E-01         0.24059E-01         0.00000E+00
    0.11237E-01         0.22959E-01         0.00000E+00
    0.10596E-01         0.21852E-01         0.00000E+00
    0.99576E-02         0.20739E-01         0.00000E+00
    0.93234E-02         0.19620E-01         0.00000E+00
    0.86931E-02         0.18495E-01         0.00000E+00
    0.80668E-02         0.17363E-01         0.00000E+00
    0.74447E-02         0.16223E-01         0.00000E+00
    0.68270E-02         0.15077E-01         0.00000E+00
    0.62135E-02         0.13922E-01         0.00000E+00
    0.56039E-02         0.12760E-01         0.00000E+00
    0.49984E-02         0.11591E-01         0.00000E+00
    0.43959E-02         0.10415E-01         0.00000E+00
    0.37984E-02         0.92336E-02         0.00000E+00
    0.32102E-02         0.80476E-02         0.00000E+00
    0.26330E-02         0.68441E-02         0.00000E+00
    0.20752E-02         0.56194E-02         0.00000E+00
    0.15285E-02         0.43263E-02         0.00000E+00
    0.10016E-02         0.29641E-02         0.00000E+00
    0.49246E-03         0.15191E-02         0.00000E+00
    0.00000E+00         0.00000E+00         0.00000E+00
    0.32102E-01         0.51698E-01         0.00000E+00
    0.31449E-01         0.50738E-01         0.00000E+00
    0.30791E-01         0.49778E-01         0.00000E+00
    0.30131E-01         0.48818E-01         0.00000E+00
    0.29467E-01         0.47857E-01         0.00000E+00
    0.28801E-01         0.46895E-01         0.00000E+00
    0.28133E-01         0.45933E-01         0.00000E+00
    0.27463E-01         0.44969E-01         0.00000E+00
    0.26792E-01         0.44005E-01         0.00000E+00
    0.26119E-01         0.43038E-01         0.00000E+00
    0.25447E-01         0.42070E-01         0.00000E+00
    0.24773E-01         0.41101E-01         0.00000E+00
    0.24100E-01         0.40129E-01         0.00000E+00
    0.23427E-01         0.39155E-01         0.00000E+00
    0.22755E-01         0.38179E-01         0.00000E+00
    0.22083E-01         0.37200E-01         0.00000E+00
    0.21412E-01         0.36219E-01         0.00000E+00
    0.20743E-01         0.35234E-01         0.00000E+00
    0.20074E-01         0.34247E-01         0.00000E+00
    0.19407E-01         0.33256E-01         0.00000E+00
    0.18742E-01         0.32262E-01         0.00000E+00
    0.18078E-01         0.31265E-01         0.00000E+00
    0.17416E-01         0.30264E-01         0.00000E+00
    0.16755E-01         0.29259E-01         0.00000E+00
    0.16097E-01         0.28250E-01         0.00000E+00
    0.15440E-01         0.27237E-01         0.00000E+00
    0.14786E-01         0.26220E-01         0.00000E+00
    0.14134E-01         0.25198E-01         0.00000E+00
    0.13484E-01         0.24172E-01         0.00000E+00
    0.12836E-01         0.23141E-01         0.00000E+00
    0.12191E-01         0.22105E-01         0.00000E+00
    0.11548E-01         0.21065E-01         0.00000E+00
    0.10907E-01         0.20019E-01         0.00000E+00
    0.10269E-01         0.18968E-01         0.00000E+00
    0.96332E-02         0.17911E-01         0.00000E+00
    0.90001E-02         0.16849E-01         0.00000E+00
    0.83699E-02         0.15781E-01         0.00000E+00
    0.77424E-02         0.14708E-01         0.00000E+00
    0.71178E-02         0.13628E-01         0.00000E+00
    0.64964E-02         0.12542E-01         0.00000E+00
    0.58785E-02         0.11450E-01         0.00000E+00
    0.52642E-02         0.10350E-01         0.00000E+00
    0.46543E-02         0.92433E-02         0.00000E+00
    0.40488E-02         0.81284E-02         0.00000E+00
    0.34470E-02         0.70044E-02         0.00000E+00
    0.28493E-02         0.58735E-02         0.00000E+00
    0.22546E-02         0.47350E-02         0.00000E+00
    0.16673E-02         0.35920E-02         0.00000E+00
    0.10940E-02         0.24388E-02         0.00000E+00
    0.54029E-03         0.12571E-02         0.00000E+00
    0.00000E+00         0.00000E+00         0.00000E+00
    0.31457E-01         0.48583E-01         0.00000E+00
    0.30859E-01         0.47665E-01         0.00000E+00
    0.30254E-01         0.46747E-01         0.00000E+00
    0.29644E-01         0.45829E-01         0.00000E+00
    0.29029E-01         0.44910E-01         0.00000E+00
    0.28410E-01         0.43991E-01         0.00000E+00
    0.27787E-01         0.43071E-01         0.00000E+00
    0.27160E-01         0.42150E-01         0.00000E+00
    0.26531E-01         0.41228E-01         0.00000E+00
    0.25898E-01         0.40305E-01         0.00000E+00
    0.25263E-01         0.39381E-01         0.00000E+00
    0.24626E-01         0.38455E-01         0.00000E+00
    0.23987E-01         0.37528E-01         0.00000E+00
    0.23346E-01         0.36599E-01         0.00000E+00
    0.22704E-01         0.35669E-01         0.00000E+00
    0.22062E-01         0.34736E-01         0.00000E+00
    0.21418E-01         0.33801E-01         0.00000E+00
    0.20773E-01         0.32864E-01         0.00000E+00
    0.20129E-01         0.31925E-01         0.00000E+00
    0.19484E-01         0.30983E-01         0.00000E+00
    0.18838E-01         0.30038E-01         0.00000E+00
    0.18193E-01         0.29091E-01         0.00000E+00
    0.17548E-01         0.28141E-01         0.00000E+00
    0.16904E-01         0.27188E-01         0.00000E+00
    0.16259E-01         0.26232E-01         0.00000E+00
    0.15616E-01         0.25273E-01         0.00000E+00
    0.14972E-01         0.24310E-01         0.00000E+00
    0.14330E-01         0.23344E-01         0.00000E+00
    0.13688E-01         0.22374E-01         0.00000E+00
    0.13048E-01         0.21401E-01         0.00000E+00
    0.12408E-01         0.20424E-01         0.00000E+00
    0.11769E-01         0.19443E-01         0.00000E+00
    0.11132E-01         0.18459E-01         0.00000E+00
    0.10495E-01         0.17470E-01         0.00000E+00
    0.98603E-02         0.16478E-01         0.00000E+00
    0.92265E-02         0.15481E-01         0.00000E+00
    0.85942E-02         0.14480E-01         0.00000E+00
    0.79635E-02         0.13475E-01         0.00000E+00
    0.73345E-02         0.12465E-01         0.00000E+00
    0.67074E-02         0.11451E-01         0.00000E+00
    0.60822E-02         0.10432E-01         0.00000E+00
    0.54591E-02         0.94087E-02         0.00000E+00
    0.48383E-02         0.83807E-02         0.00000E+00
    0.42199E-02         0.73482E-02         0.00000E+00
    0.36047E-02         0.63112E-02         0.00000E+00
    0.29930E-02         0.52692E-02         0.00000E+00
    0.23856E-02         0.42225E-02         0.00000E+00
    0.17825E-02         0.31700E-02         0.00000E+00
    0.11827E-02         0.21128E-02         0.00000E+00
    0.58676E-03         0.10546E-02         0.00000E+00
    0.00000E+00         0.00000E+00         0.00000E+00
    0.30788E-01         0.45728E-01         0.00000E+00
    0.30237E-01         0.44851E-01         0.00000E+00
    0.29678E-01         0.43974E-01         0.00000E+00
    0.29114E-01         0.43097E-01         0.00000E+00
    0.28542E-01         0.42219E-01         0.00000E+00
    0.27965E-01         0.41341E-01         0.00000E+00
    0.27383E-01         0.40463E-01         0.00000E+00
    0.26796E-01         0.39584E-01         0.00000E+00
    0.26204E-01         0.38704E-01         0.00000E+00
    0.25607E-01         0.37824E-01         0.00000E+00
    0.25007E-01         0.36942E-01         0.00000E+00
    0.24404E-01         0.36060E-01         0.00000E+00
    0.23796E-01         0.35176E-01         0.00000E+00
    0.23186E-01         0.34291E-01         0.00000E+00
    0.22573E-01         0.33405E-01         0.00000E+00
    0.21958E-01         0.32518E-01         0.00000E+00
    0.21340E-01         0.31628E-01         0.00000E+00
    0.20721E-01         0.30738E-01         0.00000E+00
    0.20099E-01         0.29845E-01         0.00000E+00
    0.19476E-01         0.28951E-01         0.00000E+00
    0.18851E-01         0.28055E-01         0.00000E+00
    0.18225E-01         0.27156E-01         0.00000E+00
    0.17598E-01         0.26256E-01         0.00000E+00
    0.16970E-01         0.25354E-01         0.00000E+00
    0.16341E-01         0.24449E-01         0.00000E+00
    0.15711E-01         0.23542E-01         0.00000E+00
    0.15080E-01         0.22632E-01         0.00000E+00
    0.14449E-01         0.21720E-01         0.00000E+00
    0.13818E-01         0.20806E-01         0.00000E+00
    0.13186E-01         0.19889E-01         0.00000E+00
    0.12554E-01         0.18969E-01         0.00000E+00
    0.11921E-01         0.18047E-01         0.00000E+00
    0.11289E-01         0.17122E-01         0.00000E+00
    0.10657E-01         0.16194E-01         0.00000E+00
    0.10025E-01         0.15263E-01         0.00000E+00
    0.93927E-02         0.14330E-01         0.00000E+00
    0.87610E-02         0.13394E-01         0.00000E+00
    0.81297E-02         0.12454E-01         0.00000E+00
    0.74988E-02         0.11513E-01         0.00000E+00
    0.68686E-02         0.10568E-01         0.00000E+00
    0.62390E-02         0.96203E-02         0.00000E+00
    0.56102E-02         0.86700E-02         0.00000E+00
    0.49823E-02         0.77171E-02         0.00000E+00
    0.43555E-02         0.67614E-02         0.00000E+00
    0.37297E-02         0.58031E-02         0.00000E+00
    0.31052E-02         0.48423E-02         0.00000E+00
    0.24818E-02         0.38790E-02         0.00000E+00
    0.18598E-02         0.29136E-02         0.00000E+00
    0.12393E-02         0.19459E-02         0.00000E+00
    0.62021E-03         0.97516E-03         0.00000E+00
    0.00000E+00         0.00000E+00         0.00000E+00
    0.30112E-01         0.43100E-01         0.00000E+00
    0.29603E-01         0.42263E-01         0.00000E+00
    0.29085E-01         0.41426E-01         0.00000E+00
    0.28560E-01         0.40589E-01         0.00000E+00
    0.28027E-01         0.39752E-01         0.00000E+00
    0.27488E-01         0.38914E-01         0.00000E+00
    0.26942E-01         0.38076E-01         0.00000E+00
    0.26390E-01         0.37238E-01         0.00000E+00
    0.25832E-01         0.36399E-01         0.00000E+00
    0.25268E-01         0.35560E-01         0.00000E+00
    0.24700E-01         0.34720E-01         0.00000E+00
    0.24127E-01         0.33880E-01         0.00000E+00
    0.23549E-01         0.33039E-01         0.00000E+00
    0.22968E-01         0.32197E-01         0.00000E+00
    0.22382E-01         0.31354E-01         0.00000E+00
    0.21792E-01         0.30510E-01         0.00000E+00
    0.21200E-01         0.29665E-01         0.00000E+00
    0.20604E-01         0.28819E-01         0.00000E+00
    0.20004E-01         0.27972E-01         0.00000E+00
    0.19403E-01         0.27124E-01         0.00000E+00
    0.18798E-01         0.26274E-01         0.00000E+00
    0.18191E-01         0.25423E-01         0.00000E+00
    0.17582E-01         0.24570E-01         0.00000E+00
    0.16970E-01         0.23716E-01         0.00000E+00
    0.16357E-01         0.22861E-01         0.00000E+00
    0.15741E-01         0.22004E-01         0.00000E+00
    0.15124E-01         0.21145E-01         0.00000E+00
    0.14506E-01         0.20285E-01         0.00000E+00
    0.13885E-01         0.19423E-01         0.00000E+00
    0.13264E-01         0.18559E-01         0.00000E+00
    0.12641E-01         0.17693E-01         0.00000E+00
    0.12017E-01         0.16826E-01         0.00000E+00
    0.11391E-01         0.15957E-01         0.00000E+00
    0.10765E-01         0.15086E-01         0.00000E+00
    0.10138E-01         0.14213E-01         0.00000E+00
    0.95094E-02         0.13338E-01         0.00000E+00
    0.88804E-02         0.12462E-01         0.00000E+00
    0.82506E-02         0.11584E-01         0.00000E+00
    0.76201E-02         0.10703E-01         0.00000E+00
    0.69890E-02         0.98215E-02         0.00000E+00
    0.63573E-02         0.89377E-02         0.00000E+00
    0.57250E-02         0.80521E-02         0.00000E+00
    0.50921E-02         0.71647E-02         0.00000E+00
    0.44587E-02         0.62755E-02         0.00000E+00
    0.38247E-02         0.53845E-02         0.00000E+00
    0.31900E-02         0.44917E-02         0.00000E+00
    0.25545E-02         0.35971E-02         0.00000E+00
    0.19181E-02         0.27006E-02         0.00000E+00
    0.12803E-02         0.18021E-02         0.00000E+00
    0.64087E-03         0.90179E-03         0.00000E+00
    0.00000E+00         0.00000E+00         0.00000E+00
    0.29446E-01         0.40666E-01         0.00000E+00
    0.28972E-01         0.39869E-01         0.00000E+00
    0.28490E-01         0.39071E-01         0.00000E+00
    0.27998E-01         0.38273E-01         0.00000E+00
    0.27499E-01         0.37475E-01         0.00000E+00
    0.26993E-01         0.36677E-01         0.00000E+00
    0.26479E-01         0.35879E-01         0.00000E+00
    0.25958E-01         0.35080E-01         0.00000E+00
    0.25431E-01         0.34282E-01         0.00000E+00
    0.24897E-01         0.33483E-01         0.00000E+00
    0.24357E-01         0.32683E-01         0.00000E+00
    0.23812E-01         0.31884E-01         0.00000E+00
    0.23262E-01         0.31084E-01         0.00000E+00
    0.22706E-01         0.30283E-01         0.00000E+00
    0.22145E-01         0.29482E-01         0.00000E+00
    0.21580E-01         0.28680E-01         0.00000E+00
    0.21011E-01         0.27878E-01         0.00000E+00
    0.20437E-01         0.27075E-01         0.00000E+00
    0.19859E-01         0.26272E-01         0.00000E+00
    0.19278E-01         0.25467E-01         0.00000E+00
    0.18693E-01         0.24662E-01         0.00000E+00
    0.18104E-01         0.23856E-01         0.00000E+00
    0.17513E-01         0.23049E-01         0.00000E+00
    0.16918E-01         0.22241E-01         0.00000E+00
    0.16320E-01         0.21432E-01         0.00000E+00
    0.15720E-01         0.20623E-01         0.00000E+00
    0.15116E-01         0.19812E-01         0.00000E+00
    0.14511E-01         0.19000E-01         0.00000E+00
    0.13902E-01         0.18187E-01         0.00000E+00
    0.13291E-01         0.17373E-01         0.00000E+00
    0.12679E-01         0.16558E-01         0.00000E+00
    0.12063E-01         0.15741E-01         0.00000E+00
    0.11446E-01         0.14924E-01         0.00000E+00
    0.10827E-01         0.14105E-01         0.00000E+00
    0.10206E-01         0.13285E-01         0.00000E+00
    0.95824E-02         0.12464E-01         0.00000E+00
    0.89574E-02         0.11642E-01         0.00000E+00
    0.83305E-02         0.10818E-01         0.00000E+00
    0.77018E-02         0.99936E-02         0.00000E+00
    0.70713E-02         0.91676E-02         0.00000E+00
    0.64390E-02         0.83405E-02         0.00000E+00
    0.58049E-02         0.75121E-02         0.00000E+00
    0.51689E-02         0.66825E-02         0.00000E+00
    0.45310E-02         0.58516E-02         0.00000E+00
    0.38910E-02         0.50195E-02         0.00000E+00
    0.32489E-02         0.41861E-02         0.00000E+00
    0.26045E-02         0.33514E-02         0.00000E+00
    0.19576E-02         0.25155E-02         0.00000E+00
    0.13080E-02         0.16783E-02         0.00000E+00
    0.65565E-03         0.83981E-03         0.00000E+00
    0.00000E+00         0.00000E+00         0.00000E+00
    0.28798E-01         0.38398E-01         0.00000E+00
    0.28354E-01         0.37639E-01         0.00000E+00
    0.27902E-01         0.36879E-01         0.00000E+00
    0.27440E-01         0.36119E-01         0.00000E+00
    0.26970E-01         0.35360E-01         0.00000E+00
    0.26492E-01         0.34600E-01         0.00000E+00
    0.26006E-01         0.33841E-01         0.00000E+00
    0.25513E-01         0.33081E-01         0.00000E+00
    0.25013E-01         0.32321E-01         0.00000E+00
    0.24505E-01         0.31561E-01         0.00000E+00
    0.23992E-01         0.30802E-01         0.00000E+00
    0.23472E-01         0.30041E-01         0.00000E+00
    0.22946E-01         0.29281E-01         0.00000E+00
    0.22414E-01         0.28521E-01         0.00000E+00
    0.21876E-01         0.27760E-01         0.00000E+00
    0.21334E-01         0.26999E-01         0.00000E+00
    0.20786E-01         0.26238E-01         0.00000E+00
    0.20233E-01         0.25476E-01         0.00000E+00
    0.19675E-01         0.24714E-01         0.00000E+00
    0.19113E-01         0.23952E-01         0.00000E+00
    0.18547E-01         0.23189E-01         0.00000E+00
    0.17976E-01         0.22426E-01         0.00000E+00
    0.17401E-01         0.21662E-01         0.00000E+00
    0.16823E-01         0.20898E-01         0.00000E+00
    0.16240E-01         0.20133E-01         0.00000E+00
    0.15654E-01         0.19367E-01         0.00000E+00
    0.15065E-01         0.18602E-01         0.00000E+00
    0.14472E-01         0.17835E-01         0.00000E+00
    0.13876E-01         0.17068E-01         0.00000E+00
    0.13276E-01         0.16300E-01         0.00000E+00
    0.12674E-01         0.15531E-01         0.00000E+00
    0.12068E-01         0.14762E-01         0.00000E+00
    0.11459E-01         0.13992E-01         0.00000E+00
    0.10848E-01         0.13221E-01         0.00000E+00
    0.10233E-01         0.12450E-01         0.00000E+00
    0.96162E-02         0.11678E-01         0.00000E+00
    0.89961E-02         0.10905E-01         0.00000E+00
    0.83732E-02         0.10131E-01         0.00000E+00
    0.77475E-02         0.93569E-02         0.00000E+00
    0.71190E-02         0.85817E-02         0.00000E+00
    0.64877E-02         0.78057E-02         0.00000E+00
    0.58535E-02         0.70288E-02         0.00000E+00
    0.52164E-02         0.62512E-02         0.00000E+00
    0.45762E-02         0.54727E-02         0.00000E+00
    0.39329E-02         0.46933E-02         0.00000E+00
    0.32864E-02         0.39132E-02         0.00000E+00
    0.26365E-02         0.31322E-02         0.00000E+00
    0.19832E-02         0.23504E-02         0.00000E+00
    0.13261E-02         0.15677E-02         0.00000E+00
    0.66508E-03         0.78424E-03         0.00000E+00
    0.00000E+00         0.00000E+00         0.00000E+00
    0.28174E-01         0.36269E-01         0.00000E+00
    0.27756E-01         0.35547E-01         0.00000E+00
    0.27328E-01         0.34825E-01         0.00000E+00
    0.26892E-01         0.34103E-01         0.00000E+00
    0.26447E-01         0.33380E-01         0.00000E+00
    0.25994E-01         0.32658E-01         0.00000E+00
    0.25533E-01         0.31936E-01         0.00000E+00
    0.25064E-01         0.31215E-01         0.00000E+00
    0.24587E-01         0.30493E-01         0.00000E+00
    0.24103E-01         0.29771E-01         0.00000E+00
    0.23613E-01         0.29049E-01         0.00000E+00
    0.23115E-01         0.28327E-01         0.00000E+00
    0.22611E-01         0.27606E-01         0.00000E+00
    0.22101E-01         0.26884E-01         0.00000E+00
    0.21584E-01         0.26162E-01         0.00000E+00
    0.21062E-01         0.25440E-01         0.00000E+00
    0.20534E-01         0.24718E-01         0.00000E+00
    0.20000E-01         0.23996E-01         0.00000E+00
    0.19462E-01         0.23274E-01         0.00000E+00
    0.18918E-01         0.22552E-01         0.00000E+00
    0.18369E-01         0.21829E-01         0.00000E+00
    0.17815E-01         0.21107E-01         0.00000E+00
    0.17256E-01         0.20384E-01         0.00000E+00
    0.16693E-01         0.19661E-01         0.00000E+00
    0.16125E-01         0.18938E-01         0.00000E+00
    0.15553E-01         0.18214E-01         0.00000E+00
    0.14977E-01         0.17490E-01         0.00000E+00
    0.14397E-01         0.16766E-01         0.00000E+00
    0.13813E-01         0.16042E-01         0.00000E+00
    0.13224E-01         0.15317E-01         0.00000E+00
    0.12632E-01         0.14592E-01         0.00000E+00
    0.12036E-01         0.13866E-01         0.00000E+00
    0.11437E-01         0.13141E-01         0.00000E+00
    0.10833E-01         0.12414E-01         0.00000E+00
    0.10226E-01         0.11688E-01         0.00000E+00
    0.96156E-02         0.10961E-01         0.00000E+00
    0.90013E-02         0.10233E-01         0.00000E+00
    0.83834E-02         0.95055E-02         0.00000E+00
    0.77619E-02         0.87772E-02         0.00000E+00
    0.71367E-02         0.80483E-02         0.00000E+00
    0.65079E-02         0.73191E-02         0.00000E+00
    0.58753E-02         0.65893E-02         0.00000E+00
    0.52389E-02         0.58591E-02         0.00000E+00
    0.45987E-02         0.51284E-02         0.00000E+00
    0.39545E-02         0.43971E-02         0.00000E+00
    0.33063E-02         0.36654E-02         0.00000E+00
    0.26540E-02         0.29333E-02         0.00000E+00
    0.19973E-02         0.22006E-02         0.00000E+00
    0.13362E-02         0.14675E-02         0.00000E+00
    0.67050E-03         0.73397E-03         0.00000E+00
    0.00000E+00         0.00000E+00         0.00000E+00
    0.27576E-01         0.34257E-01         0.00000E+00
    0.27180E-01         0.33571E-01         0.00000E+00
    0.26774E-01         0.32886E-01         0.00000E+00
    0.26359E-01         0.32200E-01         0.00000E+00
    0.25936E-01         0.31515E-01         0.00000E+00
    0.25504E-01         0.30829E-01         0.00000E+00
    0.25064E-01         0.30144E-01         0.00000E+00
    0.24616E-01         0.29459E-01         0.00000E+00
    0.24161E-01         0.28774E-01         0.00000E+00
    0.23697E-01         0.28089E-01         0.00000E+00
    0.23227E-01         0.27404E-01         0.00000E+00
    0.22750E-01         0.26720E-01         0.00000E+00
    0.22265E-01         0.26035E-01         0.00000E+00
    0.21774E-01         0.25351E-01         0.00000E+00
    0.21277E-01         0.24666E-01         0.00000E+00
    0.20773E-01         0.23982E-01         0.00000E+00
    0.20263E-01         0.23298E-01         0.00000E+00
    0.19747E-01         0.22614E-01         0.00000E+00
    0.19226E-01         0.21930E-01         0.00000E+00
    0.18698E-01         0.21246E-01         0.00000E+00
    0.18166E-01         0.20562E-01         0.00000E+00
    0.17627E-01         0.19878E-01         0.00000E+00
    0.17084E-01         0.19195E-01         0.00000E+00
    0.16535E-01         0.18511E-01         0.00000E+00
    0.15982E-01         0.17827E-01         0.00000E+00
    0.15423E-01         0.17143E-01         0.00000E+00
    0.14860E-01         0.16459E-01         0.00000E+00
    0.14292E-01         0.15775E-01         0.00000E+00
    0.13719E-01         0.15091E-01         0.00000E+00
    0.13142E-01         0.14407E-01         0.00000E+00
    0.12560E-01         0.13722E-01         0.00000E+00
    0.11974E-01         0.13038E-01         0.00000E+00
    0.11384E-01         0.12353E-01         0.00000E+00
    0.10789E-01         0.11669E-01         0.00000E+00
    0.10190E-01         0.10984E-01         0.00000E+00
    0.95862E-02         0.10299E-01         0.00000E+00
    0.89784E-02         0.96137E-02         0.00000E+00
    0.83663E-02         0.89283E-02         0.00000E+00
    0.77499E-02         0.82427E-02         0.00000E+00
    0.71292E-02         0.75569E-02         0.00000E+00
    0.65041E-02         0.68709E-02         0.00000E+00
    0.58747E-02         0.61847E-02         0.00000E+00
    0.52408E-02         0.54983E-02         0.00000E+00
    0.46025E-02         0.48117E-02         0.00000E+00
    0.39595E-02         0.41248E-02         0.00000E+00
    0.33119E-02         0.34378E-02         0.00000E+00
    0.26595E-02         0.27506E-02         0.00000E+00
    0.20023E-02         0.20631E-02         0.00000E+00
    0.13400E-02         0.13756E-02         0.00000E+00
    0.67264E-03         0.68784E-03         0.00000E+00
    0.00000E+00         0.00000E+00         0.00000E+00
    0.27006E-01         0.32344E-01         0.00000E+00
    0.26628E-01         0.31694E-01         0.00000E+00
    0.26241E-01         0.31044E-01         0.00000E+00
    0.25844E-01         0.30394E-01         0.00000E+00
    0.25439E-01         0.29744E-01         0.00000E+00
    0.25026E-01         0.29095E-01         0.00000E+00
    0.24605E-01         0.28445E-01         0.00000E+00
    0.24175E-01         0.27796E-01         0.00000E+00
    0.23738E-01         0.27147E-01         0.00000E+00
    0.23293E-01         0.26498E-01         0.00000E+00
    0.22840E-01         0.25849E-01         0.00000E+00
    0.22381E-01         0.25200E-01         0.00000E+00
    0.21914E-01         0.24552E-01         0.00000E+00
    0.21441E-01         0.23904E-01         0.00000E+00
    0.20960E-01         0.23256E-01         0.00000E+00
    0.20473E-01         0.22608E-01         0.00000E+00
    0.19980E-01         0.21960E-01         0.00000E+00
    0.19480E-01         0.21313E-01         0.00000E+00
    0.18974E-01         0.20666E-01         0.00000E+00
    0.18462E-01         0.20019E-01         0.00000E+00
    0.17944E-01         0.19372E-01         0.00000E+00
    0.17421E-01         0.18725E-01         0.00000E+00
    0.16891E-01         0.18078E-01         0.00000E+00
    0.16356E-01         0.17432E-01         0.00000E+00
    0.15816E-01         0.16786E-01         0.00000E+00
    0.15270E-01         0.16139E-01         0.00000E+00
    0.14719E-01         0.15493E-01         0.00000E+00
    0.14163E-01         0.14847E-01         0.00000E+00
    0.13602E-01         0.14201E-01         0.00000E+00
    0.13035E-01         0.13556E-01         0.00000E+00
    0.12464E-01         0.12910E-01         0.00000E+00
    0.11887E-01         0.12264E-01         0.00000E+00
    0.11306E-01         0.11618E-01         0.00000E+00
    0.10720E-01         0.10973E-01         0.00000E+00
    0.10129E-01         0.10327E-01         0.00000E+00
    0.95329E-02         0.96817E-02         0.00000E+00
    0.89321E-02         0.90361E-02         0.00000E+00
    0.83266E-02         0.83906E-02         0.00000E+00
    0.77162E-02         0.77450E-02         0.00000E+00
    0.71010E-02         0.70995E-02         0.00000E+00
    0.64809E-02         0.64540E-02         0.00000E+00
    0.58559E-02         0.58085E-02         0.00000E+00
    0.52259E-02         0.51629E-02         0.00000E+00
    0.45910E-02         0.45174E-02         0.00000E+00
    0.39509E-02         0.38719E-02         0.00000E+00
    0.33058E-02         0.32265E-02         0.00000E+00
    0.26554E-02         0.25810E-02         0.00000E+00
    0.19998E-02         0.19356E-02         0.00000E+00
    0.13387E-02         0.12903E-02         0.00000E+00
    0.67217E-03         0.64511E-03         0.00000E+00
    0.00000E+00         0.00000E+00         0.00000E+00
    0.26464E-01         0.30514E-01         0.00000E+00
    0.26101E-01         0.29899E-01         0.00000E+00
    0.25729E-01         0.29284E-01         0.00000E+00
    0.25348E-01         0.28669E-01         0.00000E+00
    0.24960E-01         0.28054E-01         0.00000E+00
    0.24562E-01         0.27439E-01         0.00000E+00
    0.24157E-01         0.26825E-01         0.00000E+00
    0.23744E-01         0.26210E-01         0.00000E+00
    0.23322E-01         0.25596E-01         0.00000E+00
    0.22893E-01         0.24982E-01         0.00000E+00
    0.22457E-01         0.24368E-01         0.00000E+00
    0.22013E-01         0.23755E-01         0.00000E+00
    0.21562E-01         0.23141E-01         0.00000E+00
    0.21104E-01         0.22528E-01         0.00000E+00
    0.20639E-01         0.21916E-01         0.00000E+00
    0.20167E-01         0.21303E-01         0.00000E+00
    0.19689E-01         0.20691E-01         0.00000E+00
    0.19203E-01         0.20079E-01         0.00000E+00
    0.18712E-01         0.19467E-01         0.00000E+00
    0.18214E-01         0.18855E-01         0.00000E+00
    0.17710E-01         0.18244E-01         0.00000E+00
    0.17200E-01         0.17633E-01         0.00000E+00
    0.16683E-01         0.17022E-01         0.00000E+00
    0.16161E-01         0.16412E-01         0.00000E+00
    0.15633E-01         0.15801E-01         0.00000E+00
    0.15100E-01         0.15191E-01         0.00000E+00
    0.14560E-01         0.14581E-01         0.00000E+00
    0.14015E-01         0.13972E-01         0.00000E+00
    0.13465E-01         0.13362E-01         0.00000E+00
    0.12909E-01         0.12753E-01         0.00000E+00
    0.12347E-01         0.12144E-01         0.00000E+00
    0.11781E-01         0.11535E-01         0.00000E+00
    0.11209E-01         0.10926E-01         0.00000E+00
    0.10631E-01         0.10318E-01         0.00000E+00
    0.10048E-01         0.97095E-02         0.00000E+00
    0.94605E-02         0.91013E-02         0.00000E+00
    0.88673E-02         0.84933E-02         0.00000E+00
    0.82689E-02         0.78854E-02         0.00000E+00
    0.76652E-02         0.72777E-02         0.00000E+00
    0.70562E-02         0.66702E-02         0.00000E+00
    0.64420E-02         0.60628E-02         0.00000E+00
    0.58224E-02         0.54556E-02         0.00000E+00
    0.51975E-02         0.48485E-02         0.00000E+00
    0.45672E-02         0.42417E-02         0.00000E+00
    0.39316E-02         0.36350E-02         0.00000E+00
    0.32904E-02         0.30286E-02         0.00000E+00
    0.26437E-02         0.24224E-02         0.00000E+00
    0.19914E-02         0.18164E-02         0.00000E+00
    0.13334E-02         0.12106E-02         0.00000E+00
    0.66962E-03         0.60516E-03         0.00000E+00
    0.00000E+00         0.00000E+00         0.00000E+00
    0.25947E-01         0.28755E-01         0.00000E+00
    0.25597E-01         0.28175E-01         0.00000E+00
    0.25239E-01         0.27594E-01         0.00000E+00
    0.24873E-01         0.27013E-01         0.00000E+00
    0.24498E-01         0.26432E-01         0.00000E+00
    0.24114E-01         0.25851E-01         0.00000E+00
    0.23723E-01         0.25271E-01         0.00000E+00
    0.23324E-01         0.24691E-01         0.00000E+00
    0.22917E-01         0.24110E-01         0.00000E+00
    0.22502E-01         0.23531E-01         0.00000E+00
    0.22080E-01         0.22951E-01         0.00000E+00
    0.21650E-01         0.22372E-01         0.00000E+00
    0.21213E-01         0.21792E-01         0.00000E+00
    0.20769E-01         0.21214E-01         0.00000E+00
    0.20317E-01         0.20635E-01         0.00000E+00
    0.19859E-01         0.20057E-01         0.00000E+00
    0.19394E-01         0.19479E-01         0.00000E+00
    0.18922E-01         0.18901E-01         0.00000E+00
    0.18444E-01         0.18323E-01         0.00000E+00
    0.17959E-01         0.17746E-01         0.00000E+00
    0.17467E-01         0.17169E-01         0.00000E+00
    0.16969E-01         0.16593E-01         0.00000E+00
    0.16465E-01         0.16017E-01         0.00000E+00
    0.15955E-01         0.15441E-01         0.00000E+00
    0.15439E-01         0.14865E-01         0.00000E+00
    0.14917E-01         0.14290E-01         0.00000E+00
    0.14388E-01         0.13714E-01         0.00000E+00
    0.13854E-01         0.13140E-01         0.00000E+00
    0.13314E-01         0.12565E-01         0.00000E+00
    0.12768E-01         0.11991E-01         0.00000E+00
    0.12216E-01         0.11417E-01         0.00000E+00
    0.11659E-01         0.10843E-01         0.00000E+00
    0.11096E-01         0.10270E-01         0.00000E+00
    0.10528E-01         0.96969E-02         0.00000E+00
    0.99533E-02         0.91241E-02         0.00000E+00
    0.93735E-02         0.85515E-02         0.00000E+00
    0.87881E-02         0.79792E-02         0.00000E+00
    0.81971E-02         0.74073E-02         0.00000E+00
    0.76006E-02         0.68355E-02         0.00000E+00
    0.69985E-02         0.62641E-02         0.00000E+00
    0.63908E-02         0.56930E-02         0.00000E+00
    0.57775E-02         0.51221E-02         0.00000E+00
    0.51586E-02         0.45516E-02         0.00000E+00
    0.45340E-02         0.39814E-02         0.00000E+00
    0.39037E-02         0.34115E-02         0.00000E+00
    0.32677E-02         0.28419E-02         0.00000E+00
    0.26260E-02         0.22727E-02         0.00000E+00
    0.19784E-02         0.17039E-02         0.00000E+00
    0.13249E-02         0.11355E-02         0.00000E+00
    0.66544E-03         0.56754E-03         0.00000E+00
    0.00000E+00         0.00000E+00         0.00000E+00
    0.25455E-01         0.27059E-01         0.00000E+00
    0.25118E-01         0.26511E-01         0.00000E+00
    0.24771E-01         0.25964E-01         0.00000E+00
    0.24417E-01         0.25416E-01         0.00000E+00
    0.24054E-01         0.24869E-01         0.00000E+00
    0.23683E-01         0.24321E-01         0.00000E+00
    0.23304E-01         0.23774E-01         0.00000E+00
    0.22917E-01         0.23227E-01         0.00000E+00
    0.22523E-01         0.22681E-01         0.00000E+00
    0.22121E-01         0.22134E-01         0.00000E+00
    0.21711E-01         0.21588E-01         0.00000E+00
    0.21294E-01         0.21041E-01         0.00000E+00
    0.20869E-01         0.20496E-01         0.00000E+00
    0.20438E-01         0.19950E-01         0.00000E+00
    0.19999E-01         0.19405E-01         0.00000E+00
    0.19553E-01         0.18860E-01         0.00000E+00
    0.19100E-01         0.18315E-01         0.00000E+00
    0.18640E-01         0.17770E-01         0.00000E+00
    0.18174E-01         0.17226E-01         0.00000E+00
    0.17700E-01         0.16683E-01         0.00000E+00
    0.17221E-01         0.16139E-01         0.00000E+00
    0.16734E-01         0.15596E-01         0.00000E+00
    0.16241E-01         0.15053E-01         0.00000E+00
    0.15742E-01         0.14511E-01         0.00000E+00
    0.15237E-01         0.13969E-01         0.00000E+00
    0.14725E-01         0.13427E-01         0.00000E+00
    0.14207E-01         0.12885E-01         0.00000E+00
    0.13683E-01         0.12344E-01         0.00000E+00
    0.13153E-01         0.11803E-01         0.00000E+00
    0.12617E-01         0.11263E-01         0.00000E+00
    0.12075E-01         0.10723E-01         0.00000E+00
    0.11527E-01         0.10183E-01         0.00000E+00
    0.10973E-01         0.96436E-02         0.00000E+00
    0.10413E-01         0.91046E-02         0.00000E+00
    0.98471E-02         0.85659E-02         0.00000E+00
    0.92756E-02         0.80275E-02         0.00000E+00
    0.86982E-02         0.74895E-02         0.00000E+00
    0.81150E-02         0.69518E-02         0.00000E+00
    0.75259E-02         0.64146E-02         0.00000E+00
    0.69311E-02         0.58777E-02         0.00000E+00
    0.63305E-02         0.53412E-02         0.00000E+00
    0.57240E-02         0.48050E-02         0.00000E+00
    0.51117E-02         0.42693E-02         0.00000E+00
    0.44935E-02         0.37340E-02         0.00000E+00
    0.38695E-02         0.31991E-02         0.00000E+00
    0.32395E-02         0.26647E-02         0.00000E+00
    0.26037E-02         0.21307E-02         0.00000E+00
    0.19618E-02         0.15973E-02         0.00000E+00
    0.13140E-02         0.10643E-02         0.00000E+00
    0.66003E-03         0.53187E-03         0.00000E+00
    0.00000E+00         0.00000E+00         0.00000E+00
    0.24988E-01         0.25417E-01         0.00000E+00
    0.24661E-01         0.24902E-01         0.00000E+00
    0.24325E-01         0.24387E-01         0.00000E+00
    0.23981E-01         0.23872E-01         0.00000E+00
    0.23629E-01         0.23357E-01         0.00000E+00
    0.23269E-01         0.22842E-01         0.00000E+00
    0.22901E-01         0.22328E-01         0.00000E+00
    0.22526E-01         0.21813E-01         0.00000E+00
    0.22142E-01         0.21299E-01         0.00000E+00
    0.21751E-01         0.20785E-01         0.00000E+00
    0.21353E-01         0.20271E-01         0.00000E+00
    0.20947E-01         0.19757E-01         0.00000E+00
    0.20534E-01         0.19244E-01         0.00000E+00
    0.20113E-01         0.18731E-01         0.00000E+00
    0.19685E-01         0.18218E-01         0.00000E+00
    0.19251E-01         0.17705E-01         0.00000E+00
    0.18809E-01         0.17193E-01         0.00000E+00
    0.18360E-01         0.16681E-01         0.00000E+00
    0.17905E-01         0.16169E-01         0.00000E+00
    0.17442E-01         0.15658E-01         0.00000E+00
    0.16973E-01         0.15147E-01         0.00000E+00
    0.16497E-01         0.14636E-01         0.00000E+00
    0.16015E-01         0.14126E-01         0.00000E+00
    0.15526E-01         0.13616E-01         0.00000E+00
    0.15031E-01         0.13106E-01         0.00000E+00
    0.14529E-01         0.12597E-01         0.00000E+00
    0.14021E-01         0.12088E-01         0.00000E+00
    0.13507E-01         0.11580E-01         0.00000E+00
    0.12986E-01         0.11072E-01         0.00000E+00
    0.12459E-01         0.10564E-01         0.00000E+00
    0.11926E-01         0.10056E-01         0.00000E+00
    0.11387E-01         0.95494E-02         0.00000E+00
    0.10842E-01         0.90428E-02         0.00000E+00
    0.10291E-01         0.85366E-02         0.00000E+00
    0.97335E-02         0.80308E-02         0.00000E+00
    0.91701E-02         0.75254E-02         0.00000E+00
    0.86008E-02         0.70203E-02         0.00000E+00
    0.80254E-02         0.65158E-02         0.00000E+00
    0.74441E-02         0.60116E-02         0.00000E+00
    0.68568E-02         0.55079E-02         0.00000E+00
    0.62635E-02         0.50046E-02         0.00000E+00
    0.56643E-02         0.45018E-02         0.00000E+00
    0.50590E-02         0.39995E-02         0.00000E+00
    0.44478E-02         0.34976E-02         0.00000E+00
    0.38306E-02         0.29963E-02         0.00000E+00
    0.32074E-02         0.24955E-02         0.00000E+00
    0.25781E-02         0.19952E-02         0.00000E+00
    0.19427E-02         0.14955E-02         0.00000E+00
    0.13013E-02         0.99639E-03         0.00000E+00
    0.65372E-03         0.49788E-03         0.00000E+00
    0.00000E+00         0.00000E+00         0.00000E+00
    0.24545E-01         0.23823E-01         0.00000E+00
    0.24226E-01         0.23340E-01         0.00000E+00
    0.23900E-01         0.22857E-01         0.00000E+00
    0.23565E-01         0.22373E-01         0.00000E+00
    0.23223E-01         0.21890E-01         0.00000E+00
    0.22873E-01         0.21407E-01         0.00000E+00
    0.22515E-01         0.20925E-01         0.00000E+00
    0.22149E-01         0.20442E-01         0.00000E+00
    0.21776E-01         0.19959E-01         0.00000E+00
    0.21395E-01         0.19477E-01         0.00000E+00
    0.21007E-01         0.18995E-01         0.00000E+00
    0.20611E-01         0.18513E-01         0.00000E+00
    0.20208E-01         0.18031E-01         0.00000E+00
    0.19798E-01         0.17550E-01         0.00000E+00
    0.19380E-01         0.17069E-01         0.00000E+00
    0.18955E-01         0.16588E-01         0.00000E+00
    0.18524E-01         0.16107E-01         0.00000E+00
    0.18085E-01         0.15627E-01         0.00000E+00
    0.17640E-01         0.15147E-01         0.00000E+00
    0.17187E-01         0.14667E-01         0.00000E+00
    0.16728E-01         0.14188E-01         0.00000E+00
    0.16262E-01         0.13709E-01         0.00000E+00
    0.15789E-01         0.13230E-01         0.00000E+00
    0.15310E-01         0.12752E-01         0.00000E+00
    0.14824E-01         0.12274E-01         0.00000E+00
    0.14332E-01         0.11796E-01         0.00000E+00
    0.13833E-01         0.11319E-01         0.00000E+00
    0.13328E-01         0.10842E-01         0.00000E+00
    0.12816E-01         0.10366E-01         0.00000E+00
    0.12299E-01         0.98897E-02         0.00000E+00
    0.11774E-01         0.94141E-02         0.00000E+00
    0.11244E-01         0.89388E-02         0.00000E+00
    0.10707E-01         0.84640E-02         0.00000E+00
    0.10164E-01         0.79896E-02         0.00000E+00
    0.96152E-02         0.75156E-02         0.00000E+00
    0.90600E-02         0.70420E-02         0.00000E+00
    0.84987E-02         0.65689E-02         0.00000E+00
    0.79312E-02         0.60963E-02         0.00000E+00
    0.73576E-02         0.56241E-02         0.00000E+00
    0.67780E-02         0.51524E-02         0.00000E+00
    0.61923E-02         0.46812E-02         0.00000E+00
    0.56005E-02         0.42106E-02         0.00000E+00
    0.50026E-02         0.37404E-02         0.00000E+00
    0.43986E-02         0.32708E-02         0.00000E+00
    0.37886E-02         0.28017E-02         0.00000E+00
    0.31724E-02         0.23332E-02         0.00000E+00
    0.25502E-02         0.18653E-02         0.00000E+00
    0.19219E-02         0.13980E-02         0.00000E+00
    0.12874E-02         0.93130E-03         0.00000E+00
    0.64677E-03         0.46531E-03         0.00000E+00
    0.00000E+00         0.00000E+00         0.00000E+00
    0.24124E-01         0.22273E-01         0.00000E+00
    0.23814E-01         0.21820E-01         0.00000E+00
    0.23496E-01         0.21368E-01         0.00000E+00
    0.23170E-01         0.20916E-01         0.00000E+00
    0.22837E-01         0.20464E-01         0.00000E+00
    0.22495E-01         0.20013E-01         0.00000E+00
    0.22146E-01         0.19561E-01         0.00000E+00
    0.21789E-01         0.19109E-01         0.00000E+00
    0.21425E-01         0.18658E-01         0.00000E+00
    0.21054E-01         0.18206E-01         0.00000E+00
    0.20674E-01         0.17755E-01         0.00000E+00
    0.20288E-01         0.17304E-01         0.00000E+00
    0.19894E-01         0.16854E-01         0.00000E+00
    0.19493E-01         0.16403E-01         0.00000E+00
    0.19085E-01         0.15953E-01         0.00000E+00
    0.18669E-01         0.15503E-01         0.00000E+00
    0.18247E-01         0.15054E-01         0.00000E+00
    0.17817E-01         0.14604E-01         0.00000E+00
    0.17381E-01         0.14155E-01         0.00000E+00
    0.16938E-01         0.13706E-01         0.00000E+00
    0.16488E-01         0.13258E-01         0.00000E+00
    0.16031E-01         0.12810E-01         0.00000E+00
    0.15567E-01         0.12362E-01         0.00000E+00
    0.15097E-01         0.11914E-01         0.00000E+00
    0.14620E-01         0.11467E-01         0.00000E+00
    0.14136E-01         0.11021E-01         0.00000E+00
    0.13646E-01         0.10574E-01         0.00000E+00
    0.13150E-01         0.10128E-01         0.00000E+00
    0.12647E-01         0.96826E-02         0.00000E+00
    0.12137E-01         0.92374E-02         0.00000E+00
    0.11621E-01         0.87926E-02         0.00000E+00
    0.11099E-01         0.83483E-02         0.00000E+00
    0.10571E-01         0.79043E-02         0.00000E+00
    0.10036E-01         0.74608E-02         0.00000E+00
    0.94950E-02         0.70177E-02         0.00000E+00
    0.89478E-02         0.65751E-02         0.00000E+00
    0.83943E-02         0.61330E-02         0.00000E+00
    0.78346E-02         0.56913E-02         0.00000E+00
    0.72688E-02         0.52501E-02         0.00000E+00
    0.66968E-02         0.48094E-02         0.00000E+00
    0.61186E-02         0.43693E-02         0.00000E+00
    0.55343E-02         0.39297E-02         0.00000E+00
    0.49439E-02         0.34906E-02         0.00000E+00
    0.43473E-02         0.30521E-02         0.00000E+00
    0.37447E-02         0.26141E-02         0.00000E+00
    0.31359E-02         0.21768E-02         0.00000E+00
    0.25210E-02         0.17401E-02         0.00000E+00
    0.18999E-02         0.13041E-02         0.00000E+00
    0.12728E-02         0.86867E-03         0.00000E+00
    0.63945E-03         0.43398E-03         0.00000E+00
    0.00000E+00         0.00000E+00         0.00000E+00
    0.23726E-01         0.20761E-01         0.00000E+00
    0.23424E-01         0.20340E-01         0.00000E+00
    0.23114E-01         0.19918E-01         0.00000E+00
    0.22796E-01         0.19497E-01         0.00000E+00
    0.22470E-01         0.19075E-01         0.00000E+00
    0.22136E-01         0.18654E-01         0.00000E+00
    0.21796E-01         0.18232E-01         0.00000E+00
    0.21447E-01         0.17811E-01         0.00000E+00
    0.21091E-01         0.17390E-01         0.00000E+00
    0.20728E-01         0.16969E-01         0.00000E+00
    0.20357E-01         0.16549E-01         0.00000E+00
    0.19979E-01         0.16128E-01         0.00000E+00
    0.19593E-01         0.15708E-01         0.00000E+00
    0.19200E-01         0.15288E-01         0.00000E+00
    0.18801E-01         0.14868E-01         0.00000E+00
    0.18394E-01         0.14448E-01         0.00000E+00
    0.17980E-01         0.14029E-01         0.00000E+00
    0.17559E-01         0.13609E-01         0.00000E+00
    0.17131E-01         0.13191E-01         0.00000E+00
    0.16696E-01         0.12772E-01         0.00000E+00
    0.16254E-01         0.12354E-01         0.00000E+00
    0.15806E-01         0.11936E-01         0.00000E+00
    0.15350E-01         0.11518E-01         0.00000E+00
    0.14888E-01         0.11101E-01         0.00000E+00
    0.14420E-01         0.10684E-01         0.00000E+00
    0.13945E-01         0.10267E-01         0.00000E+00
    0.13463E-01         0.98509E-02         0.00000E+00
    0.12974E-01         0.94350E-02         0.00000E+00
    0.12479E-01         0.90195E-02         0.00000E+00
    0.11978E-01         0.86044E-02         0.00000E+00
    0.11470E-01         0.81897E-02         0.00000E+00
    0.10956E-01         0.77754E-02         0.00000E+00
    0.10435E-01         0.73615E-02         0.00000E+00
    0.99083E-02         0.69481E-02         0.00000E+00
    0.93750E-02         0.65351E-02         0.00000E+00
    0.88355E-02         0.61226E-02         0.00000E+00
    0.82897E-02         0.57106E-02         0.00000E+00
    0.77376E-02         0.52990E-02         0.00000E+00
    0.71793E-02         0.48879E-02         0.00000E+00
    0.66149E-02         0.44774E-02         0.00000E+00
    0.60442E-02         0.40673E-02         0.00000E+00
    0.54674E-02         0.36579E-02         0.00000E+00
    0.48844E-02         0.32489E-02         0.00000E+00
    0.42953E-02         0.28406E-02         0.00000E+00
    0.37000E-02         0.24328E-02         0.00000E+00
    0.30986E-02         0.20257E-02         0.00000E+00
    0.24911E-02         0.16192E-02         0.00000E+00
    0.18775E-02         0.12134E-02         0.00000E+00
    0.12578E-02         0.80819E-03         0.00000E+00
    0.63194E-03         0.40373E-03         0.00000E+00
    0.00000E+00         0.00000E+00         0.00000E+00
    0.23351E-01         0.19286E-01         0.00000E+00
    0.23056E-01         0.18895E-01         0.00000E+00
    0.22753E-01         0.18503E-01         0.00000E+00
    0.22442E-01         0.18111E-01         0.00000E+00
    0.22123E-01         0.17719E-01         0.00000E+00
    0.21797E-01         0.17328E-01         0.00000E+00
    0.21464E-01         0.16936E-01         0.00000E+00
    0.21123E-01         0.16545E-01         0.00000E+00
    0.20774E-01         0.16154E-01         0.00000E+00
    0.20418E-01         0.15762E-01         0.00000E+00
    0.20055E-01         0.15371E-01         0.00000E+00
    0.19685E-01         0.14981E-01         0.00000E+00
    0.19307E-01         0.14590E-01         0.00000E+00
    0.18922E-01         0.14200E-01         0.00000E+00
    0.18530E-01         0.13809E-01         0.00000E+00
    0.18131E-01         0.13419E-01         0.00000E+00
    0.17724E-01         0.13029E-01         0.00000E+00
    0.17311E-01         0.12640E-01         0.00000E+00
    0.16891E-01         0.12251E-01         0.00000E+00
    0.16464E-01         0.11862E-01         0.00000E+00
    0.16030E-01         0.11473E-01         0.00000E+00
    0.15589E-01         0.11084E-01         0.00000E+00
    0.15142E-01         0.10696E-01         0.00000E+00
    0.14687E-01         0.10308E-01         0.00000E+00
    0.14226E-01         0.99209E-02         0.00000E+00
    0.13759E-01         0.95337E-02         0.00000E+00
    0.13285E-01         0.91469E-02         0.00000E+00
    0.12804E-01         0.87604E-02         0.00000E+00
    0.12316E-01         0.83743E-02         0.00000E+00
    0.11823E-01         0.79886E-02         0.00000E+00
    0.11322E-01         0.76033E-02         0.00000E+00
    0.10816E-01         0.72184E-02         0.00000E+00
    0.10302E-01         0.68339E-02         0.00000E+00
    0.97830E-02         0.64498E-02         0.00000E+00
    0.92571E-02         0.60661E-02         0.00000E+00
    0.87250E-02         0.56830E-02         0.00000E+00
    0.81865E-02         0.53002E-02         0.00000E+00
    0.76419E-02         0.49180E-02         0.00000E+00
    0.70909E-02         0.45363E-02         0.00000E+00
    0.65338E-02         0.41550E-02         0.00000E+00
    0.59704E-02         0.37743E-02         0.00000E+00
    0.54009E-02         0.33941E-02         0.00000E+00
    0.48253E-02         0.30145E-02         0.00000E+00
    0.42434E-02         0.26355E-02         0.00000E+00
    0.36555E-02         0.22570E-02         0.00000E+00
    0.30615E-02         0.18792E-02         0.00000E+00
    0.24613E-02         0.15020E-02         0.00000E+00
    0.18551E-02         0.11255E-02         0.00000E+00
    0.12428E-02         0.74960E-03         0.00000E+00
    0.62442E-03         0.37444E-03         0.00000E+00
    0.00000E+00         0.00000E+00         0.00000E+00
    0.23000E-01         0.17844E-01         0.00000E+00
    0.22711E-01         0.17482E-01         0.00000E+00
    0.22414E-01         0.17119E-01         0.00000E+00
    0.22110E-01         0.16757E-01         0.00000E+00
    0.21798E-01         0.16394E-01         0.00000E+00
    0.21478E-01         0.16032E-01         0.00000E+00
    0.21152E-01         0.15670E-01         0.00000E+00
    0.20817E-01         0.15307E-01         0.00000E+00
    0.20476E-01         0.14945E-01         0.00000E+00
    0.20127E-01         0.14583E-01         0.00000E+00
    0.19770E-01         0.14221E-01         0.00000E+00
    0.19407E-01         0.13860E-01         0.00000E+00
    0.19036E-01         0.13498E-01         0.00000E+00
    0.18658E-01         0.13137E-01         0.00000E+00
    0.18273E-01         0.12776E-01         0.00000E+00
    0.17881E-01         0.12415E-01         0.00000E+00
    0.17482E-01         0.12054E-01         0.00000E+00
    0.17076E-01         0.11693E-01         0.00000E+00
    0.16663E-01         0.11333E-01         0.00000E+00
    0.16243E-01         0.10973E-01         0.00000E+00
    0.15816E-01         0.10613E-01         0.00000E+00
    0.15382E-01         0.10254E-01         0.00000E+00
    0.14942E-01         0.98943E-02         0.00000E+00
    0.14495E-01         0.95353E-02         0.00000E+00
    0.14041E-01         0.91766E-02         0.00000E+00
    0.13581E-01         0.88183E-02         0.00000E+00
    0.13114E-01         0.84603E-02         0.00000E+00
    0.12640E-01         0.81026E-02         0.00000E+00
    0.12160E-01         0.77453E-02         0.00000E+00
    0.11673E-01         0.73883E-02         0.00000E+00
    0.11180E-01         0.70317E-02         0.00000E+00
    0.10680E-01         0.66755E-02         0.00000E+00
    0.10174E-01         0.63197E-02         0.00000E+00
    0.96617E-02         0.59643E-02         0.00000E+00
    0.91429E-02         0.56094E-02         0.00000E+00
    0.86178E-02         0.52548E-02         0.00000E+00
    0.80864E-02         0.49007E-02         0.00000E+00
    0.75488E-02         0.45471E-02         0.00000E+00
    0.70049E-02         0.41940E-02         0.00000E+00
    0.64548E-02         0.38414E-02         0.00000E+00
    0.58985E-02         0.34892E-02         0.00000E+00
    0.53360E-02         0.31376E-02         0.00000E+00
    0.47675E-02         0.27866E-02         0.00000E+00
    0.41927E-02         0.24361E-02         0.00000E+00
    0.36119E-02         0.20862E-02         0.00000E+00
    0.30250E-02         0.17369E-02         0.00000E+00
    0.24321E-02         0.13882E-02         0.00000E+00
    0.18331E-02         0.10401E-02         0.00000E+00
    0.12281E-02         0.69271E-03         0.00000E+00
    0.61703E-03         0.34600E-03         0.00000E+00
    0.00000E+00         0.00000E+00         0.00000E+00
    0.22672E-01         0.16433E-01         0.00000E+00
    0.22388E-01         0.16099E-01         0.00000E+00
    0.22098E-01         0.15765E-01         0.00000E+00
    0.21799E-01         0.15431E-01         0.00000E+00
    0.21494E-01         0.15098E-01         0.00000E+00
    0.21180E-01         0.14764E-01         0.00000E+00
    0.20860E-01         0.14430E-01         0.00000E+00
    0.20532E-01         0.14096E-01         0.00000E+00
    0.20196E-01         0.13763E-01         0.00000E+00
    0.19854E-01         0.13430E-01         0.00000E+00
    0.19504E-01         0.13096E-01         0.00000E+00
    0.19146E-01         0.12763E-01         0.00000E+00
    0.18782E-01         0.12430E-01         0.00000E+00
    0.18411E-01         0.12097E-01         0.00000E+00
    0.18032E-01         0.11765E-01         0.00000E+00
    0.17647E-01         0.11432E-01         0.00000E+00
    0.17254E-01         0.11100E-01         0.00000E+00
    0.16854E-01         0.10768E-01         0.00000E+00
    0.16448E-01         0.10436E-01         0.00000E+00
    0.16035E-01         0.10104E-01         0.00000E+00
    0.15614E-01         0.97725E-02         0.00000E+00
    0.15187E-01         0.94413E-02         0.00000E+00
    0.14754E-01         0.91104E-02         0.00000E+00
    0.14313E-01         0.87797E-02         0.00000E+00
    0.13866E-01         0.84493E-02         0.00000E+00
    0.13412E-01         0.81193E-02         0.00000E+00
    0.12951E-01         0.77895E-02         0.00000E+00
    0.12484E-01         0.74600E-02         0.00000E+00
    0.12011E-01         0.71309E-02         0.00000E+00
    0.11531E-01         0.68021E-02         0.00000E+00
    0.11044E-01         0.64736E-02         0.00000E+00
    0.10551E-01         0.61455E-02         0.00000E+00
    0.10052E-01         0.58178E-02         0.00000E+00
    0.95459E-02         0.54905E-02         0.00000E+00
    0.90337E-02         0.51636E-02         0.00000E+00
    0.85153E-02         0.48371E-02         0.00000E+00
    0.79905E-02         0.45110E-02         0.00000E+00
    0.74595E-02         0.41854E-02         0.00000E+00
    0.69223E-02         0.38602E-02         0.00000E+00
    0.63789E-02         0.35355E-02         0.00000E+00
    0.58294E-02         0.32113E-02         0.00000E+00
    0.52737E-02         0.28876E-02         0.00000E+00
    0.47118E-02         0.25644E-02         0.00000E+00
    0.41439E-02         0.22418E-02         0.00000E+00
    0.35699E-02         0.19197E-02         0.00000E+00
    0.29899E-02         0.15982E-02         0.00000E+00
    0.24039E-02         0.12773E-02         0.00000E+00
    0.18118E-02         0.95700E-03         0.00000E+00
    0.12138E-02         0.63733E-03         0.00000E+00
    0.60989E-03         0.31833E-03         0.00000E+00
    0.00000E+00         0.00000E+00         0.00000E+00
    0.22368E-01         0.15050E-01         0.00000E+00
    0.22090E-01         0.14744E-01         0.00000E+00
    0.21805E-01         0.14438E-01         0.00000E+00
    0.21512E-01         0.14132E-01         0.00000E+00
    0.21212E-01         0.13827E-01         0.00000E+00
    0.20904E-01         0.13521E-01         0.00000E+00
    0.20589E-01         0.13215E-01         0.00000E+00
    0.20267E-01         0.12910E-01         0.00000E+00
    0.19937E-01         0.12605E-01         0.00000E+00
    0.19600E-01         0.12299E-01         0.00000E+00
    0.19256E-01         0.11994E-01         0.00000E+00
    0.18905E-01         0.11689E-01         0.00000E+00
    0.18546E-01         0.11384E-01         0.00000E+00
    0.18180E-01         0.11079E-01         0.00000E+00
    0.17808E-01         0.10774E-01         0.00000E+00
    0.17428E-01         0.10470E-01         0.00000E+00
    0.17042E-01         0.10165E-01         0.00000E+00
    0.16648E-01         0.98610E-02         0.00000E+00
    0.16247E-01         0.95570E-02         0.00000E+00
    0.15840E-01         0.92532E-02         0.00000E+00
    0.15426E-01         0.89496E-02         0.00000E+00
    0.15005E-01         0.86462E-02         0.00000E+00
    0.14577E-01         0.83431E-02         0.00000E+00
    0.14143E-01         0.80402E-02         0.00000E+00
    0.13701E-01         0.77375E-02         0.00000E+00
    0.13254E-01         0.74352E-02         0.00000E+00
    0.12799E-01         0.71331E-02         0.00000E+00
    0.12338E-01         0.68313E-02         0.00000E+00
    0.11871E-01         0.65298E-02         0.00000E+00
    0.11397E-01         0.62286E-02         0.00000E+00
    0.10916E-01         0.59277E-02         0.00000E+00
    0.10430E-01         0.56272E-02         0.00000E+00
    0.99363E-02         0.53270E-02         0.00000E+00
    0.94367E-02         0.50272E-02         0.00000E+00
    0.89307E-02         0.47278E-02         0.00000E+00
    0.84185E-02         0.44288E-02         0.00000E+00
    0.78999E-02         0.41301E-02         0.00000E+00
    0.73752E-02         0.38319E-02         0.00000E+00
    0.68443E-02         0.35341E-02         0.00000E+00
    0.63071E-02         0.32368E-02         0.00000E+00
    0.57639E-02         0.29399E-02         0.00000E+00
    0.52145E-02         0.26435E-02         0.00000E+00
    0.46591E-02         0.23475E-02         0.00000E+00
    0.40976E-02         0.20521E-02         0.00000E+00
    0.35301E-02         0.17572E-02         0.00000E+00
    0.29566E-02         0.14629E-02         0.00000E+00
    0.23771E-02         0.11691E-02         0.00000E+00
    0.17917E-02         0.87592E-03         0.00000E+00
    0.12003E-02         0.58332E-03         0.00000E+00
    0.60309E-03         0.29134E-03         0.00000E+00
    0.00000E+00         0.00000E+00         0.00000E+00
    0.22089E-01         0.13692E-01         0.00000E+00
    0.21816E-01         0.13414E-01         0.00000E+00
    0.21536E-01         0.13136E-01         0.00000E+00
    0.21248E-01         0.12858E-01         0.00000E+00
    0.20953E-01         0.12580E-01         0.00000E+00
    0.20650E-01         0.12302E-01         0.00000E+00
    0.20340E-01         0.12024E-01         0.00000E+00
    0.20023E-01         0.11746E-01         0.00000E+00
    0.19699E-01         0.11468E-01         0.00000E+00
    0.19367E-01         0.11190E-01         0.00000E+00
    0.19028E-01         0.10913E-01         0.00000E+00
    0.18682E-01         0.10635E-01         0.00000E+00
    0.18329E-01         0.10357E-01         0.00000E+00
    0.17969E-01         0.10080E-01         0.00000E+00
    0.17601E-01         0.98028E-02         0.00000E+00
    0.17227E-01         0.95257E-02         0.00000E+00
    0.16846E-01         0.92488E-02         0.00000E+00
    0.16457E-01         0.89720E-02         0.00000E+00
    0.16062E-01         0.86954E-02         0.00000E+00
    0.15660E-01         0.84190E-02         0.00000E+00
    0.15252E-01         0.81427E-02         0.00000E+00
    0.14836E-01         0.78667E-02         0.00000E+00
    0.14414E-01         0.75908E-02         0.00000E+00
    0.13985E-01         0.73152E-02         0.00000E+00
    0.13549E-01         0.70398E-02         0.00000E+00
    0.13107E-01         0.67647E-02         0.00000E+00
    0.12658E-01         0.64898E-02         0.00000E+00
    0.12203E-01         0.62152E-02         0.00000E+00
    0.11741E-01         0.59408E-02         0.00000E+00
    0.11273E-01         0.56667E-02         0.00000E+00
    0.10798E-01         0.53930E-02         0.00000E+00
    0.10317E-01         0.51195E-02         0.00000E+00
    0.98290E-02         0.48464E-02         0.00000E+00
    0.93351E-02         0.45736E-02         0.00000E+00
    0.88348E-02         0.43011E-02         0.00000E+00
    0.83283E-02         0.40290E-02         0.00000E+00
    0.78155E-02         0.37573E-02         0.00000E+00
    0.72966E-02         0.34859E-02         0.00000E+00
    0.67714E-02         0.32150E-02         0.00000E+00
    0.62402E-02         0.29444E-02         0.00000E+00
    0.57028E-02         0.26743E-02         0.00000E+00
    0.51593E-02         0.24046E-02         0.00000E+00
    0.46098E-02         0.21354E-02         0.00000E+00
    0.40543E-02         0.18666E-02         0.00000E+00
    0.34928E-02         0.15984E-02         0.00000E+00
    0.29254E-02         0.13306E-02         0.00000E+00
    0.23520E-02         0.10634E-02         0.00000E+00
    0.17728E-02         0.79668E-03         0.00000E+00
    0.11877E-02         0.53053E-03         0.00000E+00
    0.59673E-03         0.26497E-03         0.00000E+00
    0.00000E+00         0.00000E+00         0.00000E+00
    0.21835E-01         0.12358E-01         0.00000E+00
    0.21567E-01         0.12108E-01         0.00000E+00
    0.21291E-01         0.11857E-01         0.00000E+00
    0.21008E-01         0.11606E-01         0.00000E+00
    0.20717E-01         0.11355E-01         0.00000E+00
    0.20420E-01         0.11104E-01         0.00000E+00
    0.20114E-01         0.10853E-01         0.00000E+00
    0.19802E-01         0.10602E-01         0.00000E+00
    0.19482E-01         0.10351E-01         0.00000E+00
    0.19155E-01         0.10101E-01         0.00000E+00
    0.18821E-01         0.98502E-02         0.00000E+00
    0.18480E-01         0.95997E-02         0.00000E+00
    0.18131E-01         0.93493E-02         0.00000E+00
    0.17776E-01         0.90990E-02         0.00000E+00
    0.17413E-01         0.88488E-02         0.00000E+00
    0.17044E-01         0.85987E-02         0.00000E+00
    0.16667E-01         0.83488E-02         0.00000E+00
    0.16284E-01         0.80989E-02         0.00000E+00
    0.15894E-01         0.78493E-02         0.00000E+00
    0.15497E-01         0.75998E-02         0.00000E+00
    0.15093E-01         0.73504E-02         0.00000E+00
    0.14682E-01         0.71013E-02         0.00000E+00
    0.14265E-01         0.68523E-02         0.00000E+00
    0.13841E-01         0.66035E-02         0.00000E+00
    0.13411E-01         0.63549E-02         0.00000E+00
    0.12973E-01         0.61066E-02         0.00000E+00
    0.12530E-01         0.58584E-02         0.00000E+00
    0.12079E-01         0.56105E-02         0.00000E+00
    0.11622E-01         0.53629E-02         0.00000E+00
    0.11159E-01         0.51154E-02         0.00000E+00
    0.10689E-01         0.48683E-02         0.00000E+00
    0.10213E-01         0.46214E-02         0.00000E+00
    0.97308E-02         0.43749E-02         0.00000E+00
    0.92420E-02         0.41286E-02         0.00000E+00
    0.87469E-02         0.38826E-02         0.00000E+00
    0.82456E-02         0.36370E-02         0.00000E+00
    0.77381E-02         0.33916E-02         0.00000E+00
    0.72244E-02         0.31467E-02         0.00000E+00
    0.67046E-02         0.29021E-02         0.00000E+00
    0.61786E-02         0.26578E-02         0.00000E+00
    0.56466E-02         0.24140E-02         0.00000E+00
    0.51086E-02         0.21705E-02         0.00000E+00
    0.45645E-02         0.19275E-02         0.00000E+00
    0.40145E-02         0.16849E-02         0.00000E+00
    0.34585E-02         0.14427E-02         0.00000E+00
    0.28967E-02         0.12010E-02         0.00000E+00
    0.23289E-02         0.95981E-03         0.00000E+00
    0.17554E-02         0.71908E-03         0.00000E+00
    0.11760E-02         0.47885E-03         0.00000E+00
    0.59087E-03         0.23916E-03         0.00000E+00
    0.00000E+00         0.00000E+00         0.00000E+00
    0.21608E-01         0.11046E-01         0.00000E+00
    0.21344E-01         0.10822E-01         0.00000E+00
    0.21072E-01         0.10598E-01         0.00000E+00
    0.20793E-01         0.10374E-01         0.00000E+00
    0.20507E-01         0.10149E-01         0.00000E+00
    0.20213E-01         0.99252E-02         0.00000E+00
    0.19912E-01         0.97011E-02         0.00000E+00
    0.19604E-01         0.94771E-02         0.00000E+00
    0.19288E-01         0.92531E-02         0.00000E+00
    0.18965E-01         0.90291E-02         0.00000E+00
    0.18635E-01         0.88052E-02         0.00000E+00
    0.18298E-01         0.85814E-02         0.00000E+00
    0.17954E-01         0.83576E-02         0.00000E+00
    0.17603E-01         0.81340E-02         0.00000E+00
    0.17245E-01         0.79104E-02         0.00000E+00
    0.16880E-01         0.76869E-02         0.00000E+00
    0.16507E-01         0.74636E-02         0.00000E+00
    0.16128E-01         0.72403E-02         0.00000E+00
    0.15743E-01         0.70172E-02         0.00000E+00
    0.15350E-01         0.67943E-02         0.00000E+00
    0.14951E-01         0.65714E-02         0.00000E+00
    0.14544E-01         0.63487E-02         0.00000E+00
    0.14132E-01         0.61262E-02         0.00000E+00
    0.13712E-01         0.59038E-02         0.00000E+00
    0.13286E-01         0.56816E-02         0.00000E+00
    0.12853E-01         0.54596E-02         0.00000E+00
    0.12414E-01         0.52378E-02         0.00000E+00
    0.11968E-01         0.50162E-02         0.00000E+00
    0.11516E-01         0.47948E-02         0.00000E+00
    0.11057E-01         0.45737E-02         0.00000E+00
    0.10592E-01         0.43527E-02         0.00000E+00
    0.10120E-01         0.41320E-02         0.00000E+00
    0.96423E-02         0.39116E-02         0.00000E+00
    0.91582E-02         0.36914E-02         0.00000E+00
    0.86677E-02         0.34715E-02         0.00000E+00
    0.81711E-02         0.32519E-02         0.00000E+00
    0.76683E-02         0.30326E-02         0.00000E+00
    0.71593E-02         0.28135E-02         0.00000E+00
    0.66443E-02         0.25948E-02         0.00000E+00
    0.61231E-02         0.23765E-02         0.00000E+00
    0.55959E-02         0.21584E-02         0.00000E+00
    0.50628E-02         0.19408E-02         0.00000E+00
    0.45236E-02         0.17235E-02         0.00000E+00
    0.39785E-02         0.15065E-02         0.00000E+00
    0.34276E-02         0.12900E-02         0.00000E+00
    0.28707E-02         0.10739E-02         0.00000E+00
    0.23081E-02         0.85821E-03         0.00000E+00
    0.17396E-02         0.64296E-03         0.00000E+00
    0.11655E-02         0.42817E-03         0.00000E+00
    0.58557E-03         0.21384E-03         0.00000E+00
    0.00000E+00         0.00000E+00         0.00000E+00
    0.21408E-01         0.97530E-02         0.00000E+00
    0.21148E-01         0.95552E-02         0.00000E+00
    0.20880E-01         0.93574E-02         0.00000E+00
    0.20604E-01         0.91596E-02         0.00000E+00
    0.20321E-01         0.89618E-02         0.00000E+00
    0.20031E-01         0.87641E-02         0.00000E+00
    0.19734E-01         0.85663E-02         0.00000E+00
    0.19429E-01         0.83686E-02         0.00000E+00
    0.19117E-01         0.81709E-02         0.00000E+00
    0.18798E-01         0.79733E-02         0.00000E+00
    0.18472E-01         0.77758E-02         0.00000E+00
    0.18139E-01         0.75782E-02         0.00000E+00
    0.17798E-01         0.73808E-02         0.00000E+00
    0.17451E-01         0.71834E-02         0.00000E+00
    0.17096E-01         0.69861E-02         0.00000E+00
    0.16735E-01         0.67889E-02         0.00000E+00
    0.16367E-01         0.65917E-02         0.00000E+00
    0.15992E-01         0.63947E-02         0.00000E+00
    0.15610E-01         0.61978E-02         0.00000E+00
    0.15221E-01         0.60009E-02         0.00000E+00
    0.14825E-01         0.58042E-02         0.00000E+00
    0.14423E-01         0.56077E-02         0.00000E+00
    0.14014E-01         0.54112E-02         0.00000E+00
    0.13598E-01         0.52149E-02         0.00000E+00
    0.13176E-01         0.50187E-02         0.00000E+00
    0.12747E-01         0.48227E-02         0.00000E+00
    0.12312E-01         0.46269E-02         0.00000E+00
    0.11870E-01         0.44312E-02         0.00000E+00
    0.11422E-01         0.42357E-02         0.00000E+00
    0.10967E-01         0.40404E-02         0.00000E+00
    0.10506E-01         0.38453E-02         0.00000E+00
    0.10038E-01         0.36504E-02         0.00000E+00
    0.95643E-02         0.34557E-02         0.00000E+00
    0.90842E-02         0.32613E-02         0.00000E+00
    0.85979E-02         0.30670E-02         0.00000E+00
    0.81053E-02         0.28730E-02         0.00000E+00
    0.76067E-02         0.26793E-02         0.00000E+00
    0.71019E-02         0.24858E-02         0.00000E+00
    0.65910E-02         0.22927E-02         0.00000E+00
    0.60741E-02         0.20997E-02         0.00000E+00
    0.55512E-02         0.19071E-02         0.00000E+00
    0.50223E-02         0.17148E-02         0.00000E+00
    0.44874E-02         0.15229E-02         0.00000E+00
    0.39467E-02         0.13312E-02         0.00000E+00
    0.34002E-02         0.11399E-02         0.00000E+00
    0.28478E-02         0.94894E-03         0.00000E+00
    0.22896E-02         0.75836E-03         0.00000E+00
    0.17257E-02         0.56816E-03         0.00000E+00
    0.11561E-02         0.37836E-03         0.00000E+00
    0.58088E-03         0.18897E-03         0.00000E+00
    0.00000E+00         0.00000E+00         0.00000E+00
    0.21236E-01         0.84770E-02         0.00000E+00
    0.20979E-01         0.83052E-02         0.00000E+00
    0.20714E-01         0.81334E-02         0.00000E+00
    0.20442E-01         0.79617E-02         0.00000E+00
    0.20162E-01         0.77900E-02         0.00000E+00
    0.19875E-01         0.76182E-02         0.00000E+00
    0.19581E-01         0.74465E-02         0.00000E+00
    0.19279E-01         0.72749E-02         0.00000E+00
    0.18971E-01         0.71032E-02         0.00000E+00
    0.18655E-01         0.69316E-02         0.00000E+00
    0.18332E-01         0.67600E-02         0.00000E+00
    0.18002E-01         0.65885E-02         0.00000E+00
    0.17665E-01         0.64170E-02         0.00000E+00
    0.17320E-01         0.62456E-02         0.00000E+00
    0.16969E-01         0.60742E-02         0.00000E+00
    0.16611E-01         0.59029E-02         0.00000E+00
    0.16246E-01         0.57317E-02         0.00000E+00
    0.15874E-01         0.55605E-02         0.00000E+00
    0.15495E-01         0.53894E-02         0.00000E+00
    0.15110E-01         0.52185E-02         0.00000E+00
    0.14718E-01         0.50476E-02         0.00000E+00
    0.14319E-01         0.48768E-02         0.00000E+00
    0.13913E-01         0.47061E-02         0.00000E+00
    0.13501E-01         0.45355E-02         0.00000E+00
    0.13082E-01         0.43650E-02         0.00000E+00
    0.12656E-01         0.41947E-02         0.00000E+00
    0.12224E-01         0.40245E-02         0.00000E+00
    0.11786E-01         0.38544E-02         0.00000E+00
    0.11341E-01         0.36845E-02         0.00000E+00
    0.10889E-01         0.35147E-02         0.00000E+00
    0.10432E-01         0.33451E-02         0.00000E+00
    0.99676E-02         0.31756E-02         0.00000E+00
    0.94972E-02         0.30064E-02         0.00000E+00
    0.90206E-02         0.28373E-02         0.00000E+00
    0.85378E-02         0.26684E-02         0.00000E+00
    0.80488E-02         0.24997E-02         0.00000E+00
    0.75537E-02         0.23312E-02         0.00000E+00
    0.70525E-02         0.21629E-02         0.00000E+00
    0.65452E-02         0.19949E-02         0.00000E+00
    0.60319E-02         0.18271E-02         0.00000E+00
    0.55126E-02         0.16596E-02         0.00000E+00
    0.49874E-02         0.14923E-02         0.00000E+00
    0.44563E-02         0.13253E-02         0.00000E+00
    0.39194E-02         0.11585E-02         0.00000E+00
    0.33766E-02         0.99205E-03         0.00000E+00
    0.28280E-02         0.82589E-03         0.00000E+00
    0.22737E-02         0.66004E-03         0.00000E+00
    0.17137E-02         0.49452E-03         0.00000E+00
    0.11481E-02         0.32933E-03         0.00000E+00
    0.57684E-03         0.16448E-03         0.00000E+00
    0.00000E+00         0.00000E+00         0.00000E+00
    0.21093E-01         0.72156E-02         0.00000E+00
    0.20838E-01         0.70696E-02         0.00000E+00
    0.20576E-01         0.69237E-02         0.00000E+00
    0.20306E-01         0.67777E-02         0.00000E+00
    0.20029E-01         0.66317E-02         0.00000E+00
    0.19745E-01         0.64858E-02         0.00000E+00
    0.19454E-01         0.63398E-02         0.00000E+00
    0.19155E-01         0.61939E-02         0.00000E+00
    0.18849E-01         0.60480E-02         0.00000E+00
    0.18536E-01         0.59021E-02         0.00000E+00
    0.18215E-01         0.57562E-02         0.00000E+00
    0.17888E-01         0.56104E-02         0.00000E+00
    0.17554E-01         0.54646E-02         0.00000E+00
    0.17212E-01         0.53189E-02         0.00000E+00
    0.16864E-01         0.51731E-02         0.00000E+00
    0.16508E-01         0.50275E-02         0.00000E+00
    0.16146E-01         0.48819E-02         0.00000E+00
    0.15777E-01         0.47363E-02         0.00000E+00
    0.15401E-01         0.45908E-02         0.00000E+00
    0.15018E-01         0.44453E-02         0.00000E+00
    0.14628E-01         0.43000E-02         0.00000E+00
    0.14232E-01         0.41547E-02         0.00000E+00
    0.13829E-01         0.40094E-02         0.00000E+00
    0.13420E-01         0.38643E-02         0.00000E+00
    0.13004E-01         0.37192E-02         0.00000E+00
    0.12581E-01         0.35743E-02         0.00000E+00
    0.12152E-01         0.34294E-02         0.00000E+00
    0.11716E-01         0.32846E-02         0.00000E+00
    0.11274E-01         0.31400E-02         0.00000E+00
    0.10825E-01         0.29955E-02         0.00000E+00
    0.10370E-01         0.28511E-02         0.00000E+00
    0.99092E-02         0.27068E-02         0.00000E+00
    0.94417E-02         0.25626E-02         0.00000E+00
    0.89680E-02         0.24186E-02         0.00000E+00
    0.84880E-02         0.22748E-02         0.00000E+00
    0.80020E-02         0.21311E-02         0.00000E+00
    0.75098E-02         0.19876E-02         0.00000E+00
    0.70115E-02         0.18442E-02         0.00000E+00
    0.65072E-02         0.17010E-02         0.00000E+00
    0.59969E-02         0.15580E-02         0.00000E+00
    0.54807E-02         0.14152E-02         0.00000E+00
    0.49585E-02         0.12726E-02         0.00000E+00
    0.44305E-02         0.11303E-02         0.00000E+00
    0.38967E-02         0.98811E-03         0.00000E+00
    0.33570E-02         0.84618E-03         0.00000E+00
    0.28116E-02         0.70449E-03         0.00000E+00
    0.22606E-02         0.56305E-03         0.00000E+00
    0.17038E-02         0.42187E-03         0.00000E+00
    0.11414E-02         0.28097E-03         0.00000E+00
    0.57348E-03         0.14034E-03         0.00000E+00
    0.00000E+00         0.00000E+00         0.00000E+00
    0.20978E-01         0.59667E-02         0.00000E+00
    0.20726E-01         0.58463E-02         0.00000E+00
    0.20466E-01         0.57259E-02         0.00000E+00
    0.20199E-01         0.56054E-02         0.00000E+00
    0.19924E-01         0.54850E-02         0.00000E+00
    0.19642E-01         0.53645E-02         0.00000E+00
    0.19353E-01         0.52441E-02         0.00000E+00
    0.19056E-01         0.51237E-02         0.00000E+00
    0.18753E-01         0.50033E-02         0.00000E+00
    0.18442E-01         0.48829E-02         0.00000E+00
    0.18123E-01         0.47625E-02         0.00000E+00
    0.17798E-01         0.46421E-02         0.00000E+00
    0.17466E-01         0.45218E-02         0.00000E+00
    0.17127E-01         0.44015E-02         0.00000E+00
    0.16780E-01         0.42812E-02         0.00000E+00
    0.16427E-01         0.41609E-02         0.00000E+00
    0.16067E-01         0.40407E-02         0.00000E+00
    0.15700E-01         0.39204E-02         0.00000E+00
    0.15326E-01         0.38003E-02         0.00000E+00
    0.14946E-01         0.36801E-02         0.00000E+00
    0.14558E-01         0.35601E-02         0.00000E+00
    0.14164E-01         0.34400E-02         0.00000E+00
    0.13763E-01         0.33200E-02         0.00000E+00
    0.13356E-01         0.32001E-02         0.00000E+00
    0.12942E-01         0.30802E-02         0.00000E+00
    0.12522E-01         0.29604E-02         0.00000E+00
    0.12095E-01         0.28406E-02         0.00000E+00
    0.11661E-01         0.27209E-02         0.00000E+00
    0.11221E-01         0.26013E-02         0.00000E+00
    0.10775E-01         0.24818E-02         0.00000E+00
    0.10322E-01         0.23623E-02         0.00000E+00
    0.98633E-02         0.22430E-02         0.00000E+00
    0.93980E-02         0.21237E-02         0.00000E+00
    0.89266E-02         0.20045E-02         0.00000E+00
    0.84490E-02         0.18855E-02         0.00000E+00
    0.79652E-02         0.17665E-02         0.00000E+00
    0.74753E-02         0.16477E-02         0.00000E+00
    0.69794E-02         0.15290E-02         0.00000E+00
    0.64774E-02         0.14104E-02         0.00000E+00
    0.59695E-02         0.12920E-02         0.00000E+00
    0.54556E-02         0.11736E-02         0.00000E+00
    0.49358E-02         0.10555E-02         0.00000E+00
    0.44102E-02         0.93749E-03         0.00000E+00
    0.38788E-02         0.81965E-03         0.00000E+00
    0.33417E-02         0.70198E-03         0.00000E+00
    0.27988E-02         0.58449E-03         0.00000E+00
    0.22502E-02         0.46719E-03         0.00000E+00
    0.16960E-02         0.35008E-03         0.00000E+00
    0.11362E-02         0.23317E-03         0.00000E+00
    0.57084E-03         0.11648E-03         0.00000E+00
    0.00000E+00         0.00000E+00         0.00000E+00
    0.20894E-01         0.47280E-02         0.00000E+00
    0.20644E-01         0.46329E-02         0.00000E+00
    0.20386E-01         0.45378E-02         0.00000E+00
    0.20120E-01         0.44427E-02         0.00000E+00
    0.19847E-01         0.43475E-02         0.00000E+00
    0.19567E-01         0.42524E-02         0.00000E+00
    0.19279E-01         0.41573E-02         0.00000E+00
    0.18984E-01         0.40622E-02         0.00000E+00
    0.18682E-01         0.39671E-02         0.00000E+00
    0.18373E-01         0.38720E-02         0.00000E+00
    0.18057E-01         0.37769E-02         0.00000E+00
    0.17733E-01         0.36819E-02         0.00000E+00
    0.17402E-01         0.35868E-02         0.00000E+00
    0.17065E-01         0.34917E-02         0.00000E+00
    0.16720E-01         0.33966E-02         0.00000E+00
    0.16369E-01         0.33015E-02         0.00000E+00
    0.16010E-01         0.32065E-02         0.00000E+00
    0.15645E-01         0.31114E-02         0.00000E+00
    0.15272E-01         0.30164E-02         0.00000E+00
    0.14893E-01         0.29214E-02         0.00000E+00
    0.14508E-01         0.28264E-02         0.00000E+00
    0.14115E-01         0.27314E-02         0.00000E+00
    0.13716E-01         0.26365E-02         0.00000E+00
    0.13310E-01         0.25415E-02         0.00000E+00
    0.12898E-01         0.24466E-02         0.00000E+00
    0.12479E-01         0.23517E-02         0.00000E+00
    0.12054E-01         0.22569E-02         0.00000E+00
    0.11622E-01         0.21621E-02         0.00000E+00
    0.11183E-01         0.20673E-02         0.00000E+00
    0.10739E-01         0.19726E-02         0.00000E+00
    0.10288E-01         0.18779E-02         0.00000E+00
    0.98303E-02         0.17832E-02         0.00000E+00
    0.93667E-02         0.16887E-02         0.00000E+00
    0.88969E-02         0.15941E-02         0.00000E+00
    0.84209E-02         0.14996E-02         0.00000E+00
    0.79388E-02         0.14052E-02         0.00000E+00
    0.74505E-02         0.13109E-02         0.00000E+00
    0.69563E-02         0.12166E-02         0.00000E+00
    0.64560E-02         0.11224E-02         0.00000E+00
    0.59497E-02         0.10283E-02         0.00000E+00
    0.54376E-02         0.93429E-03         0.00000E+00
    0.49195E-02         0.84035E-03         0.00000E+00
    0.43957E-02         0.74651E-03         0.00000E+00
    0.38660E-02         0.65278E-03         0.00000E+00
    0.33306E-02         0.55915E-03         0.00000E+00
    0.27895E-02         0.46564E-03         0.00000E+00
    0.22427E-02         0.37224E-03         0.00000E+00
    0.16904E-02         0.27898E-03         0.00000E+00
    0.11324E-02         0.18584E-03         0.00000E+00
    0.56895E-03         0.92849E-04         0.00000E+00
    0.00000E+00         0.00000E+00         0.00000E+00
    0.20841E-01         0.34969E-02         0.00000E+00
    0.20591E-01         0.34270E-02         0.00000E+00
    0.20335E-01         0.33571E-02         0.00000E+00
    0.20070E-01         0.32872E-02         0.00000E+00
    0.19799E-01         0.32173E-02         0.00000E+00
    0.19520E-01         0.31473E-02         0.00000E+00
    0.19233E-01         0.30774E-02         0.00000E+00
    0.18939E-01         0.30075E-02         0.00000E+00
    0.18639E-01         0.29375E-02         0.00000E+00
    0.18330E-01         0.28676E-02         0.00000E+00
    0.18015E-01         0.27976E-02         0.00000E+00
    0.17693E-01         0.27277E-02         0.00000E+00
    0.17363E-01         0.26577E-02         0.00000E+00
    0.17027E-01         0.25877E-02         0.00000E+00
    0.16683E-01         0.25177E-02         0.00000E+00
    0.16333E-01         0.24477E-02         0.00000E+00
    0.15975E-01         0.23777E-02         0.00000E+00
    0.15611E-01         0.23077E-02         0.00000E+00
    0.15240E-01         0.22376E-02         0.00000E+00
    0.14862E-01         0.21676E-02         0.00000E+00
    0.14477E-01         0.20975E-02         0.00000E+00
    0.14086E-01         0.20275E-02         0.00000E+00
    0.13687E-01         0.19574E-02         0.00000E+00
    0.13283E-01         0.18873E-02         0.00000E+00
    0.12871E-01         0.18172E-02         0.00000E+00
    0.12453E-01         0.17472E-02         0.00000E+00
    0.12029E-01         0.16771E-02         0.00000E+00
    0.11598E-01         0.16070E-02         0.00000E+00
    0.11161E-01         0.15369E-02         0.00000E+00
    0.10717E-01         0.14668E-02         0.00000E+00
    0.10267E-01         0.13967E-02         0.00000E+00
    0.98106E-02         0.13267E-02         0.00000E+00
    0.93480E-02         0.12566E-02         0.00000E+00
    0.88791E-02         0.11865E-02         0.00000E+00
    0.84041E-02         0.11165E-02         0.00000E+00
    0.79230E-02         0.10465E-02         0.00000E+00
    0.74358E-02         0.97646E-03         0.00000E+00
    0.69425E-02         0.90647E-03         0.00000E+00
    0.64432E-02         0.83650E-03         0.00000E+00
    0.59380E-02         0.76656E-03         0.00000E+00
    0.54268E-02         0.69665E-03         0.00000E+00
    0.49098E-02         0.62677E-03         0.00000E+00
    0.43870E-02         0.55693E-03         0.00000E+00
    0.38584E-02         0.48713E-03         0.00000E+00
    0.33240E-02         0.41737E-03         0.00000E+00
    0.27840E-02         0.34767E-03         0.00000E+00
    0.22383E-02         0.27801E-03         0.00000E+00
    0.16870E-02         0.20841E-03         0.00000E+00
    0.11302E-02         0.13887E-03         0.00000E+00
    0.56781E-03         0.69401E-04         0.00000E+00
    0.00000E+00         0.00000E+00         0.00000E+00
    0.20818E-01         0.22711E-02         0.00000E+00
    0.20570E-01         0.22263E-02         0.00000E+00
    0.20314E-01         0.21815E-02         0.00000E+00
    0.20050E-01         0.21366E-02         0.00000E+00
    0.19779E-01         0.20918E-02         0.00000E+00
    0.19501E-01         0.20470E-02         0.00000E+00
    0.19215E-01         0.20022E-02         0.00000E+00
    0.18922E-01         0.19573E-02         0.00000E+00
    0.18622E-01         0.19124E-02         0.00000E+00
    0.18314E-01         0.18675E-02         0.00000E+00
    0.18000E-01         0.18226E-02         0.00000E+00
    0.17678E-01         0.17777E-02         0.00000E+00
    0.17349E-01         0.17327E-02         0.00000E+00
    0.17013E-01         0.16877E-02         0.00000E+00
    0.16670E-01         0.16427E-02         0.00000E+00
    0.16320E-01         0.15977E-02         0.00000E+00
    0.15963E-01         0.15526E-02         0.00000E+00
    0.15599E-01         0.15075E-02         0.00000E+00
    0.15228E-01         0.14624E-02         0.00000E+00
    0.14851E-01         0.14172E-02         0.00000E+00
    0.14467E-01         0.13720E-02         0.00000E+00
    0.14076E-01         0.13267E-02         0.00000E+00
    0.13678E-01         0.12815E-02         0.00000E+00
    0.13274E-01         0.12361E-02         0.00000E+00
    0.12863E-01         0.11908E-02         0.00000E+00
    0.12445E-01         0.11454E-02         0.00000E+00
    0.12021E-01         0.11000E-02         0.00000E+00
    0.11590E-01         0.10545E-02         0.00000E+00
    0.11154E-01         0.10090E-02         0.00000E+00
    0.10710E-01         0.96346E-03         0.00000E+00
    0.10260E-01         0.91789E-03         0.00000E+00
    0.98044E-02         0.87227E-03         0.00000E+00
    0.93421E-02         0.82662E-03         0.00000E+00
    0.88736E-02         0.78094E-03         0.00000E+00
    0.83989E-02         0.73522E-03         0.00000E+00
    0.79181E-02         0.68946E-03         0.00000E+00
    0.74312E-02         0.64368E-03         0.00000E+00
    0.69382E-02         0.59786E-03         0.00000E+00
    0.64393E-02         0.55200E-03         0.00000E+00
    0.59344E-02         0.50612E-03         0.00000E+00
    0.54235E-02         0.46022E-03         0.00000E+00
    0.49068E-02         0.41428E-03         0.00000E+00
    0.43843E-02         0.36832E-03         0.00000E+00
    0.38560E-02         0.32234E-03         0.00000E+00
    0.33220E-02         0.27634E-03         0.00000E+00
    0.27822E-02         0.23031E-03         0.00000E+00
    0.22369E-02         0.18427E-03         0.00000E+00
    0.16859E-02         0.13822E-03         0.00000E+00
    0.11294E-02         0.92155E-04         0.00000E+00
    0.56745E-03         0.46080E-04         0.00000E+00
    0.00000E+00         0.00000E+00         0.00000E+00
    0.20828E-01         0.10480E-02         0.00000E+00
    0.20580E-01         0.10283E-02         0.00000E+00
    0.20324E-01         0.10085E-02         0.00000E+00
    0.20060E-01         0.98876E-03         0.00000E+00
    0.19790E-01         0.96899E-03         0.00000E+00
    0.19511E-01         0.94920E-03         0.00000E+00
    0.19226E-01         0.92939E-03         0.00000E+00
    0.18933E-01         0.90956E-03         0.00000E+00
    0.18633E-01         0.88970E-03         0.00000E+00
    0.18325E-01         0.86981E-03         0.00000E+00
    0.18011E-01         0.84989E-03         0.00000E+00
    0.17689E-01         0.82994E-03         0.00000E+00
    0.17360E-01         0.80994E-03         0.00000E+00
    0.17024E-01         0.78990E-03         0.00000E+00
    0.16681E-01         0.76981E-03         0.00000E+00
    0.16331E-01         0.74968E-03         0.00000E+00
    0.15974E-01         0.72950E-03         0.00000E+00
    0.15610E-01         0.70926E-03         0.00000E+00
    0.15239E-01         0.68897E-03         0.00000E+00
    0.14861E-01         0.66861E-03         0.00000E+00
    0.14477E-01         0.64820E-03         0.00000E+00
    0.14086E-01         0.62773E-03         0.00000E+00
    0.13688E-01         0.60719E-03         0.00000E+00
    0.13283E-01         0.58658E-03         0.00000E+00
    0.12872E-01         0.56590E-03         0.00000E+00
    0.12454E-01         0.54515E-03         0.00000E+00
    0.12030E-01         0.52433E-03         0.00000E+00
    0.11599E-01         0.50344E-03         0.00000E+00
    0.11162E-01         0.48247E-03         0.00000E+00
    0.10718E-01         0.46142E-03         0.00000E+00
    0.10268E-01         0.44029E-03         0.00000E+00
    0.98120E-02         0.41908E-03         0.00000E+00
    0.93494E-02         0.39780E-03         0.00000E+00
    0.88805E-02         0.37643E-03         0.00000E+00
    0.84055E-02         0.35497E-03         0.00000E+00
    0.79243E-02         0.33343E-03         0.00000E+00
    0.74370E-02         0.31181E-03         0.00000E+00
    0.69437E-02         0.29010E-03         0.00000E+00
    0.64443E-02         0.26831E-03         0.00000E+00
    0.59390E-02         0.24643E-03         0.00000E+00
    0.54278E-02         0.22446E-03         0.00000E+00
    0.49107E-02         0.20241E-03         0.00000E+00
    0.43877E-02         0.18026E-03         0.00000E+00
    0.38590E-02         0.15803E-03         0.00000E+00
    0.33246E-02         0.13572E-03         0.00000E+00
    0.27844E-02         0.11331E-03         0.00000E+00
    0.22386E-02         0.90822E-04         0.00000E+00
    0.16872E-02         0.68245E-04         0.00000E+00
    0.11303E-02         0.45581E-04         0.00000E+00
    0.56788E-03         0.22833E-04         0.00000E+00
    0.00000E+00         0.00000E+00         0.00000E+00
    0.20869E-01        -0.17475E-03         0.00000E+00
    0.20621E-01        -0.16945E-03         0.00000E+00
    0.20365E-01        -0.16415E-03         0.00000E+00
    0.20101E-01        -0.15886E-03         0.00000E+00
    0.19830E-01        -0.15359E-03         0.00000E+00
    0.19551E-01        -0.14834E-03         0.00000E+00
    0.19266E-01        -0.14312E-03         0.00000E+00
    0.18972E-01        -0.13793E-03         0.00000E+00
    0.18672E-01        -0.13277E-03         0.00000E+00
    0.18364E-01        -0.12766E-03         0.00000E+00
    0.18049E-01        -0.12259E-03         0.00000E+00
    0.17726E-01        -0.11757E-03         0.00000E+00
    0.17397E-01        -0.11260E-03         0.00000E+00
    0.17060E-01        -0.10769E-03         0.00000E+00
    0.16716E-01        -0.10285E-03         0.00000E+00
    0.16366E-01        -0.98069E-04         0.00000E+00
    0.16008E-01        -0.93363E-04         0.00000E+00
    0.15643E-01        -0.88732E-04         0.00000E+00
    0.15272E-01        -0.84181E-04         0.00000E+00
    0.14894E-01        -0.79713E-04         0.00000E+00
    0.14508E-01        -0.75331E-04         0.00000E+00
    0.14116E-01        -0.71041E-04         0.00000E+00
    0.13718E-01        -0.66845E-04         0.00000E+00
    0.13312E-01        -0.62747E-04         0.00000E+00
    0.12900E-01        -0.58751E-04         0.00000E+00
    0.12482E-01        -0.54859E-04         0.00000E+00
    0.12056E-01        -0.51076E-04         0.00000E+00
    0.11625E-01        -0.47404E-04         0.00000E+00
    0.11187E-01        -0.43847E-04         0.00000E+00
    0.10742E-01        -0.40408E-04         0.00000E+00
    0.10291E-01        -0.37089E-04         0.00000E+00
    0.98336E-02        -0.33895E-04         0.00000E+00
    0.93700E-02        -0.30826E-04         0.00000E+00
    0.89001E-02        -0.27887E-04         0.00000E+00
    0.84240E-02        -0.25080E-04         0.00000E+00
    0.79418E-02        -0.22408E-04         0.00000E+00
    0.74534E-02        -0.19873E-04         0.00000E+00
    0.69590E-02        -0.17477E-04         0.00000E+00
    0.64585E-02        -0.15223E-04         0.00000E+00
    0.59521E-02        -0.13114E-04         0.00000E+00
    0.54397E-02        -0.11151E-04         0.00000E+00
    0.49215E-02        -0.93367E-05         0.00000E+00
    0.43974E-02        -0.76729E-05         0.00000E+00
    0.38675E-02        -0.61616E-05         0.00000E+00
    0.33319E-02        -0.48048E-05         0.00000E+00
    0.27905E-02        -0.36042E-05         0.00000E+00
    0.22435E-02        -0.25614E-05         0.00000E+00
    0.16909E-02        -0.16781E-05         0.00000E+00
    0.11328E-02        -0.95585E-06         0.00000E+00
    0.56912E-03        -0.39603E-06         0.00000E+00
    0.00000E+00         0.00000E+00         0.00000E+00
    0.20943E-01        -0.13998E-02         0.00000E+00
    0.20694E-01        -0.13694E-02         0.00000E+00
    0.20437E-01        -0.13390E-02         0.00000E+00
    0.20173E-01        -0.13086E-02         0.00000E+00
    0.19901E-01        -0.12783E-02         0.00000E+00
    0.19621E-01        -0.12480E-02         0.00000E+00
    0.19334E-01        -0.12176E-02         0.00000E+00
    0.19040E-01        -0.11874E-02         0.00000E+00
    0.18739E-01        -0.11572E-02         0.00000E+00
    0.18430E-01        -0.11270E-02         0.00000E+00
    0.18113E-01        -0.10969E-02         0.00000E+00
    0.17790E-01        -0.10668E-02         0.00000E+00
    0.17459E-01        -0.10369E-02         0.00000E+00
    0.17122E-01        -0.10070E-02         0.00000E+00
    0.16777E-01        -0.97713E-03         0.00000E+00
    0.16425E-01        -0.94739E-03         0.00000E+00
    0.16066E-01        -0.91775E-03         0.00000E+00
    0.15700E-01        -0.88820E-03         0.00000E+00
    0.15327E-01        -0.85875E-03         0.00000E+00
    0.14947E-01        -0.82942E-03         0.00000E+00
    0.14561E-01        -0.80019E-03         0.00000E+00
    0.14168E-01        -0.77109E-03         0.00000E+00
    0.13767E-01        -0.74211E-03         0.00000E+00
    0.13361E-01        -0.71326E-03         0.00000E+00
    0.12947E-01        -0.68454E-03         0.00000E+00
    0.12527E-01        -0.65596E-03         0.00000E+00
    0.12100E-01        -0.62753E-03         0.00000E+00
    0.11667E-01        -0.59924E-03         0.00000E+00
    0.11227E-01        -0.57111E-03         0.00000E+00
    0.10781E-01        -0.54313E-03         0.00000E+00
    0.10328E-01        -0.51532E-03         0.00000E+00
    0.98693E-02        -0.48768E-03         0.00000E+00
    0.94040E-02        -0.46021E-03         0.00000E+00
    0.89324E-02        -0.43291E-03         0.00000E+00
    0.84546E-02        -0.40580E-03         0.00000E+00
    0.79706E-02        -0.37887E-03         0.00000E+00
    0.74804E-02        -0.35213E-03         0.00000E+00
    0.69842E-02        -0.32559E-03         0.00000E+00
    0.64819E-02        -0.29924E-03         0.00000E+00
    0.59737E-02        -0.27310E-03         0.00000E+00
    0.54594E-02        -0.24716E-03         0.00000E+00
    0.49393E-02        -0.22144E-03         0.00000E+00
    0.44133E-02        -0.19592E-03         0.00000E+00
    0.38815E-02        -0.17063E-03         0.00000E+00
    0.33439E-02        -0.14556E-03         0.00000E+00
    0.28006E-02        -0.12071E-03         0.00000E+00
    0.22516E-02        -0.96097E-04         0.00000E+00
    0.16970E-02        -0.71714E-04         0.00000E+00
    0.11369E-02        -0.47568E-04         0.00000E+00
    0.57117E-03        -0.23662E-04         0.00000E+00
    0.00000E+00         0.00000E+00         0.00000E+00
    0.21050E-01        -0.26298E-02         0.00000E+00
    0.20799E-01        -0.25742E-02         0.00000E+00
    0.20541E-01        -0.25186E-02         0.00000E+00
    0.20275E-01        -0.24630E-02         0.00000E+00
    0.20002E-01        -0.24075E-02         0.00000E+00
    0.19721E-01        -0.23520E-02         0.00000E+00
    0.19433E-01        -0.22965E-02         0.00000E+00
    0.19137E-01        -0.22411E-02         0.00000E+00
    0.18834E-01        -0.21857E-02         0.00000E+00
    0.18523E-01        -0.21303E-02         0.00000E+00
    0.18206E-01        -0.20751E-02         0.00000E+00
    0.17881E-01        -0.20199E-02         0.00000E+00
    0.17548E-01        -0.19648E-02         0.00000E+00
    0.17209E-01        -0.19098E-02         0.00000E+00
    0.16862E-01        -0.18549E-02         0.00000E+00
    0.16508E-01        -0.18001E-02         0.00000E+00
    0.16148E-01        -0.17455E-02         0.00000E+00
    0.15780E-01        -0.16909E-02         0.00000E+00
    0.15405E-01        -0.16365E-02         0.00000E+00
    0.15023E-01        -0.15821E-02         0.00000E+00
    0.14635E-01        -0.15280E-02         0.00000E+00
    0.14239E-01        -0.14740E-02         0.00000E+00
    0.13837E-01        -0.14201E-02         0.00000E+00
    0.13428E-01        -0.13664E-02         0.00000E+00
    0.13013E-01        -0.13129E-02         0.00000E+00
    0.12590E-01        -0.12595E-02         0.00000E+00
    0.12161E-01        -0.12063E-02         0.00000E+00
    0.11726E-01        -0.11533E-02         0.00000E+00
    0.11284E-01        -0.11005E-02         0.00000E+00
    0.10835E-01        -0.10479E-02         0.00000E+00
    0.10381E-01        -0.99549E-03         0.00000E+00
    0.99192E-02        -0.94330E-03         0.00000E+00
    0.94515E-02        -0.89133E-03         0.00000E+00
    0.89775E-02        -0.83958E-03         0.00000E+00
    0.84973E-02        -0.78806E-03         0.00000E+00
    0.80108E-02        -0.73678E-03         0.00000E+00
    0.75182E-02        -0.68574E-03         0.00000E+00
    0.70195E-02        -0.63495E-03         0.00000E+00
    0.65146E-02        -0.58441E-03         0.00000E+00
    0.60038E-02        -0.53414E-03         0.00000E+00
    0.54870E-02        -0.48413E-03         0.00000E+00
    0.49642E-02        -0.43439E-03         0.00000E+00
    0.44355E-02        -0.38494E-03         0.00000E+00
    0.39010E-02        -0.33576E-03         0.00000E+00
    0.33607E-02        -0.28688E-03         0.00000E+00
    0.28147E-02        -0.23829E-03         0.00000E+00
    0.22630E-02        -0.19001E-03         0.00000E+00
    0.17056E-02        -0.14203E-03         0.00000E+00
    0.11426E-02        -0.94367E-04         0.00000E+00
    0.57405E-03        -0.47021E-04         0.00000E+00
    0.00000E+00         0.00000E+00         0.00000E+00
    0.21189E-01        -0.38673E-02         0.00000E+00
    0.20937E-01        -0.37864E-02         0.00000E+00
    0.20677E-01        -0.37055E-02         0.00000E+00
    0.20410E-01        -0.36245E-02         0.00000E+00
    0.20134E-01        -0.35436E-02         0.00000E+00
    0.19851E-01        -0.34628E-02         0.00000E+00
    0.19561E-01        -0.33820E-02         0.00000E+00
    0.19263E-01        -0.33012E-02         0.00000E+00
    0.18958E-01        -0.32205E-02         0.00000E+00
    0.18645E-01        -0.31399E-02         0.00000E+00
    0.18325E-01        -0.30594E-02         0.00000E+00
    0.17998E-01        -0.29789E-02         0.00000E+00
    0.17663E-01        -0.28986E-02         0.00000E+00
    0.17322E-01        -0.28183E-02         0.00000E+00
    0.16973E-01        -0.27382E-02         0.00000E+00
    0.16616E-01        -0.26582E-02         0.00000E+00
    0.16253E-01        -0.25783E-02         0.00000E+00
    0.15883E-01        -0.24986E-02         0.00000E+00
    0.15506E-01        -0.24190E-02         0.00000E+00
    0.15121E-01        -0.23396E-02         0.00000E+00
    0.14730E-01        -0.22603E-02         0.00000E+00
    0.14332E-01        -0.21812E-02         0.00000E+00
    0.13927E-01        -0.21023E-02         0.00000E+00
    0.13516E-01        -0.20236E-02         0.00000E+00
    0.13097E-01        -0.19451E-02         0.00000E+00
    0.12672E-01        -0.18668E-02         0.00000E+00
    0.12240E-01        -0.17887E-02         0.00000E+00
    0.11802E-01        -0.17109E-02         0.00000E+00
    0.11357E-01        -0.16332E-02         0.00000E+00
    0.10906E-01        -0.15558E-02         0.00000E+00
    0.10448E-01        -0.14787E-02         0.00000E+00
    0.99834E-02        -0.14018E-02         0.00000E+00
    0.95127E-02        -0.13252E-02         0.00000E+00
    0.90356E-02        -0.12488E-02         0.00000E+00
    0.85522E-02        -0.11727E-02         0.00000E+00
    0.80626E-02        -0.10970E-02         0.00000E+00
    0.75668E-02        -0.10215E-02         0.00000E+00
    0.70648E-02        -0.94628E-03         0.00000E+00
    0.65567E-02        -0.87140E-03         0.00000E+00
    0.60425E-02        -0.79684E-03         0.00000E+00
    0.55224E-02        -0.72261E-03         0.00000E+00
    0.49962E-02        -0.64871E-03         0.00000E+00
    0.44641E-02        -0.57516E-03         0.00000E+00
    0.39262E-02        -0.50195E-03         0.00000E+00
    0.33824E-02        -0.42911E-03         0.00000E+00
    0.28328E-02        -0.35663E-03         0.00000E+00
    0.22775E-02        -0.28452E-03         0.00000E+00
    0.17166E-02        -0.21280E-03         0.00000E+00
    0.11499E-02        -0.14147E-03         0.00000E+00
    0.57774E-03        -0.70531E-04         0.00000E+00
    0.00000E+00         0.00000E+00         0.00000E+00
    0.21362E-01        -0.51151E-02         0.00000E+00
    0.21108E-01        -0.50086E-02         0.00000E+00
    0.20845E-01        -0.49021E-02         0.00000E+00
    0.20575E-01        -0.47956E-02         0.00000E+00
    0.20297E-01        -0.46892E-02         0.00000E+00
    0.20012E-01        -0.45828E-02         0.00000E+00
    0.19719E-01        -0.44765E-02         0.00000E+00
    0.19419E-01        -0.43702E-02         0.00000E+00
    0.19111E-01        -0.42640E-02         0.00000E+00
    0.18795E-01        -0.41579E-02         0.00000E+00
    0.18472E-01        -0.40518E-02         0.00000E+00
    0.18142E-01        -0.39459E-02         0.00000E+00
    0.17805E-01        -0.38401E-02         0.00000E+00
    0.17460E-01        -0.37344E-02         0.00000E+00
    0.17108E-01        -0.36288E-02         0.00000E+00
    0.16749E-01        -0.35234E-02         0.00000E+00
    0.16383E-01        -0.34182E-02         0.00000E+00
    0.16009E-01        -0.33131E-02         0.00000E+00
    0.15629E-01        -0.32081E-02         0.00000E+00
    0.15242E-01        -0.31034E-02         0.00000E+00
    0.14847E-01        -0.29989E-02         0.00000E+00
    0.14446E-01        -0.28945E-02         0.00000E+00
    0.14038E-01        -0.27904E-02         0.00000E+00
    0.13623E-01        -0.26864E-02         0.00000E+00
    0.13201E-01        -0.25828E-02         0.00000E+00
    0.12772E-01        -0.24793E-02         0.00000E+00
    0.12337E-01        -0.23761E-02         0.00000E+00
    0.11895E-01        -0.22732E-02         0.00000E+00
    0.11447E-01        -0.21705E-02         0.00000E+00
    0.10992E-01        -0.20681E-02         0.00000E+00
    0.10530E-01        -0.19660E-02         0.00000E+00
    0.10062E-01        -0.18642E-02         0.00000E+00
    0.95875E-02        -0.17628E-02         0.00000E+00
    0.91066E-02        -0.16616E-02         0.00000E+00
    0.86194E-02        -0.15608E-02         0.00000E+00
    0.81259E-02        -0.14603E-02         0.00000E+00
    0.76262E-02        -0.13601E-02         0.00000E+00
    0.71202E-02        -0.12603E-02         0.00000E+00
    0.66081E-02        -0.11609E-02         0.00000E+00
    0.60899E-02        -0.10618E-02         0.00000E+00
    0.55657E-02        -0.96317E-03         0.00000E+00
    0.50354E-02        -0.86490E-03         0.00000E+00
    0.44991E-02        -0.76704E-03         0.00000E+00
    0.39569E-02        -0.66960E-03         0.00000E+00
    0.34089E-02        -0.57259E-03         0.00000E+00
    0.28550E-02        -0.47601E-03         0.00000E+00
    0.22954E-02        -0.37987E-03         0.00000E+00
    0.17300E-02        -0.28420E-03         0.00000E+00
    0.11590E-02        -0.18898E-03         0.00000E+00
    0.58227E-03        -0.94249E-04         0.00000E+00
    0.00000E+00         0.00000E+00         0.00000E+00
    0.21568E-01        -0.63757E-02         0.00000E+00
    0.21311E-01        -0.62434E-02         0.00000E+00
    0.21045E-01        -0.61112E-02         0.00000E+00
    0.20772E-01        -0.59789E-02         0.00000E+00
    0.20492E-01        -0.58467E-02         0.00000E+00
    0.20203E-01        -0.57145E-02         0.00000E+00
    0.19907E-01        -0.55824E-02         0.00000E+00
    0.19603E-01        -0.54503E-02         0.00000E+00
    0.19292E-01        -0.53184E-02         0.00000E+00
    0.18973E-01        -0.51865E-02         0.00000E+00
    0.18647E-01        -0.50547E-02         0.00000E+00
    0.18314E-01        -0.49230E-02         0.00000E+00
    0.17973E-01        -0.47915E-02         0.00000E+00
    0.17625E-01        -0.46601E-02         0.00000E+00
    0.17269E-01        -0.45289E-02         0.00000E+00
    0.16906E-01        -0.43978E-02         0.00000E+00
    0.16536E-01        -0.42669E-02         0.00000E+00
    0.16159E-01        -0.41362E-02         0.00000E+00
    0.15775E-01        -0.40057E-02         0.00000E+00
    0.15384E-01        -0.38753E-02         0.00000E+00
    0.14986E-01        -0.37452E-02         0.00000E+00
    0.14580E-01        -0.36154E-02         0.00000E+00
    0.14168E-01        -0.34857E-02         0.00000E+00
    0.13749E-01        -0.33563E-02         0.00000E+00
    0.13323E-01        -0.32272E-02         0.00000E+00
    0.12891E-01        -0.30984E-02         0.00000E+00
    0.12451E-01        -0.29698E-02         0.00000E+00
    0.12005E-01        -0.28416E-02         0.00000E+00
    0.11553E-01        -0.27136E-02         0.00000E+00
    0.11093E-01        -0.25860E-02         0.00000E+00
    0.10627E-01        -0.24587E-02         0.00000E+00
    0.10155E-01        -0.23317E-02         0.00000E+00
    0.96760E-02        -0.22051E-02         0.00000E+00
    0.91906E-02        -0.20789E-02         0.00000E+00
    0.86989E-02        -0.19530E-02         0.00000E+00
    0.82008E-02        -0.18275E-02         0.00000E+00
    0.76964E-02        -0.17025E-02         0.00000E+00
    0.71857E-02        -0.15778E-02         0.00000E+00
    0.66689E-02        -0.14536E-02         0.00000E+00
    0.61459E-02        -0.13297E-02         0.00000E+00
    0.56168E-02        -0.12064E-02         0.00000E+00
    0.50816E-02        -0.10835E-02         0.00000E+00
    0.45404E-02        -0.96106E-03         0.00000E+00
    0.39933E-02        -0.83912E-03         0.00000E+00
    0.34402E-02        -0.71767E-03         0.00000E+00
    0.28812E-02        -0.59672E-03         0.00000E+00
    0.23165E-02        -0.47629E-03         0.00000E+00
    0.17459E-02        -0.35639E-03         0.00000E+00
    0.11696E-02        -0.23704E-03         0.00000E+00
    0.58761E-03        -0.11824E-03         0.00000E+00
    0.00000E+00         0.00000E+00         0.00000E+00
    0.21807E-01        -0.76520E-02         0.00000E+00
    0.21546E-01        -0.74936E-02         0.00000E+00
    0.21278E-01        -0.73352E-02         0.00000E+00
    0.21001E-01        -0.71769E-02         0.00000E+00
    0.20717E-01        -0.70186E-02         0.00000E+00
    0.20425E-01        -0.68603E-02         0.00000E+00
    0.20125E-01        -0.67021E-02         0.00000E+00
    0.19817E-01        -0.65440E-02         0.00000E+00
    0.19502E-01        -0.63859E-02         0.00000E+00
    0.19180E-01        -0.62280E-02         0.00000E+00
    0.18850E-01        -0.60702E-02         0.00000E+00
    0.18512E-01        -0.59125E-02         0.00000E+00
    0.18167E-01        -0.57549E-02         0.00000E+00
    0.17815E-01        -0.55975E-02         0.00000E+00
    0.17455E-01        -0.54403E-02         0.00000E+00
    0.17088E-01        -0.52833E-02         0.00000E+00
    0.16714E-01        -0.51264E-02         0.00000E+00
    0.16333E-01        -0.49698E-02         0.00000E+00
    0.15944E-01        -0.48133E-02         0.00000E+00
    0.15548E-01        -0.46571E-02         0.00000E+00
    0.15146E-01        -0.45012E-02         0.00000E+00
    0.14736E-01        -0.43455E-02         0.00000E+00
    0.14319E-01        -0.41900E-02         0.00000E+00
    0.13896E-01        -0.40349E-02         0.00000E+00
    0.13465E-01        -0.38800E-02         0.00000E+00
    0.13028E-01        -0.37254E-02         0.00000E+00
    0.12583E-01        -0.35712E-02         0.00000E+00
    0.12132E-01        -0.34173E-02         0.00000E+00
    0.11675E-01        -0.32638E-02         0.00000E+00
    0.11210E-01        -0.31106E-02         0.00000E+00
    0.10740E-01        -0.29577E-02         0.00000E+00
    0.10262E-01        -0.28053E-02         0.00000E+00
    0.97780E-02        -0.26533E-02         0.00000E+00
    0.92874E-02        -0.25016E-02         0.00000E+00
    0.87905E-02        -0.23504E-02         0.00000E+00
    0.82871E-02        -0.21997E-02         0.00000E+00
    0.77773E-02        -0.20493E-02         0.00000E+00
    0.72613E-02        -0.18995E-02         0.00000E+00
    0.67390E-02        -0.17501E-02         0.00000E+00
    0.62105E-02        -0.16012E-02         0.00000E+00
    0.56758E-02        -0.14529E-02         0.00000E+00
    0.51350E-02        -0.13050E-02         0.00000E+00
    0.45881E-02        -0.11577E-02         0.00000E+00
    0.40352E-02        -0.10109E-02         0.00000E+00
    0.34763E-02        -0.86470E-03         0.00000E+00
    0.29115E-02        -0.71906E-03         0.00000E+00
    0.23408E-02        -0.57401E-03         0.00000E+00
    0.17642E-02        -0.42957E-03         0.00000E+00
    0.11819E-02        -0.28574E-03         0.00000E+00
    0.59378E-03        -0.14255E-03         0.00000E+00
    0.00000E+00         0.00000E+00         0.00000E+00
    0.22080E-01        -0.89467E-02         0.00000E+00
    0.21815E-01        -0.87619E-02         0.00000E+00
    0.21542E-01        -0.85770E-02         0.00000E+00
    0.21261E-01        -0.83922E-02         0.00000E+00
    0.20973E-01        -0.82075E-02         0.00000E+00
    0.20676E-01        -0.80227E-02         0.00000E+00
    0.20372E-01        -0.78381E-02         0.00000E+00
    0.20060E-01        -0.76535E-02         0.00000E+00
    0.19741E-01        -0.74691E-02         0.00000E+00
    0.19414E-01        -0.72847E-02         0.00000E+00
    0.19079E-01        -0.71005E-02         0.00000E+00
    0.18737E-01        -0.69164E-02         0.00000E+00
    0.18388E-01        -0.67325E-02         0.00000E+00
    0.18031E-01        -0.65487E-02         0.00000E+00
    0.17666E-01        -0.63652E-02         0.00000E+00
    0.17294E-01        -0.61818E-02         0.00000E+00
    0.16915E-01        -0.59986E-02         0.00000E+00
    0.16529E-01        -0.58157E-02         0.00000E+00
    0.16135E-01        -0.56330E-02         0.00000E+00
    0.15735E-01        -0.54505E-02         0.00000E+00
    0.15327E-01        -0.52683E-02         0.00000E+00
    0.14912E-01        -0.50864E-02         0.00000E+00
    0.14490E-01        -0.49048E-02         0.00000E+00
    0.14061E-01        -0.47235E-02         0.00000E+00
    0.13625E-01        -0.45426E-02         0.00000E+00
    0.13182E-01        -0.43619E-02         0.00000E+00
    0.12733E-01        -0.41817E-02         0.00000E+00
    0.12276E-01        -0.40018E-02         0.00000E+00
    0.11813E-01        -0.38222E-02         0.00000E+00
    0.11343E-01        -0.36431E-02         0.00000E+00
    0.10867E-01        -0.34644E-02         0.00000E+00
    0.10383E-01        -0.32861E-02         0.00000E+00
    0.98935E-02        -0.31082E-02         0.00000E+00
    0.93970E-02        -0.29308E-02         0.00000E+00
    0.88941E-02        -0.27539E-02         0.00000E+00
    0.83848E-02        -0.25775E-02         0.00000E+00
    0.78690E-02        -0.24016E-02         0.00000E+00
    0.73468E-02        -0.22262E-02         0.00000E+00
    0.68183E-02        -0.20513E-02         0.00000E+00
    0.62836E-02        -0.18769E-02         0.00000E+00
    0.57426E-02        -0.17032E-02         0.00000E+00
    0.51954E-02        -0.15300E-02         0.00000E+00
    0.46420E-02        -0.13574E-02         0.00000E+00
    0.40826E-02        -0.11854E-02         0.00000E+00
    0.35172E-02        -0.10140E-02         0.00000E+00
    0.29457E-02        -0.84334E-03         0.00000E+00
    0.23683E-02        -0.67328E-03         0.00000E+00
    0.17849E-02        -0.50391E-03         0.00000E+00
    0.11958E-02        -0.33522E-03         0.00000E+00
    0.60076E-03        -0.16725E-03         0.00000E+00
    0.00000E+00         0.00000E+00         0.00000E+00
    0.22385E-01        -0.10263E-01         0.00000E+00
    0.22115E-01        -0.10051E-01         0.00000E+00
    0.21838E-01        -0.98392E-02         0.00000E+00
    0.21552E-01        -0.96275E-02         0.00000E+00
    0.21259E-01        -0.94159E-02         0.00000E+00
    0.20958E-01        -0.92043E-02         0.00000E+00
    0.20649E-01        -0.89928E-02         0.00000E+00
    0.20332E-01        -0.87814E-02         0.00000E+00
    0.20008E-01        -0.85701E-02         0.00000E+00
    0.19676E-01        -0.83590E-02         0.00000E+00
    0.19336E-01        -0.81479E-02         0.00000E+00
    0.18989E-01        -0.79370E-02         0.00000E+00
    0.18634E-01        -0.77263E-02         0.00000E+00
    0.18272E-01        -0.75158E-02         0.00000E+00
    0.17902E-01        -0.73055E-02         0.00000E+00
    0.17525E-01        -0.70953E-02         0.00000E+00
    0.17140E-01        -0.68855E-02         0.00000E+00
    0.16748E-01        -0.66758E-02         0.00000E+00
    0.16349E-01        -0.64664E-02         0.00000E+00
    0.15943E-01        -0.62573E-02         0.00000E+00
    0.15529E-01        -0.60485E-02         0.00000E+00
    0.15109E-01        -0.58400E-02         0.00000E+00
    0.14681E-01        -0.56318E-02         0.00000E+00
    0.14246E-01        -0.54239E-02         0.00000E+00
    0.13804E-01        -0.52164E-02         0.00000E+00
    0.13355E-01        -0.50093E-02         0.00000E+00
    0.12900E-01        -0.48026E-02         0.00000E+00
    0.12437E-01        -0.45962E-02         0.00000E+00
    0.11968E-01        -0.43903E-02         0.00000E+00
    0.11491E-01        -0.41848E-02         0.00000E+00
    0.11008E-01        -0.39798E-02         0.00000E+00
    0.10519E-01        -0.37752E-02         0.00000E+00
    0.10022E-01        -0.35711E-02         0.00000E+00
    0.95193E-02        -0.33676E-02         0.00000E+00
    0.90097E-02        -0.31645E-02         0.00000E+00
    0.84937E-02        -0.29620E-02         0.00000E+00
    0.79711E-02        -0.27600E-02         0.00000E+00
    0.74421E-02        -0.25586E-02         0.00000E+00
    0.69068E-02        -0.23577E-02         0.00000E+00
    0.63650E-02        -0.21575E-02         0.00000E+00
    0.58170E-02        -0.19579E-02         0.00000E+00
    0.52627E-02        -0.17590E-02         0.00000E+00
    0.47022E-02        -0.15606E-02         0.00000E+00
    0.41355E-02        -0.13630E-02         0.00000E+00
    0.35627E-02        -0.11661E-02         0.00000E+00
    0.29839E-02        -0.96985E-03         0.00000E+00
    0.23990E-02        -0.77434E-03         0.00000E+00
    0.18081E-02        -0.57959E-03         0.00000E+00
    0.12113E-02        -0.38560E-03         0.00000E+00
    0.60855E-03        -0.19240E-03         0.00000E+00
    0.00000E+00         0.00000E+00         0.00000E+00
    0.22723E-01        -0.11603E-01         0.00000E+00
    0.22448E-01        -0.11363E-01         0.00000E+00
    0.22165E-01        -0.11124E-01         0.00000E+00
    0.21875E-01        -0.10885E-01         0.00000E+00
    0.21576E-01        -0.10646E-01         0.00000E+00
    0.21270E-01        -0.10408E-01         0.00000E+00
    0.20955E-01        -0.10169E-01         0.00000E+00
    0.20633E-01        -0.99301E-02         0.00000E+00
    0.20303E-01        -0.96915E-02         0.00000E+00
    0.19965E-01        -0.94531E-02         0.00000E+00
    0.19620E-01        -0.92147E-02         0.00000E+00
    0.19267E-01        -0.89766E-02         0.00000E+00
    0.18906E-01        -0.87386E-02         0.00000E+00
    0.18538E-01        -0.85009E-02         0.00000E+00
    0.18162E-01        -0.82633E-02         0.00000E+00
    0.17779E-01        -0.80260E-02         0.00000E+00
    0.17388E-01        -0.77889E-02         0.00000E+00
    0.16990E-01        -0.75521E-02         0.00000E+00
    0.16585E-01        -0.73155E-02         0.00000E+00
    0.16172E-01        -0.70793E-02         0.00000E+00
    0.15753E-01        -0.68434E-02         0.00000E+00
    0.15325E-01        -0.66078E-02         0.00000E+00
    0.14891E-01        -0.63725E-02         0.00000E+00
    0.14450E-01        -0.61376E-02         0.00000E+00
    0.14001E-01        -0.59031E-02         0.00000E+00
    0.13546E-01        -0.56690E-02         0.00000E+00
    0.13083E-01        -0.54354E-02         0.00000E+00
    0.12614E-01        -0.52021E-02         0.00000E+00
    0.12138E-01        -0.49693E-02         0.00000E+00
    0.11654E-01        -0.47370E-02         0.00000E+00
    0.11164E-01        -0.45051E-02         0.00000E+00
    0.10668E-01        -0.42738E-02         0.00000E+00
    0.10164E-01        -0.40430E-02         0.00000E+00
    0.96540E-02        -0.38128E-02         0.00000E+00
    0.91371E-02        -0.35831E-02         0.00000E+00
    0.86137E-02        -0.33539E-02         0.00000E+00
    0.80837E-02        -0.31254E-02         0.00000E+00
    0.75472E-02        -0.28975E-02         0.00000E+00
    0.70042E-02        -0.26703E-02         0.00000E+00
    0.64548E-02        -0.24436E-02         0.00000E+00
    0.58990E-02        -0.22177E-02         0.00000E+00
    0.53368E-02        -0.19925E-02         0.00000E+00
    0.47684E-02        -0.17680E-02         0.00000E+00
    0.41938E-02        -0.15442E-02         0.00000E+00
    0.36129E-02        -0.13212E-02         0.00000E+00
    0.30259E-02        -0.10989E-02         0.00000E+00
    0.24327E-02        -0.87744E-03         0.00000E+00
    0.18335E-02        -0.65681E-03         0.00000E+00
    0.12283E-02        -0.43700E-03         0.00000E+00
    0.61712E-03        -0.21806E-03         0.00000E+00
    0.00000E+00         0.00000E+00         0.00000E+00
    0.23093E-01        -0.12969E-01         0.00000E+00
    0.22812E-01        -0.12702E-01         0.00000E+00
    0.22524E-01        -0.12435E-01         0.00000E+00
    0.22227E-01        -0.12169E-01         0.00000E+00
    0.21923E-01        -0.11902E-01         0.00000E+00
    0.21610E-01        -0.11635E-01         0.00000E+00
    0.21290E-01        -0.11369E-01         0.00000E+00
    0.20962E-01        -0.11102E-01         0.00000E+00
    0.20626E-01        -0.10836E-01         0.00000E+00
    0.20282E-01        -0.10569E-01         0.00000E+00
    0.19930E-01        -0.10303E-01         0.00000E+00
    0.19571E-01        -0.10037E-01         0.00000E+00
    0.19203E-01        -0.97716E-02         0.00000E+00
    0.18829E-01        -0.95060E-02         0.00000E+00
    0.18446E-01        -0.92407E-02         0.00000E+00
    0.18057E-01        -0.89757E-02         0.00000E+00
    0.17659E-01        -0.87109E-02         0.00000E+00
    0.17255E-01        -0.84464E-02         0.00000E+00
    0.16843E-01        -0.81822E-02         0.00000E+00
    0.16423E-01        -0.79183E-02         0.00000E+00
    0.15996E-01        -0.76547E-02         0.00000E+00
    0.15562E-01        -0.73915E-02         0.00000E+00
    0.15121E-01        -0.71287E-02         0.00000E+00
    0.14672E-01        -0.68662E-02         0.00000E+00
    0.14217E-01        -0.66042E-02         0.00000E+00
    0.13754E-01        -0.63426E-02         0.00000E+00
    0.13284E-01        -0.60814E-02         0.00000E+00
    0.12807E-01        -0.58207E-02         0.00000E+00
    0.12323E-01        -0.55605E-02         0.00000E+00
    0.11832E-01        -0.53008E-02         0.00000E+00
    0.11335E-01        -0.50417E-02         0.00000E+00
    0.10830E-01        -0.47830E-02         0.00000E+00
    0.10319E-01        -0.45250E-02         0.00000E+00
    0.98008E-02        -0.42675E-02         0.00000E+00
    0.92760E-02        -0.40106E-02         0.00000E+00
    0.87445E-02        -0.37543E-02         0.00000E+00
    0.82064E-02        -0.34987E-02         0.00000E+00
    0.76616E-02        -0.32438E-02         0.00000E+00
    0.71104E-02        -0.29895E-02         0.00000E+00
    0.65526E-02        -0.27360E-02         0.00000E+00
    0.59884E-02        -0.24832E-02         0.00000E+00
    0.54177E-02        -0.22311E-02         0.00000E+00
    0.48406E-02        -0.19798E-02         0.00000E+00
    0.42573E-02        -0.17293E-02         0.00000E+00
    0.36676E-02        -0.14797E-02         0.00000E+00
    0.30717E-02        -0.12308E-02         0.00000E+00
    0.24696E-02        -0.98283E-03         0.00000E+00
    0.18613E-02        -0.73574E-03         0.00000E+00
    0.12469E-02        -0.48955E-03         0.00000E+00
    0.62648E-03        -0.24430E-03         0.00000E+00
    0.00000E+00         0.00000E+00         0.00000E+00
    0.23494E-01        -0.14366E-01         0.00000E+00
    0.23208E-01        -0.14070E-01         0.00000E+00
    0.22913E-01        -0.13775E-01         0.00000E+00
    0.22610E-01        -0.13480E-01         0.00000E+00
    0.22299E-01        -0.13185E-01         0.00000E+00
    0.21980E-01        -0.12890E-01         0.00000E+00
    0.21653E-01        -0.12595E-01         0.00000E+00
    0.21318E-01        -0.12300E-01         0.00000E+00
    0.20975E-01        -0.12005E-01         0.00000E+00
    0.20624E-01        -0.11710E-01         0.00000E+00
    0.20266E-01        -0.11416E-01         0.00000E+00
    0.19900E-01        -0.11121E-01         0.00000E+00
    0.19526E-01        -0.10827E-01         0.00000E+00
    0.19144E-01        -0.10534E-01         0.00000E+00
    0.18754E-01        -0.10240E-01         0.00000E+00
    0.18357E-01        -0.99465E-02         0.00000E+00
    0.17953E-01        -0.96535E-02         0.00000E+00
    0.17541E-01        -0.93607E-02         0.00000E+00
    0.17121E-01        -0.90682E-02         0.00000E+00
    0.16694E-01        -0.87761E-02         0.00000E+00
    0.16260E-01        -0.84843E-02         0.00000E+00
    0.15818E-01        -0.81929E-02         0.00000E+00
    0.15369E-01        -0.79019E-02         0.00000E+00
    0.14913E-01        -0.76113E-02         0.00000E+00
    0.14449E-01        -0.73212E-02         0.00000E+00
    0.13979E-01        -0.70315E-02         0.00000E+00
    0.13501E-01        -0.67422E-02         0.00000E+00
    0.13016E-01        -0.64535E-02         0.00000E+00
    0.12524E-01        -0.61653E-02         0.00000E+00
    0.12025E-01        -0.58776E-02         0.00000E+00
    0.11519E-01        -0.55905E-02         0.00000E+00
    0.11006E-01        -0.53040E-02         0.00000E+00
    0.10486E-01        -0.50181E-02         0.00000E+00
    0.99595E-02        -0.47328E-02         0.00000E+00
    0.94261E-02        -0.44481E-02         0.00000E+00
    0.88859E-02        -0.41641E-02         0.00000E+00
    0.83389E-02        -0.38808E-02         0.00000E+00
    0.77854E-02        -0.35982E-02         0.00000E+00
    0.72251E-02        -0.33164E-02         0.00000E+00
    0.66583E-02        -0.30353E-02         0.00000E+00
    0.60849E-02        -0.27549E-02         0.00000E+00
    0.55050E-02        -0.24754E-02         0.00000E+00
    0.49187E-02        -0.21967E-02         0.00000E+00
    0.43259E-02        -0.19189E-02         0.00000E+00
    0.37267E-02        -0.16420E-02         0.00000E+00
    0.31212E-02        -0.13659E-02         0.00000E+00
    0.25094E-02        -0.10908E-02         0.00000E+00
    0.18913E-02        -0.81659E-03         0.00000E+00
    0.12670E-02        -0.54338E-03         0.00000E+00
    0.63658E-03        -0.27118E-03         0.00000E+00
    0.00000E+00         0.00000E+00         0.00000E+00
    0.23927E-01        -0.15795E-01         0.00000E+00
    0.23633E-01        -0.15470E-01         0.00000E+00
    0.23332E-01        -0.15146E-01         0.00000E+00
    0.23022E-01        -0.14822E-01         0.00000E+00
    0.22704E-01        -0.14498E-01         0.00000E+00
    0.22378E-01        -0.14173E-01         0.00000E+00
    0.22044E-01        -0.13849E-01         0.00000E+00
    0.21701E-01        -0.13525E-01         0.00000E+00
    0.21351E-01        -0.13202E-01         0.00000E+00
    0.20993E-01        -0.12878E-01         0.00000E+00
    0.20627E-01        -0.12555E-01         0.00000E+00
    0.20253E-01        -0.12231E-01         0.00000E+00
    0.19872E-01        -0.11908E-01         0.00000E+00
    0.19482E-01        -0.11585E-01         0.00000E+00
    0.19085E-01        -0.11263E-01         0.00000E+00
    0.18680E-01        -0.10941E-01         0.00000E+00
    0.18268E-01        -0.10619E-01         0.00000E+00
    0.17848E-01        -0.10297E-01         0.00000E+00
    0.17420E-01        -0.99756E-02         0.00000E+00
    0.16985E-01        -0.96546E-02         0.00000E+00
    0.16543E-01        -0.93339E-02         0.00000E+00
    0.16093E-01        -0.90137E-02         0.00000E+00
    0.15636E-01        -0.86939E-02         0.00000E+00
    0.15171E-01        -0.83745E-02         0.00000E+00
    0.14699E-01        -0.80556E-02         0.00000E+00
    0.14220E-01        -0.77372E-02         0.00000E+00
    0.13733E-01        -0.74193E-02         0.00000E+00
    0.13240E-01        -0.71018E-02         0.00000E+00
    0.12739E-01        -0.67850E-02         0.00000E+00
    0.12231E-01        -0.64687E-02         0.00000E+00
    0.11716E-01        -0.61530E-02         0.00000E+00
    0.11194E-01        -0.58379E-02         0.00000E+00
    0.10665E-01        -0.55235E-02         0.00000E+00
    0.10130E-01        -0.52097E-02         0.00000E+00
    0.95870E-02        -0.48966E-02         0.00000E+00
    0.90374E-02        -0.45842E-02         0.00000E+00
    0.84811E-02        -0.42725E-02         0.00000E+00
    0.79180E-02        -0.39616E-02         0.00000E+00
    0.73481E-02        -0.36515E-02         0.00000E+00
    0.67716E-02        -0.33421E-02         0.00000E+00
    0.61884E-02        -0.30336E-02         0.00000E+00
    0.55987E-02        -0.27260E-02         0.00000E+00
    0.50023E-02        -0.24192E-02         0.00000E+00
    0.43994E-02        -0.21134E-02         0.00000E+00
    0.37901E-02        -0.18084E-02         0.00000E+00
    0.31743E-02        -0.15045E-02         0.00000E+00
    0.25521E-02        -0.12015E-02         0.00000E+00
    0.19235E-02        -0.89954E-03         0.00000E+00
    0.12886E-02        -0.59862E-03         0.00000E+00
    0.64741E-03        -0.29876E-03         0.00000E+00
    0.00000E+00         0.00000E+00         0.00000E+00
    0.24390E-01        -0.17259E-01         0.00000E+00
    0.24089E-01        -0.16905E-01         0.00000E+00
    0.23780E-01        -0.16551E-01         0.00000E+00
    0.23462E-01        -0.16197E-01         0.00000E+00
    0.23137E-01        -0.15843E-01         0.00000E+00
    0.22803E-01        -0.15489E-01         0.00000E+00
    0.22461E-01        -0.15136E-01         0.00000E+00
    0.22111E-01        -0.14782E-01         0.00000E+00
    0.21753E-01        -0.14429E-01         0.00000E+00
    0.21387E-01        -0.14075E-01         0.00000E+00
    0.21013E-01        -0.13722E-01         0.00000E+00
    0.20631E-01        -0.13369E-01         0.00000E+00
    0.20241E-01        -0.13016E-01         0.00000E+00
    0.19844E-01        -0.12664E-01         0.00000E+00
    0.19438E-01        -0.12312E-01         0.00000E+00
    0.19025E-01        -0.11960E-01         0.00000E+00
    0.18604E-01        -0.11608E-01         0.00000E+00
    0.18176E-01        -0.11257E-01         0.00000E+00
    0.17740E-01        -0.10906E-01         0.00000E+00
    0.17296E-01        -0.10556E-01         0.00000E+00
    0.16845E-01        -0.10205E-01         0.00000E+00
    0.16386E-01        -0.98557E-02         0.00000E+00
    0.15920E-01        -0.95064E-02         0.00000E+00
    0.15446E-01        -0.91575E-02         0.00000E+00
    0.14965E-01        -0.88091E-02         0.00000E+00
    0.14477E-01        -0.84613E-02         0.00000E+00
    0.13981E-01        -0.81139E-02         0.00000E+00
    0.13478E-01        -0.77671E-02         0.00000E+00
    0.12968E-01        -0.74209E-02         0.00000E+00
    0.12451E-01        -0.70753E-02         0.00000E+00
    0.11926E-01        -0.67303E-02         0.00000E+00
    0.11395E-01        -0.63859E-02         0.00000E+00
    0.10856E-01        -0.60422E-02         0.00000E+00
    0.10311E-01        -0.56993E-02         0.00000E+00
    0.97583E-02        -0.53570E-02         0.00000E+00
    0.91988E-02        -0.50155E-02         0.00000E+00
    0.86324E-02        -0.46747E-02         0.00000E+00
    0.80592E-02        -0.43347E-02         0.00000E+00
    0.74791E-02        -0.39956E-02         0.00000E+00
    0.68922E-02        -0.36573E-02         0.00000E+00
    0.62986E-02        -0.33199E-02         0.00000E+00
    0.56983E-02        -0.29834E-02         0.00000E+00
    0.50913E-02        -0.26478E-02         0.00000E+00
    0.44777E-02        -0.23132E-02         0.00000E+00
    0.38575E-02        -0.19795E-02         0.00000E+00
    0.32307E-02        -0.16469E-02         0.00000E+00
    0.25975E-02        -0.13153E-02         0.00000E+00
    0.19577E-02        -0.98480E-03         0.00000E+00
    0.13115E-02        -0.65539E-03         0.00000E+00
    0.65894E-03        -0.32711E-03         0.00000E+00
    0.00000E+00         0.00000E+00         0.00000E+00
    0.24882E-01        -0.18762E-01         0.00000E+00
    0.24573E-01        -0.18377E-01         0.00000E+00
    0.24256E-01        -0.17993E-01         0.00000E+00
    0.23931E-01        -0.17609E-01         0.00000E+00
    0.23597E-01        -0.17224E-01         0.00000E+00
    0.23255E-01        -0.16840E-01         0.00000E+00
    0.22905E-01        -0.16456E-01         0.00000E+00
    0.22546E-01        -0.16072E-01         0.00000E+00
    0.22180E-01        -0.15688E-01         0.00000E+00
    0.21805E-01        -0.15304E-01         0.00000E+00
    0.21422E-01        -0.14921E-01         0.00000E+00
    0.21032E-01        -0.14537E-01         0.00000E+00
    0.20633E-01        -0.14154E-01         0.00000E+00
    0.20227E-01        -0.13771E-01         0.00000E+00
    0.19813E-01        -0.13389E-01         0.00000E+00
    0.19390E-01        -0.13007E-01         0.00000E+00
    0.18961E-01        -0.12625E-01         0.00000E+00
    0.18523E-01        -0.12243E-01         0.00000E+00
    0.18078E-01        -0.11862E-01         0.00000E+00
    0.17625E-01        -0.11481E-01         0.00000E+00
    0.17164E-01        -0.11101E-01         0.00000E+00
    0.16696E-01        -0.10721E-01         0.00000E+00
    0.16220E-01        -0.10341E-01         0.00000E+00
    0.15737E-01        -0.99619E-02         0.00000E+00
    0.15247E-01        -0.95833E-02         0.00000E+00
    0.14749E-01        -0.92052E-02         0.00000E+00
    0.14243E-01        -0.88277E-02         0.00000E+00
    0.13731E-01        -0.84508E-02         0.00000E+00
    0.13211E-01        -0.80744E-02         0.00000E+00
    0.12683E-01        -0.76987E-02         0.00000E+00
    0.12149E-01        -0.73236E-02         0.00000E+00
    0.11607E-01        -0.69492E-02         0.00000E+00
    0.11058E-01        -0.65756E-02         0.00000E+00
    0.10503E-01        -0.62026E-02         0.00000E+00
    0.99395E-02        -0.58304E-02         0.00000E+00
    0.93695E-02        -0.54589E-02         0.00000E+00
    0.87925E-02        -0.50883E-02         0.00000E+00
    0.82085E-02        -0.47185E-02         0.00000E+00
    0.76176E-02        -0.43495E-02         0.00000E+00
    0.70198E-02        -0.39815E-02         0.00000E+00
    0.64152E-02        -0.36143E-02         0.00000E+00
    0.58037E-02        -0.32482E-02         0.00000E+00
    0.51855E-02        -0.28829E-02         0.00000E+00
    0.45605E-02        -0.25187E-02         0.00000E+00
    0.39288E-02        -0.21556E-02         0.00000E+00
    0.32905E-02        -0.17935E-02         0.00000E+00
    0.26455E-02        -0.14324E-02         0.00000E+00
    0.19939E-02        -0.10726E-02         0.00000E+00
    0.13358E-02        -0.71384E-03         0.00000E+00
    0.67113E-03        -0.35631E-03         0.00000E+00
    0.00000E+00         0.00000E+00         0.00000E+00
    0.25403E-01        -0.20306E-01         0.00000E+00
    0.25085E-01        -0.19890E-01         0.00000E+00
    0.24760E-01        -0.19475E-01         0.00000E+00
    0.24425E-01        -0.19059E-01         0.00000E+00
    0.24083E-01        -0.18643E-01         0.00000E+00
    0.23732E-01        -0.18228E-01         0.00000E+00
    0.23373E-01        -0.17813E-01         0.00000E+00
    0.23005E-01        -0.17397E-01         0.00000E+00
    0.22630E-01        -0.16982E-01         0.00000E+00
    0.22246E-01        -0.16567E-01         0.00000E+00
    0.21854E-01        -0.16153E-01         0.00000E+00
    0.21455E-01        -0.15738E-01         0.00000E+00
    0.21047E-01        -0.15324E-01         0.00000E+00
    0.20631E-01        -0.14910E-01         0.00000E+00
    0.20207E-01        -0.14496E-01         0.00000E+00
    0.19776E-01        -0.14083E-01         0.00000E+00
    0.19336E-01        -0.13670E-01         0.00000E+00
    0.18889E-01        -0.13257E-01         0.00000E+00
    0.18434E-01        -0.12845E-01         0.00000E+00
    0.17971E-01        -0.12433E-01         0.00000E+00
    0.17501E-01        -0.12021E-01         0.00000E+00
    0.17023E-01        -0.11610E-01         0.00000E+00
    0.16537E-01        -0.11199E-01         0.00000E+00
    0.16044E-01        -0.10789E-01         0.00000E+00
    0.15543E-01        -0.10380E-01         0.00000E+00
    0.15035E-01        -0.99706E-02         0.00000E+00
    0.14519E-01        -0.95621E-02         0.00000E+00
    0.13996E-01        -0.91542E-02         0.00000E+00
    0.13466E-01        -0.87469E-02         0.00000E+00
    0.12928E-01        -0.83403E-02         0.00000E+00
    0.12383E-01        -0.79343E-02         0.00000E+00
    0.11831E-01        -0.75291E-02         0.00000E+00
    0.11271E-01        -0.71245E-02         0.00000E+00
    0.10704E-01        -0.67207E-02         0.00000E+00
    0.10130E-01        -0.63177E-02         0.00000E+00
    0.95489E-02        -0.59155E-02         0.00000E+00
    0.89607E-02        -0.55142E-02         0.00000E+00
    0.83655E-02        -0.51137E-02         0.00000E+00
    0.77632E-02        -0.47141E-02         0.00000E+00
    0.71539E-02        -0.43154E-02         0.00000E+00
    0.65376E-02        -0.39177E-02         0.00000E+00
    0.59145E-02        -0.35209E-02         0.00000E+00
    0.52844E-02        -0.31252E-02         0.00000E+00
    0.46475E-02        -0.27306E-02         0.00000E+00
    0.40037E-02        -0.23370E-02         0.00000E+00
    0.33532E-02        -0.19445E-02         0.00000E+00
    0.26959E-02        -0.15532E-02         0.00000E+00
    0.20320E-02        -0.11630E-02         0.00000E+00
    0.13613E-02        -0.77409E-03         0.00000E+00
    0.68395E-03        -0.38641E-03         0.00000E+00
    0.00000E+00         0.00000E+00         0.00000E+00
    0.25950E-01        -0.21894E-01         0.00000E+00
    0.25624E-01        -0.21446E-01         0.00000E+00
    0.25289E-01        -0.20999E-01         0.00000E+00
    0.24945E-01        -0.20551E-01         0.00000E+00
    0.24593E-01        -0.20103E-01         0.00000E+00
    0.24233E-01        -0.19656E-01         0.00000E+00
    0.23865E-01        -0.19208E-01         0.00000E+00
    0.23488E-01        -0.18761E-01         0.00000E+00
    0.23103E-01        -0.18314E-01         0.00000E+00
    0.22709E-01        -0.17867E-01         0.00000E+00
    0.22308E-01        -0.17420E-01         0.00000E+00
    0.21898E-01        -0.16974E-01         0.00000E+00
    0.21481E-01        -0.16528E-01         0.00000E+00
    0.21055E-01        -0.16082E-01         0.00000E+00
    0.20621E-01        -0.15636E-01         0.00000E+00
    0.20180E-01        -0.15191E-01         0.00000E+00
    0.19730E-01        -0.14745E-01         0.00000E+00
    0.19273E-01        -0.14301E-01         0.00000E+00
    0.18807E-01        -0.13856E-01         0.00000E+00
    0.18334E-01        -0.13413E-01         0.00000E+00
    0.17854E-01        -0.12969E-01         0.00000E+00
    0.17365E-01        -0.12526E-01         0.00000E+00
    0.16869E-01        -0.12083E-01         0.00000E+00
    0.16365E-01        -0.11641E-01         0.00000E+00
    0.15854E-01        -0.11200E-01         0.00000E+00
    0.15335E-01        -0.10759E-01         0.00000E+00
    0.14808E-01        -0.10319E-01         0.00000E+00
    0.14274E-01        -0.98789E-02         0.00000E+00
    0.13733E-01        -0.94398E-02         0.00000E+00
    0.13184E-01        -0.90014E-02         0.00000E+00
    0.12628E-01        -0.85636E-02         0.00000E+00
    0.12064E-01        -0.81266E-02         0.00000E+00
    0.11493E-01        -0.76903E-02         0.00000E+00
    0.10915E-01        -0.72548E-02         0.00000E+00
    0.10329E-01        -0.68201E-02         0.00000E+00
    0.97365E-02        -0.63863E-02         0.00000E+00
    0.91366E-02        -0.59533E-02         0.00000E+00
    0.85295E-02        -0.55212E-02         0.00000E+00
    0.79153E-02        -0.50900E-02         0.00000E+00
    0.72939E-02        -0.46598E-02         0.00000E+00
    0.66656E-02        -0.42306E-02         0.00000E+00
    0.60301E-02        -0.38024E-02         0.00000E+00
    0.53877E-02        -0.33752E-02         0.00000E+00
    0.47383E-02        -0.29491E-02         0.00000E+00
    0.40820E-02        -0.25242E-02         0.00000E+00
    0.34188E-02        -0.21004E-02         0.00000E+00
    0.27487E-02        -0.16778E-02         0.00000E+00
    0.20717E-02        -0.12564E-02         0.00000E+00
    0.13879E-02        -0.83630E-03         0.00000E+00
    0.69733E-03        -0.41748E-03         0.00000E+00
    0.00000E+00         0.00000E+00         0.00000E+00
    0.26524E-01        -0.23529E-01         0.00000E+00
    0.26188E-01        -0.23049E-01         0.00000E+00
    0.25843E-01        -0.22568E-01         0.00000E+00
    0.25489E-01        -0.22087E-01         0.00000E+00
    0.25128E-01        -0.21607E-01         0.00000E+00
    0.24757E-01        -0.21126E-01         0.00000E+00
    0.24379E-01        -0.20646E-01         0.00000E+00
    0.23992E-01        -0.20166E-01         0.00000E+00
    0.23596E-01        -0.19686E-01         0.00000E+00
    0.23193E-01        -0.19206E-01         0.00000E+00
    0.22781E-01        -0.18726E-01         0.00000E+00
    0.22361E-01        -0.18247E-01         0.00000E+00
    0.21933E-01        -0.17768E-01         0.00000E+00
    0.21497E-01        -0.17289E-01         0.00000E+00
    0.21053E-01        -0.16810E-01         0.00000E+00
    0.20601E-01        -0.16332E-01         0.00000E+00
    0.20141E-01        -0.15854E-01         0.00000E+00
    0.19672E-01        -0.15376E-01         0.00000E+00
    0.19196E-01        -0.14899E-01         0.00000E+00
    0.18713E-01        -0.14422E-01         0.00000E+00
    0.18221E-01        -0.13946E-01         0.00000E+00
    0.17721E-01        -0.13470E-01         0.00000E+00
    0.17214E-01        -0.12995E-01         0.00000E+00
    0.16699E-01        -0.12520E-01         0.00000E+00
    0.16177E-01        -0.12046E-01         0.00000E+00
    0.15647E-01        -0.11572E-01         0.00000E+00
    0.15109E-01        -0.11099E-01         0.00000E+00
    0.14563E-01        -0.10626E-01         0.00000E+00
    0.14010E-01        -0.10154E-01         0.00000E+00
    0.13450E-01        -0.96833E-02         0.00000E+00
    0.12882E-01        -0.92128E-02         0.00000E+00
    0.12307E-01        -0.87431E-02         0.00000E+00
    0.11724E-01        -0.82741E-02         0.00000E+00
    0.11134E-01        -0.78060E-02         0.00000E+00
    0.10536E-01        -0.73386E-02         0.00000E+00
    0.99314E-02        -0.68721E-02         0.00000E+00
    0.93192E-02        -0.64065E-02         0.00000E+00
    0.86999E-02        -0.59419E-02         0.00000E+00
    0.80733E-02        -0.54781E-02         0.00000E+00
    0.74394E-02        -0.50154E-02         0.00000E+00
    0.67984E-02        -0.45537E-02         0.00000E+00
    0.61503E-02        -0.40930E-02         0.00000E+00
    0.54950E-02        -0.36334E-02         0.00000E+00
    0.48327E-02        -0.31749E-02         0.00000E+00
    0.41633E-02        -0.27176E-02         0.00000E+00
    0.34868E-02        -0.22615E-02         0.00000E+00
    0.28034E-02        -0.18066E-02         0.00000E+00
    0.21129E-02        -0.13529E-02         0.00000E+00
    0.14155E-02        -0.90060E-03         0.00000E+00
    0.71122E-03        -0.44961E-03         0.00000E+00
    0.00000E+00         0.00000E+00         0.00000E+00
    0.27121E-01        -0.25214E-01         0.00000E+00
    0.26775E-01        -0.24700E-01         0.00000E+00
    0.26420E-01        -0.24185E-01         0.00000E+00
    0.26056E-01        -0.23671E-01         0.00000E+00
    0.25684E-01        -0.23157E-01         0.00000E+00
    0.25303E-01        -0.22642E-01         0.00000E+00
    0.24914E-01        -0.22128E-01         0.00000E+00
    0.24516E-01        -0.21614E-01         0.00000E+00
    0.24110E-01        -0.21100E-01         0.00000E+00
    0.23696E-01        -0.20586E-01         0.00000E+00
    0.23273E-01        -0.20073E-01         0.00000E+00
    0.22842E-01        -0.19560E-01         0.00000E+00
    0.22403E-01        -0.19047E-01         0.00000E+00
    0.21956E-01        -0.18534E-01         0.00000E+00
    0.21501E-01        -0.18021E-01         0.00000E+00
    0.21038E-01        -0.17509E-01         0.00000E+00
    0.20566E-01        -0.16997E-01         0.00000E+00
    0.20087E-01        -0.16486E-01         0.00000E+00
    0.19600E-01        -0.15975E-01         0.00000E+00
    0.19105E-01        -0.15464E-01         0.00000E+00
    0.18602E-01        -0.14954E-01         0.00000E+00
    0.18091E-01        -0.14445E-01         0.00000E+00
    0.17572E-01        -0.13935E-01         0.00000E+00
    0.17045E-01        -0.13427E-01         0.00000E+00
    0.16511E-01        -0.12919E-01         0.00000E+00
    0.15969E-01        -0.12411E-01         0.00000E+00
    0.15420E-01        -0.11904E-01         0.00000E+00
    0.14862E-01        -0.11398E-01         0.00000E+00
    0.14298E-01        -0.10892E-01         0.00000E+00
    0.13725E-01        -0.10387E-01         0.00000E+00
    0.13145E-01        -0.98832E-02         0.00000E+00
    0.12558E-01        -0.93798E-02         0.00000E+00
    0.11963E-01        -0.88771E-02         0.00000E+00
    0.11360E-01        -0.83753E-02         0.00000E+00
    0.10750E-01        -0.78743E-02         0.00000E+00
    0.10133E-01        -0.73741E-02         0.00000E+00
    0.95080E-02        -0.68749E-02         0.00000E+00
    0.88759E-02        -0.63766E-02         0.00000E+00
    0.82364E-02        -0.58793E-02         0.00000E+00
    0.75897E-02        -0.53829E-02         0.00000E+00
    0.69357E-02        -0.48877E-02         0.00000E+00
    0.62744E-02        -0.43935E-02         0.00000E+00
    0.56058E-02        -0.39004E-02         0.00000E+00
    0.49301E-02        -0.34084E-02         0.00000E+00
    0.42472E-02        -0.29176E-02         0.00000E+00
    0.35571E-02        -0.24281E-02         0.00000E+00
    0.28599E-02        -0.19398E-02         0.00000E+00
    0.21555E-02        -0.14528E-02         0.00000E+00
    0.14441E-02        -0.96714E-03         0.00000E+00
    0.72557E-03        -0.48286E-03         0.00000E+00
    0.00000E+00         0.00000E+00         0.00000E+00
    0.27741E-01        -0.26953E-01         0.00000E+00
    0.27384E-01        -0.26403E-01         0.00000E+00
    0.27018E-01        -0.25854E-01         0.00000E+00
    0.26643E-01        -0.25305E-01         0.00000E+00
    0.26260E-01        -0.24755E-01         0.00000E+00
    0.25868E-01        -0.24206E-01         0.00000E+00
    0.25467E-01        -0.23657E-01         0.00000E+00
    0.25059E-01        -0.23108E-01         0.00000E+00
    0.24641E-01        -0.22559E-01         0.00000E+00
    0.24216E-01        -0.22011E-01         0.00000E+00
    0.23782E-01        -0.21462E-01         0.00000E+00
    0.23340E-01        -0.20914E-01         0.00000E+00
    0.22889E-01        -0.20366E-01         0.00000E+00
    0.22431E-01        -0.19819E-01         0.00000E+00
    0.21964E-01        -0.19271E-01         0.00000E+00
    0.21489E-01        -0.18724E-01         0.00000E+00
    0.21006E-01        -0.18178E-01         0.00000E+00
    0.20515E-01        -0.17632E-01         0.00000E+00
    0.20016E-01        -0.17086E-01         0.00000E+00
    0.19509E-01        -0.16540E-01         0.00000E+00
    0.18994E-01        -0.15995E-01         0.00000E+00
    0.18471E-01        -0.15451E-01         0.00000E+00
    0.17941E-01        -0.14907E-01         0.00000E+00
    0.17402E-01        -0.14363E-01         0.00000E+00
    0.16856E-01        -0.13820E-01         0.00000E+00
    0.16302E-01        -0.13278E-01         0.00000E+00
    0.15740E-01        -0.12736E-01         0.00000E+00
    0.15170E-01        -0.12195E-01         0.00000E+00
    0.14593E-01        -0.11655E-01         0.00000E+00
    0.14008E-01        -0.11115E-01         0.00000E+00
    0.13416E-01        -0.10576E-01         0.00000E+00
    0.12815E-01        -0.10038E-01         0.00000E+00
    0.12208E-01        -0.95005E-02         0.00000E+00
    0.11593E-01        -0.89639E-02         0.00000E+00
    0.10970E-01        -0.84282E-02         0.00000E+00
    0.10340E-01        -0.78933E-02         0.00000E+00
    0.97018E-02        -0.73593E-02         0.00000E+00
    0.90566E-02        -0.68263E-02         0.00000E+00
    0.84040E-02        -0.62943E-02         0.00000E+00
    0.77439E-02        -0.57633E-02         0.00000E+00
    0.70765E-02        -0.52333E-02         0.00000E+00
    0.64017E-02        -0.47044E-02         0.00000E+00
    0.57196E-02        -0.41767E-02         0.00000E+00
    0.50301E-02        -0.36501E-02         0.00000E+00
    0.43333E-02        -0.31247E-02         0.00000E+00
    0.36292E-02        -0.26006E-02         0.00000E+00
    0.29178E-02        -0.20778E-02         0.00000E+00
    0.21992E-02        -0.15562E-02         0.00000E+00
    0.14734E-02        -0.10361E-02         0.00000E+00
    0.74028E-03        -0.51731E-03         0.00000E+00
    0.00000E+00         0.00000E+00         0.00000E+00
    0.28382E-01        -0.28747E-01         0.00000E+00
    0.28013E-01        -0.28161E-01         0.00000E+00
    0.27635E-01        -0.27576E-01         0.00000E+00
    0.27249E-01        -0.26991E-01         0.00000E+00
    0.26854E-01        -0.26406E-01         0.00000E+00
    0.26450E-01        -0.25821E-01         0.00000E+00
    0.26038E-01        -0.25236E-01         0.00000E+00
    0.25618E-01        -0.24651E-01         0.00000E+00
    0.25189E-01        -0.24066E-01         0.00000E+00
    0.24751E-01        -0.23482E-01         0.00000E+00
    0.24305E-01        -0.22897E-01         0.00000E+00
    0.23851E-01        -0.22313E-01         0.00000E+00
    0.23389E-01        -0.21729E-01         0.00000E+00
    0.22918E-01        -0.21146E-01         0.00000E+00
    0.22440E-01        -0.20563E-01         0.00000E+00
    0.21953E-01        -0.19980E-01         0.00000E+00
    0.21457E-01        -0.19397E-01         0.00000E+00
    0.20954E-01        -0.18815E-01         0.00000E+00
    0.20443E-01        -0.18233E-01         0.00000E+00
    0.19924E-01        -0.17652E-01         0.00000E+00
    0.19397E-01        -0.17071E-01         0.00000E+00
    0.18861E-01        -0.16491E-01         0.00000E+00
    0.18318E-01        -0.15911E-01         0.00000E+00
    0.17767E-01        -0.15331E-01         0.00000E+00
    0.17208E-01        -0.14753E-01         0.00000E+00
    0.16642E-01        -0.14174E-01         0.00000E+00
    0.16067E-01        -0.13597E-01         0.00000E+00
    0.15485E-01        -0.13020E-01         0.00000E+00
    0.14895E-01        -0.12444E-01         0.00000E+00
    0.14298E-01        -0.11868E-01         0.00000E+00
    0.13692E-01        -0.11293E-01         0.00000E+00
    0.13079E-01        -0.10719E-01         0.00000E+00
    0.12458E-01        -0.10146E-01         0.00000E+00
    0.11830E-01        -0.95731E-02         0.00000E+00
    0.11194E-01        -0.90015E-02         0.00000E+00
    0.10551E-01        -0.84307E-02         0.00000E+00
    0.98997E-02        -0.78608E-02         0.00000E+00
    0.92411E-02        -0.72919E-02         0.00000E+00
    0.85749E-02        -0.67240E-02         0.00000E+00
    0.79013E-02        -0.61571E-02         0.00000E+00
    0.72202E-02        -0.55913E-02         0.00000E+00
    0.65316E-02        -0.50266E-02         0.00000E+00
    0.58355E-02        -0.44630E-02         0.00000E+00
    0.51320E-02        -0.39006E-02         0.00000E+00
    0.44210E-02        -0.33394E-02         0.00000E+00
    0.37027E-02        -0.27794E-02         0.00000E+00
    0.29769E-02        -0.22208E-02         0.00000E+00
    0.22437E-02        -0.16635E-02         0.00000E+00
    0.15032E-02        -0.11075E-02         0.00000E+00
    0.75527E-03        -0.55303E-03         0.00000E+00
    0.00000E+00         0.00000E+00         0.00000E+00
    0.29041E-01        -0.30600E-01         0.00000E+00
    0.28660E-01        -0.29977E-01         0.00000E+00
    0.28270E-01        -0.29355E-01         0.00000E+00
    0.27871E-01        -0.28733E-01         0.00000E+00
    0.27464E-01        -0.28111E-01         0.00000E+00
    0.27048E-01        -0.27488E-01         0.00000E+00
    0.26624E-01        -0.26867E-01         0.00000E+00
    0.26191E-01        -0.26245E-01         0.00000E+00
    0.25750E-01        -0.25623E-01         0.00000E+00
    0.25300E-01        -0.25002E-01         0.00000E+00
    0.24842E-01        -0.24380E-01         0.00000E+00
    0.24375E-01        -0.23759E-01         0.00000E+00
    0.23900E-01        -0.23138E-01         0.00000E+00
    0.23417E-01        -0.22518E-01         0.00000E+00
    0.22926E-01        -0.21898E-01         0.00000E+00
    0.22426E-01        -0.21278E-01         0.00000E+00
    0.21919E-01        -0.20658E-01         0.00000E+00
    0.21403E-01        -0.20039E-01         0.00000E+00
    0.20879E-01        -0.19420E-01         0.00000E+00
    0.20347E-01        -0.18802E-01         0.00000E+00
    0.19807E-01        -0.18184E-01         0.00000E+00
    0.19259E-01        -0.17566E-01         0.00000E+00
    0.18703E-01        -0.16950E-01         0.00000E+00
    0.18139E-01        -0.16333E-01         0.00000E+00
    0.17568E-01        -0.15717E-01         0.00000E+00
    0.16988E-01        -0.15102E-01         0.00000E+00
    0.16401E-01        -0.14487E-01         0.00000E+00
    0.15805E-01        -0.13873E-01         0.00000E+00
    0.15202E-01        -0.13260E-01         0.00000E+00
    0.14592E-01        -0.12647E-01         0.00000E+00
    0.13973E-01        -0.12035E-01         0.00000E+00
    0.13347E-01        -0.11424E-01         0.00000E+00
    0.12713E-01        -0.10814E-01         0.00000E+00
    0.12071E-01        -0.10204E-01         0.00000E+00
    0.11422E-01        -0.95953E-02         0.00000E+00
    0.10765E-01        -0.89874E-02         0.00000E+00
    0.10100E-01        -0.83805E-02         0.00000E+00
    0.94280E-02        -0.77745E-02         0.00000E+00
    0.87482E-02        -0.71694E-02         0.00000E+00
    0.80607E-02        -0.65654E-02         0.00000E+00
    0.73657E-02        -0.59625E-02         0.00000E+00
    0.66631E-02        -0.53606E-02         0.00000E+00
    0.59529E-02        -0.47599E-02         0.00000E+00
    0.52352E-02        -0.41604E-02         0.00000E+00
    0.45099E-02        -0.35620E-02         0.00000E+00
    0.37771E-02        -0.29650E-02         0.00000E+00
    0.30367E-02        -0.23692E-02         0.00000E+00
    0.22888E-02        -0.17748E-02         0.00000E+00
    0.15334E-02        -0.11817E-02         0.00000E+00
    0.77045E-03        -0.59012E-03         0.00000E+00
    0.00000E+00         0.00000E+00         0.00000E+00
    0.29716E-01        -0.32515E-01         0.00000E+00
    0.29322E-01        -0.31854E-01         0.00000E+00
    0.28920E-01        -0.31194E-01         0.00000E+00
    0.28508E-01        -0.30533E-01         0.00000E+00
    0.28088E-01        -0.29873E-01         0.00000E+00
    0.27660E-01        -0.29213E-01         0.00000E+00
    0.27222E-01        -0.28553E-01         0.00000E+00
    0.26777E-01        -0.27893E-01         0.00000E+00
    0.26322E-01        -0.27233E-01         0.00000E+00
    0.25860E-01        -0.26573E-01         0.00000E+00
    0.25388E-01        -0.25914E-01         0.00000E+00
    0.24909E-01        -0.25254E-01         0.00000E+00
    0.24421E-01        -0.24595E-01         0.00000E+00
    0.23925E-01        -0.23937E-01         0.00000E+00
    0.23421E-01        -0.23278E-01         0.00000E+00
    0.22908E-01        -0.22620E-01         0.00000E+00
    0.22387E-01        -0.21963E-01         0.00000E+00
    0.21858E-01        -0.21305E-01         0.00000E+00
    0.21321E-01        -0.20648E-01         0.00000E+00
    0.20776E-01        -0.19992E-01         0.00000E+00
    0.20223E-01        -0.19336E-01         0.00000E+00
    0.19662E-01        -0.18680E-01         0.00000E+00
    0.19093E-01        -0.18025E-01         0.00000E+00
    0.18516E-01        -0.17370E-01         0.00000E+00
    0.17931E-01        -0.16716E-01         0.00000E+00
    0.17338E-01        -0.16063E-01         0.00000E+00
    0.16738E-01        -0.15410E-01         0.00000E+00
    0.16129E-01        -0.14757E-01         0.00000E+00
    0.15513E-01        -0.14106E-01         0.00000E+00
    0.14889E-01        -0.13455E-01         0.00000E+00
    0.14257E-01        -0.12804E-01         0.00000E+00
    0.13617E-01        -0.12155E-01         0.00000E+00
    0.12969E-01        -0.11506E-01         0.00000E+00
    0.12314E-01        -0.10858E-01         0.00000E+00
    0.11651E-01        -0.10211E-01         0.00000E+00
    0.10981E-01        -0.95647E-02         0.00000E+00
    0.10302E-01        -0.89194E-02         0.00000E+00
    0.96162E-02        -0.82749E-02         0.00000E+00
    0.89225E-02        -0.76315E-02         0.00000E+00
    0.82211E-02        -0.69890E-02         0.00000E+00
    0.75121E-02        -0.63476E-02         0.00000E+00
    0.67953E-02        -0.57073E-02         0.00000E+00
    0.60709E-02        -0.50681E-02         0.00000E+00
    0.53389E-02        -0.44300E-02         0.00000E+00
    0.45992E-02        -0.37932E-02         0.00000E+00
    0.38518E-02        -0.31576E-02         0.00000E+00
    0.30967E-02        -0.25233E-02         0.00000E+00
    0.23341E-02        -0.18904E-02         0.00000E+00
    0.15637E-02        -0.12588E-02         0.00000E+00
    0.78568E-03        -0.62866E-03         0.00000E+00
    0.00000E+00         0.00000E+00         0.00000E+00
    0.30405E-01        -0.34494E-01         0.00000E+00
    0.29998E-01        -0.33795E-01         0.00000E+00
    0.29582E-01        -0.33095E-01         0.00000E+00
    0.29157E-01        -0.32395E-01         0.00000E+00
    0.28723E-01        -0.31696E-01         0.00000E+00
    0.28281E-01        -0.30996E-01         0.00000E+00
    0.27831E-01        -0.30297E-01         0.00000E+00
    0.27371E-01        -0.29597E-01         0.00000E+00
    0.26904E-01        -0.28898E-01         0.00000E+00
    0.26427E-01        -0.28199E-01         0.00000E+00
    0.25943E-01        -0.27500E-01         0.00000E+00
    0.25450E-01        -0.26802E-01         0.00000E+00
    0.24948E-01        -0.26103E-01         0.00000E+00
    0.24439E-01        -0.25405E-01         0.00000E+00
    0.23921E-01        -0.24708E-01         0.00000E+00
    0.23395E-01        -0.24010E-01         0.00000E+00
    0.22861E-01        -0.23313E-01         0.00000E+00
    0.22318E-01        -0.22616E-01         0.00000E+00
    0.21768E-01        -0.21920E-01         0.00000E+00
    0.21209E-01        -0.21224E-01         0.00000E+00
    0.20643E-01        -0.20528E-01         0.00000E+00
    0.20068E-01        -0.19833E-01         0.00000E+00
    0.19485E-01        -0.19139E-01         0.00000E+00
    0.18895E-01        -0.18445E-01         0.00000E+00
    0.18296E-01        -0.17751E-01         0.00000E+00
    0.17690E-01        -0.17058E-01         0.00000E+00
    0.17076E-01        -0.16365E-01         0.00000E+00
    0.16454E-01        -0.15674E-01         0.00000E+00
    0.15824E-01        -0.14982E-01         0.00000E+00
    0.15186E-01        -0.14292E-01         0.00000E+00
    0.14541E-01        -0.13602E-01         0.00000E+00
    0.13887E-01        -0.12913E-01         0.00000E+00
    0.13226E-01        -0.12224E-01         0.00000E+00
    0.12557E-01        -0.11537E-01         0.00000E+00
    0.11881E-01        -0.10850E-01         0.00000E+00
    0.11196E-01        -0.10164E-01         0.00000E+00
    0.10504E-01        -0.94786E-02         0.00000E+00
    0.98042E-02        -0.87944E-02         0.00000E+00
    0.90965E-02        -0.81112E-02         0.00000E+00
    0.83811E-02        -0.74289E-02         0.00000E+00
    0.76580E-02        -0.67476E-02         0.00000E+00
    0.69272E-02        -0.60674E-02         0.00000E+00
    0.61885E-02        -0.53882E-02         0.00000E+00
    0.54422E-02        -0.47103E-02         0.00000E+00
    0.46881E-02        -0.40335E-02         0.00000E+00
    0.39262E-02        -0.33579E-02         0.00000E+00
    0.31565E-02        -0.26836E-02         0.00000E+00
    0.23791E-02        -0.20106E-02         0.00000E+00
    0.15939E-02        -0.13390E-02         0.00000E+00
    0.80085E-03        -0.66875E-03         0.00000E+00
    0.00000E+00         0.00000E+00         0.00000E+00
    0.31104E-01        -0.36543E-01         0.00000E+00
    0.30683E-01        -0.35802E-01         0.00000E+00
    0.30253E-01        -0.35062E-01         0.00000E+00
    0.29815E-01        -0.34322E-01         0.00000E+00
    0.29367E-01        -0.33582E-01         0.00000E+00
    0.28911E-01        -0.32841E-01         0.00000E+00
    0.28446E-01        -0.32101E-01         0.00000E+00
    0.27973E-01        -0.31362E-01         0.00000E+00
    0.27491E-01        -0.30622E-01         0.00000E+00
    0.27001E-01        -0.29882E-01         0.00000E+00
    0.26502E-01        -0.29143E-01         0.00000E+00
    0.25995E-01        -0.28404E-01         0.00000E+00
    0.25480E-01        -0.27665E-01         0.00000E+00
    0.24956E-01        -0.26926E-01         0.00000E+00
    0.24424E-01        -0.26188E-01         0.00000E+00
    0.23884E-01        -0.25450E-01         0.00000E+00
    0.23336E-01        -0.24712E-01         0.00000E+00
    0.22780E-01        -0.23975E-01         0.00000E+00
    0.22215E-01        -0.23238E-01         0.00000E+00
    0.21643E-01        -0.22501E-01         0.00000E+00
    0.21062E-01        -0.21765E-01         0.00000E+00
    0.20474E-01        -0.21029E-01         0.00000E+00
    0.19878E-01        -0.20293E-01         0.00000E+00
    0.19273E-01        -0.19559E-01         0.00000E+00
    0.18661E-01        -0.18824E-01         0.00000E+00
    0.18041E-01        -0.18090E-01         0.00000E+00
    0.17413E-01        -0.17357E-01         0.00000E+00
    0.16777E-01        -0.16624E-01         0.00000E+00
    0.16133E-01        -0.15892E-01         0.00000E+00
    0.15482E-01        -0.15160E-01         0.00000E+00
    0.14823E-01        -0.14430E-01         0.00000E+00
    0.14156E-01        -0.13699E-01         0.00000E+00
    0.13481E-01        -0.12970E-01         0.00000E+00
    0.12798E-01        -0.12241E-01         0.00000E+00
    0.12108E-01        -0.11513E-01         0.00000E+00
    0.11410E-01        -0.10786E-01         0.00000E+00
    0.10704E-01        -0.10060E-01         0.00000E+00
    0.99900E-02        -0.93342E-02         0.00000E+00
    0.92685E-02        -0.86096E-02         0.00000E+00
    0.85393E-02        -0.78860E-02         0.00000E+00
    0.78022E-02        -0.71634E-02         0.00000E+00
    0.70573E-02        -0.64417E-02         0.00000E+00
    0.63046E-02        -0.57212E-02         0.00000E+00
    0.55441E-02        -0.50017E-02         0.00000E+00
    0.47758E-02        -0.42834E-02         0.00000E+00
    0.39995E-02        -0.35663E-02         0.00000E+00
    0.32155E-02        -0.28503E-02         0.00000E+00
    0.24235E-02        -0.21357E-02         0.00000E+00
    0.16236E-02        -0.14224E-02         0.00000E+00
    0.81578E-03        -0.71049E-03         0.00000E+00
    0.00000E+00         0.00000E+00         0.00000E+00
    0.31812E-01        -0.38663E-01         0.00000E+00
    0.31376E-01        -0.37881E-01         0.00000E+00
    0.30932E-01        -0.37099E-01         0.00000E+00
    0.30478E-01        -0.36317E-01         0.00000E+00
    0.30016E-01        -0.35534E-01         0.00000E+00
    0.29545E-01        -0.34753E-01         0.00000E+00
    0.29065E-01        -0.33971E-01         0.00000E+00
    0.28577E-01        -0.33189E-01         0.00000E+00
    0.28081E-01        -0.32407E-01         0.00000E+00
    0.27576E-01        -0.31626E-01         0.00000E+00
    0.27063E-01        -0.30845E-01         0.00000E+00
    0.26541E-01        -0.30064E-01         0.00000E+00
    0.26011E-01        -0.29283E-01         0.00000E+00
    0.25473E-01        -0.28502E-01         0.00000E+00
    0.24927E-01        -0.27722E-01         0.00000E+00
    0.24372E-01        -0.26942E-01         0.00000E+00
    0.23810E-01        -0.26162E-01         0.00000E+00
    0.23239E-01        -0.25383E-01         0.00000E+00
    0.22660E-01        -0.24604E-01         0.00000E+00
    0.22074E-01        -0.23825E-01         0.00000E+00
    0.21479E-01        -0.23047E-01         0.00000E+00
    0.20877E-01        -0.22269E-01         0.00000E+00
    0.20266E-01        -0.21491E-01         0.00000E+00
    0.19648E-01        -0.20714E-01         0.00000E+00
    0.19022E-01        -0.19938E-01         0.00000E+00
    0.18388E-01        -0.19162E-01         0.00000E+00
    0.17746E-01        -0.18386E-01         0.00000E+00
    0.17096E-01        -0.17611E-01         0.00000E+00
    0.16439E-01        -0.16837E-01         0.00000E+00
    0.15773E-01        -0.16063E-01         0.00000E+00
    0.15100E-01        -0.15289E-01         0.00000E+00
    0.14420E-01        -0.14517E-01         0.00000E+00
    0.13731E-01        -0.13745E-01         0.00000E+00
    0.13035E-01        -0.12973E-01         0.00000E+00
    0.12331E-01        -0.12203E-01         0.00000E+00
    0.11619E-01        -0.11433E-01         0.00000E+00
    0.10899E-01        -0.10664E-01         0.00000E+00
    0.10172E-01        -0.98955E-02         0.00000E+00
    0.94368E-02        -0.91281E-02         0.00000E+00
    0.86938E-02        -0.83616E-02         0.00000E+00
    0.79430E-02        -0.75960E-02         0.00000E+00
    0.71843E-02        -0.68314E-02         0.00000E+00
    0.64178E-02        -0.60678E-02         0.00000E+00
    0.56435E-02        -0.53052E-02         0.00000E+00
    0.48612E-02        -0.45437E-02         0.00000E+00
    0.40710E-02        -0.37833E-02         0.00000E+00
    0.32728E-02        -0.30241E-02         0.00000E+00
    0.24667E-02        -0.22661E-02         0.00000E+00
    0.16525E-02        -0.15094E-02         0.00000E+00
    0.83030E-03        -0.75401E-03         0.00000E+00
    0.00000E+00         0.00000E+00         0.00000E+00
    0.32525E-01        -0.40859E-01         0.00000E+00
    0.32074E-01        -0.40033E-01         0.00000E+00
    0.31613E-01        -0.39208E-01         0.00000E+00
    0.31144E-01        -0.38383E-01         0.00000E+00
    0.30667E-01        -0.37558E-01         0.00000E+00
    0.30180E-01        -0.36733E-01         0.00000E+00
    0.29685E-01        -0.35908E-01         0.00000E+00
    0.29182E-01        -0.35083E-01         0.00000E+00
    0.28670E-01        -0.34258E-01         0.00000E+00
    0.28150E-01        -0.33433E-01         0.00000E+00
    0.27621E-01        -0.32609E-01         0.00000E+00
    0.27085E-01        -0.31785E-01         0.00000E+00
    0.26540E-01        -0.30961E-01         0.00000E+00
    0.25986E-01        -0.30137E-01         0.00000E+00
    0.25425E-01        -0.29313E-01         0.00000E+00
    0.24856E-01        -0.28490E-01         0.00000E+00
    0.24278E-01        -0.27667E-01         0.00000E+00
    0.23693E-01        -0.26844E-01         0.00000E+00
    0.23100E-01        -0.26022E-01         0.00000E+00
    0.22499E-01        -0.25200E-01         0.00000E+00
    0.21890E-01        -0.24378E-01         0.00000E+00
    0.21273E-01        -0.23557E-01         0.00000E+00
    0.20648E-01        -0.22736E-01         0.00000E+00
    0.20015E-01        -0.21915E-01         0.00000E+00
    0.19375E-01        -0.21095E-01         0.00000E+00
    0.18727E-01        -0.20275E-01         0.00000E+00
    0.18071E-01        -0.19456E-01         0.00000E+00
    0.17407E-01        -0.18637E-01         0.00000E+00
    0.16736E-01        -0.17818E-01         0.00000E+00
    0.16057E-01        -0.17001E-01         0.00000E+00
    0.15370E-01        -0.16183E-01         0.00000E+00
    0.14676E-01        -0.15367E-01         0.00000E+00
    0.13974E-01        -0.14551E-01         0.00000E+00
    0.13264E-01        -0.13735E-01         0.00000E+00
    0.12547E-01        -0.12920E-01         0.00000E+00
    0.11821E-01        -0.12106E-01         0.00000E+00
    0.11088E-01        -0.11293E-01         0.00000E+00
    0.10348E-01        -0.10480E-01         0.00000E+00
    0.95991E-02        -0.96681E-02         0.00000E+00
    0.88427E-02        -0.88570E-02         0.00000E+00
    0.80786E-02        -0.80467E-02         0.00000E+00
    0.73066E-02        -0.72374E-02         0.00000E+00
    0.65267E-02        -0.64289E-02         0.00000E+00
    0.57390E-02        -0.56215E-02         0.00000E+00
    0.49433E-02        -0.48150E-02         0.00000E+00
    0.41396E-02        -0.40096E-02         0.00000E+00
    0.33279E-02        -0.32053E-02         0.00000E+00
    0.25081E-02        -0.24021E-02         0.00000E+00
    0.16802E-02        -0.16001E-02         0.00000E+00
    0.84421E-03        -0.79942E-03         0.00000E+00
    0.00000E+00         0.00000E+00         0.00000E+00
    0.33239E-01        -0.43134E-01         0.00000E+00
    0.32772E-01        -0.42265E-01         0.00000E+00
    0.32295E-01        -0.41395E-01         0.00000E+00
    0.31810E-01        -0.40525E-01         0.00000E+00
    0.31316E-01        -0.39656E-01         0.00000E+00
    0.30813E-01        -0.38786E-01         0.00000E+00
    0.30302E-01        -0.37916E-01         0.00000E+00
    0.29782E-01        -0.37047E-01         0.00000E+00
    0.29255E-01        -0.36178E-01         0.00000E+00
    0.28718E-01        -0.35309E-01         0.00000E+00
    0.28174E-01        -0.34440E-01         0.00000E+00
    0.27621E-01        -0.33571E-01         0.00000E+00
    0.27061E-01        -0.32702E-01         0.00000E+00
    0.26492E-01        -0.31834E-01         0.00000E+00
    0.25915E-01        -0.30966E-01         0.00000E+00
    0.25331E-01        -0.30098E-01         0.00000E+00
    0.24738E-01        -0.29230E-01         0.00000E+00
    0.24138E-01        -0.28362E-01         0.00000E+00
    0.23529E-01        -0.27495E-01         0.00000E+00
    0.22913E-01        -0.26628E-01         0.00000E+00
    0.22289E-01        -0.25761E-01         0.00000E+00
    0.21658E-01        -0.24895E-01         0.00000E+00
    0.21019E-01        -0.24029E-01         0.00000E+00
    0.20372E-01        -0.23163E-01         0.00000E+00
    0.19717E-01        -0.22298E-01         0.00000E+00
    0.19055E-01        -0.21433E-01         0.00000E+00
    0.18385E-01        -0.20568E-01         0.00000E+00
    0.17708E-01        -0.19704E-01         0.00000E+00
    0.17022E-01        -0.18840E-01         0.00000E+00
    0.16330E-01        -0.17977E-01         0.00000E+00
    0.15630E-01        -0.17114E-01         0.00000E+00
    0.14922E-01        -0.16252E-01         0.00000E+00
    0.14206E-01        -0.15390E-01         0.00000E+00
    0.13483E-01        -0.14528E-01         0.00000E+00
    0.12753E-01        -0.13668E-01         0.00000E+00
    0.12014E-01        -0.12808E-01         0.00000E+00
    0.11268E-01        -0.11948E-01         0.00000E+00
    0.10514E-01        -0.11089E-01         0.00000E+00
    0.97531E-02        -0.10231E-01         0.00000E+00
    0.89839E-02        -0.93736E-02         0.00000E+00
    0.82070E-02        -0.85169E-02         0.00000E+00
    0.74222E-02        -0.76610E-02         0.00000E+00
    0.66296E-02        -0.68059E-02         0.00000E+00
    0.58291E-02        -0.59516E-02         0.00000E+00
    0.50206E-02        -0.50983E-02         0.00000E+00
    0.42042E-02        -0.42459E-02         0.00000E+00
    0.33797E-02        -0.33945E-02         0.00000E+00
    0.25470E-02        -0.25442E-02         0.00000E+00
    0.17063E-02        -0.16950E-02         0.00000E+00
    0.85728E-03        -0.84689E-03         0.00000E+00
    0.00000E+00         0.00000E+00         0.00000E+00
    0.33952E-01        -0.45495E-01         0.00000E+00
    0.33467E-01        -0.44579E-01         0.00000E+00
    0.32973E-01        -0.43663E-01         0.00000E+00
    0.32470E-01        -0.42748E-01         0.00000E+00
    0.31959E-01        -0.41832E-01         0.00000E+00
    0.31439E-01        -0.40917E-01         0.00000E+00
    0.30911E-01        -0.40002E-01         0.00000E+00
    0.30375E-01        -0.39086E-01         0.00000E+00
    0.29830E-01        -0.38171E-01         0.00000E+00
    0.29277E-01        -0.37256E-01         0.00000E+00
    0.28716E-01        -0.36341E-01         0.00000E+00
    0.28147E-01        -0.35426E-01         0.00000E+00
    0.27570E-01        -0.34512E-01         0.00000E+00
    0.26985E-01        -0.33597E-01         0.00000E+00
    0.26392E-01        -0.32683E-01         0.00000E+00
    0.25792E-01        -0.31768E-01         0.00000E+00
    0.25184E-01        -0.30854E-01         0.00000E+00
    0.24568E-01        -0.29941E-01         0.00000E+00
    0.23944E-01        -0.29027E-01         0.00000E+00
    0.23313E-01        -0.28114E-01         0.00000E+00
    0.22674E-01        -0.27200E-01         0.00000E+00
    0.22028E-01        -0.26288E-01         0.00000E+00
    0.21374E-01        -0.25375E-01         0.00000E+00
    0.20712E-01        -0.24462E-01         0.00000E+00
    0.20044E-01        -0.23550E-01         0.00000E+00
    0.19367E-01        -0.22639E-01         0.00000E+00
    0.18683E-01        -0.21727E-01         0.00000E+00
    0.17992E-01        -0.20816E-01         0.00000E+00
    0.17294E-01        -0.19905E-01         0.00000E+00
    0.16588E-01        -0.18994E-01         0.00000E+00
    0.15874E-01        -0.18084E-01         0.00000E+00
    0.15153E-01        -0.17174E-01         0.00000E+00
    0.14425E-01        -0.16265E-01         0.00000E+00
    0.13689E-01        -0.15356E-01         0.00000E+00
    0.12945E-01        -0.14448E-01         0.00000E+00
    0.12194E-01        -0.13540E-01         0.00000E+00
    0.11436E-01        -0.12632E-01         0.00000E+00
    0.10670E-01        -0.11725E-01         0.00000E+00
    0.98962E-02        -0.10819E-01         0.00000E+00
    0.91148E-02        -0.99132E-02         0.00000E+00
    0.83258E-02        -0.90080E-02         0.00000E+00
    0.75291E-02        -0.81036E-02         0.00000E+00
    0.67245E-02        -0.71998E-02         0.00000E+00
    0.59121E-02        -0.62968E-02         0.00000E+00
    0.50918E-02        -0.53945E-02         0.00000E+00
    0.42635E-02        -0.44931E-02         0.00000E+00
    0.34272E-02        -0.35925E-02         0.00000E+00
    0.25828E-02        -0.26929E-02         0.00000E+00
    0.17301E-02        -0.17942E-02         0.00000E+00
    0.86923E-03        -0.89658E-03         0.00000E+00
    0.00000E+00         0.00000E+00         0.00000E+00
    0.34659E-01        -0.47945E-01         0.00000E+00
    0.34155E-01        -0.46982E-01         0.00000E+00
    0.33642E-01        -0.46019E-01         0.00000E+00
    0.33121E-01        -0.45056E-01         0.00000E+00
    0.32592E-01        -0.44094E-01         0.00000E+00
    0.32054E-01        -0.43131E-01         0.00000E+00
    0.31508E-01        -0.42168E-01         0.00000E+00
    0.30953E-01        -0.41206E-01         0.00000E+00
    0.30391E-01        -0.40243E-01         0.00000E+00
    0.29821E-01        -0.39281E-01         0.00000E+00
    0.29242E-01        -0.38318E-01         0.00000E+00
    0.28656E-01        -0.37356E-01         0.00000E+00
    0.28062E-01        -0.36394E-01         0.00000E+00
    0.27461E-01        -0.35432E-01         0.00000E+00
    0.26852E-01        -0.34470E-01         0.00000E+00
    0.26235E-01        -0.33508E-01         0.00000E+00
    0.25610E-01        -0.32546E-01         0.00000E+00
    0.24979E-01        -0.31584E-01         0.00000E+00
    0.24339E-01        -0.30623E-01         0.00000E+00
    0.23693E-01        -0.29661E-01         0.00000E+00
    0.23039E-01        -0.28700E-01         0.00000E+00
    0.22377E-01        -0.27739E-01         0.00000E+00
    0.21709E-01        -0.26778E-01         0.00000E+00
    0.21033E-01        -0.25817E-01         0.00000E+00
    0.20350E-01        -0.24857E-01         0.00000E+00
    0.19659E-01        -0.23896E-01         0.00000E+00
    0.18962E-01        -0.22936E-01         0.00000E+00
    0.18257E-01        -0.21976E-01         0.00000E+00
    0.17545E-01        -0.21016E-01         0.00000E+00
    0.16826E-01        -0.20057E-01         0.00000E+00
    0.16099E-01        -0.19097E-01         0.00000E+00
    0.15366E-01        -0.18138E-01         0.00000E+00
    0.14625E-01        -0.17179E-01         0.00000E+00
    0.13877E-01        -0.16221E-01         0.00000E+00
    0.13121E-01        -0.15263E-01         0.00000E+00
    0.12358E-01        -0.14305E-01         0.00000E+00
    0.11588E-01        -0.13348E-01         0.00000E+00
    0.10810E-01        -0.12390E-01         0.00000E+00
    0.10025E-01        -0.11434E-01         0.00000E+00
    0.92327E-02        -0.10478E-01         0.00000E+00
    0.84325E-02        -0.95221E-02         0.00000E+00
    0.76248E-02        -0.85669E-02         0.00000E+00
    0.68093E-02        -0.76123E-02         0.00000E+00
    0.59862E-02        -0.66582E-02         0.00000E+00
    0.51551E-02        -0.57048E-02         0.00000E+00
    0.43162E-02        -0.47521E-02         0.00000E+00
    0.34693E-02        -0.38001E-02         0.00000E+00
    0.26143E-02        -0.28488E-02         0.00000E+00
    0.17512E-02        -0.18983E-02         0.00000E+00
    0.87977E-03        -0.94870E-03         0.00000E+00
    0.00000E+00         0.00000E+00         0.00000E+00
    0.35355E-01        -0.50492E-01         0.00000E+00
    0.34831E-01        -0.49480E-01         0.00000E+00
    0.34299E-01        -0.48469E-01         0.00000E+00
    0.33758E-01        -0.47457E-01         0.00000E+00
    0.33209E-01        -0.46446E-01         0.00000E+00
    0.32652E-01        -0.45434E-01         0.00000E+00
    0.32087E-01        -0.44423E-01         0.00000E+00
    0.31514E-01        -0.43411E-01         0.00000E+00
    0.30933E-01        -0.42400E-01         0.00000E+00
    0.30344E-01        -0.41389E-01         0.00000E+00
    0.29747E-01        -0.40377E-01         0.00000E+00
    0.29143E-01        -0.39366E-01         0.00000E+00
    0.28532E-01        -0.38355E-01         0.00000E+00
    0.27913E-01        -0.37343E-01         0.00000E+00
    0.27287E-01        -0.36332E-01         0.00000E+00
    0.26653E-01        -0.35321E-01         0.00000E+00
    0.26012E-01        -0.34310E-01         0.00000E+00
    0.25364E-01        -0.33299E-01         0.00000E+00
    0.24709E-01        -0.32287E-01         0.00000E+00
    0.24047E-01        -0.31276E-01         0.00000E+00
    0.23377E-01        -0.30265E-01         0.00000E+00
    0.22701E-01        -0.29254E-01         0.00000E+00
    0.22018E-01        -0.28243E-01         0.00000E+00
    0.21327E-01        -0.27232E-01         0.00000E+00
    0.20630E-01        -0.26221E-01         0.00000E+00
    0.19926E-01        -0.25210E-01         0.00000E+00
    0.19215E-01        -0.24200E-01         0.00000E+00
    0.18497E-01        -0.23189E-01         0.00000E+00
    0.17772E-01        -0.22178E-01         0.00000E+00
    0.17040E-01        -0.21168E-01         0.00000E+00
    0.16301E-01        -0.20157E-01         0.00000E+00
    0.15555E-01        -0.19147E-01         0.00000E+00
    0.14802E-01        -0.18136E-01         0.00000E+00
    0.14043E-01        -0.17126E-01         0.00000E+00
    0.13276E-01        -0.16116E-01         0.00000E+00
    0.12502E-01        -0.15107E-01         0.00000E+00
    0.11721E-01        -0.14097E-01         0.00000E+00
    0.10932E-01        -0.13088E-01         0.00000E+00
    0.10137E-01        -0.12079E-01         0.00000E+00
    0.93342E-02        -0.11070E-01         0.00000E+00
    0.85241E-02        -0.10061E-01         0.00000E+00
    0.77066E-02        -0.90529E-02         0.00000E+00
    0.68816E-02        -0.80451E-02         0.00000E+00
    0.60490E-02        -0.70376E-02         0.00000E+00
    0.52087E-02        -0.60306E-02         0.00000E+00
    0.43606E-02        -0.50241E-02         0.00000E+00
    0.35047E-02        -0.40180E-02         0.00000E+00
    0.26408E-02        -0.30126E-02         0.00000E+00
    0.17688E-02        -0.20077E-02         0.00000E+00
    0.88855E-03        -0.10035E-02         0.00000E+00
    0.00000E+00         0.00000E+00         0.00000E+00
    0.36035E-01        -0.53143E-01         0.00000E+00
    0.35490E-01        -0.52081E-01         0.00000E+00
    0.34936E-01        -0.51019E-01         0.00000E+00
    0.34375E-01        -0.49958E-01         0.00000E+00
    0.33805E-01        -0.48896E-01         0.00000E+00
    0.33227E-01        -0.47834E-01         0.00000E+00
    0.32642E-01        -0.46773E-01         0.00000E+00
    0.32049E-01        -0.45711E-01         0.00000E+00
    0.31448E-01        -0.44649E-01         0.00000E+00
    0.30840E-01        -0.43587E-01         0.00000E+00
    0.30224E-01        -0.42525E-01         0.00000E+00
    0.29602E-01        -0.41464E-01         0.00000E+00
    0.28972E-01        -0.40402E-01         0.00000E+00
    0.28335E-01        -0.39340E-01         0.00000E+00
    0.27691E-01        -0.38277E-01         0.00000E+00
    0.27040E-01        -0.37215E-01         0.00000E+00
    0.26383E-01        -0.36153E-01         0.00000E+00
    0.25718E-01        -0.35090E-01         0.00000E+00
    0.25047E-01        -0.34028E-01         0.00000E+00
    0.24369E-01        -0.32965E-01         0.00000E+00
    0.23684E-01        -0.31903E-01         0.00000E+00
    0.22993E-01        -0.30840E-01         0.00000E+00
    0.22295E-01        -0.29777E-01         0.00000E+00
    0.21590E-01        -0.28714E-01         0.00000E+00
    0.20879E-01        -0.27650E-01         0.00000E+00
    0.20161E-01        -0.26587E-01         0.00000E+00
    0.19437E-01        -0.25524E-01         0.00000E+00
    0.18706E-01        -0.24460E-01         0.00000E+00
    0.17968E-01        -0.23396E-01         0.00000E+00
    0.17224E-01        -0.22332E-01         0.00000E+00
    0.16474E-01        -0.21269E-01         0.00000E+00
    0.15716E-01        -0.20205E-01         0.00000E+00
    0.14952E-01        -0.19141E-01         0.00000E+00
    0.14182E-01        -0.18077E-01         0.00000E+00
    0.13405E-01        -0.17012E-01         0.00000E+00
    0.12621E-01        -0.15948E-01         0.00000E+00
    0.11830E-01        -0.14884E-01         0.00000E+00
    0.11032E-01        -0.13820E-01         0.00000E+00
    0.10228E-01        -0.12756E-01         0.00000E+00
    0.94160E-02        -0.11692E-01         0.00000E+00
    0.85974E-02        -0.10628E-01         0.00000E+00
    0.77716E-02        -0.95641E-02         0.00000E+00
    0.69385E-02        -0.85004E-02         0.00000E+00
    0.60981E-02        -0.74369E-02         0.00000E+00
    0.52503E-02        -0.63735E-02         0.00000E+00
    0.43949E-02        -0.53104E-02         0.00000E+00
    0.35318E-02        -0.42476E-02         0.00000E+00
    0.26609E-02        -0.31851E-02         0.00000E+00
    0.17821E-02        -0.21230E-02         0.00000E+00
    0.89516E-03        -0.10612E-02         0.00000E+00
    0.00000E+00         0.00000E+00         0.00000E+00
    0.36694E-01        -0.55906E-01         0.00000E+00
    0.36125E-01        -0.54793E-01         0.00000E+00
    0.35549E-01        -0.53680E-01         0.00000E+00
    0.34964E-01        -0.52566E-01         0.00000E+00
    0.34372E-01        -0.51453E-01         0.00000E+00
    0.33773E-01        -0.50340E-01         0.00000E+00
    0.33165E-01        -0.49226E-01         0.00000E+00
    0.32551E-01        -0.48113E-01         0.00000E+00
    0.31930E-01        -0.46999E-01         0.00000E+00
    0.31301E-01        -0.45885E-01         0.00000E+00
    0.30666E-01        -0.44771E-01         0.00000E+00
    0.30024E-01        -0.43657E-01         0.00000E+00
    0.29375E-01        -0.42543E-01         0.00000E+00
    0.28720E-01        -0.41428E-01         0.00000E+00
    0.28058E-01        -0.40314E-01         0.00000E+00
    0.27389E-01        -0.39199E-01         0.00000E+00
    0.26714E-01        -0.38083E-01         0.00000E+00
    0.26033E-01        -0.36968E-01         0.00000E+00
    0.25345E-01        -0.35852E-01         0.00000E+00
    0.24651E-01        -0.34736E-01         0.00000E+00
    0.23951E-01        -0.33620E-01         0.00000E+00
    0.23245E-01        -0.32503E-01         0.00000E+00
    0.22532E-01        -0.31386E-01         0.00000E+00
    0.21814E-01        -0.30269E-01         0.00000E+00
    0.21089E-01        -0.29151E-01         0.00000E+00
    0.20358E-01        -0.28033E-01         0.00000E+00
    0.19621E-01        -0.26915E-01         0.00000E+00
    0.18878E-01        -0.25796E-01         0.00000E+00
    0.18129E-01        -0.24677E-01         0.00000E+00
    0.17373E-01        -0.23558E-01         0.00000E+00
    0.16612E-01        -0.22438E-01         0.00000E+00
    0.15844E-01        -0.21318E-01         0.00000E+00
    0.15070E-01        -0.20198E-01         0.00000E+00
    0.14290E-01        -0.19077E-01         0.00000E+00
    0.13503E-01        -0.17956E-01         0.00000E+00
    0.12710E-01        -0.16835E-01         0.00000E+00
    0.11911E-01        -0.15714E-01         0.00000E+00
    0.11105E-01        -0.14592E-01         0.00000E+00
    0.10293E-01        -0.13470E-01         0.00000E+00
    0.94740E-02        -0.12348E-01         0.00000E+00
    0.86485E-02        -0.11226E-01         0.00000E+00
    0.78162E-02        -0.10103E-01         0.00000E+00
    0.69770E-02        -0.89810E-02         0.00000E+00
    0.61308E-02        -0.78583E-02         0.00000E+00
    0.52774E-02        -0.67357E-02         0.00000E+00
    0.44169E-02        -0.56129E-02         0.00000E+00
    0.35489E-02        -0.44902E-02         0.00000E+00
    0.26734E-02        -0.33675E-02         0.00000E+00
    0.17902E-02        -0.22448E-02         0.00000E+00
    0.89913E-03        -0.11223E-02         0.00000E+00
    0.00000E+00         0.00000E+00         0.00000E+00
    0.37324E-01        -0.58793E-01         0.00000E+00
    0.36730E-01        -0.57626E-01         0.00000E+00
    0.36128E-01        -0.56460E-01         0.00000E+00
    0.35519E-01        -0.55294E-01         0.00000E+00
    0.34903E-01        -0.54127E-01         0.00000E+00
    0.34279E-01        -0.52961E-01         0.00000E+00
    0.33649E-01        -0.51794E-01         0.00000E+00
    0.33013E-01        -0.50627E-01         0.00000E+00
    0.32369E-01        -0.49460E-01         0.00000E+00
    0.31720E-01        -0.48293E-01         0.00000E+00
    0.31063E-01        -0.47125E-01         0.00000E+00
    0.30401E-01        -0.45957E-01         0.00000E+00
    0.29733E-01        -0.44788E-01         0.00000E+00
    0.29058E-01        -0.43620E-01         0.00000E+00
    0.28377E-01        -0.42451E-01         0.00000E+00
    0.27691E-01        -0.41281E-01         0.00000E+00
    0.26998E-01        -0.40111E-01         0.00000E+00
    0.26300E-01        -0.38940E-01         0.00000E+00
    0.25596E-01        -0.37769E-01         0.00000E+00
    0.24887E-01        -0.36598E-01         0.00000E+00
    0.24171E-01        -0.35426E-01         0.00000E+00
    0.23450E-01        -0.34253E-01         0.00000E+00
    0.22724E-01        -0.33080E-01         0.00000E+00
    0.21992E-01        -0.31906E-01         0.00000E+00
    0.21254E-01        -0.30732E-01         0.00000E+00
    0.20510E-01        -0.29557E-01         0.00000E+00
    0.19761E-01        -0.28381E-01         0.00000E+00
    0.19007E-01        -0.27205E-01         0.00000E+00
    0.18246E-01        -0.26028E-01         0.00000E+00
    0.17480E-01        -0.24850E-01         0.00000E+00
    0.16709E-01        -0.23672E-01         0.00000E+00
    0.15932E-01        -0.22493E-01         0.00000E+00
    0.15149E-01        -0.21314E-01         0.00000E+00
    0.14360E-01        -0.20134E-01         0.00000E+00
    0.13565E-01        -0.18954E-01         0.00000E+00
    0.12765E-01        -0.17773E-01         0.00000E+00
    0.11959E-01        -0.16591E-01         0.00000E+00
    0.11146E-01        -0.15409E-01         0.00000E+00
    0.10328E-01        -0.14226E-01         0.00000E+00
    0.95039E-02        -0.13043E-01         0.00000E+00
    0.86734E-02        -0.11859E-01         0.00000E+00
    0.78365E-02        -0.10675E-01         0.00000E+00
    0.69933E-02        -0.94903E-02         0.00000E+00
    0.61436E-02        -0.83052E-02         0.00000E+00
    0.52872E-02        -0.71197E-02         0.00000E+00
    0.44240E-02        -0.59338E-02         0.00000E+00
    0.35539E-02        -0.47476E-02         0.00000E+00
    0.26766E-02        -0.35611E-02         0.00000E+00
    0.17920E-02        -0.23743E-02         0.00000E+00
    0.89989E-03        -0.11872E-02         0.00000E+00
    0.00000E+00         0.00000E+00         0.00000E+00
    0.37915E-01        -0.61814E-01         0.00000E+00
    0.37293E-01        -0.60593E-01         0.00000E+00
    0.36664E-01        -0.59372E-01         0.00000E+00
    0.36028E-01        -0.58152E-01         0.00000E+00
    0.35386E-01        -0.56930E-01         0.00000E+00
    0.34738E-01        -0.55709E-01         0.00000E+00
    0.34083E-01        -0.54488E-01         0.00000E+00
    0.33423E-01        -0.53266E-01         0.00000E+00
    0.32756E-01        -0.52043E-01         0.00000E+00
    0.32084E-01        -0.50821E-01         0.00000E+00
    0.31406E-01        -0.49598E-01         0.00000E+00
    0.30723E-01        -0.48374E-01         0.00000E+00
    0.30034E-01        -0.47150E-01         0.00000E+00
    0.29340E-01        -0.45925E-01         0.00000E+00
    0.28641E-01        -0.44700E-01         0.00000E+00
    0.27936E-01        -0.43474E-01         0.00000E+00
    0.27226E-01        -0.42247E-01         0.00000E+00
    0.26511E-01        -0.41019E-01         0.00000E+00
    0.25791E-01        -0.39791E-01         0.00000E+00
    0.25066E-01        -0.38562E-01         0.00000E+00
    0.24336E-01        -0.37332E-01         0.00000E+00
    0.23601E-01        -0.36101E-01         0.00000E+00
    0.22860E-01        -0.34869E-01         0.00000E+00
    0.22115E-01        -0.33637E-01         0.00000E+00
    0.21365E-01        -0.32403E-01         0.00000E+00
    0.20610E-01        -0.31169E-01         0.00000E+00
    0.19850E-01        -0.29933E-01         0.00000E+00
    0.19085E-01        -0.28697E-01         0.00000E+00
    0.18314E-01        -0.27459E-01         0.00000E+00
    0.17539E-01        -0.26221E-01         0.00000E+00
    0.16759E-01        -0.24981E-01         0.00000E+00
    0.15973E-01        -0.23741E-01         0.00000E+00
    0.15183E-01        -0.22500E-01         0.00000E+00
    0.14387E-01        -0.21257E-01         0.00000E+00
    0.13586E-01        -0.20014E-01         0.00000E+00
    0.12780E-01        -0.18769E-01         0.00000E+00
    0.11968E-01        -0.17524E-01         0.00000E+00
    0.11151E-01        -0.16278E-01         0.00000E+00
    0.10329E-01        -0.15031E-01         0.00000E+00
    0.95009E-02        -0.13783E-01         0.00000E+00
    0.86674E-02        -0.12534E-01         0.00000E+00
    0.78283E-02        -0.11284E-01         0.00000E+00
    0.69835E-02        -0.10033E-01         0.00000E+00
    0.61327E-02        -0.87818E-02         0.00000E+00
    0.52760E-02        -0.75295E-02         0.00000E+00
    0.44132E-02        -0.62764E-02         0.00000E+00
    0.35441E-02        -0.50226E-02         0.00000E+00
    0.26684E-02        -0.37680E-02         0.00000E+00
    0.17860E-02        -0.25126E-02         0.00000E+00
    0.89653E-03        -0.12566E-02         0.00000E+00
    0.00000E+00         0.00000E+00         0.00000E+00
    0.38455E-01        -0.64983E-01         0.00000E+00
    0.37803E-01        -0.63706E-01         0.00000E+00
    0.37144E-01        -0.62430E-01         0.00000E+00
    0.36480E-01        -0.61152E-01         0.00000E+00
    0.35810E-01        -0.59875E-01         0.00000E+00
    0.35135E-01        -0.58598E-01         0.00000E+00
    0.34455E-01        -0.57320E-01         0.00000E+00
    0.33769E-01        -0.56041E-01         0.00000E+00
    0.33079E-01        -0.54762E-01         0.00000E+00
    0.32383E-01        -0.53483E-01         0.00000E+00
    0.31683E-01        -0.52203E-01         0.00000E+00
    0.30978E-01        -0.50922E-01         0.00000E+00
    0.30269E-01        -0.49640E-01         0.00000E+00
    0.29555E-01        -0.48358E-01         0.00000E+00
    0.28836E-01        -0.47074E-01         0.00000E+00
    0.28114E-01        -0.45790E-01         0.00000E+00
    0.27386E-01        -0.44504E-01         0.00000E+00
    0.26655E-01        -0.43218E-01         0.00000E+00
    0.25919E-01        -0.41930E-01         0.00000E+00
    0.25179E-01        -0.40641E-01         0.00000E+00
    0.24435E-01        -0.39351E-01         0.00000E+00
    0.23686E-01        -0.38060E-01         0.00000E+00
    0.22933E-01        -0.36768E-01         0.00000E+00
    0.22176E-01        -0.35474E-01         0.00000E+00
    0.21414E-01        -0.34179E-01         0.00000E+00
    0.20648E-01        -0.32882E-01         0.00000E+00
    0.19878E-01        -0.31584E-01         0.00000E+00
    0.19104E-01        -0.30285E-01         0.00000E+00
    0.18325E-01        -0.28984E-01         0.00000E+00
    0.17542E-01        -0.27682E-01         0.00000E+00
    0.16754E-01        -0.26378E-01         0.00000E+00
    0.15962E-01        -0.25073E-01         0.00000E+00
    0.15166E-01        -0.23766E-01         0.00000E+00
    0.14364E-01        -0.22458E-01         0.00000E+00
    0.13559E-01        -0.21149E-01         0.00000E+00
    0.12748E-01        -0.19837E-01         0.00000E+00
    0.11933E-01        -0.18525E-01         0.00000E+00
    0.11114E-01        -0.17211E-01         0.00000E+00
    0.10289E-01        -0.15895E-01         0.00000E+00
    0.94601E-02        -0.14578E-01         0.00000E+00
    0.86260E-02        -0.13259E-01         0.00000E+00
    0.77869E-02        -0.11939E-01         0.00000E+00
    0.69430E-02        -0.10618E-01         0.00000E+00
    0.60939E-02        -0.92953E-02         0.00000E+00
    0.52398E-02        -0.79712E-02         0.00000E+00
    0.43803E-02        -0.66458E-02         0.00000E+00
    0.35156E-02        -0.53192E-02         0.00000E+00
    0.26456E-02        -0.39914E-02         0.00000E+00
    0.17700E-02        -0.26624E-02         0.00000E+00
    0.88855E-03        -0.13319E-02         0.00000E+00
    0.00000E+00         0.00000E+00         0.00000E+00
    0.38930E-01        -0.68314E-01         0.00000E+00
    0.38245E-01        -0.66979E-01         0.00000E+00
    0.37554E-01        -0.65645E-01         0.00000E+00
    0.36859E-01        -0.64310E-01         0.00000E+00
    0.36160E-01        -0.62976E-01         0.00000E+00
    0.35456E-01        -0.61640E-01         0.00000E+00
    0.34749E-01        -0.60304E-01         0.00000E+00
    0.34037E-01        -0.58968E-01         0.00000E+00
    0.33321E-01        -0.57631E-01         0.00000E+00
    0.32602E-01        -0.56293E-01         0.00000E+00
    0.31879E-01        -0.54954E-01         0.00000E+00
    0.31152E-01        -0.53614E-01         0.00000E+00
    0.30422E-01        -0.52273E-01         0.00000E+00
    0.29688E-01        -0.50931E-01         0.00000E+00
    0.28951E-01        -0.49588E-01         0.00000E+00
    0.28210E-01        -0.48243E-01         0.00000E+00
    0.27466E-01        -0.46897E-01         0.00000E+00
    0.26719E-01        -0.45550E-01         0.00000E+00
    0.25968E-01        -0.44201E-01         0.00000E+00
    0.25214E-01        -0.42851E-01         0.00000E+00
    0.24456E-01        -0.41499E-01         0.00000E+00
    0.23695E-01        -0.40145E-01         0.00000E+00
    0.22931E-01        -0.38789E-01         0.00000E+00
    0.22163E-01        -0.37432E-01         0.00000E+00
    0.21391E-01        -0.36073E-01         0.00000E+00
    0.20616E-01        -0.34712E-01         0.00000E+00
    0.19838E-01        -0.33350E-01         0.00000E+00
    0.19055E-01        -0.31985E-01         0.00000E+00
    0.18270E-01        -0.30618E-01         0.00000E+00
    0.17480E-01        -0.29250E-01         0.00000E+00
    0.16687E-01        -0.27879E-01         0.00000E+00
    0.15890E-01        -0.26506E-01         0.00000E+00
    0.15090E-01        -0.25131E-01         0.00000E+00
    0.14285E-01        -0.23754E-01         0.00000E+00
    0.13477E-01        -0.22375E-01         0.00000E+00
    0.12665E-01        -0.20994E-01         0.00000E+00
    0.11849E-01        -0.19610E-01         0.00000E+00
    0.11028E-01        -0.18225E-01         0.00000E+00
    0.10204E-01        -0.16837E-01         0.00000E+00
    0.93761E-02        -0.15446E-01         0.00000E+00
    0.85438E-02        -0.14054E-01         0.00000E+00
    0.77074E-02        -0.12659E-01         0.00000E+00
    0.68669E-02        -0.11262E-01         0.00000E+00
    0.60225E-02        -0.98621E-02         0.00000E+00
    0.51741E-02        -0.84602E-02         0.00000E+00
    0.43218E-02        -0.70556E-02         0.00000E+00
    0.34655E-02        -0.56484E-02         0.00000E+00
    0.26047E-02        -0.42385E-02         0.00000E+00
    0.17394E-02        -0.28269E-02         0.00000E+00
    0.87023E-03        -0.14142E-02         0.00000E+00
    0.00000E+00         0.00000E+00         0.00000E+00
    0.39322E-01        -0.71819E-01         0.00000E+00
    0.38600E-01        -0.70426E-01         0.00000E+00
    0.37876E-01        -0.69033E-01         0.00000E+00
    0.37148E-01        -0.67639E-01         0.00000E+00
    0.36418E-01        -0.66245E-01         0.00000E+00
    0.35684E-01        -0.64851E-01         0.00000E+00
    0.34948E-01        -0.63455E-01         0.00000E+00
    0.34209E-01        -0.62059E-01         0.00000E+00
    0.33468E-01        -0.60662E-01         0.00000E+00
    0.32724E-01        -0.59264E-01         0.00000E+00
    0.31978E-01        -0.57865E-01         0.00000E+00
    0.31230E-01        -0.56465E-01         0.00000E+00
    0.30479E-01        -0.55063E-01         0.00000E+00
    0.29725E-01        -0.53660E-01         0.00000E+00
    0.28970E-01        -0.52255E-01         0.00000E+00
    0.28212E-01        -0.50849E-01         0.00000E+00
    0.27452E-01        -0.49441E-01         0.00000E+00
    0.26689E-01        -0.48031E-01         0.00000E+00
    0.25925E-01        -0.46619E-01         0.00000E+00
    0.25157E-01        -0.45205E-01         0.00000E+00
    0.24388E-01        -0.43789E-01         0.00000E+00
    0.23615E-01        -0.42371E-01         0.00000E+00
    0.22841E-01        -0.40951E-01         0.00000E+00
    0.22064E-01        -0.39528E-01         0.00000E+00
    0.21284E-01        -0.38104E-01         0.00000E+00
    0.20502E-01        -0.36676E-01         0.00000E+00
    0.19716E-01        -0.35247E-01         0.00000E+00
    0.18929E-01        -0.33815E-01         0.00000E+00
    0.18138E-01        -0.32380E-01         0.00000E+00
    0.17344E-01        -0.30943E-01         0.00000E+00
    0.16548E-01        -0.29503E-01         0.00000E+00
    0.15748E-01        -0.28061E-01         0.00000E+00
    0.14946E-01        -0.26615E-01         0.00000E+00
    0.14140E-01        -0.25167E-01         0.00000E+00
    0.13332E-01        -0.23716E-01         0.00000E+00
    0.12520E-01        -0.22263E-01         0.00000E+00
    0.11705E-01        -0.20806E-01         0.00000E+00
    0.10886E-01        -0.19346E-01         0.00000E+00
    0.10065E-01        -0.17883E-01         0.00000E+00
    0.92404E-02        -0.16417E-01         0.00000E+00
    0.84128E-02        -0.14948E-01         0.00000E+00
    0.75821E-02        -0.13475E-01         0.00000E+00
    0.67482E-02        -0.11998E-01         0.00000E+00
    0.59107E-02        -0.10518E-01         0.00000E+00
    0.50697E-02        -0.90345E-02         0.00000E+00
    0.42252E-02        -0.75482E-02         0.00000E+00
    0.33788E-02        -0.60589E-02         0.00000E+00
    0.25328E-02        -0.45657E-02         0.00000E+00
    0.16875E-02        -0.30627E-02         0.00000E+00
    0.84284E-03        -0.15423E-02         0.00000E+00
    0.00000E+00         0.00000E+00         0.00000E+00
    0.39606E-01        -0.75513E-01         0.00000E+00
    0.38847E-01        -0.74060E-01         0.00000E+00
    0.38087E-01        -0.72606E-01         0.00000E+00
    0.37325E-01        -0.71152E-01         0.00000E+00
    0.36562E-01        -0.69697E-01         0.00000E+00
    0.35797E-01        -0.68242E-01         0.00000E+00
    0.35032E-01        -0.66786E-01         0.00000E+00
    0.34266E-01        -0.65329E-01         0.00000E+00
    0.33499E-01        -0.63871E-01         0.00000E+00
    0.32730E-01        -0.62411E-01         0.00000E+00
    0.31961E-01        -0.60950E-01         0.00000E+00
    0.31191E-01        -0.59488E-01         0.00000E+00
    0.30420E-01        -0.58024E-01         0.00000E+00
    0.29648E-01        -0.56558E-01         0.00000E+00
    0.28875E-01        -0.55090E-01         0.00000E+00
    0.28101E-01        -0.53620E-01         0.00000E+00
    0.27326E-01        -0.52149E-01         0.00000E+00
    0.26550E-01        -0.50674E-01         0.00000E+00
    0.25773E-01        -0.49198E-01         0.00000E+00
    0.24994E-01        -0.47719E-01         0.00000E+00
    0.24214E-01        -0.46238E-01         0.00000E+00
    0.23433E-01        -0.44754E-01         0.00000E+00
    0.22650E-01        -0.43268E-01         0.00000E+00
    0.21865E-01        -0.41778E-01         0.00000E+00
    0.21079E-01        -0.40286E-01         0.00000E+00
    0.20291E-01        -0.38791E-01         0.00000E+00
    0.19502E-01        -0.37294E-01         0.00000E+00
    0.18710E-01        -0.35793E-01         0.00000E+00
    0.17916E-01        -0.34289E-01         0.00000E+00
    0.17121E-01        -0.32782E-01         0.00000E+00
    0.16323E-01        -0.31271E-01         0.00000E+00
    0.15523E-01        -0.29758E-01         0.00000E+00
    0.14721E-01        -0.28241E-01         0.00000E+00
    0.13917E-01        -0.26721E-01         0.00000E+00
    0.13110E-01        -0.25197E-01         0.00000E+00
    0.12301E-01        -0.23670E-01         0.00000E+00
    0.11489E-01        -0.22139E-01         0.00000E+00
    0.10675E-01        -0.20604E-01         0.00000E+00
    0.98588E-02        -0.19065E-01         0.00000E+00
    0.90395E-02        -0.17523E-01         0.00000E+00
    0.82172E-02        -0.15977E-01         0.00000E+00
    0.73918E-02        -0.14428E-01         0.00000E+00
    0.65647E-02        -0.12876E-01         0.00000E+00
    0.57379E-02        -0.11320E-01         0.00000E+00
    0.49109E-02        -0.97557E-02         0.00000E+00
    0.40855E-02        -0.81784E-02         0.00000E+00
    0.32611E-02        -0.65822E-02         0.00000E+00
    0.24408E-02        -0.49666E-02         0.00000E+00
    0.16247E-02        -0.33303E-02         0.00000E+00
    0.81164E-03        -0.16744E-02         0.00000E+00
    0.00000E+00         0.00000E+00         0.00000E+00
    0.39758E-01        -0.79406E-01         0.00000E+00
    0.38959E-01        -0.77891E-01         0.00000E+00
    0.38161E-01        -0.76376E-01         0.00000E+00
    0.37364E-01        -0.74860E-01         0.00000E+00
    0.36567E-01        -0.73343E-01         0.00000E+00
    0.35772E-01        -0.71826E-01         0.00000E+00
    0.34977E-01        -0.70307E-01         0.00000E+00
    0.34183E-01        -0.68788E-01         0.00000E+00
    0.33390E-01        -0.67267E-01         0.00000E+00
    0.32598E-01        -0.65745E-01         0.00000E+00
    0.31807E-01        -0.64221E-01         0.00000E+00
    0.31016E-01        -0.62695E-01         0.00000E+00
    0.30226E-01        -0.61167E-01         0.00000E+00
    0.29437E-01        -0.59637E-01         0.00000E+00
    0.28648E-01        -0.58105E-01         0.00000E+00
    0.27859E-01        -0.56570E-01         0.00000E+00
    0.27071E-01        -0.55033E-01         0.00000E+00
    0.26283E-01        -0.53494E-01         0.00000E+00
    0.25495E-01        -0.51951E-01         0.00000E+00
    0.24707E-01        -0.50406E-01         0.00000E+00
    0.23919E-01        -0.48858E-01         0.00000E+00
    0.23130E-01        -0.47307E-01         0.00000E+00
    0.22341E-01        -0.45753E-01         0.00000E+00
    0.21552E-01        -0.44196E-01         0.00000E+00
    0.20761E-01        -0.42636E-01         0.00000E+00
    0.19970E-01        -0.41072E-01         0.00000E+00
    0.19178E-01        -0.39505E-01         0.00000E+00
    0.18385E-01        -0.37934E-01         0.00000E+00
    0.17591E-01        -0.36360E-01         0.00000E+00
    0.16796E-01        -0.34782E-01         0.00000E+00
    0.15999E-01        -0.33201E-01         0.00000E+00
    0.15201E-01        -0.31616E-01         0.00000E+00
    0.14402E-01        -0.30027E-01         0.00000E+00
    0.13600E-01        -0.28434E-01         0.00000E+00
    0.12797E-01        -0.26837E-01         0.00000E+00
    0.11992E-01        -0.25236E-01         0.00000E+00
    0.11184E-01        -0.23632E-01         0.00000E+00
    0.10374E-01        -0.22025E-01         0.00000E+00
    0.95639E-02        -0.20414E-01         0.00000E+00
    0.87538E-02        -0.18799E-01         0.00000E+00
    0.79441E-02        -0.17175E-01         0.00000E+00
    0.71361E-02        -0.15537E-01         0.00000E+00
    0.63302E-02        -0.13883E-01         0.00000E+00
    0.55288E-02        -0.12211E-01         0.00000E+00
    0.47325E-02        -0.10520E-01         0.00000E+00
    0.39404E-02        -0.88105E-02         0.00000E+00
    0.31517E-02        -0.70824E-02         0.00000E+00
    0.23645E-02        -0.53365E-02         0.00000E+00
    0.15776E-02        -0.35737E-02         0.00000E+00
    0.78967E-03        -0.17947E-02         0.00000E+00
    0.00000E+00         0.00000E+00         0.00000E+00
    0.39744E-01        -0.83506E-01         0.00000E+00
    0.38905E-01        -0.81928E-01         0.00000E+00
    0.38069E-01        -0.80349E-01         0.00000E+00
    0.37236E-01        -0.78770E-01         0.00000E+00
    0.36406E-01        -0.77190E-01         0.00000E+00
    0.35579E-01        -0.75610E-01         0.00000E+00
    0.34756E-01        -0.74028E-01         0.00000E+00
    0.33935E-01        -0.72444E-01         0.00000E+00
    0.33118E-01        -0.70859E-01         0.00000E+00
    0.32303E-01        -0.69273E-01         0.00000E+00
    0.31491E-01        -0.67684E-01         0.00000E+00
    0.30681E-01        -0.66094E-01         0.00000E+00
    0.29874E-01        -0.64501E-01         0.00000E+00
    0.29069E-01        -0.62905E-01         0.00000E+00
    0.28267E-01        -0.61308E-01         0.00000E+00
    0.27466E-01        -0.59707E-01         0.00000E+00
    0.26667E-01        -0.58104E-01         0.00000E+00
    0.25869E-01        -0.56497E-01         0.00000E+00
    0.25073E-01        -0.54888E-01         0.00000E+00
    0.24278E-01        -0.53275E-01         0.00000E+00
    0.23484E-01        -0.51660E-01         0.00000E+00
    0.22691E-01        -0.50040E-01         0.00000E+00
    0.21898E-01        -0.48418E-01         0.00000E+00
    0.21106E-01        -0.46792E-01         0.00000E+00
    0.20314E-01        -0.45162E-01         0.00000E+00
    0.19523E-01        -0.43528E-01         0.00000E+00
    0.18731E-01        -0.41891E-01         0.00000E+00
    0.17940E-01        -0.40250E-01         0.00000E+00
    0.17147E-01        -0.38605E-01         0.00000E+00
    0.16354E-01        -0.36956E-01         0.00000E+00
    0.15560E-01        -0.35303E-01         0.00000E+00
    0.14764E-01        -0.33647E-01         0.00000E+00
    0.13968E-01        -0.31987E-01         0.00000E+00
    0.13172E-01        -0.30324E-01         0.00000E+00
    0.12376E-01        -0.28656E-01         0.00000E+00
    0.11581E-01        -0.26981E-01         0.00000E+00
    0.10788E-01        -0.25295E-01         0.00000E+00
    0.99976E-02        -0.23595E-01         0.00000E+00
    0.92106E-02        -0.21880E-01         0.00000E+00
    0.84291E-02        -0.20148E-01         0.00000E+00
    0.76532E-02        -0.18399E-01         0.00000E+00
    0.68822E-02        -0.16632E-01         0.00000E+00
    0.61154E-02        -0.14847E-01         0.00000E+00
    0.53513E-02        -0.13046E-01         0.00000E+00
    0.45890E-02        -0.11228E-01         0.00000E+00
    0.38276E-02        -0.93940E-02         0.00000E+00
    0.30661E-02        -0.75446E-02         0.00000E+00
    0.23037E-02        -0.56803E-02         0.00000E+00
    0.15394E-02        -0.38011E-02         0.00000E+00
    0.77191E-03        -0.19076E-02         0.00000E+00
    0.00000E+00         0.00000E+00         0.00000E+00
    0.39530E-01        -0.87817E-01         0.00000E+00
    0.38650E-01        -0.86174E-01         0.00000E+00
    0.37776E-01        -0.84531E-01         0.00000E+00
    0.36908E-01        -0.82887E-01         0.00000E+00
    0.36046E-01        -0.81243E-01         0.00000E+00
    0.35189E-01        -0.79597E-01         0.00000E+00
    0.34339E-01        -0.77950E-01         0.00000E+00
    0.33493E-01        -0.76302E-01         0.00000E+00
    0.32653E-01        -0.74652E-01         0.00000E+00
    0.31818E-01        -0.73000E-01         0.00000E+00
    0.30987E-01        -0.71345E-01         0.00000E+00
    0.30161E-01        -0.69689E-01         0.00000E+00
    0.29340E-01        -0.68029E-01         0.00000E+00
    0.28522E-01        -0.66367E-01         0.00000E+00
    0.27709E-01        -0.64702E-01         0.00000E+00
    0.26898E-01        -0.63035E-01         0.00000E+00
    0.26092E-01        -0.61364E-01         0.00000E+00
    0.25288E-01        -0.59689E-01         0.00000E+00
    0.24487E-01        -0.58012E-01         0.00000E+00
    0.23688E-01        -0.56331E-01         0.00000E+00
    0.22892E-01        -0.54646E-01         0.00000E+00
    0.22098E-01        -0.52958E-01         0.00000E+00
    0.21305E-01        -0.51265E-01         0.00000E+00
    0.20513E-01        -0.49569E-01         0.00000E+00
    0.19722E-01        -0.47869E-01         0.00000E+00
    0.18932E-01        -0.46166E-01         0.00000E+00
    0.18143E-01        -0.44459E-01         0.00000E+00
    0.17355E-01        -0.42748E-01         0.00000E+00
    0.16568E-01        -0.41033E-01         0.00000E+00
    0.15782E-01        -0.39313E-01         0.00000E+00
    0.14999E-01        -0.37585E-01         0.00000E+00
    0.14219E-01        -0.35846E-01         0.00000E+00
    0.13442E-01        -0.34095E-01         0.00000E+00
    0.12669E-01        -0.32331E-01         0.00000E+00
    0.11902E-01        -0.30553E-01         0.00000E+00
    0.11141E-01        -0.28759E-01         0.00000E+00
    0.10386E-01        -0.26948E-01         0.00000E+00
    0.96357E-02        -0.25122E-01         0.00000E+00
    0.88902E-02        -0.23280E-01         0.00000E+00
    0.81482E-02        -0.21421E-01         0.00000E+00
    0.74093E-02        -0.19547E-01         0.00000E+00
    0.66725E-02        -0.17657E-01         0.00000E+00
    0.59372E-02        -0.15752E-01         0.00000E+00
    0.52026E-02        -0.13832E-01         0.00000E+00
    0.44677E-02        -0.11898E-01         0.00000E+00
    0.37317E-02        -0.99489E-02         0.00000E+00
    0.29935E-02        -0.79860E-02         0.00000E+00
    0.22522E-02        -0.60093E-02         0.00000E+00
    0.15069E-02        -0.40191E-02         0.00000E+00
    0.75678E-03        -0.20159E-02         0.00000E+00
    0.00000E+00         0.00000E+00         0.00000E+00
    0.39077E-01        -0.92336E-01         0.00000E+00
    0.38157E-01        -0.90628E-01         0.00000E+00
    0.37246E-01        -0.88919E-01         0.00000E+00
    0.36344E-01        -0.87209E-01         0.00000E+00
    0.35452E-01        -0.85499E-01         0.00000E+00
    0.34567E-01        -0.83788E-01         0.00000E+00
    0.33692E-01        -0.82074E-01         0.00000E+00
    0.32824E-01        -0.80360E-01         0.00000E+00
    0.31965E-01        -0.78643E-01         0.00000E+00
    0.31112E-01        -0.76924E-01         0.00000E+00
    0.30267E-01        -0.75202E-01         0.00000E+00
    0.29429E-01        -0.73478E-01         0.00000E+00
    0.28598E-01        -0.71751E-01         0.00000E+00
    0.27772E-01        -0.70021E-01         0.00000E+00
    0.26952E-01        -0.68288E-01         0.00000E+00
    0.26137E-01        -0.66551E-01         0.00000E+00
    0.25326E-01        -0.64811E-01         0.00000E+00
    0.24519E-01        -0.63067E-01         0.00000E+00
    0.23716E-01        -0.61320E-01         0.00000E+00
    0.22917E-01        -0.59569E-01         0.00000E+00
    0.22123E-01        -0.57815E-01         0.00000E+00
    0.21331E-01        -0.56057E-01         0.00000E+00
    0.20544E-01        -0.54295E-01         0.00000E+00
    0.19759E-01        -0.52528E-01         0.00000E+00
    0.18979E-01        -0.50755E-01         0.00000E+00
    0.18202E-01        -0.48971E-01         0.00000E+00
    0.17430E-01        -0.47177E-01         0.00000E+00
    0.16663E-01        -0.45373E-01         0.00000E+00
    0.15902E-01        -0.43557E-01         0.00000E+00
    0.15147E-01        -0.41728E-01         0.00000E+00
    0.14399E-01        -0.39886E-01         0.00000E+00
    0.13658E-01        -0.38029E-01         0.00000E+00
    0.12922E-01        -0.36158E-01         0.00000E+00
    0.12192E-01        -0.34272E-01         0.00000E+00
    0.11467E-01        -0.32371E-01         0.00000E+00
    0.10746E-01        -0.30454E-01         0.00000E+00
    0.10030E-01        -0.28522E-01         0.00000E+00
    0.93164E-02        -0.26576E-01         0.00000E+00
    0.86059E-02        -0.24615E-01         0.00000E+00
    0.78975E-02        -0.22639E-01         0.00000E+00
    0.71903E-02        -0.20649E-01         0.00000E+00
    0.64835E-02        -0.18645E-01         0.00000E+00
    0.57763E-02        -0.16626E-01         0.00000E+00
    0.50680E-02        -0.14594E-01         0.00000E+00
    0.43577E-02        -0.12548E-01         0.00000E+00
    0.36446E-02        -0.10488E-01         0.00000E+00
    0.29278E-02        -0.84155E-02         0.00000E+00
    0.22060E-02        -0.63301E-02         0.00000E+00
    0.14781E-02        -0.42322E-02         0.00000E+00
    0.74299E-03        -0.21220E-02         0.00000E+00
    0.00000E+00         0.00000E+00         0.00000E+00
    0.38340E-01        -0.97061E-01         0.00000E+00
    0.37381E-01        -0.95285E-01         0.00000E+00
    0.36435E-01        -0.93510E-01         0.00000E+00
    0.35503E-01        -0.91733E-01         0.00000E+00
    0.34584E-01        -0.89955E-01         0.00000E+00
    0.33676E-01        -0.88175E-01         0.00000E+00
    0.32780E-01        -0.86394E-01         0.00000E+00
    0.31895E-01        -0.84610E-01         0.00000E+00
    0.31021E-01        -0.82824E-01         0.00000E+00
    0.30157E-01        -0.81036E-01         0.00000E+00
    0.29302E-01        -0.79244E-01         0.00000E+00
    0.28457E-01        -0.77450E-01         0.00000E+00
    0.27621E-01        -0.75653E-01         0.00000E+00
    0.26792E-01        -0.73853E-01         0.00000E+00
    0.25972E-01        -0.72051E-01         0.00000E+00
    0.25159E-01        -0.70245E-01         0.00000E+00
    0.24352E-01        -0.68434E-01         0.00000E+00
    0.23553E-01        -0.66617E-01         0.00000E+00
    0.22761E-01        -0.64792E-01         0.00000E+00
    0.21976E-01        -0.62960E-01         0.00000E+00
    0.21197E-01        -0.61120E-01         0.00000E+00
    0.20426E-01        -0.59271E-01         0.00000E+00
    0.19663E-01        -0.57414E-01         0.00000E+00
    0.18907E-01        -0.55545E-01         0.00000E+00
    0.18160E-01        -0.53665E-01         0.00000E+00
    0.17420E-01        -0.51773E-01         0.00000E+00
    0.16688E-01        -0.49868E-01         0.00000E+00
    0.15963E-01        -0.47951E-01         0.00000E+00
    0.15244E-01        -0.46019E-01         0.00000E+00
    0.14532E-01        -0.44073E-01         0.00000E+00
    0.13826E-01        -0.42113E-01         0.00000E+00
    0.13126E-01        -0.40140E-01         0.00000E+00
    0.12431E-01        -0.38151E-01         0.00000E+00
    0.11741E-01        -0.36148E-01         0.00000E+00
    0.11054E-01        -0.34131E-01         0.00000E+00
    0.10371E-01        -0.32100E-01         0.00000E+00
    0.96907E-02        -0.30054E-01         0.00000E+00
    0.90122E-02        -0.27994E-01         0.00000E+00
    0.83349E-02        -0.25920E-01         0.00000E+00
    0.76581E-02        -0.23831E-01         0.00000E+00
    0.69811E-02        -0.21729E-01         0.00000E+00
    0.63031E-02        -0.19614E-01         0.00000E+00
    0.56232E-02        -0.17485E-01         0.00000E+00
    0.49405E-02        -0.15342E-01         0.00000E+00
    0.42539E-02        -0.13187E-01         0.00000E+00
    0.35625E-02        -0.11019E-01         0.00000E+00
    0.28655E-02        -0.88385E-02         0.00000E+00
    0.21621E-02        -0.66460E-02         0.00000E+00
    0.14512E-02        -0.44419E-02         0.00000E+00
    0.73082E-03        -0.22265E-02         0.00000E+00
    0.00000E+00         0.00000E+00         0.00000E+00
    0.37282E-01        -0.10200E+00         0.00000E+00
    0.36284E-01        -0.10015E+00         0.00000E+00
    0.35307E-01        -0.98298E-01         0.00000E+00
    0.34349E-01        -0.96448E-01         0.00000E+00
    0.33408E-01        -0.94598E-01         0.00000E+00
    0.32485E-01        -0.92746E-01         0.00000E+00
    0.31577E-01        -0.90892E-01         0.00000E+00
    0.30684E-01        -0.89035E-01         0.00000E+00
    0.29805E-01        -0.87175E-01         0.00000E+00
    0.28939E-01        -0.85311E-01         0.00000E+00
    0.28087E-01        -0.83442E-01         0.00000E+00
    0.27246E-01        -0.81569E-01         0.00000E+00
    0.26417E-01        -0.79691E-01         0.00000E+00
    0.25600E-01        -0.77808E-01         0.00000E+00
    0.24795E-01        -0.75918E-01         0.00000E+00
    0.24001E-01        -0.74021E-01         0.00000E+00
    0.23218E-01        -0.72117E-01         0.00000E+00
    0.22447E-01        -0.70204E-01         0.00000E+00
    0.21686E-01        -0.68281E-01         0.00000E+00
    0.20935E-01        -0.66349E-01         0.00000E+00
    0.20193E-01        -0.64407E-01         0.00000E+00
    0.19461E-01        -0.62452E-01         0.00000E+00
    0.18739E-01        -0.60486E-01         0.00000E+00
    0.18026E-01        -0.58508E-01         0.00000E+00
    0.17321E-01        -0.56518E-01         0.00000E+00
    0.16624E-01        -0.54514E-01         0.00000E+00
    0.15936E-01        -0.52497E-01         0.00000E+00
    0.15255E-01        -0.50467E-01         0.00000E+00
    0.14580E-01        -0.48423E-01         0.00000E+00
    0.13912E-01        -0.46365E-01         0.00000E+00
    0.13249E-01        -0.44293E-01         0.00000E+00
    0.12591E-01        -0.42207E-01         0.00000E+00
    0.11938E-01        -0.40106E-01         0.00000E+00
    0.11288E-01        -0.37992E-01         0.00000E+00
    0.10640E-01        -0.35863E-01         0.00000E+00
    0.99953E-02        -0.33720E-01         0.00000E+00
    0.93517E-02        -0.31563E-01         0.00000E+00
    0.87088E-02        -0.29392E-01         0.00000E+00
    0.80656E-02        -0.27207E-01         0.00000E+00
    0.74214E-02        -0.25008E-01         0.00000E+00
    0.67752E-02        -0.22796E-01         0.00000E+00
    0.61262E-02        -0.20571E-01         0.00000E+00
    0.54735E-02        -0.18333E-01         0.00000E+00
    0.48164E-02        -0.16082E-01         0.00000E+00
    0.41538E-02        -0.13819E-01         0.00000E+00
    0.34846E-02        -0.11544E-01         0.00000E+00
    0.28077E-02        -0.92575E-02         0.00000E+00
    0.21219E-02        -0.69593E-02         0.00000E+00
    0.14260E-02        -0.46500E-02         0.00000E+00
    0.71880E-03        -0.23301E-02         0.00000E+00
    0.00000E+00         0.00000E+00         0.00000E+00
    0.35842E-01        -0.10712E+00         0.00000E+00
    0.34823E-01        -0.10518E+00         0.00000E+00
    0.33831E-01        -0.10324E+00         0.00000E+00
    0.32862E-01        -0.10131E+00         0.00000E+00
    0.31916E-01        -0.99371E-01         0.00000E+00
    0.30992E-01        -0.97432E-01         0.00000E+00
    0.30087E-01        -0.95490E-01         0.00000E+00
    0.29202E-01        -0.93544E-01         0.00000E+00
    0.28335E-01        -0.91595E-01         0.00000E+00
    0.27485E-01        -0.89640E-01         0.00000E+00
    0.26652E-01        -0.87680E-01         0.00000E+00
    0.25835E-01        -0.85714E-01         0.00000E+00
    0.25033E-01        -0.83741E-01         0.00000E+00
    0.24246E-01        -0.81760E-01         0.00000E+00
    0.23473E-01        -0.79771E-01         0.00000E+00
    0.22715E-01        -0.77773E-01         0.00000E+00
    0.21969E-01        -0.75766E-01         0.00000E+00
    0.21237E-01        -0.73749E-01         0.00000E+00
    0.20517E-01        -0.71722E-01         0.00000E+00
    0.19809E-01        -0.69684E-01         0.00000E+00
    0.19113E-01        -0.67635E-01         0.00000E+00
    0.18427E-01        -0.65574E-01         0.00000E+00
    0.17752E-01        -0.63500E-01         0.00000E+00
    0.17087E-01        -0.61414E-01         0.00000E+00
    0.16430E-01        -0.59315E-01         0.00000E+00
    0.15782E-01        -0.57203E-01         0.00000E+00
    0.15141E-01        -0.55077E-01         0.00000E+00
    0.14508E-01        -0.52938E-01         0.00000E+00
    0.13881E-01        -0.50785E-01         0.00000E+00
    0.13260E-01        -0.48617E-01         0.00000E+00
    0.12644E-01        -0.46436E-01         0.00000E+00
    0.12031E-01        -0.44241E-01         0.00000E+00
    0.11422E-01        -0.42031E-01         0.00000E+00
    0.10816E-01        -0.39807E-01         0.00000E+00
    0.10211E-01        -0.37569E-01         0.00000E+00
    0.96073E-02        -0.35317E-01         0.00000E+00
    0.90032E-02        -0.33051E-01         0.00000E+00
    0.83982E-02        -0.30771E-01         0.00000E+00
    0.77913E-02        -0.28478E-01         0.00000E+00
    0.71818E-02        -0.26171E-01         0.00000E+00
    0.65686E-02        -0.23851E-01         0.00000E+00
    0.59507E-02        -0.21518E-01         0.00000E+00
    0.53271E-02        -0.19173E-01         0.00000E+00
    0.46964E-02        -0.16815E-01         0.00000E+00
    0.40576E-02        -0.14445E-01         0.00000E+00
    0.34097E-02        -0.12064E-01         0.00000E+00
    0.27521E-02        -0.96711E-02         0.00000E+00
    0.20837E-02        -0.72681E-02         0.00000E+00
    0.14034E-02        -0.48549E-02         0.00000E+00
    0.70945E-03        -0.24320E-02         0.00000E+00
    0.00000E+00         0.00000E+00         0.00000E+00
    0.33979E-01        -0.11226E+00         0.00000E+00
    0.32972E-01        -0.11023E+00         0.00000E+00
    0.31993E-01        -0.10821E+00         0.00000E+00
    0.31039E-01        -0.10618E+00         0.00000E+00
    0.30110E-01        -0.10415E+00         0.00000E+00
    0.29205E-01        -0.10212E+00         0.00000E+00
    0.28322E-01        -0.10008E+00         0.00000E+00
    0.27462E-01        -0.98034E-01         0.00000E+00
    0.26624E-01        -0.95986E-01         0.00000E+00
    0.25805E-01        -0.93932E-01         0.00000E+00
    0.25006E-01        -0.91872E-01         0.00000E+00
    0.24226E-01        -0.89804E-01         0.00000E+00
    0.23463E-01        -0.87729E-01         0.00000E+00
    0.22718E-01        -0.85646E-01         0.00000E+00
    0.21989E-01        -0.83554E-01         0.00000E+00
    0.21276E-01        -0.81453E-01         0.00000E+00
    0.20579E-01        -0.79342E-01         0.00000E+00
    0.19895E-01        -0.77220E-01         0.00000E+00
    0.19226E-01        -0.75088E-01         0.00000E+00
    0.18569E-01        -0.72944E-01         0.00000E+00
    0.17925E-01        -0.70789E-01         0.00000E+00
    0.17292E-01        -0.68622E-01         0.00000E+00
    0.16670E-01        -0.66443E-01         0.00000E+00
    0.16059E-01        -0.64251E-01         0.00000E+00
    0.15456E-01        -0.62046E-01         0.00000E+00
    0.14862E-01        -0.59828E-01         0.00000E+00
    0.14276E-01        -0.57597E-01         0.00000E+00
    0.13696E-01        -0.55352E-01         0.00000E+00
    0.13122E-01        -0.53093E-01         0.00000E+00
    0.12554E-01        -0.50820E-01         0.00000E+00
    0.11989E-01        -0.48533E-01         0.00000E+00
    0.11428E-01        -0.46232E-01         0.00000E+00
    0.10869E-01        -0.43916E-01         0.00000E+00
    0.10311E-01        -0.41587E-01         0.00000E+00
    0.97536E-02        -0.39243E-01         0.00000E+00
    0.91954E-02        -0.36885E-01         0.00000E+00
    0.86356E-02        -0.34513E-01         0.00000E+00
    0.80730E-02        -0.32127E-01         0.00000E+00
    0.75066E-02        -0.29728E-01         0.00000E+00
    0.69351E-02        -0.27315E-01         0.00000E+00
    0.63574E-02        -0.24889E-01         0.00000E+00
    0.57726E-02        -0.22450E-01         0.00000E+00
    0.51797E-02        -0.19999E-01         0.00000E+00
    0.45777E-02        -0.17537E-01         0.00000E+00
    0.39655E-02        -0.15062E-01         0.00000E+00
    0.33415E-02        -0.12577E-01         0.00000E+00
    0.27042E-02        -0.10080E-01         0.00000E+00
    0.20527E-02        -0.75741E-02         0.00000E+00
    0.13856E-02        -0.50582E-02         0.00000E+00
    0.70184E-03        -0.25334E-02         0.00000E+00
    0.00000E+00         0.00000E+00         0.00000E+00
    0.31675E-01        -0.11728E+00         0.00000E+00
    0.30703E-01        -0.11517E+00         0.00000E+00
    0.29759E-01        -0.11306E+00         0.00000E+00
    0.28842E-01        -0.11094E+00         0.00000E+00
    0.27952E-01        -0.10881E+00         0.00000E+00
    0.27087E-01        -0.10668E+00         0.00000E+00
    0.26247E-01        -0.10455E+00         0.00000E+00
    0.25430E-01        -0.10241E+00         0.00000E+00
    0.24636E-01        -0.10026E+00         0.00000E+00
    0.23864E-01        -0.98105E-01         0.00000E+00
    0.23114E-01        -0.95944E-01         0.00000E+00
    0.22384E-01        -0.93775E-01         0.00000E+00
    0.21673E-01        -0.91597E-01         0.00000E+00
    0.20981E-01        -0.89412E-01         0.00000E+00
    0.20307E-01        -0.87217E-01         0.00000E+00
    0.19650E-01        -0.85012E-01         0.00000E+00
    0.19010E-01        -0.82798E-01         0.00000E+00
    0.18385E-01        -0.80573E-01         0.00000E+00
    0.17774E-01        -0.78337E-01         0.00000E+00
    0.17177E-01        -0.76091E-01         0.00000E+00
    0.16593E-01        -0.73833E-01         0.00000E+00
    0.16021E-01        -0.71563E-01         0.00000E+00
    0.15460E-01        -0.69281E-01         0.00000E+00
    0.14909E-01        -0.66987E-01         0.00000E+00
    0.14368E-01        -0.64680E-01         0.00000E+00
    0.13835E-01        -0.62360E-01         0.00000E+00
    0.13309E-01        -0.60027E-01         0.00000E+00
    0.12790E-01        -0.57681E-01         0.00000E+00
    0.12277E-01        -0.55321E-01         0.00000E+00
    0.11767E-01        -0.52947E-01         0.00000E+00
    0.11262E-01        -0.50559E-01         0.00000E+00
    0.10758E-01        -0.48157E-01         0.00000E+00
    0.10256E-01        -0.45741E-01         0.00000E+00
    0.97533E-02        -0.43311E-01         0.00000E+00
    0.92498E-02        -0.40866E-01         0.00000E+00
    0.87439E-02        -0.38407E-01         0.00000E+00
    0.82342E-02        -0.35934E-01         0.00000E+00
    0.77196E-02        -0.33447E-01         0.00000E+00
    0.71990E-02        -0.30946E-01         0.00000E+00
    0.66711E-02        -0.28431E-01         0.00000E+00
    0.61349E-02        -0.25903E-01         0.00000E+00
    0.55885E-02        -0.23362E-01         0.00000E+00
    0.50306E-02        -0.20809E-01         0.00000E+00
    0.44600E-02        -0.18243E-01         0.00000E+00
    0.38755E-02        -0.15666E-01         0.00000E+00
    0.32757E-02        -0.13079E-01         0.00000E+00
    0.26591E-02        -0.10481E-01         0.00000E+00
    0.20240E-02        -0.78731E-02         0.00000E+00
    0.13698E-02        -0.52568E-02         0.00000E+00
    0.69542E-03        -0.26322E-02         0.00000E+00
    0.00000E+00         0.00000E+00         0.00000E+00
    0.28909E-01        -0.12209E+00         0.00000E+00
    0.27990E-01        -0.11989E+00         0.00000E+00
    0.27101E-01        -0.11769E+00         0.00000E+00
    0.26240E-01        -0.11547E+00         0.00000E+00
    0.25406E-01        -0.11326E+00         0.00000E+00
    0.24599E-01        -0.11104E+00         0.00000E+00
    0.23818E-01        -0.10881E+00         0.00000E+00
    0.23062E-01        -0.10657E+00         0.00000E+00
    0.22330E-01        -0.10433E+00         0.00000E+00
    0.21621E-01        -0.10207E+00         0.00000E+00
    0.20933E-01        -0.99815E-01         0.00000E+00
    0.20267E-01        -0.97547E-01         0.00000E+00
    0.19622E-01        -0.95271E-01         0.00000E+00
    0.18996E-01        -0.92985E-01         0.00000E+00
    0.18388E-01        -0.90690E-01         0.00000E+00
    0.17798E-01        -0.88386E-01         0.00000E+00
    0.17225E-01        -0.86072E-01         0.00000E+00
    0.16667E-01        -0.83747E-01         0.00000E+00
    0.16124E-01        -0.81412E-01         0.00000E+00
    0.15596E-01        -0.79067E-01         0.00000E+00
    0.15080E-01        -0.76710E-01         0.00000E+00
    0.14577E-01        -0.74342E-01         0.00000E+00
    0.14085E-01        -0.71962E-01         0.00000E+00
    0.13602E-01        -0.69571E-01         0.00000E+00
    0.13130E-01        -0.67167E-01         0.00000E+00
    0.12665E-01        -0.64751E-01         0.00000E+00
    0.12207E-01        -0.62323E-01         0.00000E+00
    0.11756E-01        -0.59881E-01         0.00000E+00
    0.11310E-01        -0.57427E-01         0.00000E+00
    0.10867E-01        -0.54958E-01         0.00000E+00
    0.10428E-01        -0.52477E-01         0.00000E+00
    0.99893E-02        -0.49981E-01         0.00000E+00
    0.95512E-02        -0.47471E-01         0.00000E+00
    0.91118E-02        -0.44947E-01         0.00000E+00
    0.86699E-02        -0.42409E-01         0.00000E+00
    0.82242E-02        -0.39857E-01         0.00000E+00
    0.77733E-02        -0.37290E-01         0.00000E+00
    0.73156E-02        -0.34709E-01         0.00000E+00
    0.68494E-02        -0.32113E-01         0.00000E+00
    0.63731E-02        -0.29503E-01         0.00000E+00
    0.58851E-02        -0.26879E-01         0.00000E+00
    0.53838E-02        -0.24241E-01         0.00000E+00
    0.48669E-02        -0.21590E-01         0.00000E+00
    0.43328E-02        -0.18927E-01         0.00000E+00
    0.37799E-02        -0.16252E-01         0.00000E+00
    0.32068E-02        -0.13565E-01         0.00000E+00
    0.26122E-02        -0.10869E-01         0.00000E+00
    0.19950E-02        -0.81628E-02         0.00000E+00
    0.13547E-02        -0.54486E-02         0.00000E+00
    0.68985E-03        -0.27274E-02         0.00000E+00
    0.00000E+00         0.00000E+00         0.00000E+00
    0.25654E-01        -0.12659E+00         0.00000E+00
    0.24805E-01        -0.12431E+00         0.00000E+00
    0.23987E-01        -0.12201E+00         0.00000E+00
    0.23199E-01        -0.11971E+00         0.00000E+00
    0.22439E-01        -0.11741E+00         0.00000E+00
    0.21707E-01        -0.11509E+00         0.00000E+00
    0.21002E-01        -0.11277E+00         0.00000E+00
    0.20323E-01        -0.11044E+00         0.00000E+00
    0.19667E-01        -0.10810E+00         0.00000E+00
    0.19036E-01        -0.10576E+00         0.00000E+00
    0.18426E-01        -0.10340E+00         0.00000E+00
    0.17838E-01        -0.10104E+00         0.00000E+00
    0.17270E-01        -0.98669E-01         0.00000E+00
    0.16722E-01        -0.96288E-01         0.00000E+00
    0.16192E-01        -0.93898E-01         0.00000E+00
    0.15680E-01        -0.91499E-01         0.00000E+00
    0.15184E-01        -0.89090E-01         0.00000E+00
    0.14703E-01        -0.86671E-01         0.00000E+00
    0.14238E-01        -0.84242E-01         0.00000E+00
    0.13786E-01        -0.81803E-01         0.00000E+00
    0.13347E-01        -0.79354E-01         0.00000E+00
    0.12920E-01        -0.76893E-01         0.00000E+00
    0.12504E-01        -0.74422E-01         0.00000E+00
    0.12097E-01        -0.71940E-01         0.00000E+00
    0.11700E-01        -0.69446E-01         0.00000E+00
    0.11310E-01        -0.66941E-01         0.00000E+00
    0.10928E-01        -0.64424E-01         0.00000E+00
    0.10551E-01        -0.61895E-01         0.00000E+00
    0.10178E-01        -0.59353E-01         0.00000E+00
    0.98088E-02        -0.56799E-01         0.00000E+00
    0.94417E-02        -0.54232E-01         0.00000E+00
    0.90756E-02        -0.51652E-01         0.00000E+00
    0.87090E-02        -0.49059E-01         0.00000E+00
    0.83406E-02        -0.46451E-01         0.00000E+00
    0.79690E-02        -0.43830E-01         0.00000E+00
    0.75924E-02        -0.41194E-01         0.00000E+00
    0.72092E-02        -0.38544E-01         0.00000E+00
    0.68176E-02        -0.35879E-01         0.00000E+00
    0.64156E-02        -0.33200E-01         0.00000E+00
    0.60010E-02        -0.30505E-01         0.00000E+00
    0.55715E-02        -0.27796E-01         0.00000E+00
    0.51250E-02        -0.25072E-01         0.00000E+00
    0.46593E-02        -0.22334E-01         0.00000E+00
    0.41723E-02        -0.19583E-01         0.00000E+00
    0.36622E-02        -0.16818E-01         0.00000E+00
    0.31274E-02        -0.14040E-01         0.00000E+00
    0.25658E-02        -0.11251E-01         0.00000E+00
    0.19740E-02        -0.84504E-02         0.00000E+00
    0.13504E-02        -0.56410E-02         0.00000E+00
    0.69308E-03        -0.28236E-02         0.00000E+00
    0.00000E+00         0.00000E+00         0.00000E+00
    0.21876E-01        -0.13071E+00         0.00000E+00
    0.21116E-01        -0.12833E+00         0.00000E+00
    0.20387E-01        -0.12595E+00         0.00000E+00
    0.19690E-01        -0.12356E+00         0.00000E+00
    0.19022E-01        -0.12117E+00         0.00000E+00
    0.18382E-01        -0.11876E+00         0.00000E+00
    0.17770E-01        -0.11635E+00         0.00000E+00
    0.17183E-01        -0.11393E+00         0.00000E+00
    0.16620E-01        -0.11150E+00         0.00000E+00
    0.16079E-01        -0.10907E+00         0.00000E+00
    0.15561E-01        -0.10662E+00         0.00000E+00
    0.15063E-01        -0.10417E+00         0.00000E+00
    0.14585E-01        -0.10171E+00         0.00000E+00
    0.14126E-01        -0.99239E-01         0.00000E+00
    0.13684E-01        -0.96760E-01         0.00000E+00
    0.13259E-01        -0.94271E-01         0.00000E+00
    0.12850E-01        -0.91774E-01         0.00000E+00
    0.12456E-01        -0.89267E-01         0.00000E+00
    0.12076E-01        -0.86750E-01         0.00000E+00
    0.11709E-01        -0.84224E-01         0.00000E+00
    0.11354E-01        -0.81688E-01         0.00000E+00
    0.11010E-01        -0.79143E-01         0.00000E+00
    0.10676E-01        -0.76587E-01         0.00000E+00
    0.10351E-01        -0.74021E-01         0.00000E+00
    0.10034E-01        -0.71445E-01         0.00000E+00
    0.97242E-02        -0.68859E-01         0.00000E+00
    0.94206E-02        -0.66262E-01         0.00000E+00
    0.91222E-02        -0.63655E-01         0.00000E+00
    0.88277E-02        -0.61036E-01         0.00000E+00
    0.85362E-02        -0.58406E-01         0.00000E+00
    0.82465E-02        -0.55765E-01         0.00000E+00
    0.79575E-02        -0.53111E-01         0.00000E+00
    0.76679E-02        -0.50445E-01         0.00000E+00
    0.73762E-02        -0.47767E-01         0.00000E+00
    0.70809E-02        -0.45075E-01         0.00000E+00
    0.67804E-02        -0.42370E-01         0.00000E+00
    0.64729E-02        -0.39650E-01         0.00000E+00
    0.61562E-02        -0.36916E-01         0.00000E+00
    0.58282E-02        -0.34168E-01         0.00000E+00
    0.54868E-02        -0.31404E-01         0.00000E+00
    0.51296E-02        -0.28625E-01         0.00000E+00
    0.47541E-02        -0.25830E-01         0.00000E+00
    0.43576E-02        -0.23018E-01         0.00000E+00
    0.39377E-02        -0.20190E-01         0.00000E+00
    0.34903E-02        -0.17346E-01         0.00000E+00
    0.30109E-02        -0.14485E-01         0.00000E+00
    0.24957E-02        -0.11610E-01         0.00000E+00
    0.19395E-02        -0.87216E-02         0.00000E+00
    0.13394E-02        -0.58222E-02         0.00000E+00
    0.69408E-03        -0.29139E-02         0.00000E+00
    0.00000E+00         0.00000E+00         0.00000E+00
    0.17541E-01        -0.13433E+00         0.00000E+00
    0.16888E-01        -0.13187E+00         0.00000E+00
    0.16272E-01        -0.12940E+00         0.00000E+00
    0.15688E-01        -0.12693E+00         0.00000E+00
    0.15132E-01        -0.12444E+00         0.00000E+00
    0.14603E-01        -0.12195E+00         0.00000E+00
    0.14099E-01        -0.11945E+00         0.00000E+00
    0.13618E-01        -0.11695E+00         0.00000E+00
    0.13160E-01        -0.11444E+00         0.00000E+00
    0.12724E-01        -0.11192E+00         0.00000E+00
    0.12309E-01        -0.10939E+00         0.00000E+00
    0.11913E-01        -0.10685E+00         0.00000E+00
    0.11536E-01        -0.10431E+00         0.00000E+00
    0.11177E-01        -0.10175E+00         0.00000E+00
    0.10834E-01        -0.99191E-01         0.00000E+00
    0.10506E-01        -0.96620E-01         0.00000E+00
    0.10193E-01        -0.94040E-01         0.00000E+00
    0.98931E-02        -0.91451E-01         0.00000E+00
    0.96054E-02        -0.88854E-01         0.00000E+00
    0.93290E-02        -0.86248E-01         0.00000E+00
    0.90630E-02        -0.83633E-01         0.00000E+00
    0.88063E-02        -0.81011E-01         0.00000E+00
    0.85581E-02        -0.78379E-01         0.00000E+00
    0.83176E-02        -0.75739E-01         0.00000E+00
    0.80837E-02        -0.73091E-01         0.00000E+00
    0.78558E-02        -0.70434E-01         0.00000E+00
    0.76329E-02        -0.67767E-01         0.00000E+00
    0.74144E-02        -0.65092E-01         0.00000E+00
    0.71992E-02        -0.62408E-01         0.00000E+00
    0.69865E-02        -0.59714E-01         0.00000E+00
    0.67752E-02        -0.57010E-01         0.00000E+00
    0.65644E-02        -0.54296E-01         0.00000E+00
    0.63529E-02        -0.51571E-01         0.00000E+00
    0.61396E-02        -0.48835E-01         0.00000E+00
    0.59232E-02        -0.46087E-01         0.00000E+00
    0.57022E-02        -0.43327E-01         0.00000E+00
    0.54750E-02        -0.40554E-01         0.00000E+00
    0.52398E-02        -0.37767E-01         0.00000E+00
    0.49948E-02        -0.34966E-01         0.00000E+00
    0.47376E-02        -0.32150E-01         0.00000E+00
    0.44661E-02        -0.29317E-01         0.00000E+00
    0.41779E-02        -0.26468E-01         0.00000E+00
    0.38703E-02        -0.23600E-01         0.00000E+00
    0.35396E-02        -0.20713E-01         0.00000E+00
    0.31789E-02        -0.17807E-01         0.00000E+00
    0.27818E-02        -0.14881E-01         0.00000E+00
    0.23406E-02        -0.11937E-01         0.00000E+00
    0.18496E-02        -0.89734E-02         0.00000E+00
    0.13032E-02        -0.59936E-02         0.00000E+00
    0.68825E-03        -0.30012E-02         0.00000E+00
    0.00000E+00         0.00000E+00         0.00000E+00
    0.12596E-01        -0.13732E+00         0.00000E+00
    0.12104E-01        -0.13477E+00         0.00000E+00
    0.11630E-01        -0.13222E+00         0.00000E+00
    0.11177E-01        -0.12967E+00         0.00000E+00
    0.10746E-01        -0.12711E+00         0.00000E+00
    0.10340E-01        -0.12454E+00         0.00000E+00
    0.99567E-02        -0.12197E+00         0.00000E+00
    0.95964E-02        -0.11939E+00         0.00000E+00
    0.92581E-02        -0.11680E+00         0.00000E+00
    0.89407E-02        -0.11421E+00         0.00000E+00
    0.86427E-02        -0.11160E+00         0.00000E+00
    0.83628E-02        -0.10899E+00         0.00000E+00
    0.80995E-02        -0.10637E+00         0.00000E+00
    0.78514E-02        -0.10374E+00         0.00000E+00
    0.76172E-02        -0.10110E+00         0.00000E+00
    0.73956E-02        -0.98449E-01         0.00000E+00
    0.71853E-02        -0.95794E-01         0.00000E+00
    0.69852E-02        -0.93133E-01         0.00000E+00
    0.67944E-02        -0.90464E-01         0.00000E+00
    0.66121E-02        -0.87789E-01         0.00000E+00
    0.64373E-02        -0.85107E-01         0.00000E+00
    0.62693E-02        -0.82418E-01         0.00000E+00
    0.61074E-02        -0.79723E-01         0.00000E+00
    0.59509E-02        -0.77021E-01         0.00000E+00
    0.57993E-02        -0.74313E-01         0.00000E+00
    0.56518E-02        -0.71598E-01         0.00000E+00
    0.55079E-02        -0.68876E-01         0.00000E+00
    0.53669E-02        -0.66147E-01         0.00000E+00
    0.52283E-02        -0.63410E-01         0.00000E+00
    0.50914E-02        -0.60666E-01         0.00000E+00
    0.49555E-02        -0.57915E-01         0.00000E+00
    0.48201E-02        -0.55154E-01         0.00000E+00
    0.46843E-02        -0.52385E-01         0.00000E+00
    0.45472E-02        -0.49606E-01         0.00000E+00
    0.44082E-02        -0.46818E-01         0.00000E+00
    0.42660E-02        -0.44018E-01         0.00000E+00
    0.41197E-02        -0.41208E-01         0.00000E+00
    0.39678E-02        -0.38384E-01         0.00000E+00
    0.38089E-02        -0.35548E-01         0.00000E+00
    0.36413E-02        -0.32697E-01         0.00000E+00
    0.34629E-02        -0.29830E-01         0.00000E+00
    0.32717E-02        -0.26946E-01         0.00000E+00
    0.30652E-02        -0.24044E-01         0.00000E+00
    0.28399E-02        -0.21121E-01         0.00000E+00
    0.25913E-02        -0.18178E-01         0.00000E+00
    0.23107E-02        -0.15211E-01         0.00000E+00
    0.19888E-02        -0.12218E-01         0.00000E+00
    0.16144E-02        -0.91995E-02         0.00000E+00
    0.11716E-02        -0.61543E-02         0.00000E+00
    0.63477E-03        -0.30857E-02         0.00000E+00
    0.00000E+00         0.00000E+00         0.00000E+00
    0.70320E-02        -0.13939E+00         0.00000E+00
    0.66880E-02        -0.13683E+00         0.00000E+00
    0.63709E-02        -0.13426E+00         0.00000E+00
    0.60744E-02        -0.13169E+00         0.00000E+00
    0.57946E-02        -0.12908E+00         0.00000E+00
    0.55344E-02        -0.12646E+00         0.00000E+00
    0.52970E-02        -0.12382E+00         0.00000E+00
    0.50816E-02        -0.12116E+00         0.00000E+00
    0.48856E-02        -0.11850E+00         0.00000E+00
    0.47074E-02        -0.11582E+00         0.00000E+00
    0.45454E-02        -0.11314E+00         0.00000E+00
    0.43977E-02        -0.11045E+00         0.00000E+00
    0.42616E-02        -0.10776E+00         0.00000E+00
    0.41354E-02        -0.10506E+00         0.00000E+00
    0.40174E-02        -0.10235E+00         0.00000E+00
    0.39066E-02        -0.99642E-01         0.00000E+00
    0.38022E-02        -0.96928E-01         0.00000E+00
    0.37035E-02        -0.94209E-01         0.00000E+00
    0.36096E-02        -0.91486E-01         0.00000E+00
    0.35203E-02        -0.88759E-01         0.00000E+00
    0.34348E-02        -0.86027E-01         0.00000E+00
    0.33529E-02        -0.83292E-01         0.00000E+00
    0.32742E-02        -0.80552E-01         0.00000E+00
    0.31982E-02        -0.77807E-01         0.00000E+00
    0.31247E-02        -0.75058E-01         0.00000E+00
    0.30534E-02        -0.72304E-01         0.00000E+00
    0.29838E-02        -0.69545E-01         0.00000E+00
    0.29158E-02        -0.66780E-01         0.00000E+00
    0.28490E-02        -0.64010E-01         0.00000E+00
    0.27832E-02        -0.61234E-01         0.00000E+00
    0.27179E-02        -0.58451E-01         0.00000E+00
    0.26529E-02        -0.55661E-01         0.00000E+00
    0.25878E-02        -0.52863E-01         0.00000E+00
    0.25223E-02        -0.50058E-01         0.00000E+00
    0.24558E-02        -0.47244E-01         0.00000E+00
    0.23879E-02        -0.44421E-01         0.00000E+00
    0.23181E-02        -0.41588E-01         0.00000E+00
    0.22457E-02        -0.38743E-01         0.00000E+00
    0.21700E-02        -0.35887E-01         0.00000E+00
    0.20899E-02        -0.33018E-01         0.00000E+00
    0.20043E-02        -0.30134E-01         0.00000E+00
    0.19118E-02        -0.27235E-01         0.00000E+00
    0.18108E-02        -0.24318E-01         0.00000E+00
    0.16992E-02        -0.21381E-01         0.00000E+00
    0.15745E-02        -0.18422E-01         0.00000E+00
    0.14328E-02        -0.15439E-01         0.00000E+00
    0.12677E-02        -0.12426E-01         0.00000E+00
    0.10676E-02        -0.93812E-02         0.00000E+00
    0.81572E-03        -0.62984E-02         0.00000E+00
    0.48156E-03        -0.31723E-02         0.00000E+00
    0.00000E+00         0.00000E+00         0.00000E+00
    0.00000E+00        -0.14049E+00         0.00000E+00
    0.00000E+00        -0.13785E+00         0.00000E+00
    0.00000E+00        -0.13522E+00         0.00000E+00
    0.00000E+00        -0.13260E+00         0.00000E+00
    0.00000E+00        -0.12997E+00         0.00000E+00
    0.00000E+00        -0.12730E+00         0.00000E+00
    0.00000E+00        -0.12461E+00         0.00000E+00
    0.00000E+00        -0.12190E+00         0.00000E+00
    0.00000E+00        -0.11919E+00         0.00000E+00
    0.00000E+00        -0.11646E+00         0.00000E+00
    0.00000E+00        -0.11374E+00         0.00000E+00
    0.00000E+00        -0.11100E+00         0.00000E+00
    0.00000E+00        -0.10827E+00         0.00000E+00
    0.00000E+00        -0.10554E+00         0.00000E+00
    0.00000E+00        -0.10280E+00         0.00000E+00
    0.00000E+00        -0.10006E+00         0.00000E+00
    0.00000E+00        -0.97323E-01         0.00000E+00
    0.00000E+00        -0.94581E-01         0.00000E+00
    0.00000E+00        -0.91836E-01         0.00000E+00
    0.00000E+00        -0.89089E-01         0.00000E+00
    0.00000E+00        -0.86339E-01         0.00000E+00
    0.00000E+00        -0.83586E-01         0.00000E+00
    0.00000E+00        -0.80830E-01         0.00000E+00
    0.00000E+00        -0.78070E-01         0.00000E+00
    0.00000E+00        -0.75306E-01         0.00000E+00
    0.00000E+00        -0.72538E-01         0.00000E+00
    0.00000E+00        -0.69766E-01         0.00000E+00
    0.00000E+00        -0.66988E-01         0.00000E+00
    0.00000E+00        -0.64206E-01         0.00000E+00
    0.00000E+00        -0.61418E-01         0.00000E+00
    0.00000E+00        -0.58625E-01         0.00000E+00
    0.00000E+00        -0.55825E-01         0.00000E+00
    0.00000E+00        -0.53018E-01         0.00000E+00
    0.00000E+00        -0.50204E-01         0.00000E+00
    0.00000E+00        -0.47381E-01         0.00000E+00
    0.00000E+00        -0.44550E-01         0.00000E+00
    0.00000E+00        -0.41710E-01         0.00000E+00
    0.00000E+00        -0.38859E-01         0.00000E+00
    0.00000E+00        -0.35997E-01         0.00000E+00
    0.00000E+00        -0.33123E-01         0.00000E+00
    0.00000E+00        -0.30236E-01         0.00000E+00
    0.00000E+00        -0.27333E-01         0.00000E+00
    0.00000E+00        -0.24414E-01         0.00000E+00
    0.00000E+00        -0.21476E-01         0.00000E+00
    0.00000E+00        -0.18516E-01         0.00000E+00
    0.00000E+00        -0.15532E-01         0.00000E+00
    0.00000E+00        -0.12519E-01         0.00000E+00
    0.00000E+00        -0.94723E-02         0.00000E+00
    0.00000E+00        -0.63815E-02         0.00000E+00
    0.00000E+00        -0.32325E-02         0.00000E+00
    0.00000E+00         0.00000E+00         0.00000E+00
CELL_DATA       5000
VECTORS vDarcy double 
    0.66493E-07        -0.29963E-10         0.00000E+00
    0.66516E-07        -0.87774E-10         0.00000E+00
    0.66561E-07        -0.13569E-09         0.00000E+00
    0.66623E-07        -0.17430E-09         0.00000E+00
    0.66699E-07        -0.20704E-09         0.00000E+00
    0.66787E-07        -0.23154E-09         0.00000E+00
    0.66884E-07        -0.25081E-09         0.00000E+00
    0.66987E-07        -0.26523E-09         0.00000E+00
    0.67095E-07        -0.27504E-09         0.00000E+00
    0.67206E-07        -0.28054E-09         0.00000E+00
    0.67318E-07        -0.28205E-09         0.00000E+00
    0.67431E-07        -0.27992E-09         0.00000E+00
    0.67542E-07        -0.27448E-09         0.00000E+00
    0.67650E-07        -0.26602E-09         0.00000E+00
    0.67754E-07        -0.25498E-09         0.00000E+00
    0.67853E-07        -0.24183E-09         0.00000E+00
    0.67947E-07        -0.22694E-09         0.00000E+00
    0.68035E-07        -0.21076E-09         0.00000E+00
    0.68116E-07        -0.19373E-09         0.00000E+00
    0.68190E-07        -0.17629E-09         0.00000E+00
    0.68257E-07        -0.15868E-09         0.00000E+00
    0.68317E-07        -0.14086E-09         0.00000E+00
    0.68369E-07        -0.12266E-09         0.00000E+00
    0.68415E-07        -0.10426E-09         0.00000E+00
    0.68453E-07        -0.86039E-10         0.00000E+00
    0.68483E-07        -0.68119E-10         0.00000E+00
    0.68507E-07        -0.50573E-10         0.00000E+00
    0.68524E-07        -0.33532E-10         0.00000E+00
    0.68534E-07        -0.17088E-10         0.00000E+00
    0.68538E-07        -0.13045E-11         0.00000E+00
    0.68535E-07         0.13777E-10         0.00000E+00
    0.68527E-07         0.28161E-10         0.00000E+00
    0.68513E-07         0.41876E-10         0.00000E+00
    0.68494E-07         0.54910E-10         0.00000E+00
    0.68469E-07         0.67165E-10         0.00000E+00
    0.68440E-07         0.78330E-10         0.00000E+00
    0.68407E-07         0.88236E-10         0.00000E+00
    0.68370E-07         0.96980E-10         0.00000E+00
    0.68329E-07         0.10449E-09         0.00000E+00
    0.68286E-07         0.11060E-09         0.00000E+00
    0.68241E-07         0.11520E-09         0.00000E+00
    0.68195E-07         0.11811E-09         0.00000E+00
    0.68147E-07         0.11906E-09         0.00000E+00
    0.68100E-07         0.11772E-09         0.00000E+00
    0.68054E-07         0.11360E-09         0.00000E+00
    0.68010E-07         0.10606E-09         0.00000E+00
    0.67970E-07         0.94306E-10         0.00000E+00
    0.67935E-07         0.77164E-10         0.00000E+00
    0.67909E-07         0.52946E-10         0.00000E+00
    0.67895E-07         0.19287E-10         0.00000E+00
    0.66353E-07        -0.60407E-10         0.00000E+00
    0.66354E-07        -0.17666E-09         0.00000E+00
    0.66355E-07        -0.27859E-09         0.00000E+00
    0.66360E-07        -0.36571E-09         0.00000E+00
    0.66369E-07        -0.44129E-09         0.00000E+00
    0.66383E-07        -0.50337E-09         0.00000E+00
    0.66401E-07        -0.55394E-09         0.00000E+00
    0.66424E-07        -0.59329E-09         0.00000E+00
    0.66451E-07        -0.62192E-09         0.00000E+00
    0.66481E-07        -0.64042E-09         0.00000E+00
    0.66514E-07        -0.64951E-09         0.00000E+00
    0.66549E-07        -0.65000E-09         0.00000E+00
    0.66586E-07        -0.64261E-09         0.00000E+00
    0.66624E-07        -0.62805E-09         0.00000E+00
    0.66663E-07        -0.60719E-09         0.00000E+00
    0.66702E-07        -0.58097E-09         0.00000E+00
    0.66740E-07        -0.55016E-09         0.00000E+00
    0.66778E-07        -0.51558E-09         0.00000E+00
    0.66815E-07        -0.47803E-09         0.00000E+00
    0.66850E-07        -0.43827E-09         0.00000E+00
    0.66884E-07        -0.39694E-09         0.00000E+00
    0.66914E-07        -0.35439E-09         0.00000E+00
    0.66942E-07        -0.31081E-09         0.00000E+00
    0.66966E-07        -0.26666E-09         0.00000E+00
    0.66988E-07        -0.22259E-09         0.00000E+00
    0.67007E-07        -0.17902E-09         0.00000E+00
    0.67022E-07        -0.13610E-09         0.00000E+00
    0.67035E-07        -0.94005E-10         0.00000E+00
    0.67044E-07        -0.53089E-10         0.00000E+00
    0.67050E-07        -0.13638E-10         0.00000E+00
    0.67053E-07         0.24202E-10         0.00000E+00
    0.67053E-07         0.60293E-10         0.00000E+00
    0.67050E-07         0.94499E-10         0.00000E+00
    0.67044E-07         0.12670E-09         0.00000E+00
    0.67036E-07         0.15669E-09         0.00000E+00
    0.67026E-07         0.18410E-09         0.00000E+00
    0.67014E-07         0.20864E-09         0.00000E+00
    0.67001E-07         0.23032E-09         0.00000E+00
    0.66985E-07         0.24886E-09         0.00000E+00
    0.66969E-07         0.26369E-09         0.00000E+00
    0.66952E-07         0.27431E-09         0.00000E+00
    0.66934E-07         0.28023E-09         0.00000E+00
    0.66917E-07         0.28079E-09         0.00000E+00
    0.66900E-07         0.27523E-09         0.00000E+00
    0.66885E-07         0.26254E-09         0.00000E+00
    0.66872E-07         0.24153E-09         0.00000E+00
    0.66862E-07         0.21074E-09         0.00000E+00
    0.66855E-07         0.16843E-09         0.00000E+00
    0.66851E-07         0.11240E-09         0.00000E+00
    0.66849E-07         0.40177E-10         0.00000E+00
    0.65616E-07        -0.57445E-10         0.00000E+00
    0.65613E-07        -0.16642E-09         0.00000E+00
    0.65607E-07        -0.26462E-09         0.00000E+00
    0.65597E-07        -0.35377E-09         0.00000E+00
    0.65584E-07        -0.43470E-09         0.00000E+00
    0.65570E-07        -0.50656E-09         0.00000E+00
    0.65555E-07        -0.56774E-09         0.00000E+00
    0.65540E-07        -0.61820E-09         0.00000E+00
    0.65525E-07        -0.65809E-09         0.00000E+00
    0.65511E-07        -0.68777E-09         0.00000E+00
    0.65500E-07        -0.70774E-09         0.00000E+00
    0.65490E-07        -0.71860E-09         0.00000E+00
    0.65483E-07        -0.72094E-09         0.00000E+00
    0.65478E-07        -0.71536E-09         0.00000E+00
    0.65476E-07        -0.70248E-09         0.00000E+00
    0.65476E-07        -0.68291E-09         0.00000E+00
    0.65479E-07        -0.65723E-09         0.00000E+00
    0.65485E-07        -0.62599E-09         0.00000E+00
    0.65492E-07        -0.58975E-09         0.00000E+00
    0.65501E-07        -0.54908E-09         0.00000E+00
    0.65512E-07        -0.50463E-09         0.00000E+00
    0.65524E-07        -0.45714E-09         0.00000E+00
    0.65536E-07        -0.40732E-09         0.00000E+00
    0.65548E-07        -0.35581E-09         0.00000E+00
    0.65561E-07        -0.30325E-09         0.00000E+00
    0.65572E-07        -0.25023E-09         0.00000E+00
    0.65583E-07        -0.19719E-09         0.00000E+00
    0.65593E-07        -0.14453E-09         0.00000E+00
    0.65602E-07        -0.92802E-10         0.00000E+00
    0.65610E-07        -0.42537E-10         0.00000E+00
    0.65616E-07         0.58745E-11         0.00000E+00
    0.65622E-07         0.52066E-10         0.00000E+00
    0.65626E-07         0.95774E-10         0.00000E+00
    0.65629E-07         0.13670E-09         0.00000E+00
    0.65632E-07         0.17451E-09         0.00000E+00
    0.65633E-07         0.20902E-09         0.00000E+00
    0.65634E-07         0.23996E-09         0.00000E+00
    0.65634E-07         0.26703E-09         0.00000E+00
    0.65634E-07         0.28984E-09         0.00000E+00
    0.65633E-07         0.30781E-09         0.00000E+00
    0.65632E-07         0.32044E-09         0.00000E+00
    0.65631E-07         0.32683E-09         0.00000E+00
    0.65630E-07         0.32585E-09         0.00000E+00
    0.65629E-07         0.31666E-09         0.00000E+00
    0.65629E-07         0.29844E-09         0.00000E+00
    0.65629E-07         0.27029E-09         0.00000E+00
    0.65629E-07         0.23126E-09         0.00000E+00
    0.65630E-07         0.18049E-09         0.00000E+00
    0.65631E-07         0.11724E-09         0.00000E+00
    0.65631E-07         0.41142E-10         0.00000E+00
    0.64506E-07        -0.43429E-10         0.00000E+00
    0.64498E-07        -0.12660E-09         0.00000E+00
    0.64485E-07        -0.20219E-09         0.00000E+00
    0.64466E-07        -0.27279E-09         0.00000E+00
    0.64443E-07        -0.33865E-09         0.00000E+00
    0.64416E-07        -0.39827E-09         0.00000E+00
    0.64387E-07        -0.45130E-09         0.00000E+00
    0.64354E-07        -0.49800E-09         0.00000E+00
    0.64321E-07        -0.53845E-09         0.00000E+00
    0.64288E-07        -0.57271E-09         0.00000E+00
    0.64255E-07        -0.60076E-09         0.00000E+00
    0.64224E-07        -0.62259E-09         0.00000E+00
    0.64196E-07        -0.63818E-09         0.00000E+00
    0.64171E-07        -0.64748E-09         0.00000E+00
    0.64149E-07        -0.65044E-09         0.00000E+00
    0.64131E-07        -0.64702E-09         0.00000E+00
    0.64116E-07        -0.63725E-09         0.00000E+00
    0.64106E-07        -0.62123E-09         0.00000E+00
    0.64099E-07        -0.59908E-09         0.00000E+00
    0.64096E-07        -0.57108E-09         0.00000E+00
    0.64097E-07        -0.53757E-09         0.00000E+00
    0.64100E-07        -0.49900E-09         0.00000E+00
    0.64106E-07        -0.45595E-09         0.00000E+00
    0.64114E-07        -0.40908E-09         0.00000E+00
    0.64124E-07        -0.35911E-09         0.00000E+00
    0.64134E-07        -0.30678E-09         0.00000E+00
    0.64146E-07        -0.25288E-09         0.00000E+00
    0.64158E-07        -0.19824E-09         0.00000E+00
    0.64170E-07        -0.14364E-09         0.00000E+00
    0.64182E-07        -0.89817E-10         0.00000E+00
    0.64193E-07        -0.37467E-10         0.00000E+00
    0.64204E-07         0.12825E-10         0.00000E+00
    0.64215E-07         0.60612E-10         0.00000E+00
    0.64225E-07         0.10539E-09         0.00000E+00
    0.64235E-07         0.14667E-09         0.00000E+00
    0.64244E-07         0.18404E-09         0.00000E+00
    0.64253E-07         0.21716E-09         0.00000E+00
    0.64261E-07         0.24573E-09         0.00000E+00
    0.64270E-07         0.26945E-09         0.00000E+00
    0.64278E-07         0.28806E-09         0.00000E+00
    0.64287E-07         0.30125E-09         0.00000E+00
    0.64296E-07         0.30839E-09         0.00000E+00
    0.64304E-07         0.30839E-09         0.00000E+00
    0.64311E-07         0.29997E-09         0.00000E+00
    0.64318E-07         0.28225E-09         0.00000E+00
    0.64325E-07         0.25476E-09         0.00000E+00
    0.64330E-07         0.21703E-09         0.00000E+00
    0.64335E-07         0.16865E-09         0.00000E+00
    0.64338E-07         0.10921E-09         0.00000E+00
    0.64340E-07         0.38280E-10         0.00000E+00
    0.63097E-07        -0.22090E-10         0.00000E+00
    0.63089E-07        -0.67332E-10         0.00000E+00
    0.63073E-07        -0.11198E-09         0.00000E+00
    0.63050E-07        -0.15553E-09         0.00000E+00
    0.63021E-07        -0.19782E-09         0.00000E+00
    0.62988E-07        -0.23917E-09         0.00000E+00
    0.62952E-07        -0.27994E-09         0.00000E+00
    0.62914E-07        -0.32016E-09         0.00000E+00
    0.62876E-07        -0.35962E-09         0.00000E+00
    0.62839E-07        -0.39782E-09         0.00000E+00
    0.62803E-07        -0.43412E-09         0.00000E+00
    0.62770E-07        -0.46782E-09         0.00000E+00
    0.62739E-07        -0.49816E-09         0.00000E+00
    0.62712E-07        -0.52436E-09         0.00000E+00
    0.62688E-07        -0.54578E-09         0.00000E+00
    0.62668E-07        -0.56185E-09         0.00000E+00
    0.62652E-07        -0.57208E-09         0.00000E+00
    0.62641E-07        -0.57608E-09         0.00000E+00
    0.62633E-07        -0.57352E-09         0.00000E+00
    0.62630E-07        -0.56420E-09         0.00000E+00
    0.62630E-07        -0.54807E-09         0.00000E+00
    0.62634E-07        -0.52521E-09         0.00000E+00
    0.62641E-07        -0.49587E-09         0.00000E+00
    0.62652E-07        -0.46047E-09         0.00000E+00
    0.62664E-07        -0.41963E-09         0.00000E+00
    0.62679E-07        -0.37414E-09         0.00000E+00
    0.62696E-07        -0.32493E-09         0.00000E+00
    0.62713E-07        -0.27301E-09         0.00000E+00
    0.62731E-07        -0.21946E-09         0.00000E+00
    0.62749E-07        -0.16533E-09         0.00000E+00
    0.62768E-07        -0.11161E-09         0.00000E+00
    0.62786E-07        -0.59215E-10         0.00000E+00
    0.62804E-07        -0.89817E-11         0.00000E+00
    0.62821E-07         0.38353E-10         0.00000E+00
    0.62838E-07         0.82168E-10         0.00000E+00
    0.62854E-07         0.12189E-09         0.00000E+00
    0.62870E-07         0.15703E-09         0.00000E+00
    0.62885E-07         0.18724E-09         0.00000E+00
    0.62899E-07         0.21216E-09         0.00000E+00
    0.62913E-07         0.23154E-09         0.00000E+00
    0.62927E-07         0.24528E-09         0.00000E+00
    0.62941E-07         0.25347E-09         0.00000E+00
    0.62954E-07         0.25581E-09         0.00000E+00
    0.62967E-07         0.25136E-09         0.00000E+00
    0.62978E-07         0.23871E-09         0.00000E+00
    0.62988E-07         0.21691E-09         0.00000E+00
    0.62997E-07         0.18567E-09         0.00000E+00
    0.63003E-07         0.14478E-09         0.00000E+00
    0.63008E-07         0.93960E-10         0.00000E+00
    0.63010E-07         0.32980E-10         0.00000E+00
    0.61447E-07         0.13601E-11         0.00000E+00
    0.61437E-07        -0.31787E-12         0.00000E+00
    0.61419E-07        -0.69681E-11         0.00000E+00
    0.61394E-07        -0.21466E-10         0.00000E+00
    0.61365E-07        -0.44686E-10         0.00000E+00
    0.61335E-07        -0.75766E-10         0.00000E+00
    0.61305E-07        -0.11312E-09         0.00000E+00
    0.61277E-07        -0.15526E-09         0.00000E+00
    0.61250E-07        -0.20061E-09         0.00000E+00
    0.61226E-07        -0.24763E-09         0.00000E+00
    0.61203E-07        -0.29487E-09         0.00000E+00
    0.61184E-07        -0.34104E-09         0.00000E+00
    0.61166E-07        -0.38513E-09         0.00000E+00
    0.61151E-07        -0.42639E-09         0.00000E+00
    0.61139E-07        -0.46409E-09         0.00000E+00
    0.61130E-07        -0.49746E-09         0.00000E+00
    0.61123E-07        -0.52574E-09         0.00000E+00
    0.61120E-07        -0.54821E-09         0.00000E+00
    0.61120E-07        -0.56420E-09         0.00000E+00
    0.61124E-07        -0.57320E-09         0.00000E+00
    0.61131E-07        -0.57482E-09         0.00000E+00
    0.61141E-07        -0.56882E-09         0.00000E+00
    0.61154E-07        -0.55508E-09         0.00000E+00
    0.61170E-07        -0.53366E-09         0.00000E+00
    0.61189E-07        -0.50488E-09         0.00000E+00
    0.61210E-07        -0.46934E-09         0.00000E+00
    0.61233E-07        -0.42785E-09         0.00000E+00
    0.61258E-07        -0.38143E-09         0.00000E+00
    0.61284E-07        -0.33119E-09         0.00000E+00
    0.61311E-07        -0.27838E-09         0.00000E+00
    0.61338E-07        -0.22428E-09         0.00000E+00
    0.61364E-07        -0.17014E-09         0.00000E+00
    0.61390E-07        -0.11715E-09         0.00000E+00
    0.61415E-07        -0.66322E-10         0.00000E+00
    0.61440E-07        -0.18571E-10         0.00000E+00
    0.61463E-07         0.25335E-10         0.00000E+00
    0.61485E-07         0.64745E-10         0.00000E+00
    0.61506E-07         0.99078E-10         0.00000E+00
    0.61526E-07         0.12787E-09         0.00000E+00
    0.61545E-07         0.15081E-09         0.00000E+00
    0.61563E-07         0.16779E-09         0.00000E+00
    0.61580E-07         0.17890E-09         0.00000E+00
    0.61595E-07         0.18440E-09         0.00000E+00
    0.61610E-07         0.18455E-09         0.00000E+00
    0.61624E-07         0.17870E-09         0.00000E+00
    0.61637E-07         0.16557E-09         0.00000E+00
    0.61647E-07         0.14412E-09         0.00000E+00
    0.61655E-07         0.11383E-09         0.00000E+00
    0.61660E-07         0.74606E-10         0.00000E+00
    0.61663E-07         0.26353E-10         0.00000E+00
    0.59591E-07         0.28018E-10         0.00000E+00
    0.59582E-07         0.64599E-10         0.00000E+00
    0.59571E-07         0.75117E-10         0.00000E+00
    0.59563E-07         0.64421E-10         0.00000E+00
    0.59557E-07         0.39079E-10         0.00000E+00
    0.59555E-07         0.32574E-11         0.00000E+00
    0.59554E-07        -0.40505E-10         0.00000E+00
    0.59555E-07        -0.89361E-10         0.00000E+00
    0.59557E-07        -0.14139E-09         0.00000E+00
    0.59559E-07        -0.19503E-09         0.00000E+00
    0.59561E-07        -0.24875E-09         0.00000E+00
    0.59564E-07        -0.30180E-09         0.00000E+00
    0.59567E-07        -0.35357E-09         0.00000E+00
    0.59571E-07        -0.40325E-09         0.00000E+00
    0.59576E-07        -0.45013E-09         0.00000E+00
    0.59582E-07        -0.49348E-09         0.00000E+00
    0.59589E-07        -0.53255E-09         0.00000E+00
    0.59597E-07        -0.56675E-09         0.00000E+00
    0.59607E-07        -0.59550E-09         0.00000E+00
    0.59619E-07        -0.61802E-09         0.00000E+00
    0.59633E-07        -0.63360E-09         0.00000E+00
    0.59649E-07        -0.64170E-09         0.00000E+00
    0.59668E-07        -0.64202E-09         0.00000E+00
    0.59689E-07        -0.63453E-09         0.00000E+00
    0.59713E-07        -0.61920E-09         0.00000E+00
    0.59740E-07        -0.59605E-09         0.00000E+00
    0.59770E-07        -0.56527E-09         0.00000E+00
    0.59801E-07        -0.52734E-09         0.00000E+00
    0.59835E-07        -0.48307E-09         0.00000E+00
    0.59870E-07        -0.43357E-09         0.00000E+00
    0.59905E-07        -0.38013E-09         0.00000E+00
    0.59941E-07        -0.32418E-09         0.00000E+00
    0.59976E-07        -0.26729E-09         0.00000E+00
    0.60009E-07        -0.21106E-09         0.00000E+00
    0.60042E-07        -0.15695E-09         0.00000E+00
    0.60072E-07        -0.10615E-09         0.00000E+00
    0.60101E-07        -0.59631E-10         0.00000E+00
    0.60128E-07        -0.18082E-10         0.00000E+00
    0.60154E-07         0.18027E-10         0.00000E+00
    0.60178E-07         0.48397E-10         0.00000E+00
    0.60199E-07         0.72779E-10         0.00000E+00
    0.60219E-07         0.91008E-10         0.00000E+00
    0.60237E-07         0.10319E-09         0.00000E+00
    0.60253E-07         0.10963E-09         0.00000E+00
    0.60268E-07         0.11074E-09         0.00000E+00
    0.60281E-07         0.10650E-09         0.00000E+00
    0.60292E-07         0.96006E-10         0.00000E+00
    0.60301E-07         0.78174E-10         0.00000E+00
    0.60307E-07         0.52514E-10         0.00000E+00
    0.60310E-07         0.18850E-10         0.00000E+00
    0.57724E-07         0.23546E-10         0.00000E+00
    0.57738E-07         0.43216E-10         0.00000E+00
    0.57763E-07         0.26787E-10         0.00000E+00
    0.57795E-07        -0.55919E-11         0.00000E+00
    0.57831E-07        -0.42082E-10         0.00000E+00
    0.57866E-07        -0.80953E-10         0.00000E+00
    0.57900E-07        -0.12359E-09         0.00000E+00
    0.57932E-07        -0.16759E-09         0.00000E+00
    0.57960E-07        -0.21067E-09         0.00000E+00
    0.57983E-07        -0.25431E-09         0.00000E+00
    0.58003E-07        -0.30272E-09         0.00000E+00
    0.58022E-07        -0.35547E-09         0.00000E+00
    0.58041E-07        -0.40900E-09         0.00000E+00
    0.58059E-07        -0.46028E-09         0.00000E+00
    0.58077E-07        -0.50728E-09         0.00000E+00
    0.58094E-07        -0.55023E-09         0.00000E+00
    0.58110E-07        -0.59016E-09         0.00000E+00
    0.58126E-07        -0.62696E-09         0.00000E+00
    0.58141E-07        -0.66015E-09         0.00000E+00
    0.58156E-07        -0.68940E-09         0.00000E+00
    0.58173E-07        -0.71371E-09         0.00000E+00
    0.58190E-07        -0.73241E-09         0.00000E+00
    0.58210E-07        -0.74525E-09         0.00000E+00
    0.58233E-07        -0.75172E-09         0.00000E+00
    0.58259E-07        -0.75129E-09         0.00000E+00
    0.58288E-07        -0.74306E-09         0.00000E+00
    0.58320E-07        -0.72639E-09         0.00000E+00
    0.58355E-07        -0.70100E-09         0.00000E+00
    0.58393E-07        -0.66683E-09         0.00000E+00
    0.58433E-07        -0.62438E-09         0.00000E+00
    0.58475E-07        -0.57462E-09         0.00000E+00
    0.58517E-07        -0.51902E-09         0.00000E+00
    0.58560E-07        -0.45940E-09         0.00000E+00
    0.58602E-07        -0.39769E-09         0.00000E+00
    0.58642E-07        -0.33584E-09         0.00000E+00
    0.58681E-07        -0.27569E-09         0.00000E+00
    0.58718E-07        -0.21874E-09         0.00000E+00
    0.58752E-07        -0.16611E-09         0.00000E+00
    0.58784E-07        -0.11858E-09         0.00000E+00
    0.58813E-07        -0.76671E-10         0.00000E+00
    0.58838E-07        -0.40764E-10         0.00000E+00
    0.58862E-07        -0.11062E-10         0.00000E+00
    0.58882E-07         0.12275E-10         0.00000E+00
    0.58900E-07         0.29240E-10         0.00000E+00
    0.58916E-07         0.40136E-10         0.00000E+00
    0.58929E-07         0.45576E-10         0.00000E+00
    0.58940E-07         0.45952E-10         0.00000E+00
    0.58949E-07         0.40908E-10         0.00000E+00
    0.58955E-07         0.29522E-10         0.00000E+00
    0.58958E-07         0.11061E-10         0.00000E+00
    0.56362E-07        -0.19944E-10         0.00000E+00
    0.56378E-07        -0.62460E-10         0.00000E+00
    0.56402E-07        -0.11051E-09         0.00000E+00
    0.56427E-07        -0.15635E-09         0.00000E+00
    0.56453E-07        -0.19685E-09         0.00000E+00
    0.56479E-07        -0.23359E-09         0.00000E+00
    0.56504E-07        -0.26910E-09         0.00000E+00
    0.56529E-07        -0.30371E-09         0.00000E+00
    0.56554E-07        -0.33739E-09         0.00000E+00
    0.56580E-07        -0.37398E-09         0.00000E+00
    0.56606E-07        -0.41626E-09         0.00000E+00
    0.56631E-07        -0.46167E-09         0.00000E+00
    0.56654E-07        -0.50863E-09         0.00000E+00
    0.56675E-07        -0.55688E-09         0.00000E+00
    0.56695E-07        -0.60163E-09         0.00000E+00
    0.56714E-07        -0.63815E-09         0.00000E+00
    0.56732E-07        -0.67012E-09         0.00000E+00
    0.56747E-07        -0.70072E-09         0.00000E+00
    0.56761E-07        -0.72876E-09         0.00000E+00
    0.56772E-07        -0.75471E-09         0.00000E+00
    0.56782E-07        -0.78288E-09         0.00000E+00
    0.56795E-07        -0.81369E-09         0.00000E+00
    0.56810E-07        -0.84226E-09         0.00000E+00
    0.56830E-07        -0.86428E-09         0.00000E+00
    0.56852E-07        -0.87786E-09         0.00000E+00
    0.56876E-07        -0.88412E-09         0.00000E+00
    0.56904E-07        -0.88316E-09         0.00000E+00
    0.56935E-07        -0.87387E-09         0.00000E+00
    0.56969E-07        -0.85518E-09         0.00000E+00
    0.57007E-07        -0.82612E-09         0.00000E+00
    0.57048E-07        -0.78737E-09         0.00000E+00
    0.57092E-07        -0.74028E-09         0.00000E+00
    0.57139E-07        -0.68559E-09         0.00000E+00
    0.57188E-07        -0.62435E-09         0.00000E+00
    0.57237E-07        -0.55813E-09         0.00000E+00
    0.57285E-07        -0.48904E-09         0.00000E+00
    0.57331E-07        -0.41934E-09         0.00000E+00
    0.57374E-07        -0.35111E-09         0.00000E+00
    0.57413E-07        -0.28665E-09         0.00000E+00
    0.57448E-07        -0.22778E-09         0.00000E+00
    0.57480E-07        -0.17552E-09         0.00000E+00
    0.57507E-07        -0.13033E-09         0.00000E+00
    0.57531E-07        -0.92153E-10         0.00000E+00
    0.57552E-07        -0.60619E-10         0.00000E+00
    0.57569E-07        -0.35449E-10         0.00000E+00
    0.57584E-07        -0.16458E-10         0.00000E+00
    0.57595E-07        -0.33285E-11         0.00000E+00
    0.57604E-07         0.44289E-11         0.00000E+00
    0.57609E-07         0.68978E-11         0.00000E+00
    0.57612E-07         0.34087E-11         0.00000E+00
    0.55323E-07        -0.42649E-10         0.00000E+00
    0.55322E-07        -0.11702E-09         0.00000E+00
    0.55323E-07        -0.17884E-09         0.00000E+00
    0.55326E-07        -0.23228E-09         0.00000E+00
    0.55333E-07        -0.27972E-09         0.00000E+00
    0.55341E-07        -0.32242E-09         0.00000E+00
    0.55352E-07        -0.36147E-09         0.00000E+00
    0.55364E-07        -0.39846E-09         0.00000E+00
    0.55378E-07        -0.43520E-09         0.00000E+00
    0.55392E-07        -0.47350E-09         0.00000E+00
    0.55404E-07        -0.51194E-09         0.00000E+00
    0.55416E-07        -0.54897E-09         0.00000E+00
    0.55426E-07        -0.58611E-09         0.00000E+00
    0.55435E-07        -0.62512E-09         0.00000E+00
    0.55440E-07        -0.66276E-09         0.00000E+00
    0.55444E-07        -0.69383E-09         0.00000E+00
    0.55448E-07        -0.72039E-09         0.00000E+00
    0.55452E-07        -0.74615E-09         0.00000E+00
    0.55456E-07        -0.77187E-09         0.00000E+00
    0.55462E-07        -0.80007E-09         0.00000E+00
    0.55471E-07        -0.83336E-09         0.00000E+00
    0.55480E-07        -0.87030E-09         0.00000E+00
    0.55489E-07        -0.90876E-09         0.00000E+00
    0.55500E-07        -0.94665E-09         0.00000E+00
    0.55513E-07        -0.97331E-09         0.00000E+00
    0.55528E-07        -0.98811E-09         0.00000E+00
    0.55545E-07        -0.99836E-09         0.00000E+00
    0.55562E-07        -0.10013E-08         0.00000E+00
    0.55582E-07        -0.99852E-09         0.00000E+00
    0.55606E-07        -0.99292E-09         0.00000E+00
    0.55637E-07        -0.98053E-09         0.00000E+00
    0.55674E-07        -0.95581E-09         0.00000E+00
    0.55717E-07        -0.91896E-09         0.00000E+00
    0.55765E-07        -0.87120E-09         0.00000E+00
    0.55816E-07        -0.81277E-09         0.00000E+00
    0.55870E-07        -0.74342E-09         0.00000E+00
    0.55924E-07        -0.66511E-09         0.00000E+00
    0.55976E-07        -0.58301E-09         0.00000E+00
    0.56026E-07        -0.50044E-09         0.00000E+00
    0.56072E-07        -0.42021E-09         0.00000E+00
    0.56114E-07        -0.34526E-09         0.00000E+00
    0.56149E-07        -0.27730E-09         0.00000E+00
    0.56180E-07        -0.21703E-09         0.00000E+00
    0.56205E-07        -0.16480E-09         0.00000E+00
    0.56225E-07        -0.12063E-09         0.00000E+00
    0.56241E-07        -0.84223E-10         0.00000E+00
    0.56254E-07        -0.55087E-10         0.00000E+00
    0.56263E-07        -0.32511E-10         0.00000E+00
    0.56269E-07        -0.15648E-10         0.00000E+00
    0.56272E-07        -0.42384E-11         0.00000E+00
    0.54283E-07        -0.38174E-10         0.00000E+00
    0.54282E-07        -0.11066E-09         0.00000E+00
    0.54279E-07        -0.17714E-09         0.00000E+00
    0.54276E-07        -0.23755E-09         0.00000E+00
    0.54274E-07        -0.29240E-09         0.00000E+00
    0.54272E-07        -0.34252E-09         0.00000E+00
    0.54271E-07        -0.38876E-09         0.00000E+00
    0.54270E-07        -0.43177E-09         0.00000E+00
    0.54271E-07        -0.47204E-09         0.00000E+00
    0.54271E-07        -0.50982E-09         0.00000E+00
    0.54273E-07        -0.54580E-09         0.00000E+00
    0.54274E-07        -0.58063E-09         0.00000E+00
    0.54276E-07        -0.61420E-09         0.00000E+00
    0.54277E-07        -0.64630E-09         0.00000E+00
    0.54279E-07        -0.67692E-09         0.00000E+00
    0.54280E-07        -0.70620E-09         0.00000E+00
    0.54282E-07        -0.73413E-09         0.00000E+00
    0.54284E-07        -0.76150E-09         0.00000E+00
    0.54286E-07        -0.78989E-09         0.00000E+00
    0.54288E-07        -0.82116E-09         0.00000E+00
    0.54287E-07        -0.85359E-09         0.00000E+00
    0.54285E-07        -0.88547E-09         0.00000E+00
    0.54281E-07        -0.91884E-09         0.00000E+00
    0.54274E-07        -0.95472E-09         0.00000E+00
    0.54265E-07        -0.98439E-09         0.00000E+00
    0.54255E-07        -0.10054E-08         0.00000E+00
    0.54247E-07        -0.10247E-08         0.00000E+00
    0.54243E-07        -0.10435E-08         0.00000E+00
    0.54245E-07        -0.10629E-08         0.00000E+00
    0.54252E-07        -0.10844E-08         0.00000E+00
    0.54265E-07        -0.11068E-08         0.00000E+00
    0.54285E-07        -0.11175E-08         0.00000E+00
    0.54313E-07        -0.11095E-08         0.00000E+00
    0.54347E-07        -0.10874E-08         0.00000E+00
    0.54385E-07        -0.10474E-08         0.00000E+00
    0.54429E-07        -0.99503E-09         0.00000E+00
    0.54479E-07        -0.93439E-09         0.00000E+00
    0.54536E-07        -0.85913E-09         0.00000E+00
    0.54595E-07        -0.77239E-09         0.00000E+00
    0.54655E-07        -0.67889E-09         0.00000E+00
    0.54713E-07        -0.58008E-09         0.00000E+00
    0.54764E-07        -0.48014E-09         0.00000E+00
    0.54808E-07        -0.38540E-09         0.00000E+00
    0.54844E-07        -0.30043E-09         0.00000E+00
    0.54872E-07        -0.22741E-09         0.00000E+00
    0.54894E-07        -0.16637E-09         0.00000E+00
    0.54910E-07        -0.11550E-09         0.00000E+00
    0.54921E-07        -0.73116E-10         0.00000E+00
    0.54927E-07        -0.38600E-10         0.00000E+00
    0.54930E-07        -0.11611E-10         0.00000E+00
    0.53219E-07        -0.34253E-10         0.00000E+00
    0.53218E-07        -0.10028E-09         0.00000E+00
    0.53215E-07        -0.16248E-09         0.00000E+00
    0.53212E-07        -0.22095E-09         0.00000E+00
    0.53208E-07        -0.27574E-09         0.00000E+00
    0.53203E-07        -0.32699E-09         0.00000E+00
    0.53198E-07        -0.37488E-09         0.00000E+00
    0.53194E-07        -0.41968E-09         0.00000E+00
    0.53189E-07        -0.46167E-09         0.00000E+00
    0.53184E-07        -0.50121E-09         0.00000E+00
    0.53180E-07        -0.53849E-09         0.00000E+00
    0.53175E-07        -0.57370E-09         0.00000E+00
    0.53171E-07        -0.60712E-09         0.00000E+00
    0.53166E-07        -0.63903E-09         0.00000E+00
    0.53162E-07        -0.66962E-09         0.00000E+00
    0.53158E-07        -0.69904E-09         0.00000E+00
    0.53153E-07        -0.72760E-09         0.00000E+00
    0.53149E-07        -0.75554E-09         0.00000E+00
    0.53144E-07        -0.78289E-09         0.00000E+00
    0.53139E-07        -0.80949E-09         0.00000E+00
    0.53133E-07        -0.83580E-09         0.00000E+00
    0.53127E-07        -0.86224E-09         0.00000E+00
    0.53120E-07        -0.88837E-09         0.00000E+00
    0.53113E-07        -0.91371E-09         0.00000E+00
    0.53105E-07        -0.93859E-09         0.00000E+00
    0.53097E-07        -0.96304E-09         0.00000E+00
    0.53089E-07        -0.98754E-09         0.00000E+00
    0.53080E-07        -0.10145E-08         0.00000E+00
    0.53069E-07        -0.10432E-08         0.00000E+00
    0.53055E-07        -0.10717E-08         0.00000E+00
    0.53039E-07        -0.11024E-08         0.00000E+00
    0.53020E-07        -0.11290E-08         0.00000E+00
    0.53002E-07        -0.11447E-08         0.00000E+00
    0.52988E-07        -0.11535E-08         0.00000E+00
    0.52984E-07        -0.11547E-08         0.00000E+00
    0.52993E-07        -0.11512E-08         0.00000E+00
    0.53017E-07        -0.11469E-08         0.00000E+00
    0.53055E-07        -0.11214E-08         0.00000E+00
    0.53107E-07        -0.10665E-08         0.00000E+00
    0.53167E-07        -0.98724E-09         0.00000E+00
    0.53232E-07        -0.88561E-09         0.00000E+00
    0.53300E-07        -0.76971E-09         0.00000E+00
    0.53366E-07        -0.64515E-09         0.00000E+00
    0.53426E-07        -0.52023E-09         0.00000E+00
    0.53476E-07        -0.40169E-09         0.00000E+00
    0.53515E-07        -0.29346E-09         0.00000E+00
    0.53542E-07        -0.20033E-09         0.00000E+00
    0.53558E-07        -0.12520E-09         0.00000E+00
    0.53567E-07        -0.66528E-10         0.00000E+00
    0.53572E-07        -0.20414E-10         0.00000E+00
    0.52144E-07        -0.30756E-10         0.00000E+00
    0.52143E-07        -0.90414E-10         0.00000E+00
    0.52140E-07        -0.14733E-09         0.00000E+00
    0.52137E-07        -0.20148E-09         0.00000E+00
    0.52132E-07        -0.25289E-09         0.00000E+00
    0.52127E-07        -0.30162E-09         0.00000E+00
    0.52121E-07        -0.34776E-09         0.00000E+00
    0.52115E-07        -0.39140E-09         0.00000E+00
    0.52108E-07        -0.43266E-09         0.00000E+00
    0.52101E-07        -0.47166E-09         0.00000E+00
    0.52094E-07        -0.50857E-09         0.00000E+00
    0.52086E-07        -0.54356E-09         0.00000E+00
    0.52079E-07        -0.57678E-09         0.00000E+00
    0.52071E-07        -0.60838E-09         0.00000E+00
    0.52063E-07        -0.63851E-09         0.00000E+00
    0.52054E-07        -0.66737E-09         0.00000E+00
    0.52046E-07        -0.69506E-09         0.00000E+00
    0.52037E-07        -0.72169E-09         0.00000E+00
    0.52028E-07        -0.74743E-09         0.00000E+00
    0.52019E-07        -0.77244E-09         0.00000E+00
    0.52009E-07        -0.79675E-09         0.00000E+00
    0.51999E-07        -0.82037E-09         0.00000E+00
    0.51989E-07        -0.84347E-09         0.00000E+00
    0.51978E-07        -0.86623E-09         0.00000E+00
    0.51966E-07        -0.88858E-09         0.00000E+00
    0.51953E-07        -0.91063E-09         0.00000E+00
    0.51940E-07        -0.93250E-09         0.00000E+00
    0.51926E-07        -0.95378E-09         0.00000E+00
    0.51912E-07        -0.97472E-09         0.00000E+00
    0.51896E-07        -0.99582E-09         0.00000E+00
    0.51880E-07        -0.10166E-08         0.00000E+00
    0.51863E-07        -0.10372E-08         0.00000E+00
    0.51846E-07        -0.10578E-08         0.00000E+00
    0.51827E-07        -0.10792E-08         0.00000E+00
    0.51806E-07        -0.11031E-08         0.00000E+00
    0.51782E-07        -0.11269E-08         0.00000E+00
    0.51754E-07        -0.11509E-08         0.00000E+00
    0.51726E-07        -0.11656E-08         0.00000E+00
    0.51702E-07        -0.11621E-08         0.00000E+00
    0.51692E-07        -0.11446E-08         0.00000E+00
    0.51703E-07        -0.11111E-08         0.00000E+00
    0.51740E-07        -0.10645E-08         0.00000E+00
    0.51801E-07        -0.98555E-09         0.00000E+00
    0.51878E-07        -0.86315E-09         0.00000E+00
    0.51957E-07        -0.70950E-09         0.00000E+00
    0.52029E-07        -0.54013E-09         0.00000E+00
    0.52088E-07        -0.37739E-09         0.00000E+00
    0.52129E-07        -0.23604E-09         0.00000E+00
    0.52153E-07        -0.12243E-09         0.00000E+00
    0.52163E-07        -0.36325E-10         0.00000E+00
    0.51064E-07        -0.27492E-10         0.00000E+00
    0.51063E-07        -0.81049E-10         0.00000E+00
    0.51061E-07        -0.13243E-09         0.00000E+00
    0.51057E-07        -0.18162E-09         0.00000E+00
    0.51053E-07        -0.22863E-09         0.00000E+00
    0.51047E-07        -0.27349E-09         0.00000E+00
    0.51041E-07        -0.31624E-09         0.00000E+00
    0.51034E-07        -0.35694E-09         0.00000E+00
    0.51027E-07        -0.39565E-09         0.00000E+00
    0.51018E-07        -0.43246E-09         0.00000E+00
    0.51010E-07        -0.46746E-09         0.00000E+00
    0.51000E-07        -0.50072E-09         0.00000E+00
    0.50991E-07        -0.53236E-09         0.00000E+00
    0.50981E-07        -0.56248E-09         0.00000E+00
    0.50970E-07        -0.59118E-09         0.00000E+00
    0.50959E-07        -0.61855E-09         0.00000E+00
    0.50948E-07        -0.64470E-09         0.00000E+00
    0.50936E-07        -0.66972E-09         0.00000E+00
    0.50924E-07        -0.69370E-09         0.00000E+00
    0.50911E-07        -0.71670E-09         0.00000E+00
    0.50898E-07        -0.73882E-09         0.00000E+00
    0.50885E-07        -0.76015E-09         0.00000E+00
    0.50870E-07        -0.78073E-09         0.00000E+00
    0.50856E-07        -0.80059E-09         0.00000E+00
    0.50841E-07        -0.81983E-09         0.00000E+00
    0.50825E-07        -0.83851E-09         0.00000E+00
    0.50809E-07        -0.85662E-09         0.00000E+00
    0.50792E-07        -0.87431E-09         0.00000E+00
    0.50774E-07        -0.89158E-09         0.00000E+00
    0.50755E-07        -0.90834E-09         0.00000E+00
    0.50735E-07        -0.92474E-09         0.00000E+00
    0.50714E-07        -0.94071E-09         0.00000E+00
    0.50692E-07        -0.95616E-09         0.00000E+00
    0.50669E-07        -0.97094E-09         0.00000E+00
    0.50644E-07        -0.98462E-09         0.00000E+00
    0.50619E-07        -0.99787E-09         0.00000E+00
    0.50593E-07        -0.10108E-08         0.00000E+00
    0.50565E-07        -0.10238E-08         0.00000E+00
    0.50536E-07        -0.10373E-08         0.00000E+00
    0.50502E-07        -0.10531E-08         0.00000E+00
    0.50464E-07        -0.10674E-08         0.00000E+00
    0.50421E-07        -0.10787E-08         0.00000E+00
    0.50380E-07        -0.10693E-08         0.00000E+00
    0.50353E-07        -0.10262E-08         0.00000E+00
    0.50354E-07        -0.95032E-09         0.00000E+00
    0.50391E-07        -0.84703E-09         0.00000E+00
    0.50459E-07        -0.70089E-09         0.00000E+00
    0.50535E-07        -0.49793E-09         0.00000E+00
    0.50594E-07        -0.27791E-09         0.00000E+00
    0.50625E-07        -0.85026E-10         0.00000E+00
    0.49986E-07        -0.24416E-10         0.00000E+00
    0.49985E-07        -0.72001E-10         0.00000E+00
    0.49982E-07        -0.11773E-09         0.00000E+00
    0.49979E-07        -0.16161E-09         0.00000E+00
    0.49974E-07        -0.20367E-09         0.00000E+00
    0.49969E-07        -0.24393E-09         0.00000E+00
    0.49962E-07        -0.28242E-09         0.00000E+00
    0.49955E-07        -0.31919E-09         0.00000E+00
    0.49947E-07        -0.35427E-09         0.00000E+00
    0.49938E-07        -0.38773E-09         0.00000E+00
    0.49928E-07        -0.41960E-09         0.00000E+00
    0.49917E-07        -0.44997E-09         0.00000E+00
    0.49906E-07        -0.47888E-09         0.00000E+00
    0.49895E-07        -0.50640E-09         0.00000E+00
    0.49882E-07        -0.53259E-09         0.00000E+00
    0.49869E-07        -0.55753E-09         0.00000E+00
    0.49856E-07        -0.58126E-09         0.00000E+00
    0.49842E-07        -0.60386E-09         0.00000E+00
    0.49827E-07        -0.62538E-09         0.00000E+00
    0.49812E-07        -0.64588E-09         0.00000E+00
    0.49796E-07        -0.66541E-09         0.00000E+00
    0.49780E-07        -0.68402E-09         0.00000E+00
    0.49763E-07        -0.70175E-09         0.00000E+00
    0.49745E-07        -0.71865E-09         0.00000E+00
    0.49727E-07        -0.73473E-09         0.00000E+00
    0.49708E-07        -0.75002E-09         0.00000E+00
    0.49688E-07        -0.76455E-09         0.00000E+00
    0.49667E-07        -0.77829E-09         0.00000E+00
    0.49646E-07        -0.79125E-09         0.00000E+00
    0.49624E-07        -0.80343E-09         0.00000E+00
    0.49601E-07        -0.81478E-09         0.00000E+00
    0.49577E-07        -0.82529E-09         0.00000E+00
    0.49551E-07        -0.83493E-09         0.00000E+00
    0.49525E-07        -0.84370E-09         0.00000E+00
    0.49497E-07        -0.85163E-09         0.00000E+00
    0.49468E-07        -0.85852E-09         0.00000E+00
    0.49437E-07        -0.86422E-09         0.00000E+00
    0.49404E-07        -0.86845E-09         0.00000E+00
    0.49370E-07        -0.87076E-09         0.00000E+00
    0.49333E-07        -0.87039E-09         0.00000E+00
    0.49295E-07        -0.86795E-09         0.00000E+00
    0.49255E-07        -0.86386E-09         0.00000E+00
    0.49211E-07        -0.85861E-09         0.00000E+00
    0.49162E-07        -0.85328E-09         0.00000E+00
    0.49104E-07        -0.84194E-09         0.00000E+00
    0.49039E-07        -0.81886E-09         0.00000E+00
    0.48976E-07        -0.75391E-09         0.00000E+00
    0.48935E-07        -0.61922E-09         0.00000E+00
    0.48930E-07        -0.42727E-09         0.00000E+00
    0.48944E-07        -0.15965E-09         0.00000E+00
    0.48914E-07        -0.21318E-10         0.00000E+00
    0.48913E-07        -0.62853E-10         0.00000E+00
    0.48910E-07        -0.10275E-09         0.00000E+00
    0.48907E-07        -0.14105E-09         0.00000E+00
    0.48902E-07        -0.17777E-09         0.00000E+00
    0.48896E-07        -0.21295E-09         0.00000E+00
    0.48889E-07        -0.24661E-09         0.00000E+00
    0.48881E-07        -0.27879E-09         0.00000E+00
    0.48873E-07        -0.30953E-09         0.00000E+00
    0.48863E-07        -0.33886E-09         0.00000E+00
    0.48852E-07        -0.36682E-09         0.00000E+00
    0.48841E-07        -0.39345E-09         0.00000E+00
    0.48829E-07        -0.41879E-09         0.00000E+00
    0.48816E-07        -0.44287E-09         0.00000E+00
    0.48802E-07        -0.46574E-09         0.00000E+00
    0.48788E-07        -0.48744E-09         0.00000E+00
    0.48773E-07        -0.50800E-09         0.00000E+00
    0.48757E-07        -0.52746E-09         0.00000E+00
    0.48740E-07        -0.54585E-09         0.00000E+00
    0.48723E-07        -0.56321E-09         0.00000E+00
    0.48705E-07        -0.57956E-09         0.00000E+00
    0.48686E-07        -0.59492E-09         0.00000E+00
    0.48667E-07        -0.60931E-09         0.00000E+00
    0.48647E-07        -0.62274E-09         0.00000E+00
    0.48626E-07        -0.63522E-09         0.00000E+00
    0.48605E-07        -0.64674E-09         0.00000E+00
    0.48582E-07        -0.65729E-09         0.00000E+00
    0.48559E-07        -0.66686E-09         0.00000E+00
    0.48535E-07        -0.67542E-09         0.00000E+00
    0.48510E-07        -0.68292E-09         0.00000E+00
    0.48484E-07        -0.68932E-09         0.00000E+00
    0.48457E-07        -0.69454E-09         0.00000E+00
    0.48429E-07        -0.69848E-09         0.00000E+00
    0.48399E-07        -0.70104E-09         0.00000E+00
    0.48368E-07        -0.70202E-09         0.00000E+00
    0.48336E-07        -0.70129E-09         0.00000E+00
    0.48303E-07        -0.69862E-09         0.00000E+00
    0.48267E-07        -0.69380E-09         0.00000E+00
    0.48230E-07        -0.68659E-09         0.00000E+00
    0.48191E-07        -0.67676E-09         0.00000E+00
    0.48150E-07        -0.66363E-09         0.00000E+00
    0.48106E-07        -0.64641E-09         0.00000E+00
    0.48059E-07        -0.62383E-09         0.00000E+00
    0.48009E-07        -0.59408E-09         0.00000E+00
    0.47958E-07        -0.55686E-09         0.00000E+00
    0.47904E-07        -0.51172E-09         0.00000E+00
    0.47847E-07        -0.45810E-09         0.00000E+00
    0.47783E-07        -0.39132E-09         0.00000E+00
    0.47716E-07        -0.29489E-09         0.00000E+00
    0.47668E-07        -0.11825E-09         0.00000E+00
    0.47852E-07        -0.18102E-10         0.00000E+00
    0.47850E-07        -0.53342E-10         0.00000E+00
    0.47848E-07        -0.87164E-10         0.00000E+00
    0.47844E-07        -0.11960E-09         0.00000E+00
    0.47839E-07        -0.15069E-09         0.00000E+00
    0.47833E-07        -0.18045E-09         0.00000E+00
    0.47826E-07        -0.20892E-09         0.00000E+00
    0.47818E-07        -0.23612E-09         0.00000E+00
    0.47808E-07        -0.26207E-09         0.00000E+00
    0.47798E-07        -0.28682E-09         0.00000E+00
    0.47787E-07        -0.31037E-09         0.00000E+00
    0.47775E-07        -0.33276E-09         0.00000E+00
    0.47762E-07        -0.35400E-09         0.00000E+00
    0.47748E-07        -0.37413E-09         0.00000E+00
    0.47734E-07        -0.39315E-09         0.00000E+00
    0.47718E-07        -0.41110E-09         0.00000E+00
    0.47702E-07        -0.42799E-09         0.00000E+00
    0.47685E-07        -0.44383E-09         0.00000E+00
    0.47668E-07        -0.45864E-09         0.00000E+00
    0.47649E-07        -0.47242E-09         0.00000E+00
    0.47630E-07        -0.48519E-09         0.00000E+00
    0.47610E-07        -0.49695E-09         0.00000E+00
    0.47590E-07        -0.50768E-09         0.00000E+00
    0.47568E-07        -0.51739E-09         0.00000E+00
    0.47546E-07        -0.52606E-09         0.00000E+00
    0.47523E-07        -0.53366E-09         0.00000E+00
    0.47500E-07        -0.54016E-09         0.00000E+00
    0.47475E-07        -0.54553E-09         0.00000E+00
    0.47450E-07        -0.54971E-09         0.00000E+00
    0.47424E-07        -0.55263E-09         0.00000E+00
    0.47397E-07        -0.55422E-09         0.00000E+00
    0.47369E-07        -0.55439E-09         0.00000E+00
    0.47340E-07        -0.55301E-09         0.00000E+00
    0.47310E-07        -0.54997E-09         0.00000E+00
    0.47279E-07        -0.54510E-09         0.00000E+00
    0.47247E-07        -0.53823E-09         0.00000E+00
    0.47214E-07        -0.52912E-09         0.00000E+00
    0.47181E-07        -0.51753E-09         0.00000E+00
    0.47146E-07        -0.50311E-09         0.00000E+00
    0.47110E-07        -0.48547E-09         0.00000E+00
    0.47073E-07        -0.46421E-09         0.00000E+00
    0.47036E-07        -0.43889E-09         0.00000E+00
    0.46998E-07        -0.40910E-09         0.00000E+00
    0.46961E-07        -0.37446E-09         0.00000E+00
    0.46923E-07        -0.33411E-09         0.00000E+00
    0.46888E-07        -0.28701E-09         0.00000E+00
    0.46855E-07        -0.23170E-09         0.00000E+00
    0.46829E-07        -0.16770E-09         0.00000E+00
    0.46812E-07        -0.98349E-10         0.00000E+00
    0.46804E-07        -0.31251E-10         0.00000E+00
    0.46801E-07        -0.14749E-10         0.00000E+00
    0.46800E-07        -0.43453E-10         0.00000E+00
    0.46797E-07        -0.70984E-10         0.00000E+00
    0.46793E-07        -0.97371E-10         0.00000E+00
    0.46788E-07        -0.12264E-09         0.00000E+00
    0.46782E-07        -0.14681E-09         0.00000E+00
    0.46775E-07        -0.16990E-09         0.00000E+00
    0.46766E-07        -0.19194E-09         0.00000E+00
    0.46757E-07        -0.21293E-09         0.00000E+00
    0.46746E-07        -0.23289E-09         0.00000E+00
    0.46735E-07        -0.25184E-09         0.00000E+00
    0.46723E-07        -0.26978E-09         0.00000E+00
    0.46710E-07        -0.28674E-09         0.00000E+00
    0.46696E-07        -0.30271E-09         0.00000E+00
    0.46681E-07        -0.31771E-09         0.00000E+00
    0.46665E-07        -0.33173E-09         0.00000E+00
    0.46649E-07        -0.34480E-09         0.00000E+00
    0.46632E-07        -0.35689E-09         0.00000E+00
    0.46614E-07        -0.36803E-09         0.00000E+00
    0.46595E-07        -0.37820E-09         0.00000E+00
    0.46576E-07        -0.38738E-09         0.00000E+00
    0.46556E-07        -0.39559E-09         0.00000E+00
    0.46535E-07        -0.40279E-09         0.00000E+00
    0.46514E-07        -0.40897E-09         0.00000E+00
    0.46492E-07        -0.41410E-09         0.00000E+00
    0.46469E-07        -0.41815E-09         0.00000E+00
    0.46446E-07        -0.42108E-09         0.00000E+00
    0.46422E-07        -0.42285E-09         0.00000E+00
    0.46398E-07        -0.42341E-09         0.00000E+00
    0.46373E-07        -0.42270E-09         0.00000E+00
    0.46347E-07        -0.42064E-09         0.00000E+00
    0.46321E-07        -0.41716E-09         0.00000E+00
    0.46294E-07        -0.41216E-09         0.00000E+00
    0.46267E-07        -0.40556E-09         0.00000E+00
    0.46239E-07        -0.39723E-09         0.00000E+00
    0.46211E-07        -0.38705E-09         0.00000E+00
    0.46183E-07        -0.37489E-09         0.00000E+00
    0.46155E-07        -0.36062E-09         0.00000E+00
    0.46127E-07        -0.34410E-09         0.00000E+00
    0.46099E-07        -0.32520E-09         0.00000E+00
    0.46071E-07        -0.30381E-09         0.00000E+00
    0.46045E-07        -0.27982E-09         0.00000E+00
    0.46019E-07        -0.25314E-09         0.00000E+00
    0.45995E-07        -0.22375E-09         0.00000E+00
    0.45974E-07        -0.19182E-09         0.00000E+00
    0.45955E-07        -0.15778E-09         0.00000E+00
    0.45940E-07        -0.12249E-09         0.00000E+00
    0.45929E-07        -0.86999E-10         0.00000E+00
    0.45920E-07        -0.51858E-10         0.00000E+00
    0.45916E-07        -0.16913E-10         0.00000E+00
    0.45764E-07        -0.11331E-10         0.00000E+00
    0.45763E-07        -0.33396E-10         0.00000E+00
    0.45760E-07        -0.54574E-10         0.00000E+00
    0.45757E-07        -0.74878E-10         0.00000E+00
    0.45752E-07        -0.94319E-10         0.00000E+00
    0.45745E-07        -0.11291E-09         0.00000E+00
    0.45738E-07        -0.13065E-09         0.00000E+00
    0.45730E-07        -0.14755E-09         0.00000E+00
    0.45720E-07        -0.16361E-09         0.00000E+00
    0.45710E-07        -0.17884E-09         0.00000E+00
    0.45699E-07        -0.19325E-09         0.00000E+00
    0.45687E-07        -0.20683E-09         0.00000E+00
    0.45674E-07        -0.21958E-09         0.00000E+00
    0.45660E-07        -0.23151E-09         0.00000E+00
    0.45646E-07        -0.24260E-09         0.00000E+00
    0.45631E-07        -0.25287E-09         0.00000E+00
    0.45615E-07        -0.26230E-09         0.00000E+00
    0.45598E-07        -0.27088E-09         0.00000E+00
    0.45581E-07        -0.27861E-09         0.00000E+00
    0.45563E-07        -0.28548E-09         0.00000E+00
    0.45545E-07        -0.29148E-09         0.00000E+00
    0.45526E-07        -0.29659E-09         0.00000E+00
    0.45506E-07        -0.30079E-09         0.00000E+00
    0.45486E-07        -0.30406E-09         0.00000E+00
    0.45466E-07        -0.30639E-09         0.00000E+00
    0.45445E-07        -0.30774E-09         0.00000E+00
    0.45423E-07        -0.30808E-09         0.00000E+00
    0.45401E-07        -0.30740E-09         0.00000E+00
    0.45379E-07        -0.30564E-09         0.00000E+00
    0.45357E-07        -0.30278E-09         0.00000E+00
    0.45334E-07        -0.29877E-09         0.00000E+00
    0.45311E-07        -0.29358E-09         0.00000E+00
    0.45288E-07        -0.28716E-09         0.00000E+00
    0.45265E-07        -0.27948E-09         0.00000E+00
    0.45242E-07        -0.27049E-09         0.00000E+00
    0.45219E-07        -0.26016E-09         0.00000E+00
    0.45197E-07        -0.24848E-09         0.00000E+00
    0.45175E-07        -0.23542E-09         0.00000E+00
    0.45154E-07        -0.22100E-09         0.00000E+00
    0.45133E-07        -0.20522E-09         0.00000E+00
    0.45113E-07        -0.18817E-09         0.00000E+00
    0.45095E-07        -0.16992E-09         0.00000E+00
    0.45078E-07        -0.15064E-09         0.00000E+00
    0.45062E-07        -0.13053E-09         0.00000E+00
    0.45049E-07        -0.10985E-09         0.00000E+00
    0.45037E-07        -0.88886E-10         0.00000E+00
    0.45028E-07        -0.67901E-10         0.00000E+00
    0.45020E-07        -0.47184E-10         0.00000E+00
    0.45016E-07        -0.27213E-10         0.00000E+00
    0.45013E-07        -0.86436E-11         0.00000E+00
    0.44742E-07        -0.79674E-11         0.00000E+00
    0.44741E-07        -0.23519E-10         0.00000E+00
    0.44738E-07        -0.38493E-10         0.00000E+00
    0.44735E-07        -0.52882E-10         0.00000E+00
    0.44730E-07        -0.66681E-10         0.00000E+00
    0.44724E-07        -0.79885E-10         0.00000E+00
    0.44717E-07        -0.92488E-10         0.00000E+00
    0.44709E-07        -0.10448E-09         0.00000E+00
    0.44700E-07        -0.11586E-09         0.00000E+00
    0.44691E-07        -0.12662E-09         0.00000E+00
    0.44680E-07        -0.13676E-09         0.00000E+00
    0.44669E-07        -0.14626E-09         0.00000E+00
    0.44656E-07        -0.15512E-09         0.00000E+00
    0.44644E-07        -0.16333E-09         0.00000E+00
    0.44630E-07        -0.17088E-09         0.00000E+00
    0.44616E-07        -0.17777E-09         0.00000E+00
    0.44601E-07        -0.18398E-09         0.00000E+00
    0.44586E-07        -0.18951E-09         0.00000E+00
    0.44570E-07        -0.19435E-09         0.00000E+00
    0.44553E-07        -0.19848E-09         0.00000E+00
    0.44537E-07        -0.20189E-09         0.00000E+00
    0.44519E-07        -0.20458E-09         0.00000E+00
    0.44502E-07        -0.20652E-09         0.00000E+00
    0.44483E-07        -0.20771E-09         0.00000E+00
    0.44465E-07        -0.20813E-09         0.00000E+00
    0.44446E-07        -0.20777E-09         0.00000E+00
    0.44428E-07        -0.20662E-09         0.00000E+00
    0.44409E-07        -0.20466E-09         0.00000E+00
    0.44389E-07        -0.20188E-09         0.00000E+00
    0.44370E-07        -0.19828E-09         0.00000E+00
    0.44351E-07        -0.19383E-09         0.00000E+00
    0.44332E-07        -0.18855E-09         0.00000E+00
    0.44313E-07        -0.18242E-09         0.00000E+00
    0.44294E-07        -0.17546E-09         0.00000E+00
    0.44276E-07        -0.16768E-09         0.00000E+00
    0.44258E-07        -0.15910E-09         0.00000E+00
    0.44240E-07        -0.14975E-09         0.00000E+00
    0.44223E-07        -0.13968E-09         0.00000E+00
    0.44207E-07        -0.12896E-09         0.00000E+00
    0.44192E-07        -0.11765E-09         0.00000E+00
    0.44178E-07        -0.10586E-09         0.00000E+00
    0.44164E-07        -0.93703E-10         0.00000E+00
    0.44152E-07        -0.81321E-10         0.00000E+00
    0.44142E-07        -0.68863E-10         0.00000E+00
    0.44132E-07        -0.56506E-10         0.00000E+00
    0.44124E-07        -0.44445E-10         0.00000E+00
    0.44118E-07        -0.32910E-10         0.00000E+00
    0.44113E-07        -0.22143E-10         0.00000E+00
    0.44110E-07        -0.12352E-10         0.00000E+00
    0.44108E-07        -0.37092E-11         0.00000E+00
    0.43736E-07        -0.47878E-11         0.00000E+00
    0.43735E-07        -0.14195E-10         0.00000E+00
    0.43732E-07        -0.23331E-10         0.00000E+00
    0.43729E-07        -0.32173E-10         0.00000E+00
    0.43724E-07        -0.40702E-10         0.00000E+00
    0.43719E-07        -0.48897E-10         0.00000E+00
    0.43713E-07        -0.56739E-10         0.00000E+00
    0.43705E-07        -0.64213E-10         0.00000E+00
    0.43697E-07        -0.71301E-10         0.00000E+00
    0.43688E-07        -0.77989E-10         0.00000E+00
    0.43679E-07        -0.84263E-10         0.00000E+00
    0.43668E-07        -0.90108E-10         0.00000E+00
    0.43657E-07        -0.95512E-10         0.00000E+00
    0.43646E-07        -0.10046E-09         0.00000E+00
    0.43633E-07        -0.10495E-09         0.00000E+00
    0.43621E-07        -0.10895E-09         0.00000E+00
    0.43607E-07        -0.11247E-09         0.00000E+00
    0.43594E-07        -0.11550E-09         0.00000E+00
    0.43579E-07        -0.11801E-09         0.00000E+00
    0.43565E-07        -0.12001E-09         0.00000E+00
    0.43550E-07        -0.12149E-09         0.00000E+00
    0.43535E-07        -0.12244E-09         0.00000E+00
    0.43519E-07        -0.12285E-09         0.00000E+00
    0.43504E-07        -0.12271E-09         0.00000E+00
    0.43488E-07        -0.12203E-09         0.00000E+00
    0.43472E-07        -0.12080E-09         0.00000E+00
    0.43456E-07        -0.11902E-09         0.00000E+00
    0.43440E-07        -0.11670E-09         0.00000E+00
    0.43424E-07        -0.11384E-09         0.00000E+00
    0.43408E-07        -0.11044E-09         0.00000E+00
    0.43392E-07        -0.10652E-09         0.00000E+00
    0.43376E-07        -0.10210E-09         0.00000E+00
    0.43361E-07        -0.97196E-10         0.00000E+00
    0.43346E-07        -0.91840E-10         0.00000E+00
    0.43331E-07        -0.86065E-10         0.00000E+00
    0.43317E-07        -0.79915E-10         0.00000E+00
    0.43303E-07        -0.73441E-10         0.00000E+00
    0.43290E-07        -0.66701E-10         0.00000E+00
    0.43278E-07        -0.59767E-10         0.00000E+00
    0.43267E-07        -0.52716E-10         0.00000E+00
    0.43256E-07        -0.45640E-10         0.00000E+00
    0.43246E-07        -0.38637E-10         0.00000E+00
    0.43237E-07        -0.31819E-10         0.00000E+00
    0.43229E-07        -0.25308E-10         0.00000E+00
    0.43223E-07        -0.19231E-10         0.00000E+00
    0.43217E-07        -0.13728E-10         0.00000E+00
    0.43212E-07        -0.89351E-11         0.00000E+00
    0.43209E-07        -0.49959E-11         0.00000E+00
    0.43207E-07        -0.20705E-11         0.00000E+00
    0.43205E-07        -0.33254E-12         0.00000E+00
    0.42746E-07        -0.19018E-11         0.00000E+00
    0.42745E-07        -0.57337E-11         0.00000E+00
    0.42743E-07        -0.95802E-11         0.00000E+00
    0.42740E-07        -0.13406E-10         0.00000E+00
    0.42736E-07        -0.17178E-10         0.00000E+00
    0.42731E-07        -0.20866E-10         0.00000E+00
    0.42725E-07        -0.24444E-10         0.00000E+00
    0.42719E-07        -0.27884E-10         0.00000E+00
    0.42712E-07        -0.31163E-10         0.00000E+00
    0.42704E-07        -0.34260E-10         0.00000E+00
    0.42695E-07        -0.37155E-10         0.00000E+00
    0.42686E-07        -0.39828E-10         0.00000E+00
    0.42677E-07        -0.42264E-10         0.00000E+00
    0.42666E-07        -0.44446E-10         0.00000E+00
    0.42656E-07        -0.46361E-10         0.00000E+00
    0.42645E-07        -0.47995E-10         0.00000E+00
    0.42633E-07        -0.49339E-10         0.00000E+00
    0.42621E-07        -0.50382E-10         0.00000E+00
    0.42609E-07        -0.51115E-10         0.00000E+00
    0.42596E-07        -0.51533E-10         0.00000E+00
    0.42584E-07        -0.51630E-10         0.00000E+00
    0.42571E-07        -0.51403E-10         0.00000E+00
    0.42558E-07        -0.50850E-10         0.00000E+00
    0.42544E-07        -0.49971E-10         0.00000E+00
    0.42531E-07        -0.48771E-10         0.00000E+00
    0.42518E-07        -0.47252E-10         0.00000E+00
    0.42504E-07        -0.45425E-10         0.00000E+00
    0.42491E-07        -0.43298E-10         0.00000E+00
    0.42478E-07        -0.40886E-10         0.00000E+00
    0.42465E-07        -0.38207E-10         0.00000E+00
    0.42452E-07        -0.35282E-10         0.00000E+00
    0.42439E-07        -0.32135E-10         0.00000E+00
    0.42427E-07        -0.28798E-10         0.00000E+00
    0.42415E-07        -0.25305E-10         0.00000E+00
    0.42403E-07        -0.21696E-10         0.00000E+00
    0.42392E-07        -0.18016E-10         0.00000E+00
    0.42382E-07        -0.14316E-10         0.00000E+00
    0.42372E-07        -0.10653E-10         0.00000E+00
    0.42362E-07        -0.70905E-11         0.00000E+00
    0.42353E-07        -0.36967E-11         0.00000E+00
    0.42345E-07        -0.54619E-12         0.00000E+00
    0.42338E-07         0.22805E-11         0.00000E+00
    0.42331E-07         0.46978E-11         0.00000E+00
    0.42325E-07         0.66158E-11         0.00000E+00
    0.42320E-07         0.79394E-11         0.00000E+00
    0.42316E-07         0.85703E-11         0.00000E+00
    0.42313E-07         0.84053E-11         0.00000E+00
    0.42310E-07         0.73386E-11         0.00000E+00
    0.42308E-07         0.52672E-11         0.00000E+00
    0.42308E-07         0.20920E-11         0.00000E+00
    0.41775E-07         0.61786E-12         0.00000E+00
    0.41774E-07         0.16559E-11         0.00000E+00
    0.41772E-07         0.24315E-11         0.00000E+00
    0.41769E-07         0.29883E-11         0.00000E+00
    0.41766E-07         0.33663E-11         0.00000E+00
    0.41762E-07         0.36025E-11         0.00000E+00
    0.41757E-07         0.37309E-11         0.00000E+00
    0.41751E-07         0.37826E-11         0.00000E+00
    0.41745E-07         0.37864E-11         0.00000E+00
    0.41738E-07         0.37683E-11         0.00000E+00
    0.41731E-07         0.37523E-11         0.00000E+00
    0.41723E-07         0.37599E-11         0.00000E+00
    0.41715E-07         0.38107E-11         0.00000E+00
    0.41707E-07         0.39221E-11         0.00000E+00
    0.41697E-07         0.41096E-11         0.00000E+00
    0.41688E-07         0.43865E-11         0.00000E+00
    0.41678E-07         0.47645E-11         0.00000E+00
    0.41668E-07         0.52528E-11         0.00000E+00
    0.41658E-07         0.58592E-11         0.00000E+00
    0.41647E-07         0.65890E-11         0.00000E+00
    0.41637E-07         0.74456E-11         0.00000E+00
    0.41626E-07         0.84303E-11         0.00000E+00
    0.41615E-07         0.95420E-11         0.00000E+00
    0.41604E-07         0.10778E-10         0.00000E+00
    0.41593E-07         0.12131E-10         0.00000E+00
    0.41582E-07         0.13595E-10         0.00000E+00
    0.41571E-07         0.15157E-10         0.00000E+00
    0.41560E-07         0.16804E-10         0.00000E+00
    0.41550E-07         0.18519E-10         0.00000E+00
    0.41539E-07         0.20282E-10         0.00000E+00
    0.41529E-07         0.22071E-10         0.00000E+00
    0.41519E-07         0.23858E-10         0.00000E+00
    0.41509E-07         0.25613E-10         0.00000E+00
    0.41500E-07         0.27303E-10         0.00000E+00
    0.41491E-07         0.28891E-10         0.00000E+00
    0.41482E-07         0.30334E-10         0.00000E+00
    0.41474E-07         0.31588E-10         0.00000E+00
    0.41466E-07         0.32603E-10         0.00000E+00
    0.41459E-07         0.33328E-10         0.00000E+00
    0.41452E-07         0.33706E-10         0.00000E+00
    0.41446E-07         0.33677E-10         0.00000E+00
    0.41440E-07         0.33179E-10         0.00000E+00
    0.41435E-07         0.32144E-10         0.00000E+00
    0.41430E-07         0.30505E-10         0.00000E+00
    0.41427E-07         0.28189E-10         0.00000E+00
    0.41424E-07         0.25124E-10         0.00000E+00
    0.41421E-07         0.21236E-10         0.00000E+00
    0.41419E-07         0.16449E-10         0.00000E+00
    0.41418E-07         0.10687E-10         0.00000E+00
    0.41417E-07         0.38728E-11         0.00000E+00
    0.40823E-07         0.27366E-11         0.00000E+00
    0.40822E-07         0.78756E-11         0.00000E+00
    0.40821E-07         0.12550E-10         0.00000E+00
    0.40819E-07         0.16807E-10         0.00000E+00
    0.40816E-07         0.20689E-10         0.00000E+00
    0.40812E-07         0.24238E-10         0.00000E+00
    0.40808E-07         0.27490E-10         0.00000E+00
    0.40804E-07         0.30479E-10         0.00000E+00
    0.40799E-07         0.33237E-10         0.00000E+00
    0.40793E-07         0.35791E-10         0.00000E+00
    0.40787E-07         0.38168E-10         0.00000E+00
    0.40781E-07         0.40392E-10         0.00000E+00
    0.40774E-07         0.42482E-10         0.00000E+00
    0.40767E-07         0.44457E-10         0.00000E+00
    0.40759E-07         0.46335E-10         0.00000E+00
    0.40751E-07         0.48129E-10         0.00000E+00
    0.40743E-07         0.49850E-10         0.00000E+00
    0.40735E-07         0.51509E-10         0.00000E+00
    0.40727E-07         0.53112E-10         0.00000E+00
    0.40718E-07         0.54666E-10         0.00000E+00
    0.40709E-07         0.56172E-10         0.00000E+00
    0.40701E-07         0.57633E-10         0.00000E+00
    0.40692E-07         0.59045E-10         0.00000E+00
    0.40683E-07         0.60406E-10         0.00000E+00
    0.40674E-07         0.61709E-10         0.00000E+00
    0.40665E-07         0.62945E-10         0.00000E+00
    0.40657E-07         0.64104E-10         0.00000E+00
    0.40648E-07         0.65171E-10         0.00000E+00
    0.40639E-07         0.66131E-10         0.00000E+00
    0.40631E-07         0.66965E-10         0.00000E+00
    0.40623E-07         0.67651E-10         0.00000E+00
    0.40615E-07         0.68165E-10         0.00000E+00
    0.40607E-07         0.68480E-10         0.00000E+00
    0.40600E-07         0.68567E-10         0.00000E+00
    0.40593E-07         0.68393E-10         0.00000E+00
    0.40586E-07         0.67924E-10         0.00000E+00
    0.40580E-07         0.67121E-10         0.00000E+00
    0.40574E-07         0.65945E-10         0.00000E+00
    0.40568E-07         0.64352E-10         0.00000E+00
    0.40563E-07         0.62299E-10         0.00000E+00
    0.40558E-07         0.59737E-10         0.00000E+00
    0.40554E-07         0.56617E-10         0.00000E+00
    0.40550E-07         0.52889E-10         0.00000E+00
    0.40547E-07         0.48500E-10         0.00000E+00
    0.40544E-07         0.43395E-10         0.00000E+00
    0.40542E-07         0.37520E-10         0.00000E+00
    0.40540E-07         0.30818E-10         0.00000E+00
    0.40538E-07         0.23234E-10         0.00000E+00
    0.40537E-07         0.14712E-10         0.00000E+00
    0.40537E-07         0.51943E-11         0.00000E+00
    0.39893E-07         0.44526E-11         0.00000E+00
    0.39892E-07         0.12920E-10         0.00000E+00
    0.39891E-07         0.20768E-10         0.00000E+00
    0.39890E-07         0.28042E-10         0.00000E+00
    0.39887E-07         0.34788E-10         0.00000E+00
    0.39885E-07         0.41045E-10         0.00000E+00
    0.39881E-07         0.46851E-10         0.00000E+00
    0.39878E-07         0.52240E-10         0.00000E+00
    0.39874E-07         0.57244E-10         0.00000E+00
    0.39869E-07         0.61893E-10         0.00000E+00
    0.39864E-07         0.66211E-10         0.00000E+00
    0.39859E-07         0.70224E-10         0.00000E+00
    0.39854E-07         0.73953E-10         0.00000E+00
    0.39848E-07         0.77417E-10         0.00000E+00
    0.39842E-07         0.80632E-10         0.00000E+00
    0.39836E-07         0.83613E-10         0.00000E+00
    0.39830E-07         0.86372E-10         0.00000E+00
    0.39823E-07         0.88919E-10         0.00000E+00
    0.39816E-07         0.91261E-10         0.00000E+00
    0.39809E-07         0.93405E-10         0.00000E+00
    0.39803E-07         0.95353E-10         0.00000E+00
    0.39796E-07         0.97108E-10         0.00000E+00
    0.39789E-07         0.98667E-10         0.00000E+00
    0.39782E-07         0.10003E-09         0.00000E+00
    0.39775E-07         0.10119E-09         0.00000E+00
    0.39768E-07         0.10213E-09         0.00000E+00
    0.39761E-07         0.10286E-09         0.00000E+00
    0.39754E-07         0.10335E-09         0.00000E+00
    0.39748E-07         0.10360E-09         0.00000E+00
    0.39741E-07         0.10359E-09         0.00000E+00
    0.39735E-07         0.10329E-09         0.00000E+00
    0.39729E-07         0.10270E-09         0.00000E+00
    0.39723E-07         0.10178E-09         0.00000E+00
    0.39717E-07         0.10051E-09         0.00000E+00
    0.39712E-07         0.98870E-10         0.00000E+00
    0.39707E-07         0.96827E-10         0.00000E+00
    0.39702E-07         0.94350E-10         0.00000E+00
    0.39697E-07         0.91408E-10         0.00000E+00
    0.39693E-07         0.87967E-10         0.00000E+00
    0.39689E-07         0.83991E-10         0.00000E+00
    0.39685E-07         0.79443E-10         0.00000E+00
    0.39682E-07         0.74285E-10         0.00000E+00
    0.39679E-07         0.68477E-10         0.00000E+00
    0.39677E-07         0.61980E-10         0.00000E+00
    0.39675E-07         0.54751E-10         0.00000E+00
    0.39673E-07         0.46750E-10         0.00000E+00
    0.39672E-07         0.37933E-10         0.00000E+00
    0.39671E-07         0.28258E-10         0.00000E+00
    0.39670E-07         0.17684E-10         0.00000E+00
    0.39670E-07         0.61668E-11         0.00000E+00
    0.38987E-07         0.57870E-11         0.00000E+00
    0.38987E-07         0.16851E-10         0.00000E+00
    0.38986E-07         0.27184E-10         0.00000E+00
    0.38985E-07         0.36830E-10         0.00000E+00
    0.38983E-07         0.45831E-10         0.00000E+00
    0.38981E-07         0.54227E-10         0.00000E+00
    0.38978E-07         0.62052E-10         0.00000E+00
    0.38976E-07         0.69340E-10         0.00000E+00
    0.38972E-07         0.76122E-10         0.00000E+00
    0.38969E-07         0.82426E-10         0.00000E+00
    0.38965E-07         0.88278E-10         0.00000E+00
    0.38961E-07         0.93701E-10         0.00000E+00
    0.38957E-07         0.98716E-10         0.00000E+00
    0.38953E-07         0.10334E-09         0.00000E+00
    0.38948E-07         0.10760E-09         0.00000E+00
    0.38943E-07         0.11149E-09         0.00000E+00
    0.38938E-07         0.11504E-09         0.00000E+00
    0.38933E-07         0.11826E-09         0.00000E+00
    0.38928E-07         0.12114E-09         0.00000E+00
    0.38923E-07         0.12371E-09         0.00000E+00
    0.38918E-07         0.12596E-09         0.00000E+00
    0.38912E-07         0.12789E-09         0.00000E+00
    0.38907E-07         0.12951E-09         0.00000E+00
    0.38902E-07         0.13082E-09         0.00000E+00
    0.38896E-07         0.13180E-09         0.00000E+00
    0.38891E-07         0.13246E-09         0.00000E+00
    0.38886E-07         0.13278E-09         0.00000E+00
    0.38881E-07         0.13277E-09         0.00000E+00
    0.38876E-07         0.13240E-09         0.00000E+00
    0.38871E-07         0.13166E-09         0.00000E+00
    0.38866E-07         0.13054E-09         0.00000E+00
    0.38862E-07         0.12903E-09         0.00000E+00
    0.38857E-07         0.12710E-09         0.00000E+00
    0.38853E-07         0.12473E-09         0.00000E+00
    0.38849E-07         0.12191E-09         0.00000E+00
    0.38845E-07         0.11862E-09         0.00000E+00
    0.38841E-07         0.11482E-09         0.00000E+00
    0.38838E-07         0.11049E-09         0.00000E+00
    0.38835E-07         0.10561E-09         0.00000E+00
    0.38832E-07         0.10014E-09         0.00000E+00
    0.38830E-07         0.94070E-10         0.00000E+00
    0.38827E-07         0.87357E-10         0.00000E+00
    0.38825E-07         0.79973E-10         0.00000E+00
    0.38823E-07         0.71888E-10         0.00000E+00
    0.38822E-07         0.63070E-10         0.00000E+00
    0.38821E-07         0.53488E-10         0.00000E+00
    0.38820E-07         0.43108E-10         0.00000E+00
    0.38819E-07         0.31899E-10         0.00000E+00
    0.38818E-07         0.19829E-10         0.00000E+00
    0.38818E-07         0.68657E-11         0.00000E+00
    0.38108E-07         0.67758E-11         0.00000E+00
    0.38108E-07         0.19771E-10         0.00000E+00
    0.38107E-07         0.31963E-10         0.00000E+00
    0.38106E-07         0.43393E-10         0.00000E+00
    0.38105E-07         0.54097E-10         0.00000E+00
    0.38104E-07         0.64113E-10         0.00000E+00
    0.38102E-07         0.73472E-10         0.00000E+00
    0.38100E-07         0.82207E-10         0.00000E+00
    0.38097E-07         0.90345E-10         0.00000E+00
    0.38095E-07         0.97912E-10         0.00000E+00
    0.38092E-07         0.10493E-09         0.00000E+00
    0.38089E-07         0.11143E-09         0.00000E+00
    0.38086E-07         0.11743E-09         0.00000E+00
    0.38083E-07         0.12294E-09         0.00000E+00
    0.38080E-07         0.12798E-09         0.00000E+00
    0.38076E-07         0.13256E-09         0.00000E+00
    0.38072E-07         0.13670E-09         0.00000E+00
    0.38069E-07         0.14041E-09         0.00000E+00
    0.38065E-07         0.14370E-09         0.00000E+00
    0.38061E-07         0.14656E-09         0.00000E+00
    0.38057E-07         0.14902E-09         0.00000E+00
    0.38053E-07         0.15106E-09         0.00000E+00
    0.38049E-07         0.15269E-09         0.00000E+00
    0.38045E-07         0.15392E-09         0.00000E+00
    0.38041E-07         0.15474E-09         0.00000E+00
    0.38038E-07         0.15514E-09         0.00000E+00
    0.38034E-07         0.15512E-09         0.00000E+00
    0.38030E-07         0.15468E-09         0.00000E+00
    0.38026E-07         0.15380E-09         0.00000E+00
    0.38023E-07         0.15248E-09         0.00000E+00
    0.38019E-07         0.15070E-09         0.00000E+00
    0.38016E-07         0.14846E-09         0.00000E+00
    0.38013E-07         0.14574E-09         0.00000E+00
    0.38010E-07         0.14252E-09         0.00000E+00
    0.38007E-07         0.13878E-09         0.00000E+00
    0.38004E-07         0.13452E-09         0.00000E+00
    0.38002E-07         0.12970E-09         0.00000E+00
    0.37999E-07         0.12432E-09         0.00000E+00
    0.37997E-07         0.11835E-09         0.00000E+00
    0.37995E-07         0.11178E-09         0.00000E+00
    0.37993E-07         0.10456E-09         0.00000E+00
    0.37992E-07         0.96698E-10         0.00000E+00
    0.37990E-07         0.88154E-10         0.00000E+00
    0.37989E-07         0.78909E-10         0.00000E+00
    0.37988E-07         0.68938E-10         0.00000E+00
    0.37987E-07         0.58216E-10         0.00000E+00
    0.37986E-07         0.46721E-10         0.00000E+00
    0.37986E-07         0.34427E-10         0.00000E+00
    0.37986E-07         0.21309E-10         0.00000E+00
    0.37985E-07         0.73444E-11         0.00000E+00
    0.37258E-07         0.74618E-11         0.00000E+00
    0.37258E-07         0.21805E-10         0.00000E+00
    0.37258E-07         0.35305E-10         0.00000E+00
    0.37257E-07         0.47999E-10         0.00000E+00
    0.37256E-07         0.59918E-10         0.00000E+00
    0.37255E-07         0.71096E-10         0.00000E+00
    0.37254E-07         0.81561E-10         0.00000E+00
    0.37252E-07         0.91342E-10         0.00000E+00
    0.37251E-07         0.10046E-09         0.00000E+00
    0.37249E-07         0.10895E-09         0.00000E+00
    0.37247E-07         0.11683E-09         0.00000E+00
    0.37245E-07         0.12411E-09         0.00000E+00
    0.37243E-07         0.13082E-09         0.00000E+00
    0.37241E-07         0.13698E-09         0.00000E+00
    0.37239E-07         0.14259E-09         0.00000E+00
    0.37236E-07         0.14767E-09         0.00000E+00
    0.37234E-07         0.15224E-09         0.00000E+00
    0.37231E-07         0.15630E-09         0.00000E+00
    0.37228E-07         0.15987E-09         0.00000E+00
    0.37226E-07         0.16294E-09         0.00000E+00
    0.37223E-07         0.16553E-09         0.00000E+00
    0.37220E-07         0.16764E-09         0.00000E+00
    0.37218E-07         0.16927E-09         0.00000E+00
    0.37215E-07         0.17042E-09         0.00000E+00
    0.37212E-07         0.17109E-09         0.00000E+00
    0.37210E-07         0.17128E-09         0.00000E+00
    0.37207E-07         0.17099E-09         0.00000E+00
    0.37205E-07         0.17022E-09         0.00000E+00
    0.37202E-07         0.16895E-09         0.00000E+00
    0.37200E-07         0.16718E-09         0.00000E+00
    0.37197E-07         0.16490E-09         0.00000E+00
    0.37195E-07         0.16210E-09         0.00000E+00
    0.37193E-07         0.15878E-09         0.00000E+00
    0.37191E-07         0.15492E-09         0.00000E+00
    0.37189E-07         0.15050E-09         0.00000E+00
    0.37187E-07         0.14552E-09         0.00000E+00
    0.37185E-07         0.13997E-09         0.00000E+00
    0.37184E-07         0.13382E-09         0.00000E+00
    0.37182E-07         0.12706E-09         0.00000E+00
    0.37181E-07         0.11968E-09         0.00000E+00
    0.37180E-07         0.11166E-09         0.00000E+00
    0.37179E-07         0.10297E-09         0.00000E+00
    0.37178E-07         0.93616E-10         0.00000E+00
    0.37177E-07         0.83564E-10         0.00000E+00
    0.37176E-07         0.72799E-10         0.00000E+00
    0.37176E-07         0.61303E-10         0.00000E+00
    0.37176E-07         0.49058E-10         0.00000E+00
    0.37175E-07         0.36045E-10         0.00000E+00
    0.37175E-07         0.22246E-10         0.00000E+00
    0.37175E-07         0.76434E-11         0.00000E+00
    0.36440E-07         0.78898E-11         0.00000E+00
    0.36440E-07         0.23083E-10         0.00000E+00
    0.36439E-07         0.37419E-10         0.00000E+00
    0.36439E-07         0.50930E-10         0.00000E+00
    0.36439E-07         0.63644E-10         0.00000E+00
    0.36438E-07         0.75589E-10         0.00000E+00
    0.36437E-07         0.86790E-10         0.00000E+00
    0.36436E-07         0.97273E-10         0.00000E+00
    0.36435E-07         0.10706E-09         0.00000E+00
    0.36434E-07         0.11617E-09         0.00000E+00
    0.36433E-07         0.12463E-09         0.00000E+00
    0.36432E-07         0.13245E-09         0.00000E+00
    0.36431E-07         0.13964E-09         0.00000E+00
    0.36429E-07         0.14624E-09         0.00000E+00
    0.36428E-07         0.15224E-09         0.00000E+00
    0.36426E-07         0.15767E-09         0.00000E+00
    0.36425E-07         0.16253E-09         0.00000E+00
    0.36423E-07         0.16683E-09         0.00000E+00
    0.36422E-07         0.17058E-09         0.00000E+00
    0.36420E-07         0.17379E-09         0.00000E+00
    0.36418E-07         0.17646E-09         0.00000E+00
    0.36417E-07         0.17860E-09         0.00000E+00
    0.36415E-07         0.18021E-09         0.00000E+00
    0.36413E-07         0.18130E-09         0.00000E+00
    0.36412E-07         0.18186E-09         0.00000E+00
    0.36410E-07         0.18189E-09         0.00000E+00
    0.36408E-07         0.18140E-09         0.00000E+00
    0.36407E-07         0.18037E-09         0.00000E+00
    0.36405E-07         0.17881E-09         0.00000E+00
    0.36404E-07         0.17672E-09         0.00000E+00
    0.36402E-07         0.17408E-09         0.00000E+00
    0.36401E-07         0.17089E-09         0.00000E+00
    0.36400E-07         0.16714E-09         0.00000E+00
    0.36399E-07         0.16282E-09         0.00000E+00
    0.36397E-07         0.15793E-09         0.00000E+00
    0.36396E-07         0.15246E-09         0.00000E+00
    0.36395E-07         0.14639E-09         0.00000E+00
    0.36395E-07         0.13971E-09         0.00000E+00
    0.36394E-07         0.13242E-09         0.00000E+00
    0.36393E-07         0.12450E-09         0.00000E+00
    0.36392E-07         0.11594E-09         0.00000E+00
    0.36392E-07         0.10672E-09         0.00000E+00
    0.36391E-07         0.96835E-10         0.00000E+00
    0.36391E-07         0.86268E-10         0.00000E+00
    0.36391E-07         0.75007E-10         0.00000E+00
    0.36390E-07         0.63037E-10         0.00000E+00
    0.36390E-07         0.50344E-10         0.00000E+00
    0.36390E-07         0.36915E-10         0.00000E+00
    0.36390E-07         0.22736E-10         0.00000E+00
    0.36390E-07         0.77942E-11         0.00000E+00
    0.35655E-07         0.81034E-11         0.00000E+00
    0.35655E-07         0.23731E-10         0.00000E+00
    0.35655E-07         0.38508E-10         0.00000E+00
    0.35655E-07         0.52462E-10         0.00000E+00
    0.35655E-07         0.65617E-10         0.00000E+00
    0.35655E-07         0.77995E-10         0.00000E+00
    0.35654E-07         0.89620E-10         0.00000E+00
    0.35654E-07         0.10051E-09         0.00000E+00
    0.35654E-07         0.11069E-09         0.00000E+00
    0.35653E-07         0.12017E-09         0.00000E+00
    0.35653E-07         0.12898E-09         0.00000E+00
    0.35652E-07         0.13712E-09         0.00000E+00
    0.35651E-07         0.14462E-09         0.00000E+00
    0.35651E-07         0.15148E-09         0.00000E+00
    0.35650E-07         0.15772E-09         0.00000E+00
    0.35649E-07         0.16336E-09         0.00000E+00
    0.35649E-07         0.16839E-09         0.00000E+00
    0.35648E-07         0.17283E-09         0.00000E+00
    0.35647E-07         0.17670E-09         0.00000E+00
    0.35646E-07         0.17998E-09         0.00000E+00
    0.35645E-07         0.18270E-09         0.00000E+00
    0.35644E-07         0.18485E-09         0.00000E+00
    0.35644E-07         0.18644E-09         0.00000E+00
    0.35643E-07         0.18747E-09         0.00000E+00
    0.35642E-07         0.18795E-09         0.00000E+00
    0.35641E-07         0.18787E-09         0.00000E+00
    0.35641E-07         0.18723E-09         0.00000E+00
    0.35640E-07         0.18603E-09         0.00000E+00
    0.35639E-07         0.18428E-09         0.00000E+00
    0.35638E-07         0.18196E-09         0.00000E+00
    0.35638E-07         0.17908E-09         0.00000E+00
    0.35637E-07         0.17563E-09         0.00000E+00
    0.35637E-07         0.17160E-09         0.00000E+00
    0.35636E-07         0.16699E-09         0.00000E+00
    0.35636E-07         0.16180E-09         0.00000E+00
    0.35635E-07         0.15601E-09         0.00000E+00
    0.35635E-07         0.14962E-09         0.00000E+00
    0.35634E-07         0.14263E-09         0.00000E+00
    0.35634E-07         0.13501E-09         0.00000E+00
    0.35634E-07         0.12677E-09         0.00000E+00
    0.35634E-07         0.11790E-09         0.00000E+00
    0.35634E-07         0.10838E-09         0.00000E+00
    0.35633E-07         0.98202E-10         0.00000E+00
    0.35633E-07         0.87364E-10         0.00000E+00
    0.35633E-07         0.75852E-10         0.00000E+00
    0.35633E-07         0.63655E-10         0.00000E+00
    0.35633E-07         0.50764E-10         0.00000E+00
    0.35633E-07         0.37168E-10         0.00000E+00
    0.35633E-07         0.22858E-10         0.00000E+00
    0.35633E-07         0.78230E-11         0.00000E+00
    0.34908E-07         0.81425E-11         0.00000E+00
    0.34908E-07         0.23865E-10         0.00000E+00
    0.34908E-07         0.38761E-10         0.00000E+00
    0.34908E-07         0.52850E-10         0.00000E+00
    0.34908E-07         0.66153E-10         0.00000E+00
    0.34908E-07         0.78689E-10         0.00000E+00
    0.34908E-07         0.90477E-10         0.00000E+00
    0.34908E-07         0.10153E-09         0.00000E+00
    0.34908E-07         0.11188E-09         0.00000E+00
    0.34908E-07         0.12152E-09         0.00000E+00
    0.34908E-07         0.13048E-09         0.00000E+00
    0.34908E-07         0.13877E-09         0.00000E+00
    0.34908E-07         0.14641E-09         0.00000E+00
    0.34908E-07         0.15339E-09         0.00000E+00
    0.34908E-07         0.15975E-09         0.00000E+00
    0.34907E-07         0.16548E-09         0.00000E+00
    0.34907E-07         0.17059E-09         0.00000E+00
    0.34907E-07         0.17510E-09         0.00000E+00
    0.34907E-07         0.17901E-09         0.00000E+00
    0.34907E-07         0.18232E-09         0.00000E+00
    0.34907E-07         0.18505E-09         0.00000E+00
    0.34907E-07         0.18719E-09         0.00000E+00
    0.34907E-07         0.18876E-09         0.00000E+00
    0.34907E-07         0.18974E-09         0.00000E+00
    0.34906E-07         0.19016E-09         0.00000E+00
    0.34906E-07         0.19000E-09         0.00000E+00
    0.34906E-07         0.18927E-09         0.00000E+00
    0.34906E-07         0.18797E-09         0.00000E+00
    0.34906E-07         0.18610E-09         0.00000E+00
    0.34906E-07         0.18365E-09         0.00000E+00
    0.34906E-07         0.18063E-09         0.00000E+00
    0.34906E-07         0.17703E-09         0.00000E+00
    0.34906E-07         0.17285E-09         0.00000E+00
    0.34906E-07         0.16809E-09         0.00000E+00
    0.34906E-07         0.16273E-09         0.00000E+00
    0.34906E-07         0.15678E-09         0.00000E+00
    0.34906E-07         0.15024E-09         0.00000E+00
    0.34907E-07         0.14309E-09         0.00000E+00
    0.34907E-07         0.13532E-09         0.00000E+00
    0.34907E-07         0.12695E-09         0.00000E+00
    0.34907E-07         0.11795E-09         0.00000E+00
    0.34907E-07         0.10832E-09         0.00000E+00
    0.34907E-07         0.98048E-10         0.00000E+00
    0.34908E-07         0.87138E-10         0.00000E+00
    0.34908E-07         0.75576E-10         0.00000E+00
    0.34908E-07         0.63357E-10         0.00000E+00
    0.34908E-07         0.50472E-10         0.00000E+00
    0.34908E-07         0.36914E-10         0.00000E+00
    0.34908E-07         0.22676E-10         0.00000E+00
    0.34908E-07         0.77514E-11         0.00000E+00
    0.34199E-07         0.80431E-11         0.00000E+00
    0.34199E-07         0.23591E-10         0.00000E+00
    0.34199E-07         0.38345E-10         0.00000E+00
    0.34199E-07         0.52322E-10         0.00000E+00
    0.34200E-07         0.65537E-10         0.00000E+00
    0.34200E-07         0.78008E-10         0.00000E+00
    0.34200E-07         0.89748E-10         0.00000E+00
    0.34200E-07         0.10077E-09         0.00000E+00
    0.34201E-07         0.11110E-09         0.00000E+00
    0.34201E-07         0.12073E-09         0.00000E+00
    0.34201E-07         0.12969E-09         0.00000E+00
    0.34202E-07         0.13798E-09         0.00000E+00
    0.34202E-07         0.14561E-09         0.00000E+00
    0.34202E-07         0.15261E-09         0.00000E+00
    0.34203E-07         0.15897E-09         0.00000E+00
    0.34203E-07         0.16470E-09         0.00000E+00
    0.34204E-07         0.16981E-09         0.00000E+00
    0.34204E-07         0.17432E-09         0.00000E+00
    0.34205E-07         0.17822E-09         0.00000E+00
    0.34205E-07         0.18152E-09         0.00000E+00
    0.34205E-07         0.18423E-09         0.00000E+00
    0.34206E-07         0.18635E-09         0.00000E+00
    0.34206E-07         0.18788E-09         0.00000E+00
    0.34207E-07         0.18883E-09         0.00000E+00
    0.34207E-07         0.18921E-09         0.00000E+00
    0.34208E-07         0.18901E-09         0.00000E+00
    0.34208E-07         0.18823E-09         0.00000E+00
    0.34209E-07         0.18688E-09         0.00000E+00
    0.34209E-07         0.18495E-09         0.00000E+00
    0.34210E-07         0.18245E-09         0.00000E+00
    0.34210E-07         0.17937E-09         0.00000E+00
    0.34211E-07         0.17572E-09         0.00000E+00
    0.34211E-07         0.17148E-09         0.00000E+00
    0.34212E-07         0.16667E-09         0.00000E+00
    0.34212E-07         0.16127E-09         0.00000E+00
    0.34213E-07         0.15528E-09         0.00000E+00
    0.34213E-07         0.14871E-09         0.00000E+00
    0.34214E-07         0.14154E-09         0.00000E+00
    0.34214E-07         0.13378E-09         0.00000E+00
    0.34215E-07         0.12541E-09         0.00000E+00
    0.34215E-07         0.11644E-09         0.00000E+00
    0.34216E-07         0.10685E-09         0.00000E+00
    0.34216E-07         0.96653E-10         0.00000E+00
    0.34216E-07         0.85833E-10         0.00000E+00
    0.34217E-07         0.74387E-10         0.00000E+00
    0.34217E-07         0.62311E-10         0.00000E+00
    0.34217E-07         0.49599E-10         0.00000E+00
    0.34217E-07         0.36246E-10         0.00000E+00
    0.34218E-07         0.22248E-10         0.00000E+00
    0.34218E-07         0.75979E-11         0.00000E+00
    0.33531E-07         0.78361E-11         0.00000E+00
    0.33531E-07         0.22999E-10         0.00000E+00
    0.33531E-07         0.37409E-10         0.00000E+00
    0.33532E-07         0.51078E-10         0.00000E+00
    0.33532E-07         0.64020E-10         0.00000E+00
    0.33533E-07         0.76247E-10         0.00000E+00
    0.33533E-07         0.87772E-10         0.00000E+00
    0.33534E-07         0.98605E-10         0.00000E+00
    0.33534E-07         0.10876E-09         0.00000E+00
    0.33535E-07         0.11824E-09         0.00000E+00
    0.33535E-07         0.12706E-09         0.00000E+00
    0.33536E-07         0.13524E-09         0.00000E+00
    0.33537E-07         0.14277E-09         0.00000E+00
    0.33538E-07         0.14967E-09         0.00000E+00
    0.33538E-07         0.15595E-09         0.00000E+00
    0.33539E-07         0.16161E-09         0.00000E+00
    0.33540E-07         0.16665E-09         0.00000E+00
    0.33541E-07         0.17110E-09         0.00000E+00
    0.33542E-07         0.17495E-09         0.00000E+00
    0.33543E-07         0.17820E-09         0.00000E+00
    0.33544E-07         0.18086E-09         0.00000E+00
    0.33544E-07         0.18295E-09         0.00000E+00
    0.33545E-07         0.18445E-09         0.00000E+00
    0.33546E-07         0.18537E-09         0.00000E+00
    0.33547E-07         0.18572E-09         0.00000E+00
    0.33548E-07         0.18550E-09         0.00000E+00
    0.33549E-07         0.18470E-09         0.00000E+00
    0.33550E-07         0.18334E-09         0.00000E+00
    0.33551E-07         0.18141E-09         0.00000E+00
    0.33552E-07         0.17891E-09         0.00000E+00
    0.33553E-07         0.17584E-09         0.00000E+00
    0.33554E-07         0.17221E-09         0.00000E+00
    0.33554E-07         0.16800E-09         0.00000E+00
    0.33555E-07         0.16322E-09         0.00000E+00
    0.33556E-07         0.15788E-09         0.00000E+00
    0.33557E-07         0.15196E-09         0.00000E+00
    0.33558E-07         0.14546E-09         0.00000E+00
    0.33559E-07         0.13839E-09         0.00000E+00
    0.33559E-07         0.13073E-09         0.00000E+00
    0.33560E-07         0.12250E-09         0.00000E+00
    0.33561E-07         0.11367E-09         0.00000E+00
    0.33561E-07         0.10426E-09         0.00000E+00
    0.33562E-07         0.94258E-10         0.00000E+00
    0.33563E-07         0.83659E-10         0.00000E+00
    0.33563E-07         0.72462E-10         0.00000E+00
    0.33564E-07         0.60662E-10         0.00000E+00
    0.33564E-07         0.48258E-10         0.00000E+00
    0.33564E-07         0.35245E-10         0.00000E+00
    0.33564E-07         0.21619E-10         0.00000E+00
    0.33564E-07         0.73782E-11         0.00000E+00
    0.32907E-07         0.75482E-11         0.00000E+00
    0.32907E-07         0.22167E-10         0.00000E+00
    0.32907E-07         0.36078E-10         0.00000E+00
    0.32907E-07         0.49291E-10         0.00000E+00
    0.32908E-07         0.61816E-10         0.00000E+00
    0.32908E-07         0.73662E-10         0.00000E+00
    0.32909E-07         0.84839E-10         0.00000E+00
    0.32910E-07         0.95356E-10         0.00000E+00
    0.32910E-07         0.10522E-09         0.00000E+00
    0.32911E-07         0.11444E-09         0.00000E+00
    0.32912E-07         0.12303E-09         0.00000E+00
    0.32913E-07         0.13099E-09         0.00000E+00
    0.32914E-07         0.13833E-09         0.00000E+00
    0.32915E-07         0.14506E-09         0.00000E+00
    0.32916E-07         0.15119E-09         0.00000E+00
    0.32917E-07         0.15671E-09         0.00000E+00
    0.32918E-07         0.16164E-09         0.00000E+00
    0.32920E-07         0.16598E-09         0.00000E+00
    0.32921E-07         0.16973E-09         0.00000E+00
    0.32922E-07         0.17291E-09         0.00000E+00
    0.32923E-07         0.17551E-09         0.00000E+00
    0.32925E-07         0.17754E-09         0.00000E+00
    0.32926E-07         0.17900E-09         0.00000E+00
    0.32927E-07         0.17989E-09         0.00000E+00
    0.32928E-07         0.18023E-09         0.00000E+00
    0.32930E-07         0.18000E-09         0.00000E+00
    0.32931E-07         0.17922E-09         0.00000E+00
    0.32932E-07         0.17788E-09         0.00000E+00
    0.32933E-07         0.17598E-09         0.00000E+00
    0.32935E-07         0.17353E-09         0.00000E+00
    0.32936E-07         0.17052E-09         0.00000E+00
    0.32937E-07         0.16696E-09         0.00000E+00
    0.32938E-07         0.16285E-09         0.00000E+00
    0.32939E-07         0.15818E-09         0.00000E+00
    0.32941E-07         0.15296E-09         0.00000E+00
    0.32942E-07         0.14718E-09         0.00000E+00
    0.32943E-07         0.14084E-09         0.00000E+00
    0.32944E-07         0.13395E-09         0.00000E+00
    0.32945E-07         0.12650E-09         0.00000E+00
    0.32946E-07         0.11849E-09         0.00000E+00
    0.32947E-07         0.10991E-09         0.00000E+00
    0.32947E-07         0.10077E-09         0.00000E+00
    0.32948E-07         0.91067E-10         0.00000E+00
    0.32949E-07         0.80793E-10         0.00000E+00
    0.32949E-07         0.69950E-10         0.00000E+00
    0.32950E-07         0.58534E-10         0.00000E+00
    0.32950E-07         0.46544E-10         0.00000E+00
    0.32951E-07         0.33977E-10         0.00000E+00
    0.32951E-07         0.20832E-10         0.00000E+00
    0.32951E-07         0.71058E-11         0.00000E+00
    0.32327E-07         0.72014E-11         0.00000E+00
    0.32327E-07         0.21160E-10         0.00000E+00
    0.32327E-07         0.34458E-10         0.00000E+00
    0.32328E-07         0.47103E-10         0.00000E+00
    0.32328E-07         0.59103E-10         0.00000E+00
    0.32329E-07         0.70464E-10         0.00000E+00
    0.32330E-07         0.81194E-10         0.00000E+00
    0.32330E-07         0.91300E-10         0.00000E+00
    0.32331E-07         0.10079E-09         0.00000E+00
    0.32332E-07         0.10967E-09         0.00000E+00
    0.32333E-07         0.11794E-09         0.00000E+00
    0.32335E-07         0.12561E-09         0.00000E+00
    0.32336E-07         0.13269E-09         0.00000E+00
    0.32337E-07         0.13919E-09         0.00000E+00
    0.32338E-07         0.14510E-09         0.00000E+00
    0.32340E-07         0.15044E-09         0.00000E+00
    0.32341E-07         0.15520E-09         0.00000E+00
    0.32342E-07         0.15940E-09         0.00000E+00
    0.32344E-07         0.16303E-09         0.00000E+00
    0.32345E-07         0.16610E-09         0.00000E+00
    0.32347E-07         0.16862E-09         0.00000E+00
    0.32348E-07         0.17058E-09         0.00000E+00
    0.32350E-07         0.17200E-09         0.00000E+00
    0.32352E-07         0.17287E-09         0.00000E+00
    0.32353E-07         0.17319E-09         0.00000E+00
    0.32355E-07         0.17297E-09         0.00000E+00
    0.32356E-07         0.17222E-09         0.00000E+00
    0.32358E-07         0.17092E-09         0.00000E+00
    0.32359E-07         0.16908E-09         0.00000E+00
    0.32361E-07         0.16671E-09         0.00000E+00
    0.32362E-07         0.16381E-09         0.00000E+00
    0.32364E-07         0.16037E-09         0.00000E+00
    0.32365E-07         0.15639E-09         0.00000E+00
    0.32366E-07         0.15189E-09         0.00000E+00
    0.32368E-07         0.14685E-09         0.00000E+00
    0.32369E-07         0.14127E-09         0.00000E+00
    0.32370E-07         0.13516E-09         0.00000E+00
    0.32371E-07         0.12852E-09         0.00000E+00
    0.32373E-07         0.12134E-09         0.00000E+00
    0.32374E-07         0.11362E-09         0.00000E+00
    0.32375E-07         0.10537E-09         0.00000E+00
    0.32376E-07         0.96583E-10         0.00000E+00
    0.32377E-07         0.87255E-10         0.00000E+00
    0.32377E-07         0.77388E-10         0.00000E+00
    0.32378E-07         0.66981E-10         0.00000E+00
    0.32379E-07         0.56031E-10         0.00000E+00
    0.32379E-07         0.44539E-10         0.00000E+00
    0.32379E-07         0.32502E-10         0.00000E+00
    0.32380E-07         0.19920E-10         0.00000E+00
    0.32380E-07         0.67922E-11         0.00000E+00
    0.31794E-07         0.68139E-11         0.00000E+00
    0.31794E-07         0.20031E-10         0.00000E+00
    0.31794E-07         0.32636E-10         0.00000E+00
    0.31795E-07         0.44634E-10         0.00000E+00
    0.31795E-07         0.56031E-10         0.00000E+00
    0.31796E-07         0.66832E-10         0.00000E+00
    0.31797E-07         0.77041E-10         0.00000E+00
    0.31798E-07         0.86665E-10         0.00000E+00
    0.31799E-07         0.95709E-10         0.00000E+00
    0.31800E-07         0.10418E-09         0.00000E+00
    0.31801E-07         0.11207E-09         0.00000E+00
    0.31802E-07         0.11940E-09         0.00000E+00
    0.31804E-07         0.12617E-09         0.00000E+00
    0.31805E-07         0.13238E-09         0.00000E+00
    0.31807E-07         0.13804E-09         0.00000E+00
    0.31808E-07         0.14315E-09         0.00000E+00
    0.31810E-07         0.14771E-09         0.00000E+00
    0.31811E-07         0.15174E-09         0.00000E+00
    0.31813E-07         0.15522E-09         0.00000E+00
    0.31815E-07         0.15817E-09         0.00000E+00
    0.31816E-07         0.16059E-09         0.00000E+00
    0.31818E-07         0.16248E-09         0.00000E+00
    0.31820E-07         0.16384E-09         0.00000E+00
    0.31821E-07         0.16468E-09         0.00000E+00
    0.31823E-07         0.16499E-09         0.00000E+00
    0.31825E-07         0.16479E-09         0.00000E+00
    0.31827E-07         0.16407E-09         0.00000E+00
    0.31828E-07         0.16283E-09         0.00000E+00
    0.31830E-07         0.16108E-09         0.00000E+00
    0.31832E-07         0.15882E-09         0.00000E+00
    0.31833E-07         0.15604E-09         0.00000E+00
    0.31835E-07         0.15275E-09         0.00000E+00
    0.31837E-07         0.14896E-09         0.00000E+00
    0.31838E-07         0.14465E-09         0.00000E+00
    0.31840E-07         0.13983E-09         0.00000E+00
    0.31841E-07         0.13450E-09         0.00000E+00
    0.31843E-07         0.12867E-09         0.00000E+00
    0.31844E-07         0.12232E-09         0.00000E+00
    0.31845E-07         0.11547E-09         0.00000E+00
    0.31846E-07         0.10811E-09         0.00000E+00
    0.31847E-07         0.10024E-09         0.00000E+00
    0.31848E-07         0.91859E-10         0.00000E+00
    0.31849E-07         0.82970E-10         0.00000E+00
    0.31850E-07         0.73571E-10         0.00000E+00
    0.31851E-07         0.63662E-10         0.00000E+00
    0.31852E-07         0.53242E-10         0.00000E+00
    0.31852E-07         0.42311E-10         0.00000E+00
    0.31853E-07         0.30869E-10         0.00000E+00
    0.31853E-07         0.18914E-10         0.00000E+00
    0.31853E-07         0.64471E-11         0.00000E+00
    0.31309E-07         0.64002E-11         0.00000E+00
    0.31309E-07         0.18823E-10         0.00000E+00
    0.31309E-07         0.30681E-10         0.00000E+00
    0.31310E-07         0.41979E-10         0.00000E+00
    0.31311E-07         0.52720E-10         0.00000E+00
    0.31311E-07         0.62907E-10         0.00000E+00
    0.31312E-07         0.72545E-10         0.00000E+00
    0.31313E-07         0.81637E-10         0.00000E+00
    0.31314E-07         0.90186E-10         0.00000E+00
    0.31315E-07         0.98198E-10         0.00000E+00
    0.31317E-07         0.10567E-09         0.00000E+00
    0.31318E-07         0.11262E-09         0.00000E+00
    0.31320E-07         0.11903E-09         0.00000E+00
    0.31321E-07         0.12493E-09         0.00000E+00
    0.31323E-07         0.13030E-09         0.00000E+00
    0.31324E-07         0.13515E-09         0.00000E+00
    0.31326E-07         0.13948E-09         0.00000E+00
    0.31328E-07         0.14331E-09         0.00000E+00
    0.31329E-07         0.14662E-09         0.00000E+00
    0.31331E-07         0.14943E-09         0.00000E+00
    0.31333E-07         0.15174E-09         0.00000E+00
    0.31335E-07         0.15354E-09         0.00000E+00
    0.31337E-07         0.15484E-09         0.00000E+00
    0.31339E-07         0.15564E-09         0.00000E+00
    0.31341E-07         0.15595E-09         0.00000E+00
    0.31342E-07         0.15577E-09         0.00000E+00
    0.31344E-07         0.15509E-09         0.00000E+00
    0.31346E-07         0.15393E-09         0.00000E+00
    0.31348E-07         0.15227E-09         0.00000E+00
    0.31350E-07         0.15013E-09         0.00000E+00
    0.31352E-07         0.14750E-09         0.00000E+00
    0.31353E-07         0.14439E-09         0.00000E+00
    0.31355E-07         0.14079E-09         0.00000E+00
    0.31357E-07         0.13671E-09         0.00000E+00
    0.31358E-07         0.13215E-09         0.00000E+00
    0.31360E-07         0.12710E-09         0.00000E+00
    0.31361E-07         0.12158E-09         0.00000E+00
    0.31363E-07         0.11557E-09         0.00000E+00
    0.31364E-07         0.10908E-09         0.00000E+00
    0.31365E-07         0.10211E-09         0.00000E+00
    0.31367E-07         0.94666E-10         0.00000E+00
    0.31368E-07         0.86739E-10         0.00000E+00
    0.31369E-07         0.78333E-10         0.00000E+00
    0.31370E-07         0.69447E-10         0.00000E+00
    0.31370E-07         0.60083E-10         0.00000E+00
    0.31371E-07         0.50240E-10         0.00000E+00
    0.31372E-07         0.39918E-10         0.00000E+00
    0.31372E-07         0.29117E-10         0.00000E+00
    0.31372E-07         0.17837E-10         0.00000E+00
    0.31373E-07         0.60786E-11         0.00000E+00
    0.30874E-07         0.59718E-11         0.00000E+00
    0.30874E-07         0.17569E-10         0.00000E+00
    0.30874E-07         0.28649E-10         0.00000E+00
    0.30875E-07         0.39213E-10         0.00000E+00
    0.30875E-07         0.49264E-10         0.00000E+00
    0.30876E-07         0.58804E-10         0.00000E+00
    0.30877E-07         0.67835E-10         0.00000E+00
    0.30878E-07         0.76361E-10         0.00000E+00
    0.30879E-07         0.84384E-10         0.00000E+00
    0.30880E-07         0.91906E-10         0.00000E+00
    0.30882E-07         0.98930E-10         0.00000E+00
    0.30883E-07         0.10546E-09         0.00000E+00
    0.30885E-07         0.11149E-09         0.00000E+00
    0.30886E-07         0.11704E-09         0.00000E+00
    0.30888E-07         0.12209E-09         0.00000E+00
    0.30890E-07         0.12667E-09         0.00000E+00
    0.30891E-07         0.13075E-09         0.00000E+00
    0.30893E-07         0.13436E-09         0.00000E+00
    0.30895E-07         0.13749E-09         0.00000E+00
    0.30897E-07         0.14014E-09         0.00000E+00
    0.30899E-07         0.14232E-09         0.00000E+00
    0.30901E-07         0.14402E-09         0.00000E+00
    0.30903E-07         0.14526E-09         0.00000E+00
    0.30905E-07         0.14603E-09         0.00000E+00
    0.30907E-07         0.14633E-09         0.00000E+00
    0.30909E-07         0.14616E-09         0.00000E+00
    0.30911E-07         0.14553E-09         0.00000E+00
    0.30913E-07         0.14444E-09         0.00000E+00
    0.30915E-07         0.14289E-09         0.00000E+00
    0.30916E-07         0.14088E-09         0.00000E+00
    0.30918E-07         0.13841E-09         0.00000E+00
    0.30920E-07         0.13549E-09         0.00000E+00
    0.30922E-07         0.13211E-09         0.00000E+00
    0.30924E-07         0.12828E-09         0.00000E+00
    0.30925E-07         0.12399E-09         0.00000E+00
    0.30927E-07         0.11925E-09         0.00000E+00
    0.30929E-07         0.11405E-09         0.00000E+00
    0.30930E-07         0.10841E-09         0.00000E+00
    0.30932E-07         0.10231E-09         0.00000E+00
    0.30933E-07         0.95770E-10         0.00000E+00
    0.30934E-07         0.88776E-10         0.00000E+00
    0.30935E-07         0.81333E-10         0.00000E+00
    0.30936E-07         0.73442E-10         0.00000E+00
    0.30937E-07         0.65103E-10         0.00000E+00
    0.30938E-07         0.56317E-10         0.00000E+00
    0.30939E-07         0.47084E-10         0.00000E+00
    0.30939E-07         0.37405E-10         0.00000E+00
    0.30940E-07         0.27280E-10         0.00000E+00
    0.30940E-07         0.16709E-10         0.00000E+00
    0.30940E-07         0.56931E-11         0.00000E+00
    0.30490E-07         0.55374E-11         0.00000E+00
    0.30490E-07         0.16296E-10         0.00000E+00
    0.30490E-07         0.26581E-10         0.00000E+00
    0.30491E-07         0.36394E-10         0.00000E+00
    0.30491E-07         0.45736E-10         0.00000E+00
    0.30492E-07         0.54609E-10         0.00000E+00
    0.30493E-07         0.63014E-10         0.00000E+00
    0.30494E-07         0.70952E-10         0.00000E+00
    0.30495E-07         0.78426E-10         0.00000E+00
    0.30496E-07         0.85437E-10         0.00000E+00
    0.30498E-07         0.91988E-10         0.00000E+00
    0.30499E-07         0.98078E-10         0.00000E+00
    0.30501E-07         0.10371E-09         0.00000E+00
    0.30502E-07         0.10889E-09         0.00000E+00
    0.30504E-07         0.11361E-09         0.00000E+00
    0.30506E-07         0.11789E-09         0.00000E+00
    0.30508E-07         0.12171E-09         0.00000E+00
    0.30509E-07         0.12509E-09         0.00000E+00
    0.30511E-07         0.12801E-09         0.00000E+00
    0.30513E-07         0.13050E-09         0.00000E+00
    0.30515E-07         0.13254E-09         0.00000E+00
    0.30517E-07         0.13414E-09         0.00000E+00
    0.30519E-07         0.13530E-09         0.00000E+00
    0.30521E-07         0.13602E-09         0.00000E+00
    0.30523E-07         0.13631E-09         0.00000E+00
    0.30525E-07         0.13617E-09         0.00000E+00
    0.30527E-07         0.13558E-09         0.00000E+00
    0.30529E-07         0.13457E-09         0.00000E+00
    0.30531E-07         0.13313E-09         0.00000E+00
    0.30533E-07         0.13126E-09         0.00000E+00
    0.30535E-07         0.12896E-09         0.00000E+00
    0.30537E-07         0.12623E-09         0.00000E+00
    0.30539E-07         0.12308E-09         0.00000E+00
    0.30541E-07         0.11950E-09         0.00000E+00
    0.30543E-07         0.11550E-09         0.00000E+00
    0.30544E-07         0.11108E-09         0.00000E+00
    0.30546E-07         0.10624E-09         0.00000E+00
    0.30547E-07         0.10098E-09         0.00000E+00
    0.30549E-07         0.95292E-10         0.00000E+00
    0.30550E-07         0.89189E-10         0.00000E+00
    0.30552E-07         0.82669E-10         0.00000E+00
    0.30553E-07         0.75731E-10         0.00000E+00
    0.30554E-07         0.68377E-10         0.00000E+00
    0.30555E-07         0.60607E-10         0.00000E+00
    0.30556E-07         0.52422E-10         0.00000E+00
    0.30556E-07         0.43822E-10         0.00000E+00
    0.30557E-07         0.34809E-10         0.00000E+00
    0.30557E-07         0.25384E-10         0.00000E+00
    0.30558E-07         0.15546E-10         0.00000E+00
    0.30558E-07         0.52960E-11         0.00000E+00
    0.30157E-07         0.51032E-11         0.00000E+00
    0.30158E-07         0.15022E-10         0.00000E+00
    0.30158E-07         0.24509E-10         0.00000E+00
    0.30158E-07         0.33565E-10         0.00000E+00
    0.30159E-07         0.42190E-10         0.00000E+00
    0.30160E-07         0.50387E-10         0.00000E+00
    0.30161E-07         0.58154E-10         0.00000E+00
    0.30162E-07         0.65494E-10         0.00000E+00
    0.30163E-07         0.72407E-10         0.00000E+00
    0.30164E-07         0.78894E-10         0.00000E+00
    0.30166E-07         0.84957E-10         0.00000E+00
    0.30167E-07         0.90597E-10         0.00000E+00
    0.30169E-07         0.95816E-10         0.00000E+00
    0.30170E-07         0.10061E-09         0.00000E+00
    0.30172E-07         0.10499E-09         0.00000E+00
    0.30174E-07         0.10896E-09         0.00000E+00
    0.30175E-07         0.11250E-09         0.00000E+00
    0.30177E-07         0.11563E-09         0.00000E+00
    0.30179E-07         0.11835E-09         0.00000E+00
    0.30181E-07         0.12066E-09         0.00000E+00
    0.30183E-07         0.12255E-09         0.00000E+00
    0.30185E-07         0.12404E-09         0.00000E+00
    0.30187E-07         0.12512E-09         0.00000E+00
    0.30189E-07         0.12580E-09         0.00000E+00
    0.30191E-07         0.12607E-09         0.00000E+00
    0.30193E-07         0.12593E-09         0.00000E+00
    0.30196E-07         0.12540E-09         0.00000E+00
    0.30198E-07         0.12447E-09         0.00000E+00
    0.30200E-07         0.12313E-09         0.00000E+00
    0.30202E-07         0.12140E-09         0.00000E+00
    0.30204E-07         0.11927E-09         0.00000E+00
    0.30205E-07         0.11675E-09         0.00000E+00
    0.30207E-07         0.11383E-09         0.00000E+00
    0.30209E-07         0.11052E-09         0.00000E+00
    0.30211E-07         0.10682E-09         0.00000E+00
    0.30213E-07         0.10272E-09         0.00000E+00
    0.30214E-07         0.98237E-10         0.00000E+00
    0.30216E-07         0.93363E-10         0.00000E+00
    0.30217E-07         0.88102E-10         0.00000E+00
    0.30219E-07         0.82454E-10         0.00000E+00
    0.30220E-07         0.76420E-10         0.00000E+00
    0.30221E-07         0.70001E-10         0.00000E+00
    0.30222E-07         0.63198E-10         0.00000E+00
    0.30223E-07         0.56011E-10         0.00000E+00
    0.30224E-07         0.48442E-10         0.00000E+00
    0.30225E-07         0.40491E-10         0.00000E+00
    0.30226E-07         0.32160E-10         0.00000E+00
    0.30226E-07         0.23449E-10         0.00000E+00
    0.30226E-07         0.14359E-10         0.00000E+00
    0.30227E-07         0.48911E-11         0.00000E+00
    0.29878E-07         0.46735E-11         0.00000E+00
    0.29879E-07         0.13759E-10         0.00000E+00
    0.29879E-07         0.22453E-10         0.00000E+00
    0.29879E-07         0.30754E-10         0.00000E+00
    0.29880E-07         0.38664E-10         0.00000E+00
    0.29881E-07         0.46182E-10         0.00000E+00
    0.29882E-07         0.53308E-10         0.00000E+00
    0.29883E-07         0.60044E-10         0.00000E+00
    0.29884E-07         0.66390E-10         0.00000E+00
    0.29885E-07         0.72347E-10         0.00000E+00
    0.29886E-07         0.77916E-10         0.00000E+00
    0.29888E-07         0.83097E-10         0.00000E+00
    0.29889E-07         0.87892E-10         0.00000E+00
    0.29891E-07         0.92301E-10         0.00000E+00
    0.29893E-07         0.96326E-10         0.00000E+00
    0.29895E-07         0.99968E-10         0.00000E+00
    0.29896E-07         0.10323E-09         0.00000E+00
    0.29898E-07         0.10611E-09         0.00000E+00
    0.29900E-07         0.10861E-09         0.00000E+00
    0.29902E-07         0.11073E-09         0.00000E+00
    0.29904E-07         0.11247E-09         0.00000E+00
    0.29906E-07         0.11384E-09         0.00000E+00
    0.29908E-07         0.11483E-09         0.00000E+00
    0.29910E-07         0.11545E-09         0.00000E+00
    0.29912E-07         0.11570E-09         0.00000E+00
    0.29914E-07         0.11558E-09         0.00000E+00
    0.29917E-07         0.11509E-09         0.00000E+00
    0.29919E-07         0.11423E-09         0.00000E+00
    0.29921E-07         0.11300E-09         0.00000E+00
    0.29923E-07         0.11141E-09         0.00000E+00
    0.29925E-07         0.10945E-09         0.00000E+00
    0.29927E-07         0.10713E-09         0.00000E+00
    0.29928E-07         0.10445E-09         0.00000E+00
    0.29930E-07         0.10141E-09         0.00000E+00
    0.29932E-07         0.98004E-10         0.00000E+00
    0.29934E-07         0.94241E-10         0.00000E+00
    0.29936E-07         0.90121E-10         0.00000E+00
    0.29937E-07         0.85644E-10         0.00000E+00
    0.29939E-07         0.80812E-10         0.00000E+00
    0.29940E-07         0.75625E-10         0.00000E+00
    0.29941E-07         0.70085E-10         0.00000E+00
    0.29943E-07         0.64192E-10         0.00000E+00
    0.29944E-07         0.57948E-10         0.00000E+00
    0.29945E-07         0.51353E-10         0.00000E+00
    0.29946E-07         0.44409E-10         0.00000E+00
    0.29946E-07         0.37117E-10         0.00000E+00
    0.29947E-07         0.29477E-10         0.00000E+00
    0.29947E-07         0.21490E-10         0.00000E+00
    0.29948E-07         0.13158E-10         0.00000E+00
    0.29948E-07         0.44815E-11         0.00000E+00
    0.29653E-07         0.42510E-11         0.00000E+00
    0.29654E-07         0.12516E-10         0.00000E+00
    0.29654E-07         0.20426E-10         0.00000E+00
    0.29654E-07         0.27980E-10         0.00000E+00
    0.29655E-07         0.35179E-10         0.00000E+00
    0.29656E-07         0.42022E-10         0.00000E+00
    0.29657E-07         0.48509E-10         0.00000E+00
    0.29658E-07         0.54642E-10         0.00000E+00
    0.29659E-07         0.60419E-10         0.00000E+00
    0.29660E-07         0.65843E-10         0.00000E+00
    0.29661E-07         0.70914E-10         0.00000E+00
    0.29663E-07         0.75631E-10         0.00000E+00
    0.29664E-07         0.79997E-10         0.00000E+00
    0.29666E-07         0.84012E-10         0.00000E+00
    0.29668E-07         0.87677E-10         0.00000E+00
    0.29669E-07         0.90992E-10         0.00000E+00
    0.29671E-07         0.93959E-10         0.00000E+00
    0.29673E-07         0.96579E-10         0.00000E+00
    0.29675E-07         0.98853E-10         0.00000E+00
    0.29677E-07         0.10078E-09         0.00000E+00
    0.29679E-07         0.10237E-09         0.00000E+00
    0.29681E-07         0.10361E-09         0.00000E+00
    0.29683E-07         0.10451E-09         0.00000E+00
    0.29685E-07         0.10507E-09         0.00000E+00
    0.29687E-07         0.10529E-09         0.00000E+00
    0.29689E-07         0.10518E-09         0.00000E+00
    0.29691E-07         0.10473E-09         0.00000E+00
    0.29693E-07         0.10394E-09         0.00000E+00
    0.29695E-07         0.10282E-09         0.00000E+00
    0.29698E-07         0.10136E-09         0.00000E+00
    0.29700E-07         0.99573E-10         0.00000E+00
    0.29701E-07         0.97455E-10         0.00000E+00
    0.29703E-07         0.95007E-10         0.00000E+00
    0.29705E-07         0.92231E-10         0.00000E+00
    0.29707E-07         0.89128E-10         0.00000E+00
    0.29709E-07         0.85699E-10         0.00000E+00
    0.29710E-07         0.81945E-10         0.00000E+00
    0.29712E-07         0.77867E-10         0.00000E+00
    0.29714E-07         0.73466E-10         0.00000E+00
    0.29715E-07         0.68744E-10         0.00000E+00
    0.29716E-07         0.63701E-10         0.00000E+00
    0.29718E-07         0.58339E-10         0.00000E+00
    0.29719E-07         0.52658E-10         0.00000E+00
    0.29720E-07         0.46660E-10         0.00000E+00
    0.29721E-07         0.40346E-10         0.00000E+00
    0.29721E-07         0.33717E-10         0.00000E+00
    0.29722E-07         0.26774E-10         0.00000E+00
    0.29722E-07         0.19517E-10         0.00000E+00
    0.29723E-07         0.11949E-10         0.00000E+00
    0.29723E-07         0.40690E-11         0.00000E+00
    0.29483E-07         0.38368E-11         0.00000E+00
    0.29483E-07         0.11296E-10         0.00000E+00
    0.29484E-07         0.18435E-10         0.00000E+00
    0.29484E-07         0.25251E-10         0.00000E+00
    0.29485E-07         0.31747E-10         0.00000E+00
    0.29486E-07         0.37920E-10         0.00000E+00
    0.29486E-07         0.43773E-10         0.00000E+00
    0.29487E-07         0.49304E-10         0.00000E+00
    0.29489E-07         0.54515E-10         0.00000E+00
    0.29490E-07         0.59405E-10         0.00000E+00
    0.29491E-07         0.63976E-10         0.00000E+00
    0.29493E-07         0.68229E-10         0.00000E+00
    0.29494E-07         0.72162E-10         0.00000E+00
    0.29496E-07         0.75779E-10         0.00000E+00
    0.29497E-07         0.79079E-10         0.00000E+00
    0.29499E-07         0.82063E-10         0.00000E+00
    0.29501E-07         0.84732E-10         0.00000E+00
    0.29503E-07         0.87088E-10         0.00000E+00
    0.29505E-07         0.89131E-10         0.00000E+00
    0.29507E-07         0.90863E-10         0.00000E+00
    0.29509E-07         0.92284E-10         0.00000E+00
    0.29511E-07         0.93395E-10         0.00000E+00
    0.29513E-07         0.94199E-10         0.00000E+00
    0.29515E-07         0.94695E-10         0.00000E+00
    0.29517E-07         0.94885E-10         0.00000E+00
    0.29519E-07         0.94770E-10         0.00000E+00
    0.29521E-07         0.94352E-10         0.00000E+00
    0.29523E-07         0.93632E-10         0.00000E+00
    0.29525E-07         0.92610E-10         0.00000E+00
    0.29527E-07         0.91288E-10         0.00000E+00
    0.29529E-07         0.89668E-10         0.00000E+00
    0.29531E-07         0.87750E-10         0.00000E+00
    0.29533E-07         0.85535E-10         0.00000E+00
    0.29535E-07         0.83026E-10         0.00000E+00
    0.29537E-07         0.80222E-10         0.00000E+00
    0.29539E-07         0.77125E-10         0.00000E+00
    0.29540E-07         0.73737E-10         0.00000E+00
    0.29542E-07         0.70058E-10         0.00000E+00
    0.29543E-07         0.66090E-10         0.00000E+00
    0.29545E-07         0.61833E-10         0.00000E+00
    0.29546E-07         0.57289E-10         0.00000E+00
    0.29547E-07         0.52459E-10         0.00000E+00
    0.29548E-07         0.47345E-10         0.00000E+00
    0.29549E-07         0.41946E-10         0.00000E+00
    0.29550E-07         0.36265E-10         0.00000E+00
    0.29551E-07         0.30302E-10         0.00000E+00
    0.29552E-07         0.24058E-10         0.00000E+00
    0.29552E-07         0.17535E-10         0.00000E+00
    0.29552E-07         0.10734E-10         0.00000E+00
    0.29553E-07         0.36546E-11         0.00000E+00
    0.29369E-07         0.34306E-11         0.00000E+00
    0.29369E-07         0.10099E-10         0.00000E+00
    0.29369E-07         0.16478E-10         0.00000E+00
    0.29370E-07         0.22568E-10         0.00000E+00
    0.29371E-07         0.28368E-10         0.00000E+00
    0.29371E-07         0.33879E-10         0.00000E+00
    0.29372E-07         0.39101E-10         0.00000E+00
    0.29373E-07         0.44035E-10         0.00000E+00
    0.29374E-07         0.48681E-10         0.00000E+00
    0.29375E-07         0.53039E-10         0.00000E+00
    0.29377E-07         0.57110E-10         0.00000E+00
    0.29378E-07         0.60896E-10         0.00000E+00
    0.29380E-07         0.64396E-10         0.00000E+00
    0.29381E-07         0.67611E-10         0.00000E+00
    0.29383E-07         0.70543E-10         0.00000E+00
    0.29385E-07         0.73192E-10         0.00000E+00
    0.29386E-07         0.75560E-10         0.00000E+00
    0.29388E-07         0.77647E-10         0.00000E+00
    0.29390E-07         0.79454E-10         0.00000E+00
    0.29392E-07         0.80983E-10         0.00000E+00
    0.29394E-07         0.82235E-10         0.00000E+00
    0.29396E-07         0.83210E-10         0.00000E+00
    0.29398E-07         0.83910E-10         0.00000E+00
    0.29400E-07         0.84337E-10         0.00000E+00
    0.29402E-07         0.84490E-10         0.00000E+00
    0.29404E-07         0.84373E-10         0.00000E+00
    0.29406E-07         0.83985E-10         0.00000E+00
    0.29409E-07         0.83328E-10         0.00000E+00
    0.29411E-07         0.82403E-10         0.00000E+00
    0.29413E-07         0.81211E-10         0.00000E+00
    0.29415E-07         0.79755E-10         0.00000E+00
    0.29417E-07         0.78034E-10         0.00000E+00
    0.29419E-07         0.76050E-10         0.00000E+00
    0.29420E-07         0.73804E-10         0.00000E+00
    0.29422E-07         0.71298E-10         0.00000E+00
    0.29424E-07         0.68533E-10         0.00000E+00
    0.29426E-07         0.65510E-10         0.00000E+00
    0.29427E-07         0.62229E-10         0.00000E+00
    0.29429E-07         0.58693E-10         0.00000E+00
    0.29430E-07         0.54902E-10         0.00000E+00
    0.29432E-07         0.50858E-10         0.00000E+00
    0.29433E-07         0.46561E-10         0.00000E+00
    0.29434E-07         0.42014E-10         0.00000E+00
    0.29435E-07         0.37216E-10         0.00000E+00
    0.29436E-07         0.32169E-10         0.00000E+00
    0.29437E-07         0.26874E-10         0.00000E+00
    0.29437E-07         0.21333E-10         0.00000E+00
    0.29438E-07         0.15546E-10         0.00000E+00
    0.29438E-07         0.95141E-11         0.00000E+00
    0.29438E-07         0.32388E-11         0.00000E+00
    0.29311E-07         0.30315E-11         0.00000E+00
    0.29311E-07         0.89213E-11         0.00000E+00
    0.29312E-07         0.14552E-10         0.00000E+00
    0.29312E-07         0.19923E-10         0.00000E+00
    0.29313E-07         0.25035E-10         0.00000E+00
    0.29313E-07         0.29889E-10         0.00000E+00
    0.29314E-07         0.34485E-10         0.00000E+00
    0.29315E-07         0.38824E-10         0.00000E+00
    0.29316E-07         0.42907E-10         0.00000E+00
    0.29317E-07         0.46733E-10         0.00000E+00
    0.29319E-07         0.50305E-10         0.00000E+00
    0.29320E-07         0.53622E-10         0.00000E+00
    0.29322E-07         0.56686E-10         0.00000E+00
    0.29323E-07         0.59498E-10         0.00000E+00
    0.29325E-07         0.62059E-10         0.00000E+00
    0.29327E-07         0.64370E-10         0.00000E+00
    0.29328E-07         0.66431E-10         0.00000E+00
    0.29330E-07         0.68245E-10         0.00000E+00
    0.29332E-07         0.69813E-10         0.00000E+00
    0.29334E-07         0.71134E-10         0.00000E+00
    0.29336E-07         0.72212E-10         0.00000E+00
    0.29338E-07         0.73046E-10         0.00000E+00
    0.29340E-07         0.73639E-10         0.00000E+00
    0.29342E-07         0.73991E-10         0.00000E+00
    0.29344E-07         0.74104E-10         0.00000E+00
    0.29346E-07         0.73979E-10         0.00000E+00
    0.29348E-07         0.73617E-10         0.00000E+00
    0.29351E-07         0.73019E-10         0.00000E+00
    0.29353E-07         0.72188E-10         0.00000E+00
    0.29355E-07         0.71124E-10         0.00000E+00
    0.29357E-07         0.69828E-10         0.00000E+00
    0.29359E-07         0.68301E-10         0.00000E+00
    0.29361E-07         0.66546E-10         0.00000E+00
    0.29362E-07         0.64563E-10         0.00000E+00
    0.29364E-07         0.62353E-10         0.00000E+00
    0.29366E-07         0.59917E-10         0.00000E+00
    0.29368E-07         0.57258E-10         0.00000E+00
    0.29369E-07         0.54376E-10         0.00000E+00
    0.29371E-07         0.51272E-10         0.00000E+00
    0.29372E-07         0.47947E-10         0.00000E+00
    0.29374E-07         0.44403E-10         0.00000E+00
    0.29375E-07         0.40641E-10         0.00000E+00
    0.29376E-07         0.36662E-10         0.00000E+00
    0.29377E-07         0.32466E-10         0.00000E+00
    0.29378E-07         0.28056E-10         0.00000E+00
    0.29379E-07         0.23433E-10         0.00000E+00
    0.29379E-07         0.18596E-10         0.00000E+00
    0.29380E-07         0.13548E-10         0.00000E+00
    0.29380E-07         0.82893E-11         0.00000E+00
    0.29380E-07         0.28210E-11         0.00000E+00
    0.29310E-07         0.26373E-11         0.00000E+00
    0.29311E-07         0.77575E-11         0.00000E+00
    0.29311E-07         0.12647E-10         0.00000E+00
    0.29311E-07         0.17305E-10         0.00000E+00
    0.29312E-07         0.21734E-10         0.00000E+00
    0.29313E-07         0.25934E-10         0.00000E+00
    0.29313E-07         0.29906E-10         0.00000E+00
    0.29314E-07         0.33651E-10         0.00000E+00
    0.29316E-07         0.37170E-10         0.00000E+00
    0.29317E-07         0.40464E-10         0.00000E+00
    0.29318E-07         0.43534E-10         0.00000E+00
    0.29319E-07         0.46382E-10         0.00000E+00
    0.29321E-07         0.49007E-10         0.00000E+00
    0.29322E-07         0.51413E-10         0.00000E+00
    0.29324E-07         0.53599E-10         0.00000E+00
    0.29326E-07         0.55567E-10         0.00000E+00
    0.29328E-07         0.57319E-10         0.00000E+00
    0.29330E-07         0.58856E-10         0.00000E+00
    0.29331E-07         0.60179E-10         0.00000E+00
    0.29333E-07         0.61289E-10         0.00000E+00
    0.29335E-07         0.62188E-10         0.00000E+00
    0.29337E-07         0.62877E-10         0.00000E+00
    0.29339E-07         0.63358E-10         0.00000E+00
    0.29341E-07         0.63631E-10         0.00000E+00
    0.29344E-07         0.63699E-10         0.00000E+00
    0.29346E-07         0.63563E-10         0.00000E+00
    0.29348E-07         0.63224E-10         0.00000E+00
    0.29350E-07         0.62683E-10         0.00000E+00
    0.29352E-07         0.61942E-10         0.00000E+00
    0.29354E-07         0.61002E-10         0.00000E+00
    0.29356E-07         0.59864E-10         0.00000E+00
    0.29358E-07         0.58530E-10         0.00000E+00
    0.29360E-07         0.57002E-10         0.00000E+00
    0.29362E-07         0.55279E-10         0.00000E+00
    0.29364E-07         0.53365E-10         0.00000E+00
    0.29365E-07         0.51260E-10         0.00000E+00
    0.29367E-07         0.48964E-10         0.00000E+00
    0.29369E-07         0.46481E-10         0.00000E+00
    0.29370E-07         0.43810E-10         0.00000E+00
    0.29372E-07         0.40953E-10         0.00000E+00
    0.29373E-07         0.37911E-10         0.00000E+00
    0.29374E-07         0.34685E-10         0.00000E+00
    0.29375E-07         0.31277E-10         0.00000E+00
    0.29376E-07         0.27688E-10         0.00000E+00
    0.29377E-07         0.23918E-10         0.00000E+00
    0.29378E-07         0.19969E-10         0.00000E+00
    0.29379E-07         0.15841E-10         0.00000E+00
    0.29379E-07         0.11537E-10         0.00000E+00
    0.29380E-07         0.70562E-11         0.00000E+00
    0.29380E-07         0.24005E-11         0.00000E+00
    0.29367E-07         0.22454E-11         0.00000E+00
    0.29368E-07         0.65997E-11         0.00000E+00
    0.29368E-07         0.10750E-10         0.00000E+00
    0.29368E-07         0.14698E-10         0.00000E+00
    0.29369E-07         0.18444E-10         0.00000E+00
    0.29370E-07         0.21990E-10         0.00000E+00
    0.29371E-07         0.25337E-10         0.00000E+00
    0.29372E-07         0.28486E-10         0.00000E+00
    0.29373E-07         0.31440E-10         0.00000E+00
    0.29374E-07         0.34198E-10         0.00000E+00
    0.29375E-07         0.36763E-10         0.00000E+00
    0.29377E-07         0.39137E-10         0.00000E+00
    0.29378E-07         0.41320E-10         0.00000E+00
    0.29380E-07         0.43315E-10         0.00000E+00
    0.29381E-07         0.45122E-10         0.00000E+00
    0.29383E-07         0.46744E-10         0.00000E+00
    0.29385E-07         0.48181E-10         0.00000E+00
    0.29387E-07         0.49436E-10         0.00000E+00
    0.29389E-07         0.50509E-10         0.00000E+00
    0.29391E-07         0.51403E-10         0.00000E+00
    0.29393E-07         0.52119E-10         0.00000E+00
    0.29395E-07         0.52659E-10         0.00000E+00
    0.29397E-07         0.53024E-10         0.00000E+00
    0.29399E-07         0.53215E-10         0.00000E+00
    0.29401E-07         0.53235E-10         0.00000E+00
    0.29403E-07         0.53084E-10         0.00000E+00
    0.29405E-07         0.52764E-10         0.00000E+00
    0.29407E-07         0.52277E-10         0.00000E+00
    0.29409E-07         0.51624E-10         0.00000E+00
    0.29411E-07         0.50807E-10         0.00000E+00
    0.29413E-07         0.49827E-10         0.00000E+00
    0.29415E-07         0.48685E-10         0.00000E+00
    0.29417E-07         0.47383E-10         0.00000E+00
    0.29419E-07         0.45922E-10         0.00000E+00
    0.29421E-07         0.44304E-10         0.00000E+00
    0.29423E-07         0.42529E-10         0.00000E+00
    0.29424E-07         0.40600E-10         0.00000E+00
    0.29426E-07         0.38517E-10         0.00000E+00
    0.29428E-07         0.36282E-10         0.00000E+00
    0.29429E-07         0.33896E-10         0.00000E+00
    0.29431E-07         0.31359E-10         0.00000E+00
    0.29432E-07         0.28675E-10         0.00000E+00
    0.29433E-07         0.25842E-10         0.00000E+00
    0.29434E-07         0.22864E-10         0.00000E+00
    0.29435E-07         0.19739E-10         0.00000E+00
    0.29436E-07         0.16471E-10         0.00000E+00
    0.29436E-07         0.13060E-10         0.00000E+00
    0.29437E-07         0.95059E-11         0.00000E+00
    0.29437E-07         0.58109E-11         0.00000E+00
    0.29437E-07         0.19757E-11         0.00000E+00
    0.29483E-07         0.18526E-11         0.00000E+00
    0.29483E-07         0.54387E-11         0.00000E+00
    0.29483E-07         0.88473E-11         0.00000E+00
    0.29484E-07         0.12080E-10         0.00000E+00
    0.29484E-07         0.15139E-10         0.00000E+00
    0.29485E-07         0.18027E-10         0.00000E+00
    0.29486E-07         0.20744E-10         0.00000E+00
    0.29487E-07         0.23292E-10         0.00000E+00
    0.29488E-07         0.25674E-10         0.00000E+00
    0.29489E-07         0.27892E-10         0.00000E+00
    0.29491E-07         0.29947E-10         0.00000E+00
    0.29492E-07         0.31840E-10         0.00000E+00
    0.29494E-07         0.33575E-10         0.00000E+00
    0.29495E-07         0.35153E-10         0.00000E+00
    0.29497E-07         0.36575E-10         0.00000E+00
    0.29499E-07         0.37844E-10         0.00000E+00
    0.29500E-07         0.38961E-10         0.00000E+00
    0.29502E-07         0.39929E-10         0.00000E+00
    0.29504E-07         0.40748E-10         0.00000E+00
    0.29506E-07         0.41421E-10         0.00000E+00
    0.29508E-07         0.41950E-10         0.00000E+00
    0.29510E-07         0.42336E-10         0.00000E+00
    0.29512E-07         0.42581E-10         0.00000E+00
    0.29515E-07         0.42686E-10         0.00000E+00
    0.29517E-07         0.42655E-10         0.00000E+00
    0.29519E-07         0.42487E-10         0.00000E+00
    0.29521E-07         0.42185E-10         0.00000E+00
    0.29523E-07         0.41751E-10         0.00000E+00
    0.29525E-07         0.41185E-10         0.00000E+00
    0.29527E-07         0.40490E-10         0.00000E+00
    0.29529E-07         0.39667E-10         0.00000E+00
    0.29531E-07         0.38718E-10         0.00000E+00
    0.29533E-07         0.37644E-10         0.00000E+00
    0.29535E-07         0.36446E-10         0.00000E+00
    0.29537E-07         0.35126E-10         0.00000E+00
    0.29539E-07         0.33686E-10         0.00000E+00
    0.29541E-07         0.32126E-10         0.00000E+00
    0.29542E-07         0.30448E-10         0.00000E+00
    0.29544E-07         0.28654E-10         0.00000E+00
    0.29545E-07         0.26744E-10         0.00000E+00
    0.29547E-07         0.24720E-10         0.00000E+00
    0.29548E-07         0.22582E-10         0.00000E+00
    0.29549E-07         0.20333E-10         0.00000E+00
    0.29550E-07         0.17973E-10         0.00000E+00
    0.29551E-07         0.15504E-10         0.00000E+00
    0.29552E-07         0.12925E-10         0.00000E+00
    0.29553E-07         0.10239E-10         0.00000E+00
    0.29553E-07         0.74465E-11         0.00000E+00
    0.29553E-07         0.45481E-11         0.00000E+00
    0.29554E-07         0.15449E-11         0.00000E+00
    0.29657E-07         0.14552E-11         0.00000E+00
    0.29658E-07         0.42638E-11         0.00000E+00
    0.29658E-07         0.69212E-11         0.00000E+00
    0.29658E-07         0.94300E-11         0.00000E+00
    0.29659E-07         0.11793E-10         0.00000E+00
    0.29660E-07         0.14011E-10         0.00000E+00
    0.29661E-07         0.16089E-10         0.00000E+00
    0.29662E-07         0.18027E-10         0.00000E+00
    0.29663E-07         0.19829E-10         0.00000E+00
    0.29664E-07         0.21496E-10         0.00000E+00
    0.29665E-07         0.23031E-10         0.00000E+00
    0.29667E-07         0.24437E-10         0.00000E+00
    0.29668E-07         0.25715E-10         0.00000E+00
    0.29670E-07         0.26868E-10         0.00000E+00
    0.29672E-07         0.27897E-10         0.00000E+00
    0.29673E-07         0.28806E-10         0.00000E+00
    0.29675E-07         0.29597E-10         0.00000E+00
    0.29677E-07         0.30270E-10         0.00000E+00
    0.29679E-07         0.30830E-10         0.00000E+00
    0.29681E-07         0.31277E-10         0.00000E+00
    0.29683E-07         0.31613E-10         0.00000E+00
    0.29685E-07         0.31841E-10         0.00000E+00
    0.29687E-07         0.31963E-10         0.00000E+00
    0.29690E-07         0.31980E-10         0.00000E+00
    0.29692E-07         0.31895E-10         0.00000E+00
    0.29694E-07         0.31709E-10         0.00000E+00
    0.29696E-07         0.31423E-10         0.00000E+00
    0.29698E-07         0.31041E-10         0.00000E+00
    0.29700E-07         0.30563E-10         0.00000E+00
    0.29703E-07         0.29992E-10         0.00000E+00
    0.29705E-07         0.29328E-10         0.00000E+00
    0.29707E-07         0.28574E-10         0.00000E+00
    0.29709E-07         0.27731E-10         0.00000E+00
    0.29711E-07         0.26800E-10         0.00000E+00
    0.29713E-07         0.25783E-10         0.00000E+00
    0.29714E-07         0.24682E-10         0.00000E+00
    0.29716E-07         0.23498E-10         0.00000E+00
    0.29718E-07         0.22232E-10         0.00000E+00
    0.29720E-07         0.20886E-10         0.00000E+00
    0.29721E-07         0.19461E-10         0.00000E+00
    0.29723E-07         0.17958E-10         0.00000E+00
    0.29724E-07         0.16378E-10         0.00000E+00
    0.29725E-07         0.14722E-10         0.00000E+00
    0.29726E-07         0.12992E-10         0.00000E+00
    0.29727E-07         0.11189E-10         0.00000E+00
    0.29728E-07         0.93133E-11         0.00000E+00
    0.29729E-07         0.73663E-11         0.00000E+00
    0.29729E-07         0.53488E-11         0.00000E+00
    0.29729E-07         0.32618E-11         0.00000E+00
    0.29730E-07         0.11062E-11         0.00000E+00
    0.29891E-07         0.10493E-11         0.00000E+00
    0.29892E-07         0.30634E-11         0.00000E+00
    0.29892E-07         0.49531E-11         0.00000E+00
    0.29892E-07         0.67217E-11         0.00000E+00
    0.29893E-07         0.83721E-11         0.00000E+00
    0.29894E-07         0.99073E-11         0.00000E+00
    0.29895E-07         0.11330E-10         0.00000E+00
    0.29896E-07         0.12644E-10         0.00000E+00
    0.29897E-07         0.13852E-10         0.00000E+00
    0.29898E-07         0.14956E-10         0.00000E+00
    0.29899E-07         0.15960E-10         0.00000E+00
    0.29901E-07         0.16865E-10         0.00000E+00
    0.29902E-07         0.17675E-10         0.00000E+00
    0.29904E-07         0.18393E-10         0.00000E+00
    0.29906E-07         0.19021E-10         0.00000E+00
    0.29908E-07         0.19561E-10         0.00000E+00
    0.29910E-07         0.20016E-10         0.00000E+00
    0.29912E-07         0.20389E-10         0.00000E+00
    0.29914E-07         0.20682E-10         0.00000E+00
    0.29916E-07         0.20897E-10         0.00000E+00
    0.29918E-07         0.21036E-10         0.00000E+00
    0.29920E-07         0.21102E-10         0.00000E+00
    0.29922E-07         0.21097E-10         0.00000E+00
    0.29924E-07         0.21024E-10         0.00000E+00
    0.29927E-07         0.20883E-10         0.00000E+00
    0.29929E-07         0.20677E-10         0.00000E+00
    0.29931E-07         0.20409E-10         0.00000E+00
    0.29933E-07         0.20080E-10         0.00000E+00
    0.29936E-07         0.19691E-10         0.00000E+00
    0.29938E-07         0.19246E-10         0.00000E+00
    0.29940E-07         0.18745E-10         0.00000E+00
    0.29942E-07         0.18190E-10         0.00000E+00
    0.29944E-07         0.17583E-10         0.00000E+00
    0.29946E-07         0.16926E-10         0.00000E+00
    0.29948E-07         0.16220E-10         0.00000E+00
    0.29950E-07         0.15466E-10         0.00000E+00
    0.29952E-07         0.14667E-10         0.00000E+00
    0.29954E-07         0.13822E-10         0.00000E+00
    0.29955E-07         0.12935E-10         0.00000E+00
    0.29957E-07         0.12006E-10         0.00000E+00
    0.29958E-07         0.11036E-10         0.00000E+00
    0.29960E-07         0.10026E-10         0.00000E+00
    0.29961E-07         0.89787E-11         0.00000E+00
    0.29962E-07         0.78938E-11         0.00000E+00
    0.29963E-07         0.67726E-11         0.00000E+00
    0.29964E-07         0.56163E-11         0.00000E+00
    0.29964E-07         0.44257E-11         0.00000E+00
    0.29965E-07         0.32017E-11         0.00000E+00
    0.29965E-07         0.19452E-11         0.00000E+00
    0.29965E-07         0.65704E-12         0.00000E+00
    0.30185E-07         0.63057E-12         0.00000E+00
    0.30186E-07         0.18254E-11         0.00000E+00
    0.30186E-07         0.29235E-11         0.00000E+00
    0.30186E-07         0.39288E-11         0.00000E+00
    0.30187E-07         0.48450E-11         0.00000E+00
    0.30188E-07         0.56758E-11         0.00000E+00
    0.30189E-07         0.64247E-11         0.00000E+00
    0.30190E-07         0.70952E-11         0.00000E+00
    0.30191E-07         0.76909E-11         0.00000E+00
    0.30192E-07         0.82150E-11         0.00000E+00
    0.30194E-07         0.86707E-11         0.00000E+00
    0.30195E-07         0.90614E-11         0.00000E+00
    0.30197E-07         0.93902E-11         0.00000E+00
    0.30199E-07         0.96600E-11         0.00000E+00
    0.30200E-07         0.98739E-11         0.00000E+00
    0.30202E-07         0.10035E-10         0.00000E+00
    0.30204E-07         0.10146E-10         0.00000E+00
    0.30206E-07         0.10209E-10         0.00000E+00
    0.30208E-07         0.10228E-10         0.00000E+00
    0.30211E-07         0.10204E-10         0.00000E+00
    0.30213E-07         0.10141E-10         0.00000E+00
    0.30215E-07         0.10041E-10         0.00000E+00
    0.30217E-07         0.99065E-11         0.00000E+00
    0.30220E-07         0.97396E-11         0.00000E+00
    0.30222E-07         0.95427E-11         0.00000E+00
    0.30224E-07         0.93180E-11         0.00000E+00
    0.30226E-07         0.90676E-11         0.00000E+00
    0.30229E-07         0.87937E-11         0.00000E+00
    0.30231E-07         0.84982E-11         0.00000E+00
    0.30233E-07         0.81831E-11         0.00000E+00
    0.30236E-07         0.78503E-11         0.00000E+00
    0.30238E-07         0.75015E-11         0.00000E+00
    0.30240E-07         0.71386E-11         0.00000E+00
    0.30242E-07         0.67632E-11         0.00000E+00
    0.30244E-07         0.63769E-11         0.00000E+00
    0.30246E-07         0.59814E-11         0.00000E+00
    0.30248E-07         0.55780E-11         0.00000E+00
    0.30250E-07         0.51683E-11         0.00000E+00
    0.30251E-07         0.47536E-11         0.00000E+00
    0.30253E-07         0.43352E-11         0.00000E+00
    0.30255E-07         0.39144E-11         0.00000E+00
    0.30256E-07         0.34923E-11         0.00000E+00
    0.30257E-07         0.30702E-11         0.00000E+00
    0.30258E-07         0.26490E-11         0.00000E+00
    0.30259E-07         0.22299E-11         0.00000E+00
    0.30260E-07         0.18136E-11         0.00000E+00
    0.30261E-07         0.14012E-11         0.00000E+00
    0.30261E-07         0.99352E-12         0.00000E+00
    0.30262E-07         0.59127E-12         0.00000E+00
    0.30262E-07         0.19520E-12         0.00000E+00
    0.30540E-07         0.19481E-12         0.00000E+00
    0.30540E-07         0.53721E-12         0.00000E+00
    0.30541E-07         0.81218E-12         0.00000E+00
    0.30541E-07         0.10242E-11         0.00000E+00
    0.30542E-07         0.11778E-11         0.00000E+00
    0.30543E-07         0.12771E-11         0.00000E+00
    0.30544E-07         0.13263E-11         0.00000E+00
    0.30545E-07         0.13294E-11         0.00000E+00
    0.30546E-07         0.12906E-11         0.00000E+00
    0.30547E-07         0.12135E-11         0.00000E+00
    0.30549E-07         0.11020E-11         0.00000E+00
    0.30550E-07         0.95973E-12         0.00000E+00
    0.30552E-07         0.79021E-12         0.00000E+00
    0.30554E-07         0.59690E-12         0.00000E+00
    0.30556E-07         0.38318E-12         0.00000E+00
    0.30558E-07         0.15230E-12         0.00000E+00
    0.30560E-07        -0.92560E-13         0.00000E+00
    0.30562E-07        -0.34833E-12         0.00000E+00
    0.30564E-07        -0.61201E-12         0.00000E+00
    0.30566E-07        -0.88072E-12         0.00000E+00
    0.30569E-07        -0.11516E-11         0.00000E+00
    0.30571E-07        -0.14220E-11         0.00000E+00
    0.30573E-07        -0.16893E-11         0.00000E+00
    0.30576E-07        -0.19509E-11         0.00000E+00
    0.30578E-07        -0.22043E-11         0.00000E+00
    0.30580E-07        -0.24472E-11         0.00000E+00
    0.30583E-07        -0.26772E-11         0.00000E+00
    0.30585E-07        -0.28922E-11         0.00000E+00
    0.30588E-07        -0.30899E-11         0.00000E+00
    0.30590E-07        -0.32685E-11         0.00000E+00
    0.30592E-07        -0.34257E-11         0.00000E+00
    0.30594E-07        -0.35598E-11         0.00000E+00
    0.30597E-07        -0.36690E-11         0.00000E+00
    0.30599E-07        -0.37514E-11         0.00000E+00
    0.30601E-07        -0.38054E-11         0.00000E+00
    0.30603E-07        -0.38293E-11         0.00000E+00
    0.30605E-07        -0.38217E-11         0.00000E+00
    0.30607E-07        -0.37811E-11         0.00000E+00
    0.30609E-07        -0.37061E-11         0.00000E+00
    0.30610E-07        -0.35954E-11         0.00000E+00
    0.30612E-07        -0.34477E-11         0.00000E+00
    0.30613E-07        -0.32618E-11         0.00000E+00
    0.30615E-07        -0.30366E-11         0.00000E+00
    0.30616E-07        -0.27712E-11         0.00000E+00
    0.30617E-07        -0.24644E-11         0.00000E+00
    0.30618E-07        -0.21155E-11         0.00000E+00
    0.30618E-07        -0.17235E-11         0.00000E+00
    0.30619E-07        -0.12877E-11         0.00000E+00
    0.30619E-07        -0.80735E-12         0.00000E+00
    0.30619E-07        -0.28181E-12         0.00000E+00
    0.30956E-07        -0.26229E-12         0.00000E+00
    0.30956E-07        -0.81353E-12         0.00000E+00
    0.30956E-07        -0.14008E-11         0.00000E+00
    0.30957E-07        -0.20191E-11         0.00000E+00
    0.30957E-07        -0.26632E-11         0.00000E+00
    0.30958E-07        -0.33284E-11         0.00000E+00
    0.30959E-07        -0.40099E-11         0.00000E+00
    0.30961E-07        -0.47031E-11         0.00000E+00
    0.30962E-07        -0.54035E-11         0.00000E+00
    0.30963E-07        -0.61068E-11         0.00000E+00
    0.30965E-07        -0.68089E-11         0.00000E+00
    0.30966E-07        -0.75056E-11         0.00000E+00
    0.30968E-07        -0.81929E-11         0.00000E+00
    0.30970E-07        -0.88672E-11         0.00000E+00
    0.30972E-07        -0.95245E-11         0.00000E+00
    0.30974E-07        -0.10161E-10         0.00000E+00
    0.30976E-07        -0.10774E-10         0.00000E+00
    0.30979E-07        -0.11360E-10         0.00000E+00
    0.30981E-07        -0.11915E-10         0.00000E+00
    0.30983E-07        -0.12437E-10         0.00000E+00
    0.30986E-07        -0.12921E-10         0.00000E+00
    0.30988E-07        -0.13366E-10         0.00000E+00
    0.30990E-07        -0.13769E-10         0.00000E+00
    0.30993E-07        -0.14126E-10         0.00000E+00
    0.30995E-07        -0.14436E-10         0.00000E+00
    0.30998E-07        -0.14695E-10         0.00000E+00
    0.31000E-07        -0.14901E-10         0.00000E+00
    0.31003E-07        -0.15052E-10         0.00000E+00
    0.31005E-07        -0.15146E-10         0.00000E+00
    0.31008E-07        -0.15180E-10         0.00000E+00
    0.31010E-07        -0.15152E-10         0.00000E+00
    0.31013E-07        -0.15061E-10         0.00000E+00
    0.31015E-07        -0.14904E-10         0.00000E+00
    0.31017E-07        -0.14680E-10         0.00000E+00
    0.31019E-07        -0.14386E-10         0.00000E+00
    0.31022E-07        -0.14022E-10         0.00000E+00
    0.31024E-07        -0.13586E-10         0.00000E+00
    0.31025E-07        -0.13076E-10         0.00000E+00
    0.31027E-07        -0.12491E-10         0.00000E+00
    0.31029E-07        -0.11830E-10         0.00000E+00
    0.31031E-07        -0.11091E-10         0.00000E+00
    0.31032E-07        -0.10273E-10         0.00000E+00
    0.31034E-07        -0.93746E-11         0.00000E+00
    0.31035E-07        -0.83958E-11         0.00000E+00
    0.31036E-07        -0.73351E-11         0.00000E+00
    0.31037E-07        -0.61917E-11         0.00000E+00
    0.31037E-07        -0.49648E-11         0.00000E+00
    0.31038E-07        -0.36537E-11         0.00000E+00
    0.31038E-07        -0.22578E-11         0.00000E+00
    0.31039E-07        -0.77643E-12         0.00000E+00
    0.31433E-07        -0.74490E-12         0.00000E+00
    0.31433E-07        -0.22390E-11         0.00000E+00
    0.31433E-07        -0.37351E-11         0.00000E+00
    0.31434E-07        -0.52275E-11         0.00000E+00
    0.31435E-07        -0.67106E-11         0.00000E+00
    0.31436E-07        -0.81790E-11         0.00000E+00
    0.31437E-07        -0.96274E-11         0.00000E+00
    0.31438E-07        -0.11051E-10         0.00000E+00
    0.31439E-07        -0.12444E-10         0.00000E+00
    0.31441E-07        -0.13803E-10         0.00000E+00
    0.31442E-07        -0.15122E-10         0.00000E+00
    0.31444E-07        -0.16398E-10         0.00000E+00
    0.31446E-07        -0.17625E-10         0.00000E+00
    0.31448E-07        -0.18801E-10         0.00000E+00
    0.31450E-07        -0.19920E-10         0.00000E+00
    0.31452E-07        -0.20979E-10         0.00000E+00
    0.31455E-07        -0.21974E-10         0.00000E+00
    0.31457E-07        -0.22901E-10         0.00000E+00
    0.31459E-07        -0.23758E-10         0.00000E+00
    0.31462E-07        -0.24540E-10         0.00000E+00
    0.31464E-07        -0.25244E-10         0.00000E+00
    0.31467E-07        -0.25868E-10         0.00000E+00
    0.31469E-07        -0.26408E-10         0.00000E+00
    0.31472E-07        -0.26862E-10         0.00000E+00
    0.31475E-07        -0.27226E-10         0.00000E+00
    0.31477E-07        -0.27498E-10         0.00000E+00
    0.31480E-07        -0.27676E-10         0.00000E+00
    0.31482E-07        -0.27757E-10         0.00000E+00
    0.31485E-07        -0.27738E-10         0.00000E+00
    0.31488E-07        -0.27618E-10         0.00000E+00
    0.31490E-07        -0.27394E-10         0.00000E+00
    0.31493E-07        -0.27065E-10         0.00000E+00
    0.31495E-07        -0.26627E-10         0.00000E+00
    0.31497E-07        -0.26081E-10         0.00000E+00
    0.31500E-07        -0.25423E-10         0.00000E+00
    0.31502E-07        -0.24652E-10         0.00000E+00
    0.31504E-07        -0.23767E-10         0.00000E+00
    0.31506E-07        -0.22765E-10         0.00000E+00
    0.31508E-07        -0.21647E-10         0.00000E+00
    0.31510E-07        -0.20410E-10         0.00000E+00
    0.31511E-07        -0.19053E-10         0.00000E+00
    0.31513E-07        -0.17575E-10         0.00000E+00
    0.31514E-07        -0.15975E-10         0.00000E+00
    0.31516E-07        -0.14252E-10         0.00000E+00
    0.31517E-07        -0.12406E-10         0.00000E+00
    0.31518E-07        -0.10434E-10         0.00000E+00
    0.31519E-07        -0.83379E-11         0.00000E+00
    0.31519E-07        -0.61156E-11         0.00000E+00
    0.31520E-07        -0.37667E-11         0.00000E+00
    0.31520E-07        -0.12909E-11         0.00000E+00
    0.31972E-07        -0.12570E-11         0.00000E+00
    0.31972E-07        -0.37507E-11         0.00000E+00
    0.31973E-07        -0.62091E-11         0.00000E+00
    0.31973E-07        -0.86259E-11         0.00000E+00
    0.31974E-07        -0.10995E-10         0.00000E+00
    0.31975E-07        -0.13311E-10         0.00000E+00
    0.31976E-07        -0.15567E-10         0.00000E+00
    0.31977E-07        -0.17759E-10         0.00000E+00
    0.31979E-07        -0.19881E-10         0.00000E+00
    0.31980E-07        -0.21928E-10         0.00000E+00
    0.31982E-07        -0.23894E-10         0.00000E+00
    0.31984E-07        -0.25776E-10         0.00000E+00
    0.31986E-07        -0.27569E-10         0.00000E+00
    0.31988E-07        -0.29267E-10         0.00000E+00
    0.31990E-07        -0.30868E-10         0.00000E+00
    0.31993E-07        -0.32366E-10         0.00000E+00
    0.31995E-07        -0.33758E-10         0.00000E+00
    0.31997E-07        -0.35040E-10         0.00000E+00
    0.32000E-07        -0.36208E-10         0.00000E+00
    0.32002E-07        -0.37260E-10         0.00000E+00
    0.32005E-07        -0.38190E-10         0.00000E+00
    0.32008E-07        -0.38997E-10         0.00000E+00
    0.32010E-07        -0.39677E-10         0.00000E+00
    0.32013E-07        -0.40227E-10         0.00000E+00
    0.32016E-07        -0.40644E-10         0.00000E+00
    0.32019E-07        -0.40926E-10         0.00000E+00
    0.32021E-07        -0.41069E-10         0.00000E+00
    0.32024E-07        -0.41072E-10         0.00000E+00
    0.32027E-07        -0.40931E-10         0.00000E+00
    0.32030E-07        -0.40646E-10         0.00000E+00
    0.32032E-07        -0.40213E-10         0.00000E+00
    0.32035E-07        -0.39630E-10         0.00000E+00
    0.32037E-07        -0.38896E-10         0.00000E+00
    0.32040E-07        -0.38009E-10         0.00000E+00
    0.32042E-07        -0.36966E-10         0.00000E+00
    0.32045E-07        -0.35767E-10         0.00000E+00
    0.32047E-07        -0.34409E-10         0.00000E+00
    0.32049E-07        -0.32892E-10         0.00000E+00
    0.32051E-07        -0.31214E-10         0.00000E+00
    0.32053E-07        -0.29373E-10         0.00000E+00
    0.32055E-07        -0.27369E-10         0.00000E+00
    0.32056E-07        -0.25200E-10         0.00000E+00
    0.32058E-07        -0.22866E-10         0.00000E+00
    0.32059E-07        -0.20365E-10         0.00000E+00
    0.32060E-07        -0.17697E-10         0.00000E+00
    0.32061E-07        -0.14861E-10         0.00000E+00
    0.32062E-07        -0.11857E-10         0.00000E+00
    0.32063E-07        -0.86836E-11         0.00000E+00
    0.32063E-07        -0.53405E-11         0.00000E+00
    0.32063E-07        -0.18274E-11         0.00000E+00
    0.32573E-07        -0.18022E-11         0.00000E+00
    0.32573E-07        -0.53590E-11         0.00000E+00
    0.32574E-07        -0.88394E-11         0.00000E+00
    0.32574E-07        -0.12237E-10         0.00000E+00
    0.32575E-07        -0.15545E-10         0.00000E+00
    0.32576E-07        -0.18757E-10         0.00000E+00
    0.32578E-07        -0.21867E-10         0.00000E+00
    0.32579E-07        -0.24869E-10         0.00000E+00
    0.32581E-07        -0.27758E-10         0.00000E+00
    0.32582E-07        -0.30529E-10         0.00000E+00
    0.32584E-07        -0.33176E-10         0.00000E+00
    0.32586E-07        -0.35693E-10         0.00000E+00
    0.32588E-07        -0.38078E-10         0.00000E+00
    0.32590E-07        -0.40323E-10         0.00000E+00
    0.32593E-07        -0.42427E-10         0.00000E+00
    0.32595E-07        -0.44383E-10         0.00000E+00
    0.32598E-07        -0.46188E-10         0.00000E+00
    0.32600E-07        -0.47838E-10         0.00000E+00
    0.32603E-07        -0.49329E-10         0.00000E+00
    0.32606E-07        -0.50658E-10         0.00000E+00
    0.32608E-07        -0.51821E-10         0.00000E+00
    0.32611E-07        -0.52814E-10         0.00000E+00
    0.32614E-07        -0.53636E-10         0.00000E+00
    0.32617E-07        -0.54281E-10         0.00000E+00
    0.32620E-07        -0.54749E-10         0.00000E+00
    0.32623E-07        -0.55035E-10         0.00000E+00
    0.32626E-07        -0.55137E-10         0.00000E+00
    0.32628E-07        -0.55053E-10         0.00000E+00
    0.32631E-07        -0.54780E-10         0.00000E+00
    0.32634E-07        -0.54316E-10         0.00000E+00
    0.32637E-07        -0.53659E-10         0.00000E+00
    0.32640E-07        -0.52807E-10         0.00000E+00
    0.32642E-07        -0.51758E-10         0.00000E+00
    0.32645E-07        -0.50510E-10         0.00000E+00
    0.32647E-07        -0.49060E-10         0.00000E+00
    0.32650E-07        -0.47409E-10         0.00000E+00
    0.32652E-07        -0.45554E-10         0.00000E+00
    0.32654E-07        -0.43494E-10         0.00000E+00
    0.32656E-07        -0.41227E-10         0.00000E+00
    0.32658E-07        -0.38752E-10         0.00000E+00
    0.32660E-07        -0.36069E-10         0.00000E+00
    0.32662E-07        -0.33176E-10         0.00000E+00
    0.32664E-07        -0.30072E-10         0.00000E+00
    0.32665E-07        -0.26756E-10         0.00000E+00
    0.32666E-07        -0.23229E-10         0.00000E+00
    0.32667E-07        -0.19488E-10         0.00000E+00
    0.32668E-07        -0.15534E-10         0.00000E+00
    0.32669E-07        -0.11366E-10         0.00000E+00
    0.32669E-07        -0.69843E-11         0.00000E+00
    0.32669E-07        -0.23877E-11         0.00000E+00
    0.33237E-07        -0.23835E-11         0.00000E+00
    0.33237E-07        -0.70730E-11         0.00000E+00
    0.33238E-07        -0.11641E-10         0.00000E+00
    0.33238E-07        -0.16079E-10         0.00000E+00
    0.33239E-07        -0.20383E-10         0.00000E+00
    0.33240E-07        -0.24544E-10         0.00000E+00
    0.33242E-07        -0.28557E-10         0.00000E+00
    0.33243E-07        -0.32415E-10         0.00000E+00
    0.33245E-07        -0.36113E-10         0.00000E+00
    0.33247E-07        -0.39646E-10         0.00000E+00
    0.33249E-07        -0.43008E-10         0.00000E+00
    0.33251E-07        -0.46193E-10         0.00000E+00
    0.33253E-07        -0.49197E-10         0.00000E+00
    0.33255E-07        -0.52016E-10         0.00000E+00
    0.33258E-07        -0.54644E-10         0.00000E+00
    0.33260E-07        -0.57078E-10         0.00000E+00
    0.33263E-07        -0.59312E-10         0.00000E+00
    0.33266E-07        -0.61344E-10         0.00000E+00
    0.33268E-07        -0.63169E-10         0.00000E+00
    0.33271E-07        -0.64784E-10         0.00000E+00
    0.33274E-07        -0.66185E-10         0.00000E+00
    0.33277E-07        -0.67369E-10         0.00000E+00
    0.33280E-07        -0.68333E-10         0.00000E+00
    0.33283E-07        -0.69073E-10         0.00000E+00
    0.33286E-07        -0.69587E-10         0.00000E+00
    0.33289E-07        -0.69872E-10         0.00000E+00
    0.33292E-07        -0.69926E-10         0.00000E+00
    0.33295E-07        -0.69745E-10         0.00000E+00
    0.33298E-07        -0.69328E-10         0.00000E+00
    0.33301E-07        -0.68672E-10         0.00000E+00
    0.33304E-07        -0.67775E-10         0.00000E+00
    0.33307E-07        -0.66635E-10         0.00000E+00
    0.33310E-07        -0.65251E-10         0.00000E+00
    0.33313E-07        -0.63620E-10         0.00000E+00
    0.33315E-07        -0.61741E-10         0.00000E+00
    0.33318E-07        -0.59612E-10         0.00000E+00
    0.33320E-07        -0.57232E-10         0.00000E+00
    0.33323E-07        -0.54600E-10         0.00000E+00
    0.33325E-07        -0.51714E-10         0.00000E+00
    0.33327E-07        -0.48573E-10         0.00000E+00
    0.33329E-07        -0.45176E-10         0.00000E+00
    0.33331E-07        -0.41523E-10         0.00000E+00
    0.33332E-07        -0.37612E-10         0.00000E+00
    0.33334E-07        -0.33442E-10         0.00000E+00
    0.33335E-07        -0.29014E-10         0.00000E+00
    0.33336E-07        -0.24326E-10         0.00000E+00
    0.33337E-07        -0.19379E-10         0.00000E+00
    0.33338E-07        -0.14171E-10         0.00000E+00
    0.33338E-07        -0.87022E-11         0.00000E+00
    0.33338E-07        -0.29732E-11         0.00000E+00
    0.33964E-07        -0.30036E-11         0.00000E+00
    0.33964E-07        -0.88998E-11         0.00000E+00
    0.33964E-07        -0.14624E-10         0.00000E+00
    0.33965E-07        -0.20169E-10         0.00000E+00
    0.33966E-07        -0.25528E-10         0.00000E+00
    0.33967E-07        -0.30694E-10         0.00000E+00
    0.33969E-07        -0.35661E-10         0.00000E+00
    0.33970E-07        -0.40423E-10         0.00000E+00
    0.33972E-07        -0.44975E-10         0.00000E+00
    0.33974E-07        -0.49309E-10         0.00000E+00
    0.33976E-07        -0.53422E-10         0.00000E+00
    0.33978E-07        -0.57308E-10         0.00000E+00
    0.33980E-07        -0.60962E-10         0.00000E+00
    0.33983E-07        -0.64379E-10         0.00000E+00
    0.33985E-07        -0.67555E-10         0.00000E+00
    0.33988E-07        -0.70485E-10         0.00000E+00
    0.33991E-07        -0.73166E-10         0.00000E+00
    0.33994E-07        -0.75594E-10         0.00000E+00
    0.33997E-07        -0.77764E-10         0.00000E+00
    0.34000E-07        -0.79673E-10         0.00000E+00
    0.34003E-07        -0.81318E-10         0.00000E+00
    0.34006E-07        -0.82696E-10         0.00000E+00
    0.34009E-07        -0.83802E-10         0.00000E+00
    0.34012E-07        -0.84636E-10         0.00000E+00
    0.34016E-07        -0.85192E-10         0.00000E+00
    0.34019E-07        -0.85470E-10         0.00000E+00
    0.34022E-07        -0.85466E-10         0.00000E+00
    0.34025E-07        -0.85177E-10         0.00000E+00
    0.34028E-07        -0.84603E-10         0.00000E+00
    0.34031E-07        -0.83740E-10         0.00000E+00
    0.34034E-07        -0.82586E-10         0.00000E+00
    0.34037E-07        -0.81140E-10         0.00000E+00
    0.34040E-07        -0.79399E-10         0.00000E+00
    0.34043E-07        -0.77363E-10         0.00000E+00
    0.34046E-07        -0.75029E-10         0.00000E+00
    0.34049E-07        -0.72396E-10         0.00000E+00
    0.34051E-07        -0.69463E-10         0.00000E+00
    0.34054E-07        -0.66229E-10         0.00000E+00
    0.34056E-07        -0.62692E-10         0.00000E+00
    0.34058E-07        -0.58851E-10         0.00000E+00
    0.34060E-07        -0.54705E-10         0.00000E+00
    0.34062E-07        -0.50254E-10         0.00000E+00
    0.34064E-07        -0.45497E-10         0.00000E+00
    0.34065E-07        -0.40433E-10         0.00000E+00
    0.34067E-07        -0.35062E-10         0.00000E+00
    0.34068E-07        -0.29383E-10         0.00000E+00
    0.34069E-07        -0.23396E-10         0.00000E+00
    0.34069E-07        -0.17101E-10         0.00000E+00
    0.34070E-07        -0.10497E-10         0.00000E+00
    0.34070E-07        -0.35847E-11         0.00000E+00
    0.34753E-07        -0.36641E-11         0.00000E+00
    0.34753E-07        -0.10844E-10         0.00000E+00
    0.34754E-07        -0.17797E-10         0.00000E+00
    0.34755E-07        -0.24515E-10         0.00000E+00
    0.34756E-07        -0.30992E-10         0.00000E+00
    0.34757E-07        -0.37221E-10         0.00000E+00
    0.34758E-07        -0.43195E-10         0.00000E+00
    0.34760E-07        -0.48910E-10         0.00000E+00
    0.34762E-07        -0.54359E-10         0.00000E+00
    0.34764E-07        -0.59536E-10         0.00000E+00
    0.34766E-07        -0.64436E-10         0.00000E+00
    0.34768E-07        -0.69055E-10         0.00000E+00
    0.34771E-07        -0.73388E-10         0.00000E+00
    0.34773E-07        -0.77430E-10         0.00000E+00
    0.34776E-07        -0.81176E-10         0.00000E+00
    0.34779E-07        -0.84624E-10         0.00000E+00
    0.34782E-07        -0.87767E-10         0.00000E+00
    0.34785E-07        -0.90604E-10         0.00000E+00
    0.34788E-07        -0.93129E-10         0.00000E+00
    0.34791E-07        -0.95341E-10         0.00000E+00
    0.34794E-07        -0.97235E-10         0.00000E+00
    0.34798E-07        -0.98808E-10         0.00000E+00
    0.34801E-07        -0.10006E-09         0.00000E+00
    0.34804E-07        -0.10098E-09         0.00000E+00
    0.34808E-07        -0.10158E-09         0.00000E+00
    0.34811E-07        -0.10184E-09         0.00000E+00
    0.34814E-07        -0.10177E-09         0.00000E+00
    0.34818E-07        -0.10136E-09         0.00000E+00
    0.34821E-07        -0.10062E-09         0.00000E+00
    0.34824E-07        -0.99530E-10         0.00000E+00
    0.34828E-07        -0.98102E-10         0.00000E+00
    0.34831E-07        -0.96330E-10         0.00000E+00
    0.34834E-07        -0.94212E-10         0.00000E+00
    0.34837E-07        -0.91747E-10         0.00000E+00
    0.34840E-07        -0.88933E-10         0.00000E+00
    0.34842E-07        -0.85769E-10         0.00000E+00
    0.34845E-07        -0.82254E-10         0.00000E+00
    0.34848E-07        -0.78387E-10         0.00000E+00
    0.34850E-07        -0.74166E-10         0.00000E+00
    0.34852E-07        -0.69591E-10         0.00000E+00
    0.34854E-07        -0.64661E-10         0.00000E+00
    0.34856E-07        -0.59375E-10         0.00000E+00
    0.34858E-07        -0.53732E-10         0.00000E+00
    0.34860E-07        -0.47733E-10         0.00000E+00
    0.34861E-07        -0.41376E-10         0.00000E+00
    0.34862E-07        -0.34661E-10         0.00000E+00
    0.34863E-07        -0.27589E-10         0.00000E+00
    0.34864E-07        -0.20158E-10         0.00000E+00
    0.34865E-07        -0.12369E-10         0.00000E+00
    0.34865E-07        -0.42226E-11         0.00000E+00
    0.35605E-07        -0.43657E-11         0.00000E+00
    0.35605E-07        -0.12908E-10         0.00000E+00
    0.35606E-07        -0.21162E-10         0.00000E+00
    0.35607E-07        -0.29121E-10         0.00000E+00
    0.35608E-07        -0.36778E-10         0.00000E+00
    0.35609E-07        -0.44128E-10         0.00000E+00
    0.35611E-07        -0.51163E-10         0.00000E+00
    0.35613E-07        -0.57878E-10         0.00000E+00
    0.35614E-07        -0.64268E-10         0.00000E+00
    0.35617E-07        -0.70328E-10         0.00000E+00
    0.35619E-07        -0.76052E-10         0.00000E+00
    0.35621E-07        -0.81437E-10         0.00000E+00
    0.35624E-07        -0.86477E-10         0.00000E+00
    0.35627E-07        -0.91169E-10         0.00000E+00
    0.35630E-07        -0.95507E-10         0.00000E+00
    0.35633E-07        -0.99490E-10         0.00000E+00
    0.35636E-07        -0.10311E-09         0.00000E+00
    0.35639E-07        -0.10637E-09         0.00000E+00
    0.35642E-07        -0.10926E-09         0.00000E+00
    0.35645E-07        -0.11178E-09         0.00000E+00
    0.35649E-07        -0.11393E-09         0.00000E+00
    0.35652E-07        -0.11570E-09         0.00000E+00
    0.35656E-07        -0.11709E-09         0.00000E+00
    0.35659E-07        -0.11810E-09         0.00000E+00
    0.35663E-07        -0.11873E-09         0.00000E+00
    0.35666E-07        -0.11897E-09         0.00000E+00
    0.35670E-07        -0.11882E-09         0.00000E+00
    0.35673E-07        -0.11829E-09         0.00000E+00
    0.35677E-07        -0.11736E-09         0.00000E+00
    0.35680E-07        -0.11603E-09         0.00000E+00
    0.35683E-07        -0.11431E-09         0.00000E+00
    0.35687E-07        -0.11219E-09         0.00000E+00
    0.35690E-07        -0.10968E-09         0.00000E+00
    0.35693E-07        -0.10676E-09         0.00000E+00
    0.35696E-07        -0.10344E-09         0.00000E+00
    0.35699E-07        -0.99720E-10         0.00000E+00
    0.35702E-07        -0.95594E-10         0.00000E+00
    0.35704E-07        -0.91064E-10         0.00000E+00
    0.35707E-07        -0.86128E-10         0.00000E+00
    0.35709E-07        -0.80785E-10         0.00000E+00
    0.35711E-07        -0.75035E-10         0.00000E+00
    0.35713E-07        -0.68877E-10         0.00000E+00
    0.35715E-07        -0.62311E-10         0.00000E+00
    0.35717E-07        -0.55336E-10         0.00000E+00
    0.35718E-07        -0.47951E-10         0.00000E+00
    0.35720E-07        -0.40157E-10         0.00000E+00
    0.35721E-07        -0.31954E-10         0.00000E+00
    0.35721E-07        -0.23341E-10         0.00000E+00
    0.35722E-07        -0.14318E-10         0.00000E+00
    0.35722E-07        -0.48865E-11         0.00000E+00
    0.36520E-07        -0.51078E-11         0.00000E+00
    0.36520E-07        -0.15090E-10         0.00000E+00
    0.36521E-07        -0.24717E-10         0.00000E+00
    0.36522E-07        -0.33983E-10         0.00000E+00
    0.36523E-07        -0.42881E-10         0.00000E+00
    0.36524E-07        -0.51406E-10         0.00000E+00
    0.36526E-07        -0.59553E-10         0.00000E+00
    0.36528E-07        -0.67315E-10         0.00000E+00
    0.36530E-07        -0.74689E-10         0.00000E+00
    0.36532E-07        -0.81669E-10         0.00000E+00
    0.36534E-07        -0.88252E-10         0.00000E+00
    0.36537E-07        -0.94432E-10         0.00000E+00
    0.36540E-07        -0.10021E-09         0.00000E+00
    0.36543E-07        -0.10557E-09         0.00000E+00
    0.36546E-07        -0.11052E-09         0.00000E+00
    0.36549E-07        -0.11506E-09         0.00000E+00
    0.36552E-07        -0.11917E-09         0.00000E+00
    0.36555E-07        -0.12286E-09         0.00000E+00
    0.36559E-07        -0.12612E-09         0.00000E+00
    0.36562E-07        -0.12896E-09         0.00000E+00
    0.36566E-07        -0.13136E-09         0.00000E+00
    0.36569E-07        -0.13333E-09         0.00000E+00
    0.36573E-07        -0.13487E-09         0.00000E+00
    0.36577E-07        -0.13596E-09         0.00000E+00
    0.36580E-07        -0.13662E-09         0.00000E+00
    0.36584E-07        -0.13683E-09         0.00000E+00
    0.36588E-07        -0.13659E-09         0.00000E+00
    0.36591E-07        -0.13591E-09         0.00000E+00
    0.36595E-07        -0.13479E-09         0.00000E+00
    0.36598E-07        -0.13321E-09         0.00000E+00
    0.36602E-07        -0.13118E-09         0.00000E+00
    0.36605E-07        -0.12870E-09         0.00000E+00
    0.36608E-07        -0.12576E-09         0.00000E+00
    0.36612E-07        -0.12237E-09         0.00000E+00
    0.36615E-07        -0.11852E-09         0.00000E+00
    0.36618E-07        -0.11422E-09         0.00000E+00
    0.36621E-07        -0.10946E-09         0.00000E+00
    0.36623E-07        -0.10423E-09         0.00000E+00
    0.36626E-07        -0.98552E-10         0.00000E+00
    0.36628E-07        -0.92410E-10         0.00000E+00
    0.36631E-07        -0.85807E-10         0.00000E+00
    0.36633E-07        -0.78742E-10         0.00000E+00
    0.36635E-07        -0.71215E-10         0.00000E+00
    0.36636E-07        -0.63226E-10         0.00000E+00
    0.36638E-07        -0.54774E-10         0.00000E+00
    0.36639E-07        -0.45860E-10         0.00000E+00
    0.36640E-07        -0.36483E-10         0.00000E+00
    0.36641E-07        -0.26643E-10         0.00000E+00
    0.36642E-07        -0.16340E-10         0.00000E+00
    0.36642E-07        -0.55751E-11         0.00000E+00
    0.37497E-07        -0.58887E-11         0.00000E+00
    0.37498E-07        -0.17384E-10         0.00000E+00
    0.37498E-07        -0.28451E-10         0.00000E+00
    0.37499E-07        -0.39086E-10         0.00000E+00
    0.37500E-07        -0.49282E-10         0.00000E+00
    0.37502E-07        -0.59035E-10         0.00000E+00
    0.37503E-07        -0.68339E-10         0.00000E+00
    0.37505E-07        -0.77192E-10         0.00000E+00
    0.37508E-07        -0.85587E-10         0.00000E+00
    0.37510E-07        -0.93522E-10         0.00000E+00
    0.37512E-07        -0.10099E-09         0.00000E+00
    0.37515E-07        -0.10800E-09         0.00000E+00
    0.37518E-07        -0.11453E-09         0.00000E+00
    0.37521E-07        -0.12059E-09         0.00000E+00
    0.37524E-07        -0.12617E-09         0.00000E+00
    0.37527E-07        -0.13127E-09         0.00000E+00
    0.37531E-07        -0.13588E-09         0.00000E+00
    0.37534E-07        -0.14002E-09         0.00000E+00
    0.37538E-07        -0.14366E-09         0.00000E+00
    0.37541E-07        -0.14681E-09         0.00000E+00
    0.37545E-07        -0.14948E-09         0.00000E+00
    0.37549E-07        -0.15164E-09         0.00000E+00
    0.37552E-07        -0.15332E-09         0.00000E+00
    0.37556E-07        -0.15449E-09         0.00000E+00
    0.37560E-07        -0.15517E-09         0.00000E+00
    0.37564E-07        -0.15534E-09         0.00000E+00
    0.37567E-07        -0.15501E-09         0.00000E+00
    0.37571E-07        -0.15418E-09         0.00000E+00
    0.37575E-07        -0.15284E-09         0.00000E+00
    0.37578E-07        -0.15099E-09         0.00000E+00
    0.37582E-07        -0.14864E-09         0.00000E+00
    0.37585E-07        -0.14578E-09         0.00000E+00
    0.37589E-07        -0.14240E-09         0.00000E+00
    0.37592E-07        -0.13852E-09         0.00000E+00
    0.37595E-07        -0.13412E-09         0.00000E+00
    0.37599E-07        -0.12921E-09         0.00000E+00
    0.37602E-07        -0.12379E-09         0.00000E+00
    0.37604E-07        -0.11785E-09         0.00000E+00
    0.37607E-07        -0.11139E-09         0.00000E+00
    0.37610E-07        -0.10442E-09         0.00000E+00
    0.37612E-07        -0.96937E-10         0.00000E+00
    0.37614E-07        -0.88934E-10         0.00000E+00
    0.37616E-07        -0.80414E-10         0.00000E+00
    0.37618E-07        -0.71377E-10         0.00000E+00
    0.37619E-07        -0.61822E-10         0.00000E+00
    0.37621E-07        -0.51750E-10         0.00000E+00
    0.37622E-07        -0.41160E-10         0.00000E+00
    0.37623E-07        -0.30053E-10         0.00000E+00
    0.37623E-07        -0.18428E-10         0.00000E+00
    0.37623E-07        -0.62862E-11         0.00000E+00
    0.38536E-07        -0.67046E-11         0.00000E+00
    0.38537E-07        -0.19779E-10         0.00000E+00
    0.38537E-07        -0.32347E-10         0.00000E+00
    0.38538E-07        -0.44405E-10         0.00000E+00
    0.38540E-07        -0.55949E-10         0.00000E+00
    0.38541E-07        -0.66974E-10         0.00000E+00
    0.38543E-07        -0.77478E-10         0.00000E+00
    0.38545E-07        -0.87456E-10         0.00000E+00
    0.38547E-07        -0.96906E-10         0.00000E+00
    0.38549E-07        -0.10582E-09         0.00000E+00
    0.38552E-07        -0.11421E-09         0.00000E+00
    0.38555E-07        -0.12206E-09         0.00000E+00
    0.38558E-07        -0.12936E-09         0.00000E+00
    0.38561E-07        -0.13613E-09         0.00000E+00
    0.38564E-07        -0.14235E-09         0.00000E+00
    0.38567E-07        -0.14803E-09         0.00000E+00
    0.38571E-07        -0.15316E-09         0.00000E+00
    0.38574E-07        -0.15774E-09         0.00000E+00
    0.38578E-07        -0.16177E-09         0.00000E+00
    0.38582E-07        -0.16524E-09         0.00000E+00
    0.38585E-07        -0.16816E-09         0.00000E+00
    0.38589E-07        -0.17053E-09         0.00000E+00
    0.38593E-07        -0.17234E-09         0.00000E+00
    0.38597E-07        -0.17359E-09         0.00000E+00
    0.38601E-07        -0.17428E-09         0.00000E+00
    0.38605E-07        -0.17440E-09         0.00000E+00
    0.38609E-07        -0.17397E-09         0.00000E+00
    0.38612E-07        -0.17297E-09         0.00000E+00
    0.38616E-07        -0.17141E-09         0.00000E+00
    0.38620E-07        -0.16929E-09         0.00000E+00
    0.38624E-07        -0.16660E-09         0.00000E+00
    0.38627E-07        -0.16334E-09         0.00000E+00
    0.38631E-07        -0.15951E-09         0.00000E+00
    0.38634E-07        -0.15511E-09         0.00000E+00
    0.38637E-07        -0.15015E-09         0.00000E+00
    0.38641E-07        -0.14461E-09         0.00000E+00
    0.38644E-07        -0.13851E-09         0.00000E+00
    0.38647E-07        -0.13183E-09         0.00000E+00
    0.38649E-07        -0.12458E-09         0.00000E+00
    0.38652E-07        -0.11676E-09         0.00000E+00
    0.38654E-07        -0.10837E-09         0.00000E+00
    0.38656E-07        -0.99401E-10         0.00000E+00
    0.38659E-07        -0.89861E-10         0.00000E+00
    0.38660E-07        -0.79748E-10         0.00000E+00
    0.38662E-07        -0.69060E-10         0.00000E+00
    0.38663E-07        -0.57799E-10         0.00000E+00
    0.38664E-07        -0.45964E-10         0.00000E+00
    0.38665E-07        -0.33555E-10         0.00000E+00
    0.38666E-07        -0.20573E-10         0.00000E+00
    0.38666E-07        -0.70168E-11         0.00000E+00
    0.39637E-07        -0.75500E-11         0.00000E+00
    0.39637E-07        -0.22258E-10         0.00000E+00
    0.39638E-07        -0.36377E-10         0.00000E+00
    0.39639E-07        -0.49904E-10         0.00000E+00
    0.39640E-07        -0.62835E-10         0.00000E+00
    0.39642E-07        -0.75168E-10         0.00000E+00
    0.39643E-07        -0.86902E-10         0.00000E+00
    0.39645E-07        -0.98034E-10         0.00000E+00
    0.39648E-07        -0.10856E-09         0.00000E+00
    0.39650E-07        -0.11848E-09         0.00000E+00
    0.39653E-07        -0.12780E-09         0.00000E+00
    0.39656E-07        -0.13651E-09         0.00000E+00
    0.39659E-07        -0.14460E-09         0.00000E+00
    0.39662E-07        -0.15209E-09         0.00000E+00
    0.39665E-07        -0.15896E-09         0.00000E+00
    0.39668E-07        -0.16522E-09         0.00000E+00
    0.39672E-07        -0.17087E-09         0.00000E+00
    0.39676E-07        -0.17589E-09         0.00000E+00
    0.39679E-07        -0.18031E-09         0.00000E+00
    0.39683E-07        -0.18410E-09         0.00000E+00
    0.39687E-07        -0.18728E-09         0.00000E+00
    0.39691E-07        -0.18984E-09         0.00000E+00
    0.39695E-07        -0.19178E-09         0.00000E+00
    0.39699E-07        -0.19310E-09         0.00000E+00
    0.39702E-07        -0.19380E-09         0.00000E+00
    0.39706E-07        -0.19388E-09         0.00000E+00
    0.39710E-07        -0.19333E-09         0.00000E+00
    0.39714E-07        -0.19216E-09         0.00000E+00
    0.39718E-07        -0.19037E-09         0.00000E+00
    0.39722E-07        -0.18796E-09         0.00000E+00
    0.39726E-07        -0.18492E-09         0.00000E+00
    0.39729E-07        -0.18125E-09         0.00000E+00
    0.39733E-07        -0.17696E-09         0.00000E+00
    0.39736E-07        -0.17204E-09         0.00000E+00
    0.39740E-07        -0.16649E-09         0.00000E+00
    0.39743E-07        -0.16032E-09         0.00000E+00
    0.39746E-07        -0.15352E-09         0.00000E+00
    0.39749E-07        -0.14609E-09         0.00000E+00
    0.39752E-07        -0.13803E-09         0.00000E+00
    0.39754E-07        -0.12934E-09         0.00000E+00
    0.39757E-07        -0.12002E-09         0.00000E+00
    0.39759E-07        -0.11007E-09         0.00000E+00
    0.39761E-07        -0.99494E-10         0.00000E+00
    0.39763E-07        -0.88284E-10         0.00000E+00
    0.39764E-07        -0.76442E-10         0.00000E+00
    0.39766E-07        -0.63969E-10         0.00000E+00
    0.39767E-07        -0.50864E-10         0.00000E+00
    0.39768E-07        -0.37128E-10         0.00000E+00
    0.39768E-07        -0.22761E-10         0.00000E+00
    0.39769E-07        -0.77622E-11         0.00000E+00
    0.40797E-07        -0.84170E-11         0.00000E+00
    0.40798E-07        -0.24800E-10         0.00000E+00
    0.40798E-07        -0.40504E-10         0.00000E+00
    0.40799E-07        -0.55529E-10         0.00000E+00
    0.40800E-07        -0.69874E-10         0.00000E+00
    0.40802E-07        -0.83538E-10         0.00000E+00
    0.40804E-07        -0.96521E-10         0.00000E+00
    0.40806E-07        -0.10882E-09         0.00000E+00
    0.40808E-07        -0.12044E-09         0.00000E+00
    0.40811E-07        -0.13138E-09         0.00000E+00
    0.40813E-07        -0.14163E-09         0.00000E+00
    0.40816E-07        -0.15120E-09         0.00000E+00
    0.40819E-07        -0.16009E-09         0.00000E+00
    0.40822E-07        -0.16830E-09         0.00000E+00
    0.40826E-07        -0.17582E-09         0.00000E+00
    0.40829E-07        -0.18267E-09         0.00000E+00
    0.40833E-07        -0.18883E-09         0.00000E+00
    0.40836E-07        -0.19430E-09         0.00000E+00
    0.40840E-07        -0.19910E-09         0.00000E+00
    0.40844E-07        -0.20321E-09         0.00000E+00
    0.40848E-07        -0.20664E-09         0.00000E+00
    0.40852E-07        -0.20939E-09         0.00000E+00
    0.40856E-07        -0.21146E-09         0.00000E+00
    0.40860E-07        -0.21284E-09         0.00000E+00
    0.40864E-07        -0.21355E-09         0.00000E+00
    0.40868E-07        -0.21357E-09         0.00000E+00
    0.40871E-07        -0.21291E-09         0.00000E+00
    0.40875E-07        -0.21156E-09         0.00000E+00
    0.40879E-07        -0.20953E-09         0.00000E+00
    0.40883E-07        -0.20682E-09         0.00000E+00
    0.40887E-07        -0.20343E-09         0.00000E+00
    0.40890E-07        -0.19935E-09         0.00000E+00
    0.40894E-07        -0.19459E-09         0.00000E+00
    0.40898E-07        -0.18914E-09         0.00000E+00
    0.40901E-07        -0.18301E-09         0.00000E+00
    0.40904E-07        -0.17619E-09         0.00000E+00
    0.40907E-07        -0.16869E-09         0.00000E+00
    0.40910E-07        -0.16049E-09         0.00000E+00
    0.40913E-07        -0.15162E-09         0.00000E+00
    0.40916E-07        -0.14205E-09         0.00000E+00
    0.40918E-07        -0.13180E-09         0.00000E+00
    0.40920E-07        -0.12086E-09         0.00000E+00
    0.40922E-07        -0.10923E-09         0.00000E+00
    0.40924E-07        -0.96913E-10         0.00000E+00
    0.40926E-07        -0.83905E-10         0.00000E+00
    0.40927E-07        -0.70208E-10         0.00000E+00
    0.40928E-07        -0.55821E-10         0.00000E+00
    0.40929E-07        -0.40743E-10         0.00000E+00
    0.40930E-07        -0.24975E-10         0.00000E+00
    0.40930E-07        -0.85168E-11         0.00000E+00
    0.42017E-07        -0.92954E-11         0.00000E+00
    0.42017E-07        -0.27372E-10         0.00000E+00
    0.42018E-07        -0.44677E-10         0.00000E+00
    0.42019E-07        -0.61212E-10         0.00000E+00
    0.42020E-07        -0.76979E-10         0.00000E+00
    0.42021E-07        -0.91979E-10         0.00000E+00
    0.42023E-07        -0.10621E-09         0.00000E+00
    0.42025E-07        -0.11968E-09         0.00000E+00
    0.42028E-07        -0.13239E-09         0.00000E+00
    0.42030E-07        -0.14434E-09         0.00000E+00
    0.42033E-07        -0.15553E-09         0.00000E+00
    0.42036E-07        -0.16596E-09         0.00000E+00
    0.42039E-07        -0.17564E-09         0.00000E+00
    0.42042E-07        -0.18456E-09         0.00000E+00
    0.42045E-07        -0.19273E-09         0.00000E+00
    0.42049E-07        -0.20015E-09         0.00000E+00
    0.42052E-07        -0.20681E-09         0.00000E+00
    0.42056E-07        -0.21273E-09         0.00000E+00
    0.42059E-07        -0.21790E-09         0.00000E+00
    0.42063E-07        -0.22233E-09         0.00000E+00
    0.42067E-07        -0.22600E-09         0.00000E+00
    0.42071E-07        -0.22894E-09         0.00000E+00
    0.42075E-07        -0.23113E-09         0.00000E+00
    0.42079E-07        -0.23257E-09         0.00000E+00
    0.42083E-07        -0.23327E-09         0.00000E+00
    0.42087E-07        -0.23323E-09         0.00000E+00
    0.42091E-07        -0.23245E-09         0.00000E+00
    0.42094E-07        -0.23093E-09         0.00000E+00
    0.42098E-07        -0.22866E-09         0.00000E+00
    0.42102E-07        -0.22566E-09         0.00000E+00
    0.42106E-07        -0.22191E-09         0.00000E+00
    0.42109E-07        -0.21742E-09         0.00000E+00
    0.42113E-07        -0.21219E-09         0.00000E+00
    0.42116E-07        -0.20621E-09         0.00000E+00
    0.42120E-07        -0.19950E-09         0.00000E+00
    0.42123E-07        -0.19204E-09         0.00000E+00
    0.42126E-07        -0.18383E-09         0.00000E+00
    0.42129E-07        -0.17489E-09         0.00000E+00
    0.42132E-07        -0.16519E-09         0.00000E+00
    0.42134E-07        -0.15476E-09         0.00000E+00
    0.42137E-07        -0.14357E-09         0.00000E+00
    0.42139E-07        -0.13165E-09         0.00000E+00
    0.42141E-07        -0.11897E-09         0.00000E+00
    0.42143E-07        -0.10555E-09         0.00000E+00
    0.42145E-07        -0.91375E-10         0.00000E+00
    0.42146E-07        -0.76455E-10         0.00000E+00
    0.42147E-07        -0.60785E-10         0.00000E+00
    0.42148E-07        -0.44365E-10         0.00000E+00
    0.42149E-07        -0.27195E-10         0.00000E+00
    0.42149E-07        -0.92735E-11         0.00000E+00
    0.43293E-07        -0.10172E-10         0.00000E+00
    0.43294E-07        -0.29936E-10         0.00000E+00
    0.43295E-07        -0.48833E-10         0.00000E+00
    0.43295E-07        -0.66867E-10         0.00000E+00
    0.43297E-07        -0.84042E-10         0.00000E+00
    0.43298E-07        -0.10036E-09         0.00000E+00
    0.43300E-07        -0.11583E-09         0.00000E+00
    0.43302E-07        -0.13046E-09         0.00000E+00
    0.43304E-07        -0.14424E-09         0.00000E+00
    0.43307E-07        -0.15718E-09         0.00000E+00
    0.43309E-07        -0.16928E-09         0.00000E+00
    0.43312E-07        -0.18056E-09         0.00000E+00
    0.43315E-07        -0.19100E-09         0.00000E+00
    0.43318E-07        -0.20062E-09         0.00000E+00
    0.43322E-07        -0.20941E-09         0.00000E+00
    0.43325E-07        -0.21739E-09         0.00000E+00
    0.43328E-07        -0.22455E-09         0.00000E+00
    0.43332E-07        -0.23090E-09         0.00000E+00
    0.43336E-07        -0.23643E-09         0.00000E+00
    0.43339E-07        -0.24115E-09         0.00000E+00
    0.43343E-07        -0.24507E-09         0.00000E+00
    0.43347E-07        -0.24818E-09         0.00000E+00
    0.43351E-07        -0.25048E-09         0.00000E+00
    0.43354E-07        -0.25198E-09         0.00000E+00
    0.43358E-07        -0.25268E-09         0.00000E+00
    0.43362E-07        -0.25258E-09         0.00000E+00
    0.43366E-07        -0.25168E-09         0.00000E+00
    0.43370E-07        -0.24998E-09         0.00000E+00
    0.43373E-07        -0.24748E-09         0.00000E+00
    0.43377E-07        -0.24419E-09         0.00000E+00
    0.43381E-07        -0.24009E-09         0.00000E+00
    0.43384E-07        -0.23520E-09         0.00000E+00
    0.43388E-07        -0.22951E-09         0.00000E+00
    0.43391E-07        -0.22302E-09         0.00000E+00
    0.43394E-07        -0.21573E-09         0.00000E+00
    0.43397E-07        -0.20764E-09         0.00000E+00
    0.43400E-07        -0.19875E-09         0.00000E+00
    0.43403E-07        -0.18907E-09         0.00000E+00
    0.43406E-07        -0.17858E-09         0.00000E+00
    0.43409E-07        -0.16728E-09         0.00000E+00
    0.43411E-07        -0.15519E-09         0.00000E+00
    0.43413E-07        -0.14229E-09         0.00000E+00
    0.43415E-07        -0.12859E-09         0.00000E+00
    0.43417E-07        -0.11408E-09         0.00000E+00
    0.43419E-07        -0.98758E-10         0.00000E+00
    0.43420E-07        -0.82632E-10         0.00000E+00
    0.43421E-07        -0.65696E-10         0.00000E+00
    0.43422E-07        -0.47950E-10         0.00000E+00
    0.43422E-07        -0.29393E-10         0.00000E+00
    0.43423E-07        -0.10024E-10         0.00000E+00
    0.44626E-07        -0.11030E-10         0.00000E+00
    0.44626E-07        -0.32444E-10         0.00000E+00
    0.44627E-07        -0.52893E-10         0.00000E+00
    0.44628E-07        -0.72386E-10         0.00000E+00
    0.44629E-07        -0.90929E-10         0.00000E+00
    0.44631E-07        -0.10853E-09         0.00000E+00
    0.44632E-07        -0.12519E-09         0.00000E+00
    0.44634E-07        -0.14093E-09         0.00000E+00
    0.44636E-07        -0.15574E-09         0.00000E+00
    0.44639E-07        -0.16964E-09         0.00000E+00
    0.44641E-07        -0.18262E-09         0.00000E+00
    0.44644E-07        -0.19470E-09         0.00000E+00
    0.44647E-07        -0.20588E-09         0.00000E+00
    0.44650E-07        -0.21617E-09         0.00000E+00
    0.44653E-07        -0.22556E-09         0.00000E+00
    0.44656E-07        -0.23407E-09         0.00000E+00
    0.44659E-07        -0.24170E-09         0.00000E+00
    0.44663E-07        -0.24845E-09         0.00000E+00
    0.44666E-07        -0.25433E-09         0.00000E+00
    0.44670E-07        -0.25934E-09         0.00000E+00
    0.44673E-07        -0.26348E-09         0.00000E+00
    0.44677E-07        -0.26675E-09         0.00000E+00
    0.44681E-07        -0.26917E-09         0.00000E+00
    0.44684E-07        -0.27072E-09         0.00000E+00
    0.44688E-07        -0.27142E-09         0.00000E+00
    0.44692E-07        -0.27126E-09         0.00000E+00
    0.44695E-07        -0.27024E-09         0.00000E+00
    0.44699E-07        -0.26837E-09         0.00000E+00
    0.44702E-07        -0.26565E-09         0.00000E+00
    0.44706E-07        -0.26208E-09         0.00000E+00
    0.44709E-07        -0.25765E-09         0.00000E+00
    0.44713E-07        -0.25238E-09         0.00000E+00
    0.44716E-07        -0.24625E-09         0.00000E+00
    0.44719E-07        -0.23926E-09         0.00000E+00
    0.44722E-07        -0.23143E-09         0.00000E+00
    0.44725E-07        -0.22274E-09         0.00000E+00
    0.44728E-07        -0.21320E-09         0.00000E+00
    0.44731E-07        -0.20280E-09         0.00000E+00
    0.44734E-07        -0.19155E-09         0.00000E+00
    0.44736E-07        -0.17943E-09         0.00000E+00
    0.44738E-07        -0.16646E-09         0.00000E+00
    0.44741E-07        -0.15263E-09         0.00000E+00
    0.44743E-07        -0.13793E-09         0.00000E+00
    0.44744E-07        -0.12237E-09         0.00000E+00
    0.44746E-07        -0.10594E-09         0.00000E+00
    0.44747E-07        -0.88648E-10         0.00000E+00
    0.44748E-07        -0.70484E-10         0.00000E+00
    0.44749E-07        -0.51448E-10         0.00000E+00
    0.44750E-07        -0.31540E-10         0.00000E+00
    0.44750E-07        -0.10757E-10         0.00000E+00
    0.46012E-07        -0.11850E-10         0.00000E+00
    0.46012E-07        -0.34838E-10         0.00000E+00
    0.46013E-07        -0.56765E-10         0.00000E+00
    0.46014E-07        -0.77642E-10         0.00000E+00
    0.46015E-07        -0.97480E-10         0.00000E+00
    0.46016E-07        -0.11629E-09         0.00000E+00
    0.46018E-07        -0.13408E-09         0.00000E+00
    0.46020E-07        -0.15086E-09         0.00000E+00
    0.46022E-07        -0.16664E-09         0.00000E+00
    0.46024E-07        -0.18143E-09         0.00000E+00
    0.46026E-07        -0.19524E-09         0.00000E+00
    0.46029E-07        -0.20807E-09         0.00000E+00
    0.46031E-07        -0.21994E-09         0.00000E+00
    0.46034E-07        -0.23084E-09         0.00000E+00
    0.46037E-07        -0.24080E-09         0.00000E+00
    0.46040E-07        -0.24980E-09         0.00000E+00
    0.46043E-07        -0.25786E-09         0.00000E+00
    0.46046E-07        -0.26499E-09         0.00000E+00
    0.46049E-07        -0.27119E-09         0.00000E+00
    0.46053E-07        -0.27646E-09         0.00000E+00
    0.46056E-07        -0.28081E-09         0.00000E+00
    0.46059E-07        -0.28424E-09         0.00000E+00
    0.46063E-07        -0.28675E-09         0.00000E+00
    0.46066E-07        -0.28836E-09         0.00000E+00
    0.46069E-07        -0.28905E-09         0.00000E+00
    0.46073E-07        -0.28884E-09         0.00000E+00
    0.46076E-07        -0.28772E-09         0.00000E+00
    0.46080E-07        -0.28570E-09         0.00000E+00
    0.46083E-07        -0.28277E-09         0.00000E+00
    0.46086E-07        -0.27894E-09         0.00000E+00
    0.46089E-07        -0.27422E-09         0.00000E+00
    0.46093E-07        -0.26858E-09         0.00000E+00
    0.46096E-07        -0.26205E-09         0.00000E+00
    0.46099E-07        -0.25461E-09         0.00000E+00
    0.46102E-07        -0.24627E-09         0.00000E+00
    0.46104E-07        -0.23703E-09         0.00000E+00
    0.46107E-07        -0.22687E-09         0.00000E+00
    0.46110E-07        -0.21581E-09         0.00000E+00
    0.46112E-07        -0.20384E-09         0.00000E+00
    0.46114E-07        -0.19096E-09         0.00000E+00
    0.46117E-07        -0.17717E-09         0.00000E+00
    0.46119E-07        -0.16246E-09         0.00000E+00
    0.46120E-07        -0.14683E-09         0.00000E+00
    0.46122E-07        -0.13027E-09         0.00000E+00
    0.46123E-07        -0.11280E-09         0.00000E+00
    0.46125E-07        -0.94394E-10         0.00000E+00
    0.46126E-07        -0.75062E-10         0.00000E+00
    0.46126E-07        -0.54797E-10         0.00000E+00
    0.46127E-07        -0.33598E-10         0.00000E+00
    0.46127E-07        -0.11460E-10         0.00000E+00
    0.47449E-07        -0.12609E-10         0.00000E+00
    0.47449E-07        -0.37050E-10         0.00000E+00
    0.47449E-07        -0.60337E-10         0.00000E+00
    0.47450E-07        -0.82485E-10         0.00000E+00
    0.47451E-07        -0.10351E-09         0.00000E+00
    0.47453E-07        -0.12342E-09         0.00000E+00
    0.47454E-07        -0.14224E-09         0.00000E+00
    0.47456E-07        -0.15997E-09         0.00000E+00
    0.47457E-07        -0.17663E-09         0.00000E+00
    0.47459E-07        -0.19223E-09         0.00000E+00
    0.47462E-07        -0.20678E-09         0.00000E+00
    0.47464E-07        -0.22029E-09         0.00000E+00
    0.47466E-07        -0.23277E-09         0.00000E+00
    0.47469E-07        -0.24423E-09         0.00000E+00
    0.47471E-07        -0.25468E-09         0.00000E+00
    0.47474E-07        -0.26413E-09         0.00000E+00
    0.47477E-07        -0.27258E-09         0.00000E+00
    0.47479E-07        -0.28005E-09         0.00000E+00
    0.47482E-07        -0.28653E-09         0.00000E+00
    0.47485E-07        -0.29204E-09         0.00000E+00
    0.47488E-07        -0.29657E-09         0.00000E+00
    0.47491E-07        -0.30014E-09         0.00000E+00
    0.47494E-07        -0.30275E-09         0.00000E+00
    0.47497E-07        -0.30441E-09         0.00000E+00
    0.47500E-07        -0.30510E-09         0.00000E+00
    0.47503E-07        -0.30485E-09         0.00000E+00
    0.47506E-07        -0.30364E-09         0.00000E+00
    0.47509E-07        -0.30148E-09         0.00000E+00
    0.47512E-07        -0.29838E-09         0.00000E+00
    0.47515E-07        -0.29433E-09         0.00000E+00
    0.47518E-07        -0.28934E-09         0.00000E+00
    0.47521E-07        -0.28339E-09         0.00000E+00
    0.47524E-07        -0.27650E-09         0.00000E+00
    0.47526E-07        -0.26866E-09         0.00000E+00
    0.47529E-07        -0.25987E-09         0.00000E+00
    0.47531E-07        -0.25013E-09         0.00000E+00
    0.47534E-07        -0.23944E-09         0.00000E+00
    0.47536E-07        -0.22778E-09         0.00000E+00
    0.47538E-07        -0.21517E-09         0.00000E+00
    0.47540E-07        -0.20160E-09         0.00000E+00
    0.47542E-07        -0.18706E-09         0.00000E+00
    0.47544E-07        -0.17155E-09         0.00000E+00
    0.47546E-07        -0.15507E-09         0.00000E+00
    0.47547E-07        -0.13761E-09         0.00000E+00
    0.47549E-07        -0.11917E-09         0.00000E+00
    0.47550E-07        -0.99746E-10         0.00000E+00
    0.47551E-07        -0.79333E-10         0.00000E+00
    0.47551E-07        -0.57928E-10         0.00000E+00
    0.47552E-07        -0.35525E-10         0.00000E+00
    0.47552E-07        -0.12121E-10         0.00000E+00
    0.48933E-07        -0.13280E-10         0.00000E+00
    0.48934E-07        -0.39003E-10         0.00000E+00
    0.48934E-07        -0.63485E-10         0.00000E+00
    0.48935E-07        -0.86746E-10         0.00000E+00
    0.48936E-07        -0.10880E-09         0.00000E+00
    0.48937E-07        -0.12967E-09         0.00000E+00
    0.48938E-07        -0.14938E-09         0.00000E+00
    0.48939E-07        -0.16793E-09         0.00000E+00
    0.48941E-07        -0.18534E-09         0.00000E+00
    0.48943E-07        -0.20164E-09         0.00000E+00
    0.48944E-07        -0.21682E-09         0.00000E+00
    0.48946E-07        -0.23091E-09         0.00000E+00
    0.48948E-07        -0.24392E-09         0.00000E+00
    0.48950E-07        -0.25585E-09         0.00000E+00
    0.48952E-07        -0.26673E-09         0.00000E+00
    0.48955E-07        -0.27655E-09         0.00000E+00
    0.48957E-07        -0.28534E-09         0.00000E+00
    0.48959E-07        -0.29309E-09         0.00000E+00
    0.48962E-07        -0.29981E-09         0.00000E+00
    0.48964E-07        -0.30552E-09         0.00000E+00
    0.48967E-07        -0.31022E-09         0.00000E+00
    0.48969E-07        -0.31392E-09         0.00000E+00
    0.48972E-07        -0.31661E-09         0.00000E+00
    0.48974E-07        -0.31831E-09         0.00000E+00
    0.48977E-07        -0.31901E-09         0.00000E+00
    0.48979E-07        -0.31872E-09         0.00000E+00
    0.48982E-07        -0.31745E-09         0.00000E+00
    0.48984E-07        -0.31519E-09         0.00000E+00
    0.48987E-07        -0.31195E-09         0.00000E+00
    0.48989E-07        -0.30772E-09         0.00000E+00
    0.48992E-07        -0.30251E-09         0.00000E+00
    0.48994E-07        -0.29631E-09         0.00000E+00
    0.48996E-07        -0.28913E-09         0.00000E+00
    0.48999E-07        -0.28096E-09         0.00000E+00
    0.49001E-07        -0.27180E-09         0.00000E+00
    0.49003E-07        -0.26164E-09         0.00000E+00
    0.49005E-07        -0.25049E-09         0.00000E+00
    0.49007E-07        -0.23834E-09         0.00000E+00
    0.49009E-07        -0.22518E-09         0.00000E+00
    0.49011E-07        -0.21102E-09         0.00000E+00
    0.49013E-07        -0.19584E-09         0.00000E+00
    0.49014E-07        -0.17964E-09         0.00000E+00
    0.49016E-07        -0.16242E-09         0.00000E+00
    0.49017E-07        -0.14417E-09         0.00000E+00
    0.49018E-07        -0.12488E-09         0.00000E+00
    0.49019E-07        -0.10456E-09         0.00000E+00
    0.49020E-07        -0.83183E-10         0.00000E+00
    0.49020E-07        -0.60757E-10         0.00000E+00
    0.49021E-07        -0.37271E-10         0.00000E+00
    0.49021E-07        -0.12721E-10         0.00000E+00
    0.50463E-07        -0.13835E-10         0.00000E+00
    0.50463E-07        -0.40612E-10         0.00000E+00
    0.50463E-07        -0.66072E-10         0.00000E+00
    0.50464E-07        -0.90236E-10         0.00000E+00
    0.50465E-07        -0.11313E-09         0.00000E+00
    0.50465E-07        -0.13477E-09         0.00000E+00
    0.50466E-07        -0.15519E-09         0.00000E+00
    0.50467E-07        -0.17439E-09         0.00000E+00
    0.50469E-07        -0.19240E-09         0.00000E+00
    0.50470E-07        -0.20924E-09         0.00000E+00
    0.50471E-07        -0.22493E-09         0.00000E+00
    0.50473E-07        -0.23947E-09         0.00000E+00
    0.50474E-07        -0.25288E-09         0.00000E+00
    0.50476E-07        -0.26519E-09         0.00000E+00
    0.50477E-07        -0.27639E-09         0.00000E+00
    0.50479E-07        -0.28651E-09         0.00000E+00
    0.50481E-07        -0.29555E-09         0.00000E+00
    0.50483E-07        -0.30353E-09         0.00000E+00
    0.50484E-07        -0.31044E-09         0.00000E+00
    0.50486E-07        -0.31631E-09         0.00000E+00
    0.50488E-07        -0.32114E-09         0.00000E+00
    0.50490E-07        -0.32493E-09         0.00000E+00
    0.50492E-07        -0.32769E-09         0.00000E+00
    0.50494E-07        -0.32943E-09         0.00000E+00
    0.50496E-07        -0.33015E-09         0.00000E+00
    0.50498E-07        -0.32985E-09         0.00000E+00
    0.50500E-07        -0.32854E-09         0.00000E+00
    0.50502E-07        -0.32621E-09         0.00000E+00
    0.50503E-07        -0.32288E-09         0.00000E+00
    0.50505E-07        -0.31852E-09         0.00000E+00
    0.50507E-07        -0.31316E-09         0.00000E+00
    0.50509E-07        -0.30678E-09         0.00000E+00
    0.50511E-07        -0.29939E-09         0.00000E+00
    0.50513E-07        -0.29097E-09         0.00000E+00
    0.50514E-07        -0.28154E-09         0.00000E+00
    0.50516E-07        -0.27107E-09         0.00000E+00
    0.50518E-07        -0.25958E-09         0.00000E+00
    0.50519E-07        -0.24704E-09         0.00000E+00
    0.50521E-07        -0.23347E-09         0.00000E+00
    0.50522E-07        -0.21884E-09         0.00000E+00
    0.50523E-07        -0.20316E-09         0.00000E+00
    0.50525E-07        -0.18642E-09         0.00000E+00
    0.50526E-07        -0.16860E-09         0.00000E+00
    0.50527E-07        -0.14971E-09         0.00000E+00
    0.50528E-07        -0.12973E-09         0.00000E+00
    0.50529E-07        -0.10866E-09         0.00000E+00
    0.50529E-07        -0.86479E-10         0.00000E+00
    0.50530E-07        -0.63190E-10         0.00000E+00
    0.50530E-07        -0.38780E-10         0.00000E+00
    0.50530E-07        -0.13242E-10         0.00000E+00
    0.52033E-07        -0.14240E-10         0.00000E+00
    0.52033E-07        -0.41785E-10         0.00000E+00
    0.52034E-07        -0.67949E-10         0.00000E+00
    0.52034E-07        -0.92758E-10         0.00000E+00
    0.52034E-07        -0.11624E-09         0.00000E+00
    0.52035E-07        -0.13842E-09         0.00000E+00
    0.52035E-07        -0.15933E-09         0.00000E+00
    0.52036E-07        -0.17898E-09         0.00000E+00
    0.52037E-07        -0.19740E-09         0.00000E+00
    0.52038E-07        -0.21460E-09         0.00000E+00
    0.52039E-07        -0.23062E-09         0.00000E+00
    0.52039E-07        -0.24546E-09         0.00000E+00
    0.52040E-07        -0.25914E-09         0.00000E+00
    0.52041E-07        -0.27169E-09         0.00000E+00
    0.52042E-07        -0.28310E-09         0.00000E+00
    0.52043E-07        -0.29341E-09         0.00000E+00
    0.52044E-07        -0.30261E-09         0.00000E+00
    0.52046E-07        -0.31073E-09         0.00000E+00
    0.52047E-07        -0.31777E-09         0.00000E+00
    0.52048E-07        -0.32374E-09         0.00000E+00
    0.52049E-07        -0.32865E-09         0.00000E+00
    0.52050E-07        -0.33251E-09         0.00000E+00
    0.52051E-07        -0.33532E-09         0.00000E+00
    0.52052E-07        -0.33709E-09         0.00000E+00
    0.52053E-07        -0.33783E-09         0.00000E+00
    0.52055E-07        -0.33754E-09         0.00000E+00
    0.52056E-07        -0.33621E-09         0.00000E+00
    0.52057E-07        -0.33386E-09         0.00000E+00
    0.52058E-07        -0.33048E-09         0.00000E+00
    0.52059E-07        -0.32607E-09         0.00000E+00
    0.52060E-07        -0.32063E-09         0.00000E+00
    0.52061E-07        -0.31416E-09         0.00000E+00
    0.52063E-07        -0.30665E-09         0.00000E+00
    0.52064E-07        -0.29810E-09         0.00000E+00
    0.52065E-07        -0.28851E-09         0.00000E+00
    0.52066E-07        -0.27787E-09         0.00000E+00
    0.52067E-07        -0.26617E-09         0.00000E+00
    0.52068E-07        -0.25340E-09         0.00000E+00
    0.52069E-07        -0.23956E-09         0.00000E+00
    0.52070E-07        -0.22464E-09         0.00000E+00
    0.52071E-07        -0.20863E-09         0.00000E+00
    0.52072E-07        -0.19152E-09         0.00000E+00
    0.52072E-07        -0.17330E-09         0.00000E+00
    0.52073E-07        -0.15395E-09         0.00000E+00
    0.52074E-07        -0.13347E-09         0.00000E+00
    0.52074E-07        -0.11185E-09         0.00000E+00
    0.52075E-07        -0.89065E-10         0.00000E+00
    0.52075E-07        -0.65115E-10         0.00000E+00
    0.52076E-07        -0.39985E-10         0.00000E+00
    0.52076E-07        -0.13662E-10         0.00000E+00
    0.53640E-07        -0.14467E-10         0.00000E+00
    0.53641E-07        -0.42432E-10         0.00000E+00
    0.53641E-07        -0.68970E-10         0.00000E+00
    0.53641E-07        -0.94114E-10         0.00000E+00
    0.53641E-07        -0.11789E-09         0.00000E+00
    0.53641E-07        -0.14034E-09         0.00000E+00
    0.53641E-07        -0.16147E-09         0.00000E+00
    0.53642E-07        -0.18132E-09         0.00000E+00
    0.53642E-07        -0.19992E-09         0.00000E+00
    0.53642E-07        -0.21728E-09         0.00000E+00
    0.53642E-07        -0.23342E-09         0.00000E+00
    0.53642E-07        -0.24838E-09         0.00000E+00
    0.53643E-07        -0.26215E-09         0.00000E+00
    0.53643E-07        -0.27478E-09         0.00000E+00
    0.53643E-07        -0.28626E-09         0.00000E+00
    0.53643E-07        -0.29662E-09         0.00000E+00
    0.53644E-07        -0.30588E-09         0.00000E+00
    0.53644E-07        -0.31403E-09         0.00000E+00
    0.53644E-07        -0.32111E-09         0.00000E+00
    0.53644E-07        -0.32710E-09         0.00000E+00
    0.53645E-07        -0.33204E-09         0.00000E+00
    0.53645E-07        -0.33592E-09         0.00000E+00
    0.53645E-07        -0.33875E-09         0.00000E+00
    0.53645E-07        -0.34054E-09         0.00000E+00
    0.53646E-07        -0.34130E-09         0.00000E+00
    0.53646E-07        -0.34102E-09         0.00000E+00
    0.53646E-07        -0.33971E-09         0.00000E+00
    0.53646E-07        -0.33737E-09         0.00000E+00
    0.53647E-07        -0.33401E-09         0.00000E+00
    0.53647E-07        -0.32961E-09         0.00000E+00
    0.53647E-07        -0.32418E-09         0.00000E+00
    0.53647E-07        -0.31771E-09         0.00000E+00
    0.53648E-07        -0.31021E-09         0.00000E+00
    0.53648E-07        -0.30165E-09         0.00000E+00
    0.53648E-07        -0.29205E-09         0.00000E+00
    0.53649E-07        -0.28138E-09         0.00000E+00
    0.53649E-07        -0.26964E-09         0.00000E+00
    0.53649E-07        -0.25682E-09         0.00000E+00
    0.53650E-07        -0.24292E-09         0.00000E+00
    0.53650E-07        -0.22790E-09         0.00000E+00
    0.53650E-07        -0.21177E-09         0.00000E+00
    0.53651E-07        -0.19451E-09         0.00000E+00
    0.53651E-07        -0.17611E-09         0.00000E+00
    0.53651E-07        -0.15655E-09         0.00000E+00
    0.53652E-07        -0.13581E-09         0.00000E+00
    0.53652E-07        -0.11389E-09         0.00000E+00
    0.53652E-07        -0.90755E-10         0.00000E+00
    0.53653E-07        -0.66399E-10         0.00000E+00
    0.53653E-07        -0.40805E-10         0.00000E+00
    0.53653E-07        -0.13954E-10         0.00000E+00
    0.55280E-07        -0.14484E-10         0.00000E+00
    0.55280E-07        -0.42468E-10         0.00000E+00
    0.55280E-07        -0.69002E-10         0.00000E+00
    0.55280E-07        -0.94122E-10         0.00000E+00
    0.55280E-07        -0.11786E-09         0.00000E+00
    0.55280E-07        -0.14024E-09         0.00000E+00
    0.55279E-07        -0.16131E-09         0.00000E+00
    0.55279E-07        -0.18108E-09         0.00000E+00
    0.55279E-07        -0.19958E-09         0.00000E+00
    0.55278E-07        -0.21684E-09         0.00000E+00
    0.55278E-07        -0.23289E-09         0.00000E+00
    0.55277E-07        -0.24773E-09         0.00000E+00
    0.55277E-07        -0.26141E-09         0.00000E+00
    0.55276E-07        -0.27392E-09         0.00000E+00
    0.55276E-07        -0.28530E-09         0.00000E+00
    0.55275E-07        -0.29556E-09         0.00000E+00
    0.55274E-07        -0.30472E-09         0.00000E+00
    0.55274E-07        -0.31279E-09         0.00000E+00
    0.55273E-07        -0.31978E-09         0.00000E+00
    0.55272E-07        -0.32571E-09         0.00000E+00
    0.55271E-07        -0.33058E-09         0.00000E+00
    0.55270E-07        -0.33442E-09         0.00000E+00
    0.55270E-07        -0.33722E-09         0.00000E+00
    0.55269E-07        -0.33899E-09         0.00000E+00
    0.55268E-07        -0.33974E-09         0.00000E+00
    0.55267E-07        -0.33948E-09         0.00000E+00
    0.55266E-07        -0.33820E-09         0.00000E+00
    0.55265E-07        -0.33591E-09         0.00000E+00
    0.55265E-07        -0.33260E-09         0.00000E+00
    0.55264E-07        -0.32829E-09         0.00000E+00
    0.55263E-07        -0.32295E-09         0.00000E+00
    0.55262E-07        -0.31660E-09         0.00000E+00
    0.55261E-07        -0.30922E-09         0.00000E+00
    0.55261E-07        -0.30081E-09         0.00000E+00
    0.55260E-07        -0.29135E-09         0.00000E+00
    0.55260E-07        -0.28084E-09         0.00000E+00
    0.55259E-07        -0.26926E-09         0.00000E+00
    0.55259E-07        -0.25660E-09         0.00000E+00
    0.55258E-07        -0.24285E-09         0.00000E+00
    0.55258E-07        -0.22799E-09         0.00000E+00
    0.55258E-07        -0.21201E-09         0.00000E+00
    0.55257E-07        -0.19487E-09         0.00000E+00
    0.55257E-07        -0.17658E-09         0.00000E+00
    0.55257E-07        -0.15709E-09         0.00000E+00
    0.55257E-07        -0.13640E-09         0.00000E+00
    0.55257E-07        -0.11449E-09         0.00000E+00
    0.55257E-07        -0.91318E-10         0.00000E+00
    0.55257E-07        -0.66877E-10         0.00000E+00
    0.55257E-07        -0.41140E-10         0.00000E+00
    0.55257E-07        -0.14085E-10         0.00000E+00
    0.56948E-07        -0.14271E-10         0.00000E+00
    0.56947E-07        -0.41831E-10         0.00000E+00
    0.56947E-07        -0.67943E-10         0.00000E+00
    0.56947E-07        -0.92643E-10         0.00000E+00
    0.56946E-07        -0.11597E-09         0.00000E+00
    0.56946E-07        -0.13794E-09         0.00000E+00
    0.56945E-07        -0.15860E-09         0.00000E+00
    0.56944E-07        -0.17798E-09         0.00000E+00
    0.56943E-07        -0.19609E-09         0.00000E+00
    0.56942E-07        -0.21298E-09         0.00000E+00
    0.56941E-07        -0.22865E-09         0.00000E+00
    0.56940E-07        -0.24314E-09         0.00000E+00
    0.56938E-07        -0.25647E-09         0.00000E+00
    0.56937E-07        -0.26866E-09         0.00000E+00
    0.56935E-07        -0.27972E-09         0.00000E+00
    0.56933E-07        -0.28969E-09         0.00000E+00
    0.56932E-07        -0.29857E-09         0.00000E+00
    0.56930E-07        -0.30638E-09         0.00000E+00
    0.56928E-07        -0.31314E-09         0.00000E+00
    0.56926E-07        -0.31887E-09         0.00000E+00
    0.56924E-07        -0.32357E-09         0.00000E+00
    0.56922E-07        -0.32725E-09         0.00000E+00
    0.56920E-07        -0.32993E-09         0.00000E+00
    0.56918E-07        -0.33162E-09         0.00000E+00
    0.56916E-07        -0.33232E-09         0.00000E+00
    0.56914E-07        -0.33203E-09         0.00000E+00
    0.56912E-07        -0.33077E-09         0.00000E+00
    0.56910E-07        -0.32854E-09         0.00000E+00
    0.56908E-07        -0.32533E-09         0.00000E+00
    0.56905E-07        -0.32115E-09         0.00000E+00
    0.56903E-07        -0.31599E-09         0.00000E+00
    0.56901E-07        -0.30985E-09         0.00000E+00
    0.56899E-07        -0.30272E-09         0.00000E+00
    0.56898E-07        -0.29460E-09         0.00000E+00
    0.56896E-07        -0.28546E-09         0.00000E+00
    0.56894E-07        -0.27530E-09         0.00000E+00
    0.56892E-07        -0.26411E-09         0.00000E+00
    0.56891E-07        -0.25186E-09         0.00000E+00
    0.56890E-07        -0.23854E-09         0.00000E+00
    0.56888E-07        -0.22413E-09         0.00000E+00
    0.56887E-07        -0.20859E-09         0.00000E+00
    0.56886E-07        -0.19192E-09         0.00000E+00
    0.56885E-07        -0.17408E-09         0.00000E+00
    0.56884E-07        -0.15504E-09         0.00000E+00
    0.56884E-07        -0.13478E-09         0.00000E+00
    0.56883E-07        -0.11326E-09         0.00000E+00
    0.56883E-07        -0.90457E-10         0.00000E+00
    0.56883E-07        -0.66336E-10         0.00000E+00
    0.56883E-07        -0.40865E-10         0.00000E+00
    0.56882E-07        -0.14013E-10         0.00000E+00
    0.58637E-07        -0.13818E-10         0.00000E+00
    0.58637E-07        -0.40492E-10         0.00000E+00
    0.58637E-07        -0.65746E-10         0.00000E+00
    0.58636E-07        -0.89615E-10         0.00000E+00
    0.58635E-07        -0.11213E-09         0.00000E+00
    0.58634E-07        -0.13333E-09         0.00000E+00
    0.58633E-07        -0.15323E-09         0.00000E+00
    0.58632E-07        -0.17188E-09         0.00000E+00
    0.58630E-07        -0.18928E-09         0.00000E+00
    0.58628E-07        -0.20548E-09         0.00000E+00
    0.58626E-07        -0.22049E-09         0.00000E+00
    0.58624E-07        -0.23435E-09         0.00000E+00
    0.58622E-07        -0.24706E-09         0.00000E+00
    0.58619E-07        -0.25867E-09         0.00000E+00
    0.58617E-07        -0.26918E-09         0.00000E+00
    0.58614E-07        -0.27861E-09         0.00000E+00
    0.58611E-07        -0.28700E-09         0.00000E+00
    0.58608E-07        -0.29435E-09         0.00000E+00
    0.58605E-07        -0.30068E-09         0.00000E+00
    0.58602E-07        -0.30602E-09         0.00000E+00
    0.58599E-07        -0.31037E-09         0.00000E+00
    0.58596E-07        -0.31375E-09         0.00000E+00
    0.58592E-07        -0.31617E-09         0.00000E+00
    0.58589E-07        -0.31765E-09         0.00000E+00
    0.58585E-07        -0.31819E-09         0.00000E+00
    0.58582E-07        -0.31781E-09         0.00000E+00
    0.58578E-07        -0.31651E-09         0.00000E+00
    0.58575E-07        -0.31429E-09         0.00000E+00
    0.58571E-07        -0.31117E-09         0.00000E+00
    0.58567E-07        -0.30713E-09         0.00000E+00
    0.58564E-07        -0.30219E-09         0.00000E+00
    0.58560E-07        -0.29633E-09         0.00000E+00
    0.58557E-07        -0.28955E-09         0.00000E+00
    0.58554E-07        -0.28185E-09         0.00000E+00
    0.58550E-07        -0.27320E-09         0.00000E+00
    0.58547E-07        -0.26360E-09         0.00000E+00
    0.58544E-07        -0.25303E-09         0.00000E+00
    0.58542E-07        -0.24147E-09         0.00000E+00
    0.58539E-07        -0.22889E-09         0.00000E+00
    0.58537E-07        -0.21526E-09         0.00000E+00
    0.58534E-07        -0.20056E-09         0.00000E+00
    0.58532E-07        -0.18475E-09         0.00000E+00
    0.58531E-07        -0.16780E-09         0.00000E+00
    0.58529E-07        -0.14966E-09         0.00000E+00
    0.58528E-07        -0.13031E-09         0.00000E+00
    0.58527E-07        -0.10969E-09         0.00000E+00
    0.58526E-07        -0.87761E-10         0.00000E+00
    0.58525E-07        -0.64479E-10         0.00000E+00
    0.58525E-07        -0.39801E-10         0.00000E+00
    0.58524E-07        -0.13680E-10         0.00000E+00
    0.60344E-07        -0.13133E-10         0.00000E+00
    0.60344E-07        -0.38473E-10         0.00000E+00
    0.60343E-07        -0.62446E-10         0.00000E+00
    0.60343E-07        -0.85081E-10         0.00000E+00
    0.60341E-07        -0.10641E-09         0.00000E+00
    0.60340E-07        -0.12646E-09         0.00000E+00
    0.60338E-07        -0.14525E-09         0.00000E+00
    0.60336E-07        -0.16282E-09         0.00000E+00
    0.60334E-07        -0.17919E-09         0.00000E+00
    0.60332E-07        -0.19438E-09         0.00000E+00
    0.60329E-07        -0.20842E-09         0.00000E+00
    0.60326E-07        -0.22134E-09         0.00000E+00
    0.60323E-07        -0.23315E-09         0.00000E+00
    0.60319E-07        -0.24388E-09         0.00000E+00
    0.60316E-07        -0.25355E-09         0.00000E+00
    0.60312E-07        -0.26219E-09         0.00000E+00
    0.60308E-07        -0.26981E-09         0.00000E+00
    0.60304E-07        -0.27644E-09         0.00000E+00
    0.60300E-07        -0.28210E-09         0.00000E+00
    0.60296E-07        -0.28680E-09         0.00000E+00
    0.60291E-07        -0.29057E-09         0.00000E+00
    0.60286E-07        -0.29342E-09         0.00000E+00
    0.60281E-07        -0.29538E-09         0.00000E+00
    0.60277E-07        -0.29645E-09         0.00000E+00
    0.60272E-07        -0.29665E-09         0.00000E+00
    0.60266E-07        -0.29600E-09         0.00000E+00
    0.60261E-07        -0.29451E-09         0.00000E+00
    0.60256E-07        -0.29219E-09         0.00000E+00
    0.60251E-07        -0.28905E-09         0.00000E+00
    0.60245E-07        -0.28509E-09         0.00000E+00
    0.60240E-07        -0.28032E-09         0.00000E+00
    0.60235E-07        -0.27474E-09         0.00000E+00
    0.60230E-07        -0.26835E-09         0.00000E+00
    0.60225E-07        -0.26115E-09         0.00000E+00
    0.60220E-07        -0.25312E-09         0.00000E+00
    0.60215E-07        -0.24425E-09         0.00000E+00
    0.60210E-07        -0.23452E-09         0.00000E+00
    0.60206E-07        -0.22391E-09         0.00000E+00
    0.60202E-07        -0.21240E-09         0.00000E+00
    0.60198E-07        -0.19994E-09         0.00000E+00
    0.60194E-07        -0.18651E-09         0.00000E+00
    0.60191E-07        -0.17206E-09         0.00000E+00
    0.60188E-07        -0.15653E-09         0.00000E+00
    0.60185E-07        -0.13989E-09         0.00000E+00
    0.60183E-07        -0.12206E-09         0.00000E+00
    0.60181E-07        -0.10299E-09         0.00000E+00
    0.60180E-07        -0.82615E-10         0.00000E+00
    0.60178E-07        -0.60874E-10         0.00000E+00
    0.60178E-07        -0.37689E-10         0.00000E+00
    0.60177E-07        -0.12995E-10         0.00000E+00
    0.62063E-07        -0.12246E-10         0.00000E+00
    0.62062E-07        -0.35862E-10         0.00000E+00
    0.62061E-07        -0.58181E-10         0.00000E+00
    0.62060E-07        -0.79224E-10         0.00000E+00
    0.62059E-07        -0.99015E-10         0.00000E+00
    0.62057E-07        -0.11758E-09         0.00000E+00
    0.62055E-07        -0.13493E-09         0.00000E+00
    0.62053E-07        -0.15111E-09         0.00000E+00
    0.62050E-07        -0.16612E-09         0.00000E+00
    0.62047E-07        -0.18000E-09         0.00000E+00
    0.62043E-07        -0.19276E-09         0.00000E+00
    0.62040E-07        -0.20443E-09         0.00000E+00
    0.62036E-07        -0.21503E-09         0.00000E+00
    0.62032E-07        -0.22458E-09         0.00000E+00
    0.62027E-07        -0.23312E-09         0.00000E+00
    0.62023E-07        -0.24065E-09         0.00000E+00
    0.62018E-07        -0.24721E-09         0.00000E+00
    0.62013E-07        -0.25281E-09         0.00000E+00
    0.62007E-07        -0.25749E-09         0.00000E+00
    0.62002E-07        -0.26125E-09         0.00000E+00
    0.61996E-07        -0.26414E-09         0.00000E+00
    0.61990E-07        -0.26616E-09         0.00000E+00
    0.61984E-07        -0.26734E-09         0.00000E+00
    0.61977E-07        -0.26771E-09         0.00000E+00
    0.61971E-07        -0.26728E-09         0.00000E+00
    0.61964E-07        -0.26608E-09         0.00000E+00
    0.61957E-07        -0.26413E-09         0.00000E+00
    0.61950E-07        -0.26145E-09         0.00000E+00
    0.61943E-07        -0.25805E-09         0.00000E+00
    0.61936E-07        -0.25395E-09         0.00000E+00
    0.61928E-07        -0.24917E-09         0.00000E+00
    0.61921E-07        -0.24371E-09         0.00000E+00
    0.61914E-07        -0.23760E-09         0.00000E+00
    0.61907E-07        -0.23083E-09         0.00000E+00
    0.61900E-07        -0.22340E-09         0.00000E+00
    0.61893E-07        -0.21531E-09         0.00000E+00
    0.61886E-07        -0.20656E-09         0.00000E+00
    0.61880E-07        -0.19712E-09         0.00000E+00
    0.61873E-07        -0.18696E-09         0.00000E+00
    0.61867E-07        -0.17607E-09         0.00000E+00
    0.61862E-07        -0.16438E-09         0.00000E+00
    0.61857E-07        -0.15185E-09         0.00000E+00
    0.61852E-07        -0.13841E-09         0.00000E+00
    0.61848E-07        -0.12400E-09         0.00000E+00
    0.61844E-07        -0.10852E-09         0.00000E+00
    0.61841E-07        -0.91894E-10         0.00000E+00
    0.61839E-07        -0.74004E-10         0.00000E+00
    0.61837E-07        -0.54761E-10         0.00000E+00
    0.61836E-07        -0.34074E-10         0.00000E+00
    0.61835E-07        -0.11832E-10         0.00000E+00
    0.63786E-07        -0.11213E-10         0.00000E+00
    0.63786E-07        -0.32817E-10         0.00000E+00
    0.63785E-07        -0.53197E-10         0.00000E+00
    0.63784E-07        -0.72369E-10         0.00000E+00
    0.63782E-07        -0.90348E-10         0.00000E+00
    0.63780E-07        -0.10715E-09         0.00000E+00
    0.63777E-07        -0.12280E-09         0.00000E+00
    0.63775E-07        -0.13730E-09         0.00000E+00
    0.63772E-07        -0.15068E-09         0.00000E+00
    0.63768E-07        -0.16297E-09         0.00000E+00
    0.63764E-07        -0.17417E-09         0.00000E+00
    0.63760E-07        -0.18431E-09         0.00000E+00
    0.63756E-07        -0.19341E-09         0.00000E+00
    0.63751E-07        -0.20150E-09         0.00000E+00
    0.63746E-07        -0.20859E-09         0.00000E+00
    0.63740E-07        -0.21471E-09         0.00000E+00
    0.63735E-07        -0.21989E-09         0.00000E+00
    0.63729E-07        -0.22415E-09         0.00000E+00
    0.63722E-07        -0.22751E-09         0.00000E+00
    0.63716E-07        -0.22999E-09         0.00000E+00
    0.63709E-07        -0.23164E-09         0.00000E+00
    0.63702E-07        -0.23247E-09         0.00000E+00
    0.63694E-07        -0.23250E-09         0.00000E+00
    0.63686E-07        -0.23178E-09         0.00000E+00
    0.63678E-07        -0.23032E-09         0.00000E+00
    0.63670E-07        -0.22817E-09         0.00000E+00
    0.63662E-07        -0.22533E-09         0.00000E+00
    0.63653E-07        -0.22186E-09         0.00000E+00
    0.63644E-07        -0.21778E-09         0.00000E+00
    0.63635E-07        -0.21311E-09         0.00000E+00
    0.63626E-07        -0.20790E-09         0.00000E+00
    0.63616E-07        -0.20216E-09         0.00000E+00
    0.63607E-07        -0.19594E-09         0.00000E+00
    0.63598E-07        -0.18925E-09         0.00000E+00
    0.63588E-07        -0.18213E-09         0.00000E+00
    0.63579E-07        -0.17459E-09         0.00000E+00
    0.63569E-07        -0.16664E-09         0.00000E+00
    0.63560E-07        -0.15831E-09         0.00000E+00
    0.63551E-07        -0.14958E-09         0.00000E+00
    0.63542E-07        -0.14045E-09         0.00000E+00
    0.63534E-07        -0.13089E-09         0.00000E+00
    0.63526E-07        -0.12084E-09         0.00000E+00
    0.63519E-07        -0.11023E-09         0.00000E+00
    0.63513E-07        -0.98972E-10         0.00000E+00
    0.63507E-07        -0.86947E-10         0.00000E+00
    0.63502E-07        -0.74030E-10         0.00000E+00
    0.63498E-07        -0.60075E-10         0.00000E+00
    0.63495E-07        -0.44867E-10         0.00000E+00
    0.63493E-07        -0.28182E-10         0.00000E+00
    0.63492E-07        -0.98584E-11         0.00000E+00
    0.65508E-07        -0.10106E-10         0.00000E+00
    0.65508E-07        -0.29545E-10         0.00000E+00
    0.65507E-07        -0.47826E-10         0.00000E+00
    0.65506E-07        -0.64957E-10         0.00000E+00
    0.65504E-07        -0.80947E-10         0.00000E+00
    0.65502E-07        -0.95806E-10         0.00000E+00
    0.65499E-07        -0.10955E-09         0.00000E+00
    0.65496E-07        -0.12219E-09         0.00000E+00
    0.65493E-07        -0.13374E-09         0.00000E+00
    0.65489E-07        -0.14422E-09         0.00000E+00
    0.65485E-07        -0.15364E-09         0.00000E+00
    0.65481E-07        -0.16203E-09         0.00000E+00
    0.65476E-07        -0.16941E-09         0.00000E+00
    0.65471E-07        -0.17579E-09         0.00000E+00
    0.65465E-07        -0.18119E-09         0.00000E+00
    0.65459E-07        -0.18564E-09         0.00000E+00
    0.65453E-07        -0.18917E-09         0.00000E+00
    0.65447E-07        -0.19179E-09         0.00000E+00
    0.65440E-07        -0.19353E-09         0.00000E+00
    0.65432E-07        -0.19442E-09         0.00000E+00
    0.65425E-07        -0.19449E-09         0.00000E+00
    0.65417E-07        -0.19376E-09         0.00000E+00
    0.65409E-07        -0.19226E-09         0.00000E+00
    0.65400E-07        -0.19003E-09         0.00000E+00
    0.65391E-07        -0.18710E-09         0.00000E+00
    0.65382E-07        -0.18350E-09         0.00000E+00
    0.65372E-07        -0.17928E-09         0.00000E+00
    0.65362E-07        -0.17447E-09         0.00000E+00
    0.65352E-07        -0.16911E-09         0.00000E+00
    0.65341E-07        -0.16325E-09         0.00000E+00
    0.65330E-07        -0.15694E-09         0.00000E+00
    0.65319E-07        -0.15022E-09         0.00000E+00
    0.65307E-07        -0.14315E-09         0.00000E+00
    0.65295E-07        -0.13579E-09         0.00000E+00
    0.65283E-07        -0.12819E-09         0.00000E+00
    0.65271E-07        -0.12042E-09         0.00000E+00
    0.65259E-07        -0.11253E-09         0.00000E+00
    0.65247E-07        -0.10460E-09         0.00000E+00
    0.65234E-07        -0.96665E-10         0.00000E+00
    0.65222E-07        -0.88795E-10         0.00000E+00
    0.65210E-07        -0.81042E-10         0.00000E+00
    0.65198E-07        -0.73457E-10         0.00000E+00
    0.65187E-07        -0.66076E-10         0.00000E+00
    0.65177E-07        -0.58856E-10         0.00000E+00
    0.65167E-07        -0.51674E-10         0.00000E+00
    0.65159E-07        -0.44300E-10         0.00000E+00
    0.65153E-07        -0.36408E-10         0.00000E+00
    0.65147E-07        -0.27752E-10         0.00000E+00
    0.65144E-07        -0.18018E-10         0.00000E+00
    0.65142E-07        -0.66337E-11         0.00000E+00
    0.67222E-07        -0.90032E-11         0.00000E+00
    0.67221E-07        -0.26267E-10         0.00000E+00
    0.67221E-07        -0.42418E-10         0.00000E+00
    0.67219E-07        -0.57458E-10         0.00000E+00
    0.67218E-07        -0.71394E-10         0.00000E+00
    0.67215E-07        -0.84234E-10         0.00000E+00
    0.67213E-07        -0.95986E-10         0.00000E+00
    0.67210E-07        -0.10666E-09         0.00000E+00
    0.67207E-07        -0.11628E-09         0.00000E+00
    0.67203E-07        -0.12485E-09         0.00000E+00
    0.67199E-07        -0.13238E-09         0.00000E+00
    0.67195E-07        -0.13890E-09         0.00000E+00
    0.67190E-07        -0.14441E-09         0.00000E+00
    0.67185E-07        -0.14895E-09         0.00000E+00
    0.67179E-07        -0.15253E-09         0.00000E+00
    0.67173E-07        -0.15516E-09         0.00000E+00
    0.67167E-07        -0.15687E-09         0.00000E+00
    0.67160E-07        -0.15768E-09         0.00000E+00
    0.67153E-07        -0.15762E-09         0.00000E+00
    0.67145E-07        -0.15671E-09         0.00000E+00
    0.67138E-07        -0.15497E-09         0.00000E+00
    0.67129E-07        -0.15243E-09         0.00000E+00
    0.67121E-07        -0.14911E-09         0.00000E+00
    0.67112E-07        -0.14507E-09         0.00000E+00
    0.67103E-07        -0.14031E-09         0.00000E+00
    0.67093E-07        -0.13488E-09         0.00000E+00
    0.67083E-07        -0.12882E-09         0.00000E+00
    0.67072E-07        -0.12217E-09         0.00000E+00
    0.67061E-07        -0.11497E-09         0.00000E+00
    0.67050E-07        -0.10727E-09         0.00000E+00
    0.67038E-07        -0.99141E-10         0.00000E+00
    0.67026E-07        -0.90626E-10         0.00000E+00
    0.67013E-07        -0.81796E-10         0.00000E+00
    0.67000E-07        -0.72720E-10         0.00000E+00
    0.66986E-07        -0.63480E-10         0.00000E+00
    0.66972E-07        -0.54169E-10         0.00000E+00
    0.66958E-07        -0.44898E-10         0.00000E+00
    0.66943E-07        -0.35800E-10         0.00000E+00
    0.66927E-07        -0.27025E-10         0.00000E+00
    0.66912E-07        -0.18706E-10         0.00000E+00
    0.66896E-07        -0.10980E-10         0.00000E+00
    0.66880E-07        -0.39826E-11         0.00000E+00
    0.66863E-07         0.21653E-11         0.00000E+00
    0.66847E-07         0.71436E-11         0.00000E+00
    0.66830E-07         0.10529E-10         0.00000E+00
    0.66815E-07         0.11873E-10         0.00000E+00
    0.66801E-07         0.10817E-10         0.00000E+00
    0.66790E-07         0.79345E-11         0.00000E+00
    0.66781E-07         0.42860E-11         0.00000E+00
    0.66777E-07         0.82159E-12         0.00000E+00
    0.68919E-07        -0.79633E-11         0.00000E+00
    0.68919E-07        -0.23157E-10         0.00000E+00
    0.68918E-07        -0.37252E-10         0.00000E+00
    0.68917E-07        -0.50256E-10         0.00000E+00
    0.68915E-07        -0.62175E-10         0.00000E+00
    0.68913E-07        -0.73019E-10         0.00000E+00
    0.68911E-07        -0.82798E-10         0.00000E+00
    0.68908E-07        -0.91524E-10         0.00000E+00
    0.68905E-07        -0.99210E-10         0.00000E+00
    0.68901E-07        -0.10587E-09         0.00000E+00
    0.68898E-07        -0.11152E-09         0.00000E+00
    0.68893E-07        -0.11617E-09         0.00000E+00
    0.68889E-07        -0.11983E-09         0.00000E+00
    0.68884E-07        -0.12253E-09         0.00000E+00
    0.68878E-07        -0.12429E-09         0.00000E+00
    0.68873E-07        -0.12510E-09         0.00000E+00
    0.68867E-07        -0.12501E-09         0.00000E+00
    0.68860E-07        -0.12401E-09         0.00000E+00
    0.68853E-07        -0.12214E-09         0.00000E+00
    0.68846E-07        -0.11941E-09         0.00000E+00
    0.68839E-07        -0.11584E-09         0.00000E+00
    0.68831E-07        -0.11146E-09         0.00000E+00
    0.68823E-07        -0.10629E-09         0.00000E+00
    0.68814E-07        -0.10036E-09         0.00000E+00
    0.68805E-07        -0.93687E-10         0.00000E+00
    0.68796E-07        -0.86311E-10         0.00000E+00
    0.68786E-07        -0.78262E-10         0.00000E+00
    0.68776E-07        -0.69572E-10         0.00000E+00
    0.68766E-07        -0.60280E-10         0.00000E+00
    0.68755E-07        -0.50428E-10         0.00000E+00
    0.68744E-07        -0.40063E-10         0.00000E+00
    0.68732E-07        -0.29245E-10         0.00000E+00
    0.68719E-07        -0.18046E-10         0.00000E+00
    0.68707E-07        -0.65533E-11         0.00000E+00
    0.68693E-07         0.51580E-11         0.00000E+00
    0.68679E-07         0.17002E-10         0.00000E+00
    0.68665E-07         0.28897E-10         0.00000E+00
    0.68650E-07         0.40779E-10         0.00000E+00
    0.68634E-07         0.52549E-10         0.00000E+00
    0.68617E-07         0.63941E-10         0.00000E+00
    0.68599E-07         0.74608E-10         0.00000E+00
    0.68581E-07         0.84125E-10         0.00000E+00
    0.68562E-07         0.91882E-10         0.00000E+00
    0.68542E-07         0.97882E-10         0.00000E+00
    0.68522E-07         0.10231E-09         0.00000E+00
    0.68500E-07         0.10485E-09         0.00000E+00
    0.68477E-07         0.10482E-09         0.00000E+00
    0.68451E-07         0.98353E-10         0.00000E+00
    0.68427E-07         0.76403E-10         0.00000E+00
    0.68411E-07         0.29952E-10         0.00000E+00
    0.70592E-07        -0.70070E-11         0.00000E+00
    0.70592E-07        -0.20278E-10         0.00000E+00
    0.70591E-07        -0.32444E-10         0.00000E+00
    0.70590E-07        -0.43522E-10         0.00000E+00
    0.70588E-07        -0.53525E-10         0.00000E+00
    0.70586E-07        -0.62471E-10         0.00000E+00
    0.70584E-07        -0.70374E-10         0.00000E+00
    0.70582E-07        -0.77251E-10         0.00000E+00
    0.70579E-07        -0.83115E-10         0.00000E+00
    0.70575E-07        -0.87982E-10         0.00000E+00
    0.70572E-07        -0.91866E-10         0.00000E+00
    0.70568E-07        -0.94781E-10         0.00000E+00
    0.70564E-07        -0.96739E-10         0.00000E+00
    0.70559E-07        -0.97756E-10         0.00000E+00
    0.70554E-07        -0.97844E-10         0.00000E+00
    0.70549E-07        -0.97017E-10         0.00000E+00
    0.70543E-07        -0.95290E-10         0.00000E+00
    0.70538E-07        -0.92676E-10         0.00000E+00
    0.70531E-07        -0.89191E-10         0.00000E+00
    0.70525E-07        -0.84853E-10         0.00000E+00
    0.70518E-07        -0.79675E-10         0.00000E+00
    0.70511E-07        -0.73672E-10         0.00000E+00
    0.70504E-07        -0.66861E-10         0.00000E+00
    0.70497E-07        -0.59262E-10         0.00000E+00
    0.70489E-07        -0.50894E-10         0.00000E+00
    0.70481E-07        -0.41781E-10         0.00000E+00
    0.70472E-07        -0.31950E-10         0.00000E+00
    0.70463E-07        -0.21442E-10         0.00000E+00
    0.70454E-07        -0.10288E-10         0.00000E+00
    0.70445E-07         0.14779E-11         0.00000E+00
    0.70435E-07         0.13824E-10         0.00000E+00
    0.70425E-07         0.26730E-10         0.00000E+00
    0.70414E-07         0.40193E-10         0.00000E+00
    0.70403E-07         0.54224E-10         0.00000E+00
    0.70392E-07         0.68712E-10         0.00000E+00
    0.70380E-07         0.83526E-10         0.00000E+00
    0.70367E-07         0.98506E-10         0.00000E+00
    0.70354E-07         0.11333E-09         0.00000E+00
    0.70340E-07         0.12772E-09         0.00000E+00
    0.70326E-07         0.14198E-09         0.00000E+00
    0.70312E-07         0.15642E-09         0.00000E+00
    0.70297E-07         0.17112E-09         0.00000E+00
    0.70279E-07         0.18672E-09         0.00000E+00
    0.70259E-07         0.20122E-09         0.00000E+00
    0.70237E-07         0.20966E-09         0.00000E+00
    0.70217E-07         0.20616E-09         0.00000E+00
    0.70204E-07         0.18881E-09         0.00000E+00
    0.70201E-07         0.15673E-09         0.00000E+00
    0.70207E-07         0.10791E-09         0.00000E+00
    0.70215E-07         0.39856E-10         0.00000E+00
    0.72230E-07        -0.61018E-11         0.00000E+00
    0.72230E-07        -0.17548E-10         0.00000E+00
    0.72229E-07        -0.27884E-10         0.00000E+00
    0.72228E-07        -0.37142E-10         0.00000E+00
    0.72227E-07        -0.45348E-10         0.00000E+00
    0.72225E-07        -0.52529E-10         0.00000E+00
    0.72223E-07        -0.58707E-10         0.00000E+00
    0.72220E-07        -0.63902E-10         0.00000E+00
    0.72218E-07        -0.68131E-10         0.00000E+00
    0.72215E-07        -0.71409E-10         0.00000E+00
    0.72211E-07        -0.73751E-10         0.00000E+00
    0.72208E-07        -0.75169E-10         0.00000E+00
    0.72204E-07        -0.75674E-10         0.00000E+00
    0.72200E-07        -0.75277E-10         0.00000E+00
    0.72195E-07        -0.73982E-10         0.00000E+00
    0.72191E-07        -0.71801E-10         0.00000E+00
    0.72186E-07        -0.68746E-10         0.00000E+00
    0.72181E-07        -0.64826E-10         0.00000E+00
    0.72176E-07        -0.60051E-10         0.00000E+00
    0.72170E-07        -0.54430E-10         0.00000E+00
    0.72164E-07        -0.47979E-10         0.00000E+00
    0.72158E-07        -0.40727E-10         0.00000E+00
    0.72152E-07        -0.32685E-10         0.00000E+00
    0.72146E-07        -0.23865E-10         0.00000E+00
    0.72139E-07        -0.14280E-10         0.00000E+00
    0.72133E-07        -0.39376E-11         0.00000E+00
    0.72126E-07         0.71565E-11         0.00000E+00
    0.72119E-07         0.19046E-10         0.00000E+00
    0.72111E-07         0.31700E-10         0.00000E+00
    0.72103E-07         0.45070E-10         0.00000E+00
    0.72095E-07         0.59118E-10         0.00000E+00
    0.72087E-07         0.73758E-10         0.00000E+00
    0.72079E-07         0.88775E-10         0.00000E+00
    0.72070E-07         0.10393E-09         0.00000E+00
    0.72061E-07         0.11950E-09         0.00000E+00
    0.72053E-07         0.13577E-09         0.00000E+00
    0.72044E-07         0.15274E-09         0.00000E+00
    0.72035E-07         0.17113E-09         0.00000E+00
    0.72024E-07         0.19150E-09         0.00000E+00
    0.72012E-07         0.21195E-09         0.00000E+00
    0.71997E-07         0.22849E-09         0.00000E+00
    0.71985E-07         0.23701E-09         0.00000E+00
    0.71979E-07         0.23750E-09         0.00000E+00
    0.71983E-07         0.22950E-09         0.00000E+00
    0.71999E-07         0.21276E-09         0.00000E+00
    0.72023E-07         0.18557E-09         0.00000E+00
    0.72049E-07         0.14636E-09         0.00000E+00
    0.72072E-07         0.10003E-09         0.00000E+00
    0.72087E-07         0.54872E-10         0.00000E+00
    0.72095E-07         0.17116E-10         0.00000E+00
    0.73824E-07        -0.51583E-11         0.00000E+00
    0.73823E-07        -0.14738E-10         0.00000E+00
    0.73823E-07        -0.23250E-10         0.00000E+00
    0.73821E-07        -0.30746E-10         0.00000E+00
    0.73820E-07        -0.37265E-10         0.00000E+00
    0.73818E-07        -0.42838E-10         0.00000E+00
    0.73816E-07        -0.47488E-10         0.00000E+00
    0.73814E-07        -0.51233E-10         0.00000E+00
    0.73811E-07        -0.54087E-10         0.00000E+00
    0.73808E-07        -0.56058E-10         0.00000E+00
    0.73805E-07        -0.57152E-10         0.00000E+00
    0.73802E-07        -0.57375E-10         0.00000E+00
    0.73799E-07        -0.56732E-10         0.00000E+00
    0.73795E-07        -0.55232E-10         0.00000E+00
    0.73791E-07        -0.52888E-10         0.00000E+00
    0.73787E-07        -0.49705E-10         0.00000E+00
    0.73783E-07        -0.45677E-10         0.00000E+00
    0.73778E-07        -0.40808E-10         0.00000E+00
    0.73774E-07        -0.35109E-10         0.00000E+00
    0.73769E-07        -0.28598E-10         0.00000E+00
    0.73765E-07        -0.21271E-10         0.00000E+00
    0.73760E-07        -0.13087E-10         0.00000E+00
    0.73755E-07        -0.40855E-11         0.00000E+00
    0.73749E-07         0.56979E-11         0.00000E+00
    0.73744E-07         0.16259E-10         0.00000E+00
    0.73738E-07         0.27567E-10         0.00000E+00
    0.73732E-07         0.39535E-10         0.00000E+00
    0.73726E-07         0.51907E-10         0.00000E+00
    0.73720E-07         0.64779E-10         0.00000E+00
    0.73715E-07         0.78354E-10         0.00000E+00
    0.73709E-07         0.92559E-10         0.00000E+00
    0.73704E-07         0.10749E-09         0.00000E+00
    0.73699E-07         0.12401E-09         0.00000E+00
    0.73693E-07         0.14300E-09         0.00000E+00
    0.73685E-07         0.16294E-09         0.00000E+00
    0.73676E-07         0.18195E-09         0.00000E+00
    0.73666E-07         0.19687E-09         0.00000E+00
    0.73660E-07         0.20499E-09         0.00000E+00
    0.73660E-07         0.20929E-09         0.00000E+00
    0.73670E-07         0.20899E-09         0.00000E+00
    0.73690E-07         0.20248E-09         0.00000E+00
    0.73717E-07         0.18801E-09         0.00000E+00
    0.73748E-07         0.16355E-09         0.00000E+00
    0.73778E-07         0.13225E-09         0.00000E+00
    0.73804E-07         0.99970E-10         0.00000E+00
    0.73826E-07         0.70870E-10         0.00000E+00
    0.73843E-07         0.45725E-10         0.00000E+00
    0.73855E-07         0.25938E-10         0.00000E+00
    0.73863E-07         0.11880E-10         0.00000E+00
    0.73867E-07         0.31902E-11         0.00000E+00
    0.75361E-07        -0.40429E-11         0.00000E+00
    0.75360E-07        -0.11512E-10         0.00000E+00
    0.75360E-07        -0.18107E-10         0.00000E+00
    0.75358E-07        -0.23877E-10         0.00000E+00
    0.75357E-07        -0.28862E-10         0.00000E+00
    0.75355E-07        -0.33080E-10         0.00000E+00
    0.75353E-07        -0.36533E-10         0.00000E+00
    0.75351E-07        -0.39208E-10         0.00000E+00
    0.75348E-07        -0.41084E-10         0.00000E+00
    0.75346E-07        -0.42139E-10         0.00000E+00
    0.75343E-07        -0.42357E-10         0.00000E+00
    0.75340E-07        -0.41731E-10         0.00000E+00
    0.75337E-07        -0.40257E-10         0.00000E+00
    0.75334E-07        -0.37924E-10         0.00000E+00
    0.75331E-07        -0.34718E-10         0.00000E+00
    0.75327E-07        -0.30670E-10         0.00000E+00
    0.75324E-07        -0.25820E-10         0.00000E+00
    0.75320E-07        -0.20170E-10         0.00000E+00
    0.75316E-07        -0.13699E-10         0.00000E+00
    0.75312E-07        -0.64021E-11         0.00000E+00
    0.75308E-07         0.16423E-11         0.00000E+00
    0.75304E-07         0.10221E-10         0.00000E+00
    0.75299E-07         0.19476E-10         0.00000E+00
    0.75295E-07         0.29463E-10         0.00000E+00
    0.75291E-07         0.39928E-10         0.00000E+00
    0.75287E-07         0.50895E-10         0.00000E+00
    0.75284E-07         0.62980E-10         0.00000E+00
    0.75280E-07         0.77446E-10         0.00000E+00
    0.75275E-07         0.93742E-10         0.00000E+00
    0.75268E-07         0.11086E-09         0.00000E+00
    0.75260E-07         0.12709E-09         0.00000E+00
    0.75252E-07         0.13969E-09         0.00000E+00
    0.75246E-07         0.14824E-09         0.00000E+00
    0.75245E-07         0.15545E-09         0.00000E+00
    0.75251E-07         0.15994E-09         0.00000E+00
    0.75265E-07         0.16115E-09         0.00000E+00
    0.75286E-07         0.15845E-09         0.00000E+00
    0.75312E-07         0.14664E-09         0.00000E+00
    0.75340E-07         0.12783E-09         0.00000E+00
    0.75367E-07         0.10501E-09         0.00000E+00
    0.75392E-07         0.81241E-10         0.00000E+00
    0.75415E-07         0.59201E-10         0.00000E+00
    0.75435E-07         0.38762E-10         0.00000E+00
    0.75452E-07         0.21196E-10         0.00000E+00
    0.75466E-07         0.71007E-11         0.00000E+00
    0.75478E-07        -0.35577E-11         0.00000E+00
    0.75487E-07        -0.10205E-10         0.00000E+00
    0.75494E-07        -0.12707E-10         0.00000E+00
    0.75498E-07        -0.10891E-10         0.00000E+00
    0.75500E-07        -0.43481E-11         0.00000E+00
    0.76830E-07        -0.26637E-11         0.00000E+00
    0.76829E-07        -0.76656E-11         0.00000E+00
    0.76828E-07        -0.12287E-10         0.00000E+00
    0.76827E-07        -0.16585E-10         0.00000E+00
    0.76825E-07        -0.20512E-10         0.00000E+00
    0.76823E-07        -0.23976E-10         0.00000E+00
    0.76822E-07        -0.26881E-10         0.00000E+00
    0.76820E-07        -0.29122E-10         0.00000E+00
    0.76818E-07        -0.30613E-10         0.00000E+00
    0.76817E-07        -0.31269E-10         0.00000E+00
    0.76815E-07        -0.30996E-10         0.00000E+00
    0.76813E-07        -0.29716E-10         0.00000E+00
    0.76811E-07        -0.27391E-10         0.00000E+00
    0.76809E-07        -0.24091E-10         0.00000E+00
    0.76806E-07        -0.19957E-10         0.00000E+00
    0.76803E-07        -0.15025E-10         0.00000E+00
    0.76801E-07        -0.94105E-11         0.00000E+00
    0.76798E-07        -0.33710E-11         0.00000E+00
    0.76795E-07         0.30764E-11         0.00000E+00
    0.76792E-07         0.10285E-10         0.00000E+00
    0.76790E-07         0.19055E-10         0.00000E+00
    0.76787E-07         0.30409E-10         0.00000E+00
    0.76782E-07         0.43438E-10         0.00000E+00
    0.76776E-07         0.57424E-10         0.00000E+00
    0.76768E-07         0.70646E-10         0.00000E+00
    0.76760E-07         0.81199E-10         0.00000E+00
    0.76752E-07         0.89874E-10         0.00000E+00
    0.76746E-07         0.97952E-10         0.00000E+00
    0.76745E-07         0.10541E-09         0.00000E+00
    0.76749E-07         0.11155E-09         0.00000E+00
    0.76759E-07         0.11629E-09         0.00000E+00
    0.76774E-07         0.11727E-09         0.00000E+00
    0.76792E-07         0.11116E-09         0.00000E+00
    0.76812E-07         0.99525E-10         0.00000E+00
    0.76832E-07         0.84115E-10         0.00000E+00
    0.76852E-07         0.66777E-10         0.00000E+00
    0.76871E-07         0.49957E-10         0.00000E+00
    0.76890E-07         0.32934E-10         0.00000E+00
    0.76907E-07         0.16021E-10         0.00000E+00
    0.76923E-07         0.54757E-12         0.00000E+00
    0.76938E-07        -0.13171E-10         0.00000E+00
    0.76951E-07        -0.24958E-10         0.00000E+00
    0.76962E-07        -0.34120E-10         0.00000E+00
    0.76972E-07        -0.40498E-10         0.00000E+00
    0.76980E-07        -0.43924E-10         0.00000E+00
    0.76987E-07        -0.44080E-10         0.00000E+00
    0.76992E-07        -0.40812E-10         0.00000E+00
    0.76995E-07        -0.33880E-10         0.00000E+00
    0.76998E-07        -0.23082E-10         0.00000E+00
    0.76999E-07        -0.83279E-11         0.00000E+00
    0.78217E-07        -0.82804E-12         0.00000E+00
    0.78217E-07        -0.38057E-11         0.00000E+00
    0.78216E-07        -0.79078E-11         0.00000E+00
    0.78216E-07        -0.12315E-10         0.00000E+00
    0.78216E-07        -0.16532E-10         0.00000E+00
    0.78216E-07        -0.20260E-10         0.00000E+00
    0.78216E-07        -0.23321E-10         0.00000E+00
    0.78216E-07        -0.25624E-10         0.00000E+00
    0.78216E-07        -0.27059E-10         0.00000E+00
    0.78217E-07        -0.27517E-10         0.00000E+00
    0.78217E-07        -0.26905E-10         0.00000E+00
    0.78217E-07        -0.25051E-10         0.00000E+00
    0.78217E-07        -0.21649E-10         0.00000E+00
    0.78217E-07        -0.16156E-10         0.00000E+00
    0.78215E-07        -0.81556E-11         0.00000E+00
    0.78212E-07         0.18470E-11         0.00000E+00
    0.78207E-07         0.11933E-10         0.00000E+00
    0.78201E-07         0.20897E-10         0.00000E+00
    0.78194E-07         0.29242E-10         0.00000E+00
    0.78186E-07         0.37497E-10         0.00000E+00
    0.78177E-07         0.45854E-10         0.00000E+00
    0.78170E-07         0.54753E-10         0.00000E+00
    0.78166E-07         0.63224E-10         0.00000E+00
    0.78165E-07         0.71378E-10         0.00000E+00
    0.78169E-07         0.79248E-10         0.00000E+00
    0.78175E-07         0.84704E-10         0.00000E+00
    0.78183E-07         0.85995E-10         0.00000E+00
    0.78192E-07         0.82220E-10         0.00000E+00
    0.78203E-07         0.74772E-10         0.00000E+00
    0.78214E-07         0.64915E-10         0.00000E+00
    0.78226E-07         0.54011E-10         0.00000E+00
    0.78238E-07         0.42677E-10         0.00000E+00
    0.78252E-07         0.29728E-10         0.00000E+00
    0.78265E-07         0.15401E-10         0.00000E+00
    0.78278E-07         0.95936E-12         0.00000E+00
    0.78291E-07        -0.13219E-10         0.00000E+00
    0.78303E-07        -0.27026E-10         0.00000E+00
    0.78314E-07        -0.39666E-10         0.00000E+00
    0.78325E-07        -0.50714E-10         0.00000E+00
    0.78334E-07        -0.60056E-10         0.00000E+00
    0.78342E-07        -0.67410E-10         0.00000E+00
    0.78350E-07        -0.72465E-10         0.00000E+00
    0.78356E-07        -0.75077E-10         0.00000E+00
    0.78361E-07        -0.75020E-10         0.00000E+00
    0.78366E-07        -0.72111E-10         0.00000E+00
    0.78369E-07        -0.66237E-10         0.00000E+00
    0.78372E-07        -0.57250E-10         0.00000E+00
    0.78374E-07        -0.45025E-10         0.00000E+00
    0.78375E-07        -0.29445E-10         0.00000E+00
    0.78376E-07        -0.10386E-10         0.00000E+00
    0.79502E-07        -0.43119E-11         0.00000E+00
    0.79505E-07        -0.12941E-10         0.00000E+00
    0.79510E-07        -0.20008E-10         0.00000E+00
    0.79516E-07        -0.25444E-10         0.00000E+00
    0.79521E-07        -0.29339E-10         0.00000E+00
    0.79526E-07        -0.31829E-10         0.00000E+00
    0.79530E-07        -0.32972E-10         0.00000E+00
    0.79533E-07        -0.32645E-10         0.00000E+00
    0.79535E-07        -0.30852E-10         0.00000E+00
    0.79535E-07        -0.27628E-10         0.00000E+00
    0.79534E-07        -0.22831E-10         0.00000E+00
    0.79531E-07        -0.16411E-10         0.00000E+00
    0.79527E-07        -0.83727E-11         0.00000E+00
    0.79521E-07         0.12659E-11         0.00000E+00
    0.79515E-07         0.11687E-10         0.00000E+00
    0.79511E-07         0.21631E-10         0.00000E+00
    0.79508E-07         0.30876E-10         0.00000E+00
    0.79506E-07         0.40202E-10         0.00000E+00
    0.79506E-07         0.49628E-10         0.00000E+00
    0.79505E-07         0.57951E-10         0.00000E+00
    0.79506E-07         0.63565E-10         0.00000E+00
    0.79507E-07         0.65323E-10         0.00000E+00
    0.79509E-07         0.64011E-10         0.00000E+00
    0.79512E-07         0.61009E-10         0.00000E+00
    0.79515E-07         0.57451E-10         0.00000E+00
    0.79520E-07         0.53189E-10         0.00000E+00
    0.79526E-07         0.46772E-10         0.00000E+00
    0.79533E-07         0.37774E-10         0.00000E+00
    0.79541E-07         0.26942E-10         0.00000E+00
    0.79549E-07         0.15072E-10         0.00000E+00
    0.79558E-07         0.22424E-11         0.00000E+00
    0.79566E-07        -0.11229E-10         0.00000E+00
    0.79575E-07        -0.24633E-10         0.00000E+00
    0.79583E-07        -0.37617E-10         0.00000E+00
    0.79591E-07        -0.50043E-10         0.00000E+00
    0.79598E-07        -0.61595E-10         0.00000E+00
    0.79604E-07        -0.71893E-10         0.00000E+00
    0.79610E-07        -0.80750E-10         0.00000E+00
    0.79615E-07        -0.87945E-10         0.00000E+00
    0.79620E-07        -0.93247E-10         0.00000E+00
    0.79624E-07        -0.96503E-10         0.00000E+00
    0.79628E-07        -0.97591E-10         0.00000E+00
    0.79631E-07        -0.96347E-10         0.00000E+00
    0.79633E-07        -0.92629E-10         0.00000E+00
    0.79635E-07        -0.86295E-10         0.00000E+00
    0.79637E-07        -0.77206E-10         0.00000E+00
    0.79638E-07        -0.65254E-10         0.00000E+00
    0.79639E-07        -0.50344E-10         0.00000E+00
    0.79639E-07        -0.32390E-10         0.00000E+00
    0.79639E-07        -0.11318E-10         0.00000E+00
    0.80723E-07        -0.14050E-10         0.00000E+00
    0.80726E-07        -0.35748E-10         0.00000E+00
    0.80732E-07        -0.48221E-10         0.00000E+00
    0.80738E-07        -0.53760E-10         0.00000E+00
    0.80743E-07        -0.54501E-10         0.00000E+00
    0.80747E-07        -0.52218E-10         0.00000E+00
    0.80751E-07        -0.48323E-10         0.00000E+00
    0.80753E-07        -0.43645E-10         0.00000E+00
    0.80754E-07        -0.37184E-10         0.00000E+00
    0.80755E-07        -0.27935E-10         0.00000E+00
    0.80755E-07        -0.16513E-10         0.00000E+00
    0.80754E-07        -0.37335E-11         0.00000E+00
    0.80752E-07         0.94492E-11         0.00000E+00
    0.80750E-07         0.21788E-10         0.00000E+00
    0.80748E-07         0.31475E-10         0.00000E+00
    0.80746E-07         0.38033E-10         0.00000E+00
    0.80743E-07         0.43369E-10         0.00000E+00
    0.80740E-07         0.48956E-10         0.00000E+00
    0.80738E-07         0.54196E-10         0.00000E+00
    0.80737E-07         0.57759E-10         0.00000E+00
    0.80738E-07         0.58750E-10         0.00000E+00
    0.80739E-07         0.56897E-10         0.00000E+00
    0.80741E-07         0.52805E-10         0.00000E+00
    0.80743E-07         0.46976E-10         0.00000E+00
    0.80747E-07         0.39297E-10         0.00000E+00
    0.80750E-07         0.29976E-10         0.00000E+00
    0.80754E-07         0.19517E-10         0.00000E+00
    0.80758E-07         0.82218E-11         0.00000E+00
    0.80763E-07        -0.37706E-11         0.00000E+00
    0.80767E-07        -0.16272E-10         0.00000E+00
    0.80771E-07        -0.28906E-10         0.00000E+00
    0.80774E-07        -0.41334E-10         0.00000E+00
    0.80777E-07        -0.53329E-10         0.00000E+00
    0.80780E-07        -0.64630E-10         0.00000E+00
    0.80783E-07        -0.74987E-10         0.00000E+00
    0.80786E-07        -0.84222E-10         0.00000E+00
    0.80788E-07        -0.92192E-10         0.00000E+00
    0.80789E-07        -0.98717E-10         0.00000E+00
    0.80791E-07        -0.10363E-09         0.00000E+00
    0.80792E-07        -0.10676E-09         0.00000E+00
    0.80793E-07        -0.10795E-09         0.00000E+00
    0.80794E-07        -0.10705E-09         0.00000E+00
    0.80794E-07        -0.10394E-09         0.00000E+00
    0.80794E-07        -0.98499E-10         0.00000E+00
    0.80794E-07        -0.90625E-10         0.00000E+00
    0.80794E-07        -0.80221E-10         0.00000E+00
    0.80794E-07        -0.67189E-10         0.00000E+00
    0.80794E-07        -0.51438E-10         0.00000E+00
    0.80794E-07        -0.32881E-10         0.00000E+00
    0.80794E-07        -0.11442E-10         0.00000E+00
    0.81947E-07        -0.16996E-10         0.00000E+00
    0.81945E-07        -0.41875E-10         0.00000E+00
    0.81942E-07        -0.55683E-10         0.00000E+00
    0.81939E-07        -0.60650E-10         0.00000E+00
    0.81936E-07        -0.59147E-10         0.00000E+00
    0.81933E-07        -0.53388E-10         0.00000E+00
    0.81930E-07        -0.45370E-10         0.00000E+00
    0.81925E-07        -0.36709E-10         0.00000E+00
    0.81920E-07        -0.26712E-10         0.00000E+00
    0.81915E-07        -0.14435E-10         0.00000E+00
    0.81909E-07        -0.89099E-12         0.00000E+00
    0.81904E-07         0.12819E-10         0.00000E+00
    0.81899E-07         0.25722E-10         0.00000E+00
    0.81895E-07         0.37003E-10         0.00000E+00
    0.81891E-07         0.46144E-10         0.00000E+00
    0.81887E-07         0.53259E-10         0.00000E+00
    0.81884E-07         0.58527E-10         0.00000E+00
    0.81881E-07         0.61745E-10         0.00000E+00
    0.81879E-07         0.62900E-10         0.00000E+00
    0.81877E-07         0.62123E-10         0.00000E+00
    0.81876E-07         0.59506E-10         0.00000E+00
    0.81875E-07         0.55131E-10         0.00000E+00
    0.81874E-07         0.49015E-10         0.00000E+00
    0.81873E-07         0.41270E-10         0.00000E+00
    0.81873E-07         0.32205E-10         0.00000E+00
    0.81872E-07         0.22098E-10         0.00000E+00
    0.81871E-07         0.11180E-10         0.00000E+00
    0.81870E-07        -0.28593E-12         0.00000E+00
    0.81869E-07        -0.12045E-10         0.00000E+00
    0.81868E-07        -0.23871E-10         0.00000E+00
    0.81867E-07        -0.35589E-10         0.00000E+00
    0.81866E-07        -0.47017E-10         0.00000E+00
    0.81865E-07        -0.57948E-10         0.00000E+00
    0.81864E-07        -0.68188E-10         0.00000E+00
    0.81862E-07        -0.77545E-10         0.00000E+00
    0.81861E-07        -0.85831E-10         0.00000E+00
    0.81859E-07        -0.92865E-10         0.00000E+00
    0.81857E-07        -0.98492E-10         0.00000E+00
    0.81856E-07        -0.10257E-09         0.00000E+00
    0.81854E-07        -0.10496E-09         0.00000E+00
    0.81852E-07        -0.10554E-09         0.00000E+00
    0.81850E-07        -0.10418E-09         0.00000E+00
    0.81849E-07        -0.10076E-09         0.00000E+00
    0.81847E-07        -0.95185E-10         0.00000E+00
    0.81846E-07        -0.87336E-10         0.00000E+00
    0.81845E-07        -0.77123E-10         0.00000E+00
    0.81844E-07        -0.64458E-10         0.00000E+00
    0.81843E-07        -0.49256E-10         0.00000E+00
    0.81842E-07        -0.31438E-10         0.00000E+00
    0.81842E-07        -0.10927E-10         0.00000E+00
    0.83100E-07        -0.84249E-11         0.00000E+00
    0.83095E-07        -0.19842E-10         0.00000E+00
    0.83087E-07        -0.25277E-10         0.00000E+00
    0.83077E-07        -0.25571E-10         0.00000E+00
    0.83066E-07        -0.21645E-10         0.00000E+00
    0.83054E-07        -0.14492E-10         0.00000E+00
    0.83042E-07        -0.50808E-11         0.00000E+00
    0.83029E-07         0.56799E-11         0.00000E+00
    0.83017E-07         0.17161E-10         0.00000E+00
    0.83005E-07         0.28952E-10         0.00000E+00
    0.82994E-07         0.40581E-10         0.00000E+00
    0.82983E-07         0.51571E-10         0.00000E+00
    0.82973E-07         0.61503E-10         0.00000E+00
    0.82963E-07         0.70062E-10         0.00000E+00
    0.82955E-07         0.77024E-10         0.00000E+00
    0.82946E-07         0.82157E-10         0.00000E+00
    0.82938E-07         0.85315E-10         0.00000E+00
    0.82931E-07         0.86519E-10         0.00000E+00
    0.82924E-07         0.85827E-10         0.00000E+00
    0.82917E-07         0.83330E-10         0.00000E+00
    0.82910E-07         0.79160E-10         0.00000E+00
    0.82903E-07         0.73458E-10         0.00000E+00
    0.82897E-07         0.66383E-10         0.00000E+00
    0.82891E-07         0.58095E-10         0.00000E+00
    0.82885E-07         0.48736E-10         0.00000E+00
    0.82879E-07         0.38478E-10         0.00000E+00
    0.82873E-07         0.27521E-10         0.00000E+00
    0.82867E-07         0.16062E-10         0.00000E+00
    0.82862E-07         0.43079E-11         0.00000E+00
    0.82856E-07        -0.75356E-11         0.00000E+00
    0.82851E-07        -0.19265E-10         0.00000E+00
    0.82845E-07        -0.30688E-10         0.00000E+00
    0.82840E-07        -0.41630E-10         0.00000E+00
    0.82835E-07        -0.51917E-10         0.00000E+00
    0.82830E-07        -0.61381E-10         0.00000E+00
    0.82825E-07        -0.69860E-10         0.00000E+00
    0.82820E-07        -0.77196E-10         0.00000E+00
    0.82816E-07        -0.83236E-10         0.00000E+00
    0.82811E-07        -0.87835E-10         0.00000E+00
    0.82807E-07        -0.90858E-10         0.00000E+00
    0.82804E-07        -0.92178E-10         0.00000E+00
    0.82800E-07        -0.91676E-10         0.00000E+00
    0.82797E-07        -0.89239E-10         0.00000E+00
    0.82794E-07        -0.84763E-10         0.00000E+00
    0.82792E-07        -0.78147E-10         0.00000E+00
    0.82789E-07        -0.69299E-10         0.00000E+00
    0.82788E-07        -0.58132E-10         0.00000E+00
    0.82786E-07        -0.44564E-10         0.00000E+00
    0.82785E-07        -0.28519E-10         0.00000E+00
    0.82785E-07        -0.99236E-11         0.00000E+00
    0.84100E-07         0.35905E-11         0.00000E+00
    0.84095E-07         0.11991E-10         0.00000E+00
    0.84088E-07         0.21410E-10         0.00000E+00
    0.84077E-07         0.31736E-10         0.00000E+00
    0.84064E-07         0.42795E-10         0.00000E+00
    0.84049E-07         0.54364E-10         0.00000E+00
    0.84034E-07         0.66180E-10         0.00000E+00
    0.84017E-07         0.77958E-10         0.00000E+00
    0.84001E-07         0.89372E-10         0.00000E+00
    0.83984E-07         0.10009E-09         0.00000E+00
    0.83967E-07         0.10986E-09         0.00000E+00
    0.83951E-07         0.11847E-09         0.00000E+00
    0.83934E-07         0.12576E-09         0.00000E+00
    0.83919E-07         0.13159E-09         0.00000E+00
    0.83904E-07         0.13584E-09         0.00000E+00
    0.83889E-07         0.13843E-09         0.00000E+00
    0.83875E-07         0.13931E-09         0.00000E+00
    0.83861E-07         0.13846E-09         0.00000E+00
    0.83848E-07         0.13592E-09         0.00000E+00
    0.83835E-07         0.13174E-09         0.00000E+00
    0.83823E-07         0.12602E-09         0.00000E+00
    0.83811E-07         0.11887E-09         0.00000E+00
    0.83800E-07         0.11045E-09         0.00000E+00
    0.83788E-07         0.10090E-09         0.00000E+00
    0.83777E-07         0.90389E-10         0.00000E+00
    0.83767E-07         0.79078E-10         0.00000E+00
    0.83757E-07         0.67132E-10         0.00000E+00
    0.83747E-07         0.54722E-10         0.00000E+00
    0.83737E-07         0.42018E-10         0.00000E+00
    0.83728E-07         0.29198E-10         0.00000E+00
    0.83719E-07         0.16440E-10         0.00000E+00
    0.83710E-07         0.39221E-11         0.00000E+00
    0.83702E-07        -0.81802E-11         0.00000E+00
    0.83694E-07        -0.19696E-10         0.00000E+00
    0.83686E-07        -0.30462E-10         0.00000E+00
    0.83679E-07        -0.40320E-10         0.00000E+00
    0.83672E-07        -0.49117E-10         0.00000E+00
    0.83666E-07        -0.56707E-10         0.00000E+00
    0.83660E-07        -0.62947E-10         0.00000E+00
    0.83654E-07        -0.67701E-10         0.00000E+00
    0.83649E-07        -0.70839E-10         0.00000E+00
    0.83644E-07        -0.72239E-10         0.00000E+00
    0.83640E-07        -0.71786E-10         0.00000E+00
    0.83636E-07        -0.69372E-10         0.00000E+00
    0.83633E-07        -0.64898E-10         0.00000E+00
    0.83631E-07        -0.58273E-10         0.00000E+00
    0.83628E-07        -0.49409E-10         0.00000E+00
    0.83627E-07        -0.38225E-10         0.00000E+00
    0.83626E-07        -0.24648E-10         0.00000E+00
    0.83625E-07        -0.86092E-11         0.00000E+00
    0.84913E-07         0.14025E-10         0.00000E+00
    0.84909E-07         0.41079E-10         0.00000E+00
    0.84902E-07         0.66216E-10         0.00000E+00
    0.84892E-07         0.89446E-10         0.00000E+00
    0.84880E-07         0.11078E-09         0.00000E+00
    0.84866E-07         0.13024E-09         0.00000E+00
    0.84850E-07         0.14780E-09         0.00000E+00
    0.84833E-07         0.16347E-09         0.00000E+00
    0.84815E-07         0.17724E-09         0.00000E+00
    0.84797E-07         0.18909E-09         0.00000E+00
    0.84778E-07         0.19901E-09         0.00000E+00
    0.84759E-07         0.20697E-09         0.00000E+00
    0.84740E-07         0.21296E-09         0.00000E+00
    0.84721E-07         0.21701E-09         0.00000E+00
    0.84702E-07         0.21912E-09         0.00000E+00
    0.84684E-07         0.21936E-09         0.00000E+00
    0.84666E-07         0.21776E-09         0.00000E+00
    0.84649E-07         0.21442E-09         0.00000E+00
    0.84632E-07         0.20940E-09         0.00000E+00
    0.84616E-07         0.20282E-09         0.00000E+00
    0.84601E-07         0.19477E-09         0.00000E+00
    0.84585E-07         0.18538E-09         0.00000E+00
    0.84571E-07         0.17479E-09         0.00000E+00
    0.84557E-07         0.16313E-09         0.00000E+00
    0.84543E-07         0.15055E-09         0.00000E+00
    0.84530E-07         0.13722E-09         0.00000E+00
    0.84517E-07         0.12328E-09         0.00000E+00
    0.84505E-07         0.10891E-09         0.00000E+00
    0.84494E-07         0.94264E-10         0.00000E+00
    0.84482E-07         0.79499E-10         0.00000E+00
    0.84472E-07         0.64780E-10         0.00000E+00
    0.84461E-07         0.50267E-10         0.00000E+00
    0.84451E-07         0.36122E-10         0.00000E+00
    0.84442E-07         0.22503E-10         0.00000E+00
    0.84433E-07         0.95697E-11         0.00000E+00
    0.84425E-07        -0.25208E-11         0.00000E+00
    0.84417E-07        -0.13615E-10         0.00000E+00
    0.84410E-07        -0.23563E-10         0.00000E+00
    0.84403E-07        -0.32220E-10         0.00000E+00
    0.84397E-07        -0.39448E-10         0.00000E+00
    0.84391E-07        -0.45113E-10         0.00000E+00
    0.84386E-07        -0.49088E-10         0.00000E+00
    0.84382E-07        -0.51256E-10         0.00000E+00
    0.84378E-07        -0.51501E-10         0.00000E+00
    0.84374E-07        -0.49720E-10         0.00000E+00
    0.84371E-07        -0.45810E-10         0.00000E+00
    0.84369E-07        -0.39680E-10         0.00000E+00
    0.84367E-07        -0.31247E-10         0.00000E+00
    0.84366E-07        -0.20437E-10         0.00000E+00
    0.84366E-07        -0.71879E-11         0.00000E+00
    0.85520E-07         0.23123E-10         0.00000E+00
    0.85517E-07         0.66877E-10         0.00000E+00
    0.85511E-07         0.10657E-09         0.00000E+00
    0.85502E-07         0.14228E-09         0.00000E+00
    0.85491E-07         0.17410E-09         0.00000E+00
    0.85478E-07         0.20213E-09         0.00000E+00
    0.85464E-07         0.22654E-09         0.00000E+00
    0.85448E-07         0.24749E-09         0.00000E+00
    0.85432E-07         0.26510E-09         0.00000E+00
    0.85415E-07         0.27952E-09         0.00000E+00
    0.85397E-07         0.29088E-09         0.00000E+00
    0.85379E-07         0.29932E-09         0.00000E+00
    0.85362E-07         0.30499E-09         0.00000E+00
    0.85344E-07         0.30804E-09         0.00000E+00
    0.85326E-07         0.30863E-09         0.00000E+00
    0.85309E-07         0.30693E-09         0.00000E+00
    0.85292E-07         0.30308E-09         0.00000E+00
    0.85276E-07         0.29726E-09         0.00000E+00
    0.85260E-07         0.28963E-09         0.00000E+00
    0.85245E-07         0.28037E-09         0.00000E+00
    0.85230E-07         0.26963E-09         0.00000E+00
    0.85215E-07         0.25758E-09         0.00000E+00
    0.85202E-07         0.24437E-09         0.00000E+00
    0.85189E-07         0.23016E-09         0.00000E+00
    0.85176E-07         0.21510E-09         0.00000E+00
    0.85164E-07         0.19936E-09         0.00000E+00
    0.85152E-07         0.18307E-09         0.00000E+00
    0.85140E-07         0.16639E-09         0.00000E+00
    0.85130E-07         0.14947E-09         0.00000E+00
    0.85119E-07         0.13246E-09         0.00000E+00
    0.85109E-07         0.11549E-09         0.00000E+00
    0.85100E-07         0.98716E-10         0.00000E+00
    0.85091E-07         0.82284E-10         0.00000E+00
    0.85082E-07         0.66337E-10         0.00000E+00
    0.85074E-07         0.51023E-10         0.00000E+00
    0.85066E-07         0.36491E-10         0.00000E+00
    0.85059E-07         0.22889E-10         0.00000E+00
    0.85052E-07         0.10367E-10         0.00000E+00
    0.85046E-07        -0.92929E-12         0.00000E+00
    0.85040E-07        -0.10852E-10         0.00000E+00
    0.85035E-07        -0.19259E-10         0.00000E+00
    0.85030E-07        -0.26011E-10         0.00000E+00
    0.85026E-07        -0.30971E-10         0.00000E+00
    0.85022E-07        -0.34012E-10         0.00000E+00
    0.85019E-07        -0.35011E-10         0.00000E+00
    0.85017E-07        -0.33858E-10         0.00000E+00
    0.85015E-07        -0.30451E-10         0.00000E+00
    0.85013E-07        -0.24702E-10         0.00000E+00
    0.85012E-07        -0.16531E-10         0.00000E+00
    0.85012E-07        -0.58752E-11         0.00000E+00
    0.85904E-07         0.31282E-10         0.00000E+00
    0.85901E-07         0.89648E-10         0.00000E+00
    0.85896E-07         0.14163E-09         0.00000E+00
    0.85889E-07         0.18752E-09         0.00000E+00
    0.85880E-07         0.22777E-09         0.00000E+00
    0.85870E-07         0.26279E-09         0.00000E+00
    0.85859E-07         0.29272E-09         0.00000E+00
    0.85847E-07         0.31777E-09         0.00000E+00
    0.85835E-07         0.33818E-09         0.00000E+00
    0.85822E-07         0.35425E-09         0.00000E+00
    0.85810E-07         0.36626E-09         0.00000E+00
    0.85798E-07         0.37452E-09         0.00000E+00
    0.85786E-07         0.37933E-09         0.00000E+00
    0.85774E-07         0.38100E-09         0.00000E+00
    0.85763E-07         0.37981E-09         0.00000E+00
    0.85752E-07         0.37602E-09         0.00000E+00
    0.85742E-07         0.36991E-09         0.00000E+00
    0.85732E-07         0.36172E-09         0.00000E+00
    0.85722E-07         0.35168E-09         0.00000E+00
    0.85713E-07         0.34001E-09         0.00000E+00
    0.85705E-07         0.32693E-09         0.00000E+00
    0.85696E-07         0.31261E-09         0.00000E+00
    0.85689E-07         0.29725E-09         0.00000E+00
    0.85681E-07         0.28100E-09         0.00000E+00
    0.85674E-07         0.26403E-09         0.00000E+00
    0.85667E-07         0.24648E-09         0.00000E+00
    0.85660E-07         0.22849E-09         0.00000E+00
    0.85654E-07         0.21021E-09         0.00000E+00
    0.85647E-07         0.19175E-09         0.00000E+00
    0.85641E-07         0.17325E-09         0.00000E+00
    0.85635E-07         0.15482E-09         0.00000E+00
    0.85629E-07         0.13659E-09         0.00000E+00
    0.85623E-07         0.11867E-09         0.00000E+00
    0.85618E-07         0.10119E-09         0.00000E+00
    0.85612E-07         0.84282E-10         0.00000E+00
    0.85607E-07         0.68062E-10         0.00000E+00
    0.85602E-07         0.52666E-10         0.00000E+00
    0.85598E-07         0.38231E-10         0.00000E+00
    0.85593E-07         0.24900E-10         0.00000E+00
    0.85589E-07         0.12825E-10         0.00000E+00
    0.85585E-07         0.21624E-11         0.00000E+00
    0.85582E-07        -0.69278E-11         0.00000E+00
    0.85579E-07        -0.14283E-10         0.00000E+00
    0.85576E-07        -0.19739E-10         0.00000E+00
    0.85574E-07        -0.23142E-10         0.00000E+00
    0.85572E-07        -0.24346E-10         0.00000E+00
    0.85571E-07        -0.23227E-10         0.00000E+00
    0.85570E-07        -0.19672E-10         0.00000E+00
    0.85569E-07        -0.13588E-10         0.00000E+00
    0.85569E-07        -0.48791E-11         0.00000E+00
    0.86042E-07         0.36997E-10         0.00000E+00
    0.86040E-07         0.10583E-09         0.00000E+00
    0.86037E-07         0.16630E-09         0.00000E+00
    0.86033E-07         0.21939E-09         0.00000E+00
    0.86028E-07         0.26495E-09         0.00000E+00
    0.86023E-07         0.30260E-09         0.00000E+00
    0.86018E-07         0.33320E-09         0.00000E+00
    0.86014E-07         0.35754E-09         0.00000E+00
    0.86010E-07         0.37628E-09         0.00000E+00
    0.86008E-07         0.39006E-09         0.00000E+00
    0.86007E-07         0.39942E-09         0.00000E+00
    0.86006E-07         0.40486E-09         0.00000E+00
    0.86007E-07         0.40683E-09         0.00000E+00
    0.86008E-07         0.40572E-09         0.00000E+00
    0.86010E-07         0.40190E-09         0.00000E+00
    0.86012E-07         0.39570E-09         0.00000E+00
    0.86015E-07         0.38742E-09         0.00000E+00
    0.86019E-07         0.37734E-09         0.00000E+00
    0.86022E-07         0.36569E-09         0.00000E+00
    0.86026E-07         0.35269E-09         0.00000E+00
    0.86029E-07         0.33855E-09         0.00000E+00
    0.86033E-07         0.32344E-09         0.00000E+00
    0.86037E-07         0.30754E-09         0.00000E+00
    0.86040E-07         0.29098E-09         0.00000E+00
    0.86043E-07         0.27390E-09         0.00000E+00
    0.86046E-07         0.25644E-09         0.00000E+00
    0.86049E-07         0.23870E-09         0.00000E+00
    0.86052E-07         0.22079E-09         0.00000E+00
    0.86054E-07         0.20281E-09         0.00000E+00
    0.86055E-07         0.18485E-09         0.00000E+00
    0.86056E-07         0.16701E-09         0.00000E+00
    0.86057E-07         0.14937E-09         0.00000E+00
    0.86058E-07         0.13202E-09         0.00000E+00
    0.86058E-07         0.11505E-09         0.00000E+00
    0.86058E-07         0.98538E-10         0.00000E+00
    0.86057E-07         0.82586E-10         0.00000E+00
    0.86056E-07         0.67289E-10         0.00000E+00
    0.86055E-07         0.52755E-10         0.00000E+00
    0.86054E-07         0.39102E-10         0.00000E+00
    0.86053E-07         0.26465E-10         0.00000E+00
    0.86051E-07         0.14991E-10         0.00000E+00
    0.86050E-07         0.48455E-11         0.00000E+00
    0.86048E-07        -0.37879E-11         0.00000E+00
    0.86047E-07        -0.10711E-10         0.00000E+00
    0.86046E-07        -0.15714E-10         0.00000E+00
    0.86045E-07        -0.18570E-10         0.00000E+00
    0.86044E-07        -0.19049E-10         0.00000E+00
    0.86044E-07        -0.16937E-10         0.00000E+00
    0.86044E-07        -0.12071E-10         0.00000E+00
    0.86044E-07        -0.43802E-11         0.00000E+00
    0.85903E-07         0.42862E-10         0.00000E+00
    0.85900E-07         0.12080E-09         0.00000E+00
    0.85896E-07         0.18527E-09         0.00000E+00
    0.85894E-07         0.23220E-09         0.00000E+00
    0.85897E-07         0.26546E-09         0.00000E+00
    0.85904E-07         0.29153E-09         0.00000E+00
    0.85916E-07         0.31161E-09         0.00000E+00
    0.85930E-07         0.32652E-09         0.00000E+00
    0.85948E-07         0.33704E-09         0.00000E+00
    0.85967E-07         0.34376E-09         0.00000E+00
    0.85988E-07         0.34716E-09         0.00000E+00
    0.86011E-07         0.34770E-09         0.00000E+00
    0.86034E-07         0.34578E-09         0.00000E+00
    0.86057E-07         0.34175E-09         0.00000E+00
    0.86082E-07         0.33590E-09         0.00000E+00
    0.86106E-07         0.32849E-09         0.00000E+00
    0.86130E-07         0.31975E-09         0.00000E+00
    0.86154E-07         0.30989E-09         0.00000E+00
    0.86177E-07         0.29906E-09         0.00000E+00
    0.86200E-07         0.28743E-09         0.00000E+00
    0.86222E-07         0.27514E-09         0.00000E+00
    0.86243E-07         0.26231E-09         0.00000E+00
    0.86263E-07         0.24903E-09         0.00000E+00
    0.86282E-07         0.23543E-09         0.00000E+00
    0.86301E-07         0.22157E-09         0.00000E+00
    0.86318E-07         0.20754E-09         0.00000E+00
    0.86334E-07         0.19341E-09         0.00000E+00
    0.86349E-07         0.17925E-09         0.00000E+00
    0.86363E-07         0.16511E-09         0.00000E+00
    0.86376E-07         0.15105E-09         0.00000E+00
    0.86387E-07         0.13713E-09         0.00000E+00
    0.86397E-07         0.12339E-09         0.00000E+00
    0.86406E-07         0.10987E-09         0.00000E+00
    0.86414E-07         0.96640E-10         0.00000E+00
    0.86421E-07         0.83732E-10         0.00000E+00
    0.86427E-07         0.71201E-10         0.00000E+00
    0.86432E-07         0.59101E-10         0.00000E+00
    0.86436E-07         0.47492E-10         0.00000E+00
    0.86439E-07         0.36444E-10         0.00000E+00
    0.86441E-07         0.26040E-10         0.00000E+00
    0.86442E-07         0.16381E-10         0.00000E+00
    0.86443E-07         0.75881E-11         0.00000E+00
    0.86443E-07        -0.19008E-12         0.00000E+00
    0.86442E-07        -0.67718E-11         0.00000E+00
    0.86442E-07        -0.11936E-10         0.00000E+00
    0.86442E-07        -0.15407E-10         0.00000E+00
    0.86441E-07        -0.16846E-10         0.00000E+00
    0.86441E-07        -0.15829E-10         0.00000E+00
    0.86441E-07        -0.11842E-10         0.00000E+00
    0.86441E-07        -0.42917E-11         0.00000E+00
    0.85309E-07         0.23415E-10         0.00000E+00
    0.85326E-07         0.65034E-10         0.00000E+00
    0.85359E-07         0.97729E-10         0.00000E+00
    0.85402E-07         0.11666E-09         0.00000E+00
    0.85450E-07         0.12621E-09         0.00000E+00
    0.85502E-07         0.13361E-09         0.00000E+00
    0.85557E-07         0.13914E-09         0.00000E+00
    0.85613E-07         0.14298E-09         0.00000E+00
    0.85671E-07         0.14536E-09         0.00000E+00
    0.85729E-07         0.14646E-09         0.00000E+00
    0.85788E-07         0.14640E-09         0.00000E+00
    0.85846E-07         0.14536E-09         0.00000E+00
    0.85904E-07         0.14348E-09         0.00000E+00
    0.85961E-07         0.14090E-09         0.00000E+00
    0.86017E-07         0.13772E-09         0.00000E+00
    0.86071E-07         0.13403E-09         0.00000E+00
    0.86124E-07         0.12993E-09         0.00000E+00
    0.86175E-07         0.12546E-09         0.00000E+00
    0.86224E-07         0.12071E-09         0.00000E+00
    0.86271E-07         0.11571E-09         0.00000E+00
    0.86317E-07         0.11052E-09         0.00000E+00
    0.86360E-07         0.10517E-09         0.00000E+00
    0.86401E-07         0.99703E-10         0.00000E+00
    0.86440E-07         0.94153E-10         0.00000E+00
    0.86476E-07         0.88545E-10         0.00000E+00
    0.86510E-07         0.82906E-10         0.00000E+00
    0.86542E-07         0.77259E-10         0.00000E+00
    0.86572E-07         0.71625E-10         0.00000E+00
    0.86600E-07         0.66023E-10         0.00000E+00
    0.86625E-07         0.60470E-10         0.00000E+00
    0.86648E-07         0.54981E-10         0.00000E+00
    0.86669E-07         0.49573E-10         0.00000E+00
    0.86688E-07         0.44259E-10         0.00000E+00
    0.86704E-07         0.39053E-10         0.00000E+00
    0.86719E-07         0.33969E-10         0.00000E+00
    0.86732E-07         0.29023E-10         0.00000E+00
    0.86742E-07         0.24230E-10         0.00000E+00
    0.86751E-07         0.19607E-10         0.00000E+00
    0.86758E-07         0.15174E-10         0.00000E+00
    0.86763E-07         0.10957E-10         0.00000E+00
    0.86767E-07         0.69885E-11         0.00000E+00
    0.86769E-07         0.33107E-11         0.00000E+00
    0.86770E-07        -0.21075E-13         0.00000E+00
    0.86769E-07        -0.29319E-11         0.00000E+00
    0.86767E-07        -0.53208E-11         0.00000E+00
    0.86765E-07        -0.70534E-11         0.00000E+00
    0.86762E-07        -0.79471E-11         0.00000E+00
    0.86759E-07        -0.77271E-11         0.00000E+00
    0.86756E-07        -0.59896E-11         0.00000E+00
    0.86754E-07        -0.21528E-11         0.00000E+00
POINT_DATA       5151
VECTORS vDarcyNodal double 
    0.66487E-07         0.00000E+00         0.00000E+00
    0.66499E-07         0.00000E+00         0.00000E+00
    0.66534E-07         0.00000E+00         0.00000E+00
    0.66588E-07         0.00000E+00         0.00000E+00
    0.66658E-07         0.00000E+00         0.00000E+00
    0.66741E-07         0.00000E+00         0.00000E+00
    0.66833E-07         0.00000E+00         0.00000E+00
    0.66934E-07         0.00000E+00         0.00000E+00
    0.67040E-07         0.00000E+00         0.00000E+00
    0.67150E-07         0.00000E+00         0.00000E+00
    0.67262E-07         0.00000E+00         0.00000E+00
    0.67375E-07         0.00000E+00         0.00000E+00
    0.67487E-07         0.00000E+00         0.00000E+00
    0.67597E-07         0.00000E+00         0.00000E+00
    0.67703E-07         0.00000E+00         0.00000E+00
    0.67805E-07         0.00000E+00         0.00000E+00
    0.67902E-07         0.00000E+00         0.00000E+00
    0.67993E-07         0.00000E+00         0.00000E+00
    0.68077E-07         0.00000E+00         0.00000E+00
    0.68154E-07         0.00000E+00         0.00000E+00
    0.68225E-07         0.00000E+00         0.00000E+00
    0.68288E-07         0.00000E+00         0.00000E+00
    0.68345E-07         0.00000E+00         0.00000E+00
    0.68394E-07         0.00000E+00         0.00000E+00
    0.68435E-07         0.00000E+00         0.00000E+00
    0.68470E-07         0.00000E+00         0.00000E+00
    0.68497E-07         0.00000E+00         0.00000E+00
    0.68517E-07         0.00000E+00         0.00000E+00
    0.68531E-07         0.00000E+00         0.00000E+00
    0.68538E-07         0.00000E+00         0.00000E+00
    0.68538E-07         0.00000E+00         0.00000E+00
    0.68533E-07         0.00000E+00         0.00000E+00
    0.68521E-07         0.00000E+00         0.00000E+00
    0.68505E-07         0.00000E+00         0.00000E+00
    0.68483E-07         0.00000E+00         0.00000E+00
    0.68456E-07         0.00000E+00         0.00000E+00
    0.68424E-07         0.00000E+00         0.00000E+00
    0.68389E-07         0.00000E+00         0.00000E+00
    0.68350E-07         0.00000E+00         0.00000E+00
    0.68309E-07         0.00000E+00         0.00000E+00
    0.68264E-07         0.00000E+00         0.00000E+00
    0.68218E-07         0.00000E+00         0.00000E+00
    0.68171E-07         0.00000E+00         0.00000E+00
    0.68123E-07         0.00000E+00         0.00000E+00
    0.68076E-07         0.00000E+00         0.00000E+00
    0.68031E-07         0.00000E+00         0.00000E+00
    0.67988E-07         0.00000E+00         0.00000E+00
    0.67951E-07         0.00000E+00         0.00000E+00
    0.67920E-07         0.00000E+00         0.00000E+00
    0.67899E-07         0.00000E+00         0.00000E+00
    0.67891E-07         0.00000E+00         0.00000E+00
    0.66420E-07        -0.59925E-10         0.00000E+00
    0.66426E-07        -0.11774E-09         0.00000E+00
    0.66444E-07        -0.22347E-09         0.00000E+00
    0.66472E-07        -0.30999E-09         0.00000E+00
    0.66511E-07        -0.38134E-09         0.00000E+00
    0.66558E-07        -0.43858E-09         0.00000E+00
    0.66612E-07        -0.48235E-09         0.00000E+00
    0.66673E-07        -0.51604E-09         0.00000E+00
    0.66738E-07        -0.54026E-09         0.00000E+00
    0.66808E-07        -0.55558E-09         0.00000E+00
    0.66880E-07        -0.56259E-09         0.00000E+00
    0.66953E-07        -0.56198E-09         0.00000E+00
    0.67027E-07        -0.55440E-09         0.00000E+00
    0.67101E-07        -0.54050E-09         0.00000E+00
    0.67173E-07        -0.52101E-09         0.00000E+00
    0.67244E-07        -0.49681E-09         0.00000E+00
    0.67311E-07        -0.46877E-09         0.00000E+00
    0.67376E-07        -0.43770E-09         0.00000E+00
    0.67437E-07        -0.40449E-09         0.00000E+00
    0.67494E-07        -0.37002E-09         0.00000E+00
    0.67546E-07        -0.33497E-09         0.00000E+00
    0.67594E-07        -0.29954E-09         0.00000E+00
    0.67637E-07        -0.26352E-09         0.00000E+00
    0.67674E-07        -0.22693E-09         0.00000E+00
    0.67707E-07        -0.19030E-09         0.00000E+00
    0.67734E-07        -0.15416E-09         0.00000E+00
    0.67756E-07        -0.11869E-09         0.00000E+00
    0.67773E-07        -0.84106E-10         0.00000E+00
    0.67785E-07        -0.50621E-10         0.00000E+00
    0.67793E-07        -0.18393E-10         0.00000E+00
    0.67795E-07         0.12473E-10         0.00000E+00
    0.67793E-07         0.41938E-10         0.00000E+00
    0.67787E-07         0.70037E-10         0.00000E+00
    0.67776E-07         0.96786E-10         0.00000E+00
    0.67762E-07         0.12207E-09         0.00000E+00
    0.67744E-07         0.14550E-09         0.00000E+00
    0.67723E-07         0.16657E-09         0.00000E+00
    0.67699E-07         0.18522E-09         0.00000E+00
    0.67672E-07         0.20147E-09         0.00000E+00
    0.67643E-07         0.21509E-09         0.00000E+00
    0.67612E-07         0.22581E-09         0.00000E+00
    0.67581E-07         0.23331E-09         0.00000E+00
    0.67548E-07         0.23717E-09         0.00000E+00
    0.67516E-07         0.23678E-09         0.00000E+00
    0.67484E-07         0.23132E-09         0.00000E+00
    0.67455E-07         0.21966E-09         0.00000E+00
    0.67427E-07         0.20037E-09         0.00000E+00
    0.67404E-07         0.17147E-09         0.00000E+00
    0.67386E-07         0.13011E-09         0.00000E+00
    0.67374E-07         0.72233E-10         0.00000E+00
    0.67370E-07         0.38574E-10         0.00000E+00
    0.65985E-07        -0.60888E-10         0.00000E+00
    0.65985E-07        -0.11933E-09         0.00000E+00
    0.65983E-07        -0.23178E-09         0.00000E+00
    0.65980E-07        -0.33431E-09         0.00000E+00
    0.65977E-07        -0.42566E-09         0.00000E+00
    0.65976E-07        -0.50608E-09         0.00000E+00
    0.65977E-07        -0.57496E-09         0.00000E+00
    0.65979E-07        -0.63118E-09         0.00000E+00
    0.65984E-07        -0.67494E-09         0.00000E+00
    0.65992E-07        -0.70676E-09         0.00000E+00
    0.66001E-07        -0.72734E-09         0.00000E+00
    0.66013E-07        -0.73754E-09         0.00000E+00
    0.66026E-07        -0.73821E-09         0.00000E+00
    0.66042E-07        -0.73015E-09         0.00000E+00
    0.66060E-07        -0.71423E-09         0.00000E+00
    0.66079E-07        -0.69135E-09         0.00000E+00
    0.66099E-07        -0.66235E-09         0.00000E+00
    0.66120E-07        -0.62803E-09         0.00000E+00
    0.66143E-07        -0.58911E-09         0.00000E+00
    0.66165E-07        -0.54628E-09         0.00000E+00
    0.66187E-07        -0.50024E-09         0.00000E+00
    0.66209E-07        -0.45179E-09         0.00000E+00
    0.66229E-07        -0.40168E-09         0.00000E+00
    0.66248E-07        -0.35054E-09         0.00000E+00
    0.66266E-07        -0.29895E-09         0.00000E+00
    0.66282E-07        -0.24746E-09         0.00000E+00
    0.66297E-07        -0.19642E-09         0.00000E+00
    0.66309E-07        -0.14599E-09         0.00000E+00
    0.66319E-07        -0.96474E-10         0.00000E+00
    0.66327E-07        -0.48334E-10         0.00000E+00
    0.66333E-07        -0.19085E-11         0.00000E+00
    0.66336E-07         0.42557E-10         0.00000E+00
    0.66338E-07         0.84756E-10         0.00000E+00
    0.66338E-07         0.12441E-09         0.00000E+00
    0.66336E-07         0.16132E-09         0.00000E+00
    0.66332E-07         0.19530E-09         0.00000E+00
    0.66327E-07         0.22617E-09         0.00000E+00
    0.66321E-07         0.25374E-09         0.00000E+00
    0.66314E-07         0.27771E-09         0.00000E+00
    0.66305E-07         0.29746E-09         0.00000E+00
    0.66297E-07         0.31220E-09         0.00000E+00
    0.66287E-07         0.32123E-09         0.00000E+00
    0.66278E-07         0.32385E-09         0.00000E+00
    0.66269E-07         0.31923E-09         0.00000E+00
    0.66261E-07         0.30645E-09         0.00000E+00
    0.66254E-07         0.28441E-09         0.00000E+00
    0.66248E-07         0.25190E-09         0.00000E+00
    0.66244E-07         0.20770E-09         0.00000E+00
    0.66241E-07         0.15072E-09         0.00000E+00
    0.66240E-07         0.80346E-10         0.00000E+00
    0.66240E-07         0.41780E-10         0.00000E+00
    0.65063E-07        -0.54001E-10         0.00000E+00
    0.65060E-07        -0.10454E-09         0.00000E+00
    0.65052E-07        -0.19926E-09         0.00000E+00
    0.65039E-07        -0.28408E-09         0.00000E+00
    0.65023E-07        -0.36281E-09         0.00000E+00
    0.65004E-07        -0.43517E-09         0.00000E+00
    0.64982E-07        -0.49934E-09         0.00000E+00
    0.64959E-07        -0.55475E-09         0.00000E+00
    0.64935E-07        -0.60135E-09         0.00000E+00
    0.64911E-07        -0.63911E-09         0.00000E+00
    0.64888E-07        -0.66817E-09         0.00000E+00
    0.64867E-07        -0.68880E-09         0.00000E+00
    0.64848E-07        -0.70133E-09         0.00000E+00
    0.64831E-07        -0.70615E-09         0.00000E+00
    0.64817E-07        -0.70361E-09         0.00000E+00
    0.64807E-07        -0.69405E-09         0.00000E+00
    0.64800E-07        -0.67780E-09         0.00000E+00
    0.64796E-07        -0.65520E-09         0.00000E+00
    0.64795E-07        -0.62663E-09         0.00000E+00
    0.64797E-07        -0.59255E-09         0.00000E+00
    0.64801E-07        -0.55347E-09         0.00000E+00
    0.64808E-07        -0.50999E-09         0.00000E+00
    0.64816E-07        -0.46279E-09         0.00000E+00
    0.64826E-07        -0.41259E-09         0.00000E+00
    0.64836E-07        -0.36011E-09         0.00000E+00
    0.64848E-07        -0.30602E-09         0.00000E+00
    0.64859E-07        -0.25100E-09         0.00000E+00
    0.64870E-07        -0.19573E-09         0.00000E+00
    0.64881E-07        -0.14086E-09         0.00000E+00
    0.64891E-07        -0.87005E-10         0.00000E+00
    0.64900E-07        -0.34754E-10         0.00000E+00
    0.64909E-07         0.15384E-10         0.00000E+00
    0.64917E-07         0.63085E-10         0.00000E+00
    0.64924E-07         0.10806E-09         0.00000E+00
    0.64930E-07         0.14989E-09         0.00000E+00
    0.64936E-07         0.18824E-09         0.00000E+00
    0.64941E-07         0.22281E-09         0.00000E+00
    0.64945E-07         0.25324E-09         0.00000E+00
    0.64950E-07         0.27916E-09         0.00000E+00
    0.64954E-07         0.30020E-09         0.00000E+00
    0.64958E-07         0.31606E-09         0.00000E+00
    0.64962E-07         0.32604E-09         0.00000E+00
    0.64965E-07         0.32884E-09         0.00000E+00
    0.64969E-07         0.32327E-09         0.00000E+00
    0.64972E-07         0.30864E-09         0.00000E+00
    0.64975E-07         0.28432E-09         0.00000E+00
    0.64978E-07         0.24965E-09         0.00000E+00
    0.64981E-07         0.20405E-09         0.00000E+00
    0.64984E-07         0.14701E-09         0.00000E+00
    0.64985E-07         0.78039E-10         0.00000E+00
    0.64986E-07         0.40503E-10         0.00000E+00
    0.63804E-07        -0.32858E-10         0.00000E+00
    0.63800E-07        -0.65498E-10         0.00000E+00
    0.63788E-07        -0.12953E-09         0.00000E+00
    0.63770E-07        -0.19090E-09         0.00000E+00
    0.63746E-07        -0.24863E-09         0.00000E+00
    0.63718E-07        -0.30175E-09         0.00000E+00
    0.63686E-07        -0.35023E-09         0.00000E+00
    0.63652E-07        -0.39455E-09         0.00000E+00
    0.63617E-07        -0.43510E-09         0.00000E+00
    0.63581E-07        -0.47205E-09         0.00000E+00
    0.63546E-07        -0.50530E-09         0.00000E+00
    0.63512E-07        -0.53456E-09         0.00000E+00
    0.63481E-07        -0.55944E-09         0.00000E+00
    0.63453E-07        -0.57951E-09         0.00000E+00
    0.63429E-07        -0.59430E-09         0.00000E+00
    0.63408E-07        -0.60340E-09         0.00000E+00
    0.63391E-07        -0.60647E-09         0.00000E+00
    0.63378E-07        -0.60328E-09         0.00000E+00
    0.63369E-07        -0.59368E-09         0.00000E+00
    0.63364E-07        -0.57762E-09         0.00000E+00
    0.63362E-07        -0.55518E-09         0.00000E+00
    0.63364E-07        -0.52658E-09         0.00000E+00
    0.63370E-07        -0.49216E-09         0.00000E+00
    0.63378E-07        -0.45244E-09         0.00000E+00
    0.63388E-07        -0.40809E-09         0.00000E+00
    0.63400E-07        -0.35987E-09         0.00000E+00
    0.63414E-07        -0.30866E-09         0.00000E+00
    0.63428E-07        -0.25539E-09         0.00000E+00
    0.63443E-07        -0.20102E-09         0.00000E+00
    0.63458E-07        -0.14645E-09         0.00000E+00
    0.63473E-07        -0.92530E-10         0.00000E+00
    0.63488E-07        -0.40026E-10         0.00000E+00
    0.63502E-07         0.10352E-10         0.00000E+00
    0.63516E-07         0.57940E-10         0.00000E+00
    0.63530E-07         0.10216E-09         0.00000E+00
    0.63543E-07         0.14248E-09         0.00000E+00
    0.63555E-07         0.17840E-09         0.00000E+00
    0.63567E-07         0.20964E-09         0.00000E+00
    0.63579E-07         0.23603E-09         0.00000E+00
    0.63590E-07         0.25732E-09         0.00000E+00
    0.63602E-07         0.27325E-09         0.00000E+00
    0.63613E-07         0.28359E-09         0.00000E+00
    0.63624E-07         0.28794E-09         0.00000E+00
    0.63634E-07         0.28508E-09         0.00000E+00
    0.63644E-07         0.27357E-09         0.00000E+00
    0.63653E-07         0.25268E-09         0.00000E+00
    0.63660E-07         0.22214E-09         0.00000E+00
    0.63666E-07         0.18163E-09         0.00000E+00
    0.63671E-07         0.13085E-09         0.00000E+00
    0.63674E-07         0.69452E-10         0.00000E+00
    0.63675E-07         0.36056E-10         0.00000E+00
    0.62274E-07        -0.11321E-10         0.00000E+00
    0.62270E-07        -0.23924E-10         0.00000E+00
    0.62256E-07        -0.49784E-10         0.00000E+00
    0.62235E-07        -0.76619E-10         0.00000E+00
    0.62209E-07        -0.10472E-09         0.00000E+00
    0.62178E-07        -0.13524E-09         0.00000E+00
    0.62145E-07        -0.16888E-09         0.00000E+00
    0.62112E-07        -0.20555E-09         0.00000E+00
    0.62079E-07        -0.24468E-09         0.00000E+00
    0.62047E-07        -0.28539E-09         0.00000E+00
    0.62017E-07        -0.32665E-09         0.00000E+00
    0.61989E-07        -0.36739E-09         0.00000E+00
    0.61964E-07        -0.40654E-09         0.00000E+00
    0.61941E-07        -0.44301E-09         0.00000E+00
    0.61922E-07        -0.47584E-09         0.00000E+00
    0.61905E-07        -0.50423E-09         0.00000E+00
    0.61892E-07        -0.52745E-09         0.00000E+00
    0.61883E-07        -0.54488E-09         0.00000E+00
    0.61878E-07        -0.55592E-09         0.00000E+00
    0.61876E-07        -0.56010E-09         0.00000E+00
    0.61878E-07        -0.55709E-09         0.00000E+00
    0.61883E-07        -0.54671E-09         0.00000E+00
    0.61892E-07        -0.52892E-09         0.00000E+00
    0.61903E-07        -0.50390E-09         0.00000E+00
    0.61918E-07        -0.47202E-09         0.00000E+00
    0.61935E-07        -0.43391E-09         0.00000E+00
    0.61954E-07        -0.39041E-09         0.00000E+00
    0.61975E-07        -0.34255E-09         0.00000E+00
    0.61996E-07        -0.29146E-09         0.00000E+00
    0.62019E-07        -0.23834E-09         0.00000E+00
    0.62041E-07        -0.18441E-09         0.00000E+00
    0.62064E-07        -0.13080E-09         0.00000E+00
    0.62086E-07        -0.78549E-10         0.00000E+00
    0.62108E-07        -0.28569E-10         0.00000E+00
    0.62129E-07         0.18359E-10         0.00000E+00
    0.62149E-07         0.61580E-10         0.00000E+00
    0.62168E-07         0.10052E-09         0.00000E+00
    0.62187E-07         0.13462E-09         0.00000E+00
    0.62204E-07         0.16337E-09         0.00000E+00
    0.62221E-07         0.18638E-09         0.00000E+00
    0.62237E-07         0.20356E-09         0.00000E+00
    0.62253E-07         0.21516E-09         0.00000E+00
    0.62268E-07         0.22135E-09         0.00000E+00
    0.62282E-07         0.22209E-09         0.00000E+00
    0.62295E-07         0.21651E-09         0.00000E+00
    0.62307E-07         0.20294E-09         0.00000E+00
    0.62318E-07         0.18044E-09         0.00000E+00
    0.62326E-07         0.14883E-09         0.00000E+00
    0.62332E-07         0.10790E-09         0.00000E+00
    0.62336E-07         0.57487E-10         0.00000E+00
    0.62337E-07         0.29903E-10         0.00000E+00
    0.60522E-07         0.14042E-10         0.00000E+00
    0.60516E-07         0.24966E-10         0.00000E+00
    0.60503E-07         0.42498E-10         0.00000E+00
    0.60487E-07         0.48185E-10         0.00000E+00
    0.60470E-07         0.38566E-10         0.00000E+00
    0.60453E-07         0.14791E-10         0.00000E+00
    0.60437E-07        -0.20008E-10         0.00000E+00
    0.60423E-07        -0.62821E-10         0.00000E+00
    0.60409E-07        -0.11119E-09         0.00000E+00
    0.60398E-07        -0.16285E-09         0.00000E+00
    0.60387E-07        -0.21585E-09         0.00000E+00
    0.60378E-07        -0.26852E-09         0.00000E+00
    0.60370E-07        -0.31963E-09         0.00000E+00
    0.60364E-07        -0.36852E-09         0.00000E+00
    0.60359E-07        -0.41464E-09         0.00000E+00
    0.60356E-07        -0.45732E-09         0.00000E+00
    0.60355E-07        -0.49574E-09         0.00000E+00
    0.60357E-07        -0.52907E-09         0.00000E+00
    0.60360E-07        -0.55650E-09         0.00000E+00
    0.60367E-07        -0.57731E-09         0.00000E+00
    0.60376E-07        -0.59093E-09         0.00000E+00
    0.60387E-07        -0.59693E-09         0.00000E+00
    0.60402E-07        -0.59497E-09         0.00000E+00
    0.60419E-07        -0.58484E-09         0.00000E+00
    0.60440E-07        -0.56651E-09         0.00000E+00
    0.60462E-07        -0.54031E-09         0.00000E+00
    0.60488E-07        -0.50678E-09         0.00000E+00
    0.60515E-07        -0.46673E-09         0.00000E+00
    0.60544E-07        -0.42116E-09         0.00000E+00
    0.60575E-07        -0.37123E-09         0.00000E+00
    0.60606E-07        -0.31825E-09         0.00000E+00
    0.60637E-07        -0.26362E-09         0.00000E+00
    0.60668E-07        -0.20874E-09         0.00000E+00
    0.60698E-07        -0.15490E-09         0.00000E+00
    0.60727E-07        -0.10325E-09         0.00000E+00
    0.60755E-07        -0.54816E-10         0.00000E+00
    0.60781E-07        -0.10442E-10         0.00000E+00
    0.60806E-07         0.29198E-10         0.00000E+00
    0.60829E-07         0.63582E-10         0.00000E+00
    0.60851E-07         0.92305E-10         0.00000E+00
    0.60872E-07         0.11504E-09         0.00000E+00
    0.60891E-07         0.13154E-09         0.00000E+00
    0.60908E-07         0.14195E-09         0.00000E+00
    0.60924E-07         0.14686E-09         0.00000E+00
    0.60939E-07         0.14675E-09         0.00000E+00
    0.60953E-07         0.14134E-09         0.00000E+00
    0.60965E-07         0.12925E-09         0.00000E+00
    0.60974E-07         0.10912E-09         0.00000E+00
    0.60982E-07         0.80542E-10         0.00000E+00
    0.60986E-07         0.43471E-10         0.00000E+00
    0.60987E-07         0.22803E-10         0.00000E+00
    0.58657E-07         0.41993E-10         0.00000E+00
    0.58658E-07         0.67651E-10         0.00000E+00
    0.58662E-07         0.97218E-10         0.00000E+00
    0.58672E-07         0.91353E-10         0.00000E+00
    0.58686E-07         0.64934E-10         0.00000E+00
    0.58702E-07         0.27545E-10         0.00000E+00
    0.58719E-07        -0.17240E-10         0.00000E+00
    0.58736E-07        -0.67045E-10         0.00000E+00
    0.58751E-07        -0.11956E-09         0.00000E+00
    0.58765E-07        -0.17357E-09         0.00000E+00
    0.58777E-07        -0.22794E-09         0.00000E+00
    0.58788E-07        -0.28203E-09         0.00000E+00
    0.58799E-07        -0.33574E-09         0.00000E+00
    0.58810E-07        -0.38831E-09         0.00000E+00
    0.58821E-07        -0.43873E-09         0.00000E+00
    0.58832E-07        -0.48628E-09         0.00000E+00
    0.58844E-07        -0.53028E-09         0.00000E+00
    0.58855E-07        -0.57022E-09         0.00000E+00
    0.58867E-07        -0.60575E-09         0.00000E+00
    0.58880E-07        -0.63620E-09         0.00000E+00
    0.58895E-07        -0.66069E-09         0.00000E+00
    0.58911E-07        -0.67837E-09         0.00000E+00
    0.58929E-07        -0.68874E-09         0.00000E+00
    0.58949E-07        -0.69172E-09         0.00000E+00
    0.58973E-07        -0.68722E-09         0.00000E+00
    0.58999E-07        -0.67494E-09         0.00000E+00
    0.59029E-07        -0.65454E-09         0.00000E+00
    0.59061E-07        -0.62587E-09         0.00000E+00
    0.59096E-07        -0.58925E-09         0.00000E+00
    0.59132E-07        -0.54542E-09         0.00000E+00
    0.59170E-07        -0.49546E-09         0.00000E+00
    0.59209E-07        -0.44069E-09         0.00000E+00
    0.59248E-07        -0.38273E-09         0.00000E+00
    0.59287E-07        -0.32345E-09         0.00000E+00
    0.59324E-07        -0.26475E-09         0.00000E+00
    0.59360E-07        -0.20828E-09         0.00000E+00
    0.59394E-07        -0.15534E-09         0.00000E+00
    0.59426E-07        -0.10691E-09         0.00000E+00
    0.59455E-07        -0.63636E-10         0.00000E+00
    0.59483E-07        -0.25881E-10         0.00000E+00
    0.59508E-07         0.61393E-11         0.00000E+00
    0.59530E-07         0.32250E-10         0.00000E+00
    0.59551E-07         0.52242E-10         0.00000E+00
    0.59569E-07         0.65956E-10         0.00000E+00
    0.59585E-07         0.73612E-10         0.00000E+00
    0.59599E-07         0.75896E-10         0.00000E+00
    0.59611E-07         0.73258E-10         0.00000E+00
    0.59621E-07         0.65058E-10         0.00000E+00
    0.59629E-07         0.50146E-10         0.00000E+00
    0.59633E-07         0.27893E-10         0.00000E+00
    0.59635E-07         0.14898E-10         0.00000E+00
    0.57039E-07         0.50977E-11         0.00000E+00
    0.57048E-07        -0.88919E-12         0.00000E+00
    0.57069E-07        -0.27215E-10         0.00000E+00
    0.57096E-07        -0.70158E-10         0.00000E+00
    0.57126E-07        -0.11261E-09         0.00000E+00
    0.57157E-07        -0.15058E-09         0.00000E+00
    0.57188E-07        -0.18730E-09         0.00000E+00
    0.57217E-07        -0.22413E-09         0.00000E+00
    0.57244E-07        -0.25869E-09         0.00000E+00
    0.57269E-07        -0.29141E-09         0.00000E+00
    0.57293E-07        -0.32909E-09         0.00000E+00
    0.57316E-07        -0.37616E-09         0.00000E+00
    0.57337E-07        -0.42873E-09         0.00000E+00
    0.57357E-07        -0.48097E-09         0.00000E+00
    0.57377E-07        -0.52883E-09         0.00000E+00
    0.57395E-07        -0.57123E-09         0.00000E+00
    0.57413E-07        -0.61011E-09         0.00000E+00
    0.57429E-07        -0.64690E-09         0.00000E+00
    0.57444E-07        -0.68136E-09         0.00000E+00
    0.57458E-07        -0.71334E-09         0.00000E+00
    0.57471E-07        -0.74242E-09         0.00000E+00
    0.57484E-07        -0.76775E-09         0.00000E+00
    0.57501E-07        -0.78892E-09         0.00000E+00
    0.57520E-07        -0.80525E-09         0.00000E+00
    0.57543E-07        -0.81579E-09         0.00000E+00
    0.57568E-07        -0.81941E-09         0.00000E+00
    0.57596E-07        -0.81491E-09         0.00000E+00
    0.57627E-07        -0.80152E-09         0.00000E+00
    0.57662E-07        -0.77858E-09         0.00000E+00
    0.57700E-07        -0.74578E-09         0.00000E+00
    0.57740E-07        -0.70354E-09         0.00000E+00
    0.57783E-07        -0.65295E-09         0.00000E+00
    0.57827E-07        -0.59568E-09         0.00000E+00
    0.57872E-07        -0.53363E-09         0.00000E+00
    0.57917E-07        -0.46877E-09         0.00000E+00
    0.57962E-07        -0.40325E-09         0.00000E+00
    0.58005E-07        -0.33908E-09         0.00000E+00
    0.58045E-07        -0.27794E-09         0.00000E+00
    0.58082E-07        -0.22105E-09         0.00000E+00
    0.58115E-07        -0.16937E-09         0.00000E+00
    0.58146E-07        -0.12357E-09         0.00000E+00
    0.58172E-07        -0.84076E-10         0.00000E+00
    0.58196E-07        -0.51029E-10         0.00000E+00
    0.58217E-07        -0.24441E-10         0.00000E+00
    0.58235E-07        -0.42358E-11         0.00000E+00
    0.58250E-07         0.98159E-11         0.00000E+00
    0.58263E-07         0.18270E-10         0.00000E+00
    0.58273E-07         0.21802E-10         0.00000E+00
    0.58280E-07         0.20284E-10         0.00000E+00
    0.58284E-07         0.12690E-10         0.00000E+00
    0.58286E-07         0.72246E-11         0.00000E+00
    0.55840E-07        -0.44985E-10         0.00000E+00
    0.55845E-07        -0.81514E-10         0.00000E+00
    0.55856E-07        -0.14575E-09         0.00000E+00
    0.55869E-07        -0.19670E-09         0.00000E+00
    0.55884E-07        -0.24060E-09         0.00000E+00
    0.55901E-07        -0.27987E-09         0.00000E+00
    0.55919E-07        -0.31539E-09         0.00000E+00
    0.55937E-07        -0.34868E-09         0.00000E+00
    0.55956E-07        -0.38241E-09         0.00000E+00
    0.55976E-07        -0.41997E-09         0.00000E+00
    0.55996E-07        -0.46115E-09         0.00000E+00
    0.56015E-07        -0.50177E-09         0.00000E+00
    0.56032E-07        -0.54157E-09         0.00000E+00
    0.56048E-07        -0.58454E-09         0.00000E+00
    0.56061E-07        -0.62968E-09         0.00000E+00
    0.56074E-07        -0.66854E-09         0.00000E+00
    0.56085E-07        -0.69815E-09         0.00000E+00
    0.56095E-07        -0.72393E-09         0.00000E+00
    0.56104E-07        -0.74811E-09         0.00000E+00
    0.56113E-07        -0.77013E-09         0.00000E+00
    0.56122E-07        -0.79517E-09         0.00000E+00
    0.56132E-07        -0.82882E-09         0.00000E+00
    0.56143E-07        -0.86703E-09         0.00000E+00
    0.56156E-07        -0.90128E-09         0.00000E+00
    0.56173E-07        -0.92635E-09         0.00000E+00
    0.56192E-07        -0.94258E-09         0.00000E+00
    0.56213E-07        -0.95238E-09         0.00000E+00
    0.56236E-07        -0.95552E-09         0.00000E+00
    0.56261E-07        -0.95047E-09         0.00000E+00
    0.56290E-07        -0.93551E-09         0.00000E+00
    0.56323E-07        -0.90994E-09         0.00000E+00
    0.56362E-07        -0.87469E-09         0.00000E+00
    0.56405E-07        -0.83019E-09         0.00000E+00
    0.56452E-07        -0.77631E-09         0.00000E+00
    0.56501E-07        -0.71371E-09         0.00000E+00
    0.56552E-07        -0.64393E-09         0.00000E+00
    0.56603E-07        -0.56930E-09         0.00000E+00
    0.56652E-07        -0.49251E-09         0.00000E+00
    0.56698E-07        -0.41671E-09         0.00000E+00
    0.56741E-07        -0.34507E-09         0.00000E+00
    0.56780E-07        -0.27972E-09         0.00000E+00
    0.56814E-07        -0.22177E-09         0.00000E+00
    0.56843E-07        -0.17146E-09         0.00000E+00
    0.56868E-07        -0.12833E-09         0.00000E+00
    0.56889E-07        -0.91832E-10         0.00000E+00
    0.56906E-07        -0.61723E-10         0.00000E+00
    0.56919E-07        -0.38056E-10         0.00000E+00
    0.56930E-07        -0.20702E-10         0.00000E+00
    0.56937E-07        -0.89572E-11         0.00000E+00
    0.56942E-07        -0.23836E-11         0.00000E+00
    0.56943E-07        -0.40723E-12         0.00000E+00
    0.54803E-07        -0.40314E-10         0.00000E+00
    0.54802E-07        -0.78154E-10         0.00000E+00
    0.54801E-07        -0.15010E-09         0.00000E+00
    0.54801E-07        -0.21441E-09         0.00000E+00
    0.54802E-07        -0.27140E-09         0.00000E+00
    0.54804E-07        -0.32228E-09         0.00000E+00
    0.54808E-07        -0.36850E-09         0.00000E+00
    0.54814E-07        -0.41124E-09         0.00000E+00
    0.54821E-07        -0.45124E-09         0.00000E+00
    0.54828E-07        -0.48873E-09         0.00000E+00
    0.54835E-07        -0.52429E-09         0.00000E+00
    0.54842E-07        -0.55913E-09         0.00000E+00
    0.54848E-07        -0.59351E-09         0.00000E+00
    0.54854E-07        -0.62669E-09         0.00000E+00
    0.54858E-07        -0.65821E-09         0.00000E+00
    0.54861E-07        -0.68806E-09         0.00000E+00
    0.54863E-07        -0.71607E-09         0.00000E+00
    0.54866E-07        -0.74261E-09         0.00000E+00
    0.54869E-07        -0.76991E-09         0.00000E+00
    0.54873E-07        -0.80181E-09         0.00000E+00
    0.54877E-07        -0.83826E-09         0.00000E+00
    0.54881E-07        -0.87484E-09         0.00000E+00
    0.54884E-07        -0.91203E-09         0.00000E+00
    0.54886E-07        -0.95413E-09         0.00000E+00
    0.54888E-07        -0.99361E-09         0.00000E+00
    0.54890E-07        -0.10188E-08         0.00000E+00
    0.54893E-07        -0.10341E-08         0.00000E+00
    0.54899E-07        -0.10442E-08         0.00000E+00
    0.54907E-07        -0.10494E-08         0.00000E+00
    0.54920E-07        -0.10559E-08         0.00000E+00
    0.54938E-07        -0.10635E-08         0.00000E+00
    0.54964E-07        -0.10616E-08         0.00000E+00
    0.54996E-07        -0.10446E-08         0.00000E+00
    0.55034E-07        -0.10139E-08         0.00000E+00
    0.55077E-07        -0.97026E-09         0.00000E+00
    0.55124E-07        -0.91227E-09         0.00000E+00
    0.55175E-07        -0.83924E-09         0.00000E+00
    0.55228E-07        -0.75561E-09         0.00000E+00
    0.55284E-07        -0.66674E-09         0.00000E+00
    0.55338E-07        -0.57558E-09         0.00000E+00
    0.55390E-07        -0.48574E-09         0.00000E+00
    0.55437E-07        -0.40079E-09         0.00000E+00
    0.55477E-07        -0.32288E-09         0.00000E+00
    0.55511E-07        -0.25349E-09         0.00000E+00
    0.55538E-07        -0.19360E-09         0.00000E+00
    0.55559E-07        -0.14313E-09         0.00000E+00
    0.55576E-07        -0.10125E-09         0.00000E+00
    0.55588E-07        -0.66896E-10         0.00000E+00
    0.55596E-07        -0.39201E-10         0.00000E+00
    0.55601E-07        -0.17502E-10         0.00000E+00
    0.55602E-07        -0.80695E-11         0.00000E+00
    0.53751E-07        -0.36035E-10         0.00000E+00
    0.53751E-07        -0.70677E-10         0.00000E+00
    0.53749E-07        -0.13770E-09         0.00000E+00
    0.53746E-07        -0.20028E-09         0.00000E+00
    0.53742E-07        -0.25854E-09         0.00000E+00
    0.53739E-07        -0.31264E-09         0.00000E+00
    0.53736E-07        -0.36278E-09         0.00000E+00
    0.53733E-07        -0.40929E-09         0.00000E+00
    0.53731E-07        -0.45257E-09         0.00000E+00
    0.53729E-07        -0.49313E-09         0.00000E+00
    0.53727E-07        -0.53133E-09         0.00000E+00
    0.53725E-07        -0.56730E-09         0.00000E+00
    0.53724E-07        -0.60132E-09         0.00000E+00
    0.53723E-07        -0.63381E-09         0.00000E+00
    0.53721E-07        -0.66502E-09         0.00000E+00
    0.53720E-07        -0.69507E-09         0.00000E+00
    0.53718E-07        -0.72426E-09         0.00000E+00
    0.53717E-07        -0.75302E-09         0.00000E+00
    0.53716E-07        -0.78148E-09         0.00000E+00
    0.53714E-07        -0.80924E-09         0.00000E+00
    0.53712E-07        -0.83649E-09         0.00000E+00
    0.53709E-07        -0.86422E-09         0.00000E+00
    0.53704E-07        -0.89228E-09         0.00000E+00
    0.53698E-07        -0.91943E-09         0.00000E+00
    0.53690E-07        -0.94551E-09         0.00000E+00
    0.53680E-07        -0.97090E-09         0.00000E+00
    0.53672E-07        -0.99595E-09         0.00000E+00
    0.53665E-07        -0.10240E-08         0.00000E+00
    0.53659E-07        -0.10570E-08         0.00000E+00
    0.53655E-07        -0.10914E-08         0.00000E+00
    0.53652E-07        -0.11278E-08         0.00000E+00
    0.53651E-07        -0.11627E-08         0.00000E+00
    0.53654E-07        -0.11825E-08         0.00000E+00
    0.53661E-07        -0.11830E-08         0.00000E+00
    0.53674E-07        -0.11645E-08         0.00000E+00
    0.53695E-07        -0.11302E-08         0.00000E+00
    0.53727E-07        -0.10902E-08         0.00000E+00
    0.53769E-07        -0.10379E-08         0.00000E+00
    0.53822E-07        -0.96478E-09         0.00000E+00
    0.53880E-07        -0.87570E-09         0.00000E+00
    0.53942E-07        -0.77323E-09         0.00000E+00
    0.54003E-07        -0.65943E-09         0.00000E+00
    0.54061E-07        -0.54267E-09         0.00000E+00
    0.54113E-07        -0.43234E-09         0.00000E+00
    0.54157E-07        -0.33425E-09         0.00000E+00
    0.54192E-07        -0.25065E-09         0.00000E+00
    0.54217E-07        -0.18062E-09         0.00000E+00
    0.54234E-07        -0.12172E-09         0.00000E+00
    0.54245E-07        -0.72515E-10         0.00000E+00
    0.54250E-07        -0.32708E-10         0.00000E+00
    0.54252E-07        -0.15152E-10         0.00000E+00
    0.52682E-07        -0.32472E-10         0.00000E+00
    0.52681E-07        -0.63852E-10         0.00000E+00
    0.52679E-07        -0.12506E-09         0.00000E+00
    0.52676E-07        -0.18315E-09         0.00000E+00
    0.52672E-07        -0.23814E-09         0.00000E+00
    0.52668E-07        -0.29009E-09         0.00000E+00
    0.52663E-07        -0.33909E-09         0.00000E+00
    0.52657E-07        -0.38527E-09         0.00000E+00
    0.52651E-07        -0.42878E-09         0.00000E+00
    0.52646E-07        -0.46975E-09         0.00000E+00
    0.52640E-07        -0.50838E-09         0.00000E+00
    0.52634E-07        -0.54489E-09         0.00000E+00
    0.52628E-07        -0.57950E-09         0.00000E+00
    0.52622E-07        -0.61235E-09         0.00000E+00
    0.52616E-07        -0.64363E-09         0.00000E+00
    0.52609E-07        -0.67359E-09         0.00000E+00
    0.52603E-07        -0.70239E-09         0.00000E+00
    0.52596E-07        -0.73013E-09         0.00000E+00
    0.52590E-07        -0.75696E-09         0.00000E+00
    0.52583E-07        -0.78315E-09         0.00000E+00
    0.52575E-07        -0.80881E-09         0.00000E+00
    0.52567E-07        -0.83383E-09         0.00000E+00
    0.52559E-07        -0.85833E-09         0.00000E+00
    0.52550E-07        -0.88265E-09         0.00000E+00
    0.52541E-07        -0.90680E-09         0.00000E+00
    0.52531E-07        -0.93072E-09         0.00000E+00
    0.52520E-07        -0.95463E-09         0.00000E+00
    0.52509E-07        -0.97806E-09         0.00000E+00
    0.52497E-07        -0.10007E-08         0.00000E+00
    0.52483E-07        -0.10235E-08         0.00000E+00
    0.52468E-07        -0.10463E-08         0.00000E+00
    0.52451E-07        -0.10687E-08         0.00000E+00
    0.52432E-07        -0.10912E-08         0.00000E+00
    0.52415E-07        -0.11151E-08         0.00000E+00
    0.52400E-07        -0.11437E-08         0.00000E+00
    0.52390E-07        -0.11757E-08         0.00000E+00
    0.52385E-07        -0.12079E-08         0.00000E+00
    0.52386E-07        -0.12303E-08         0.00000E+00
    0.52395E-07        -0.12231E-08         0.00000E+00
    0.52414E-07        -0.11780E-08         0.00000E+00
    0.52445E-07        -0.10996E-08         0.00000E+00
    0.52490E-07        -0.99589E-09         0.00000E+00
    0.52549E-07        -0.87220E-09         0.00000E+00
    0.52617E-07        -0.73304E-09         0.00000E+00
    0.52686E-07        -0.58766E-09         0.00000E+00
    0.52748E-07        -0.44450E-09         0.00000E+00
    0.52797E-07        -0.31318E-09         0.00000E+00
    0.52832E-07        -0.20381E-09         0.00000E+00
    0.52855E-07        -0.11921E-09         0.00000E+00
    0.52866E-07        -0.54234E-10         0.00000E+00
    0.52869E-07        -0.25676E-10         0.00000E+00
    0.51604E-07        -0.29039E-10         0.00000E+00
    0.51604E-07        -0.57318E-10         0.00000E+00
    0.51602E-07        -0.11268E-09         0.00000E+00
    0.51599E-07        -0.16565E-09         0.00000E+00
    0.51595E-07        -0.21623E-09         0.00000E+00
    0.51590E-07        -0.26443E-09         0.00000E+00
    0.51584E-07        -0.31029E-09         0.00000E+00
    0.51578E-07        -0.35388E-09         0.00000E+00
    0.51571E-07        -0.39527E-09         0.00000E+00
    0.51564E-07        -0.43456E-09         0.00000E+00
    0.51556E-07        -0.47185E-09         0.00000E+00
    0.51548E-07        -0.50724E-09         0.00000E+00
    0.51539E-07        -0.54085E-09         0.00000E+00
    0.51530E-07        -0.57281E-09         0.00000E+00
    0.51521E-07        -0.60325E-09         0.00000E+00
    0.51512E-07        -0.63229E-09         0.00000E+00
    0.51502E-07        -0.66004E-09         0.00000E+00
    0.51492E-07        -0.68662E-09         0.00000E+00
    0.51481E-07        -0.71216E-09         0.00000E+00
    0.51471E-07        -0.73672E-09         0.00000E+00
    0.51459E-07        -0.76038E-09         0.00000E+00
    0.51448E-07        -0.78329E-09         0.00000E+00
    0.51436E-07        -0.80551E-09         0.00000E+00
    0.51423E-07        -0.82705E-09         0.00000E+00
    0.51410E-07        -0.84801E-09         0.00000E+00
    0.51396E-07        -0.86849E-09         0.00000E+00
    0.51382E-07        -0.88851E-09         0.00000E+00
    0.51367E-07        -0.90821E-09         0.00000E+00
    0.51351E-07        -0.92777E-09         0.00000E+00
    0.51334E-07        -0.94703E-09         0.00000E+00
    0.51317E-07        -0.96609E-09         0.00000E+00
    0.51298E-07        -0.98507E-09         0.00000E+00
    0.51279E-07        -0.10038E-08         0.00000E+00
    0.51259E-07        -0.10219E-08         0.00000E+00
    0.51237E-07        -0.10387E-08         0.00000E+00
    0.51213E-07        -0.10544E-08         0.00000E+00
    0.51188E-07        -0.10699E-08         0.00000E+00
    0.51160E-07        -0.10862E-08         0.00000E+00
    0.51131E-07        -0.11046E-08         0.00000E+00
    0.51106E-07        -0.11287E-08         0.00000E+00
    0.51088E-07        -0.11561E-08         0.00000E+00
    0.51079E-07        -0.11797E-08         0.00000E+00
    0.51082E-07        -0.11778E-08         0.00000E+00
    0.51099E-07        -0.11157E-08         0.00000E+00
    0.51131E-07        -0.98499E-09         0.00000E+00
    0.51180E-07        -0.80513E-09         0.00000E+00
    0.51241E-07        -0.60434E-09         0.00000E+00
    0.51306E-07        -0.40963E-09         0.00000E+00
    0.51358E-07        -0.23927E-09         0.00000E+00
    0.51389E-07        -0.10452E-09         0.00000E+00
    0.51399E-07        -0.46974E-10         0.00000E+00
    0.50525E-07        -0.25945E-10         0.00000E+00
    0.50525E-07        -0.51224E-10         0.00000E+00
    0.50523E-07        -0.10079E-09         0.00000E+00
    0.50520E-07        -0.14839E-09         0.00000E+00
    0.50516E-07        -0.19401E-09         0.00000E+00
    0.50511E-07        -0.23768E-09         0.00000E+00
    0.50505E-07        -0.27943E-09         0.00000E+00
    0.50498E-07        -0.31929E-09         0.00000E+00
    0.50491E-07        -0.35731E-09         0.00000E+00
    0.50483E-07        -0.39355E-09         0.00000E+00
    0.50474E-07        -0.42807E-09         0.00000E+00
    0.50464E-07        -0.46094E-09         0.00000E+00
    0.50454E-07        -0.49224E-09         0.00000E+00
    0.50443E-07        -0.52204E-09         0.00000E+00
    0.50432E-07        -0.55041E-09         0.00000E+00
    0.50420E-07        -0.57745E-09         0.00000E+00
    0.50408E-07        -0.60322E-09         0.00000E+00
    0.50395E-07        -0.62780E-09         0.00000E+00
    0.50382E-07        -0.65126E-09         0.00000E+00
    0.50368E-07        -0.67369E-09         0.00000E+00
    0.50354E-07        -0.69515E-09         0.00000E+00
    0.50340E-07        -0.71569E-09         0.00000E+00
    0.50324E-07        -0.73537E-09         0.00000E+00
    0.50309E-07        -0.75426E-09         0.00000E+00
    0.50292E-07        -0.77242E-09         0.00000E+00
    0.50275E-07        -0.78985E-09         0.00000E+00
    0.50258E-07        -0.80662E-09         0.00000E+00
    0.50239E-07        -0.82272E-09         0.00000E+00
    0.50220E-07        -0.83813E-09         0.00000E+00
    0.50200E-07        -0.85290E-09         0.00000E+00
    0.50179E-07        -0.86700E-09         0.00000E+00
    0.50157E-07        -0.88038E-09         0.00000E+00
    0.50134E-07        -0.89310E-09         0.00000E+00
    0.50110E-07        -0.90521E-09         0.00000E+00
    0.50084E-07        -0.91690E-09         0.00000E+00
    0.50057E-07        -0.92814E-09         0.00000E+00
    0.50030E-07        -0.93872E-09         0.00000E+00
    0.50000E-07        -0.94839E-09         0.00000E+00
    0.49969E-07        -0.95649E-09         0.00000E+00
    0.49936E-07        -0.96177E-09         0.00000E+00
    0.49899E-07        -0.96443E-09         0.00000E+00
    0.49859E-07        -0.96642E-09         0.00000E+00
    0.49816E-07        -0.97014E-09         0.00000E+00
    0.49774E-07        -0.97979E-09         0.00000E+00
    0.49740E-07        -0.99153E-09         0.00000E+00
    0.49718E-07        -0.99223E-09         0.00000E+00
    0.49712E-07        -0.94358E-09         0.00000E+00
    0.49723E-07        -0.78919E-09         0.00000E+00
    0.49747E-07        -0.53657E-09         0.00000E+00
    0.49777E-07        -0.25841E-09         0.00000E+00
    0.49792E-07        -0.12308E-09         0.00000E+00
    0.49450E-07        -0.22887E-10         0.00000E+00
    0.49450E-07        -0.45193E-10         0.00000E+00
    0.49448E-07        -0.88936E-10         0.00000E+00
    0.49445E-07        -0.13095E-09         0.00000E+00
    0.49441E-07        -0.17127E-09         0.00000E+00
    0.49436E-07        -0.20992E-09         0.00000E+00
    0.49429E-07        -0.24693E-09         0.00000E+00
    0.49422E-07        -0.28232E-09         0.00000E+00
    0.49414E-07        -0.31615E-09         0.00000E+00
    0.49405E-07        -0.34845E-09         0.00000E+00
    0.49395E-07        -0.37926E-09         0.00000E+00
    0.49385E-07        -0.40863E-09         0.00000E+00
    0.49374E-07        -0.43660E-09         0.00000E+00
    0.49362E-07        -0.46324E-09         0.00000E+00
    0.49349E-07        -0.48858E-09         0.00000E+00
    0.49335E-07        -0.51267E-09         0.00000E+00
    0.49321E-07        -0.53557E-09         0.00000E+00
    0.49307E-07        -0.55732E-09         0.00000E+00
    0.49291E-07        -0.57798E-09         0.00000E+00
    0.49276E-07        -0.59757E-09         0.00000E+00
    0.49259E-07        -0.61615E-09         0.00000E+00
    0.49242E-07        -0.63375E-09         0.00000E+00
    0.49224E-07        -0.65041E-09         0.00000E+00
    0.49206E-07        -0.66613E-09         0.00000E+00
    0.49186E-07        -0.68096E-09         0.00000E+00
    0.49166E-07        -0.69490E-09         0.00000E+00
    0.49146E-07        -0.70795E-09         0.00000E+00
    0.49124E-07        -0.72012E-09         0.00000E+00
    0.49102E-07        -0.73140E-09         0.00000E+00
    0.49079E-07        -0.74178E-09         0.00000E+00
    0.49055E-07        -0.75121E-09         0.00000E+00
    0.49030E-07        -0.75968E-09         0.00000E+00
    0.49004E-07        -0.76712E-09         0.00000E+00
    0.48976E-07        -0.77342E-09         0.00000E+00
    0.48948E-07        -0.77843E-09         0.00000E+00
    0.48918E-07        -0.78201E-09         0.00000E+00
    0.48886E-07        -0.78402E-09         0.00000E+00
    0.48853E-07        -0.78428E-09         0.00000E+00
    0.48818E-07        -0.78272E-09         0.00000E+00
    0.48782E-07        -0.77938E-09         0.00000E+00
    0.48743E-07        -0.77390E-09         0.00000E+00
    0.48702E-07        -0.76538E-09         0.00000E+00
    0.48658E-07        -0.75233E-09         0.00000E+00
    0.48611E-07        -0.73210E-09         0.00000E+00
    0.48560E-07        -0.70370E-09         0.00000E+00
    0.48503E-07        -0.66858E-09         0.00000E+00
    0.48441E-07        -0.62919E-09         0.00000E+00
    0.48382E-07        -0.58395E-09         0.00000E+00
    0.48336E-07        -0.50992E-09         0.00000E+00
    0.48310E-07        -0.32850E-09         0.00000E+00
    0.48302E-07        -0.19622E-09         0.00000E+00
    0.48383E-07        -0.19749E-10         0.00000E+00
    0.48382E-07        -0.38978E-10         0.00000E+00
    0.48381E-07        -0.76670E-10         0.00000E+00
    0.48377E-07        -0.11285E-09         0.00000E+00
    0.48373E-07        -0.14755E-09         0.00000E+00
    0.48368E-07        -0.18080E-09         0.00000E+00
    0.48361E-07        -0.21263E-09         0.00000E+00
    0.48354E-07        -0.24308E-09         0.00000E+00
    0.48345E-07        -0.27218E-09         0.00000E+00
    0.48336E-07        -0.29995E-09         0.00000E+00
    0.48325E-07        -0.32643E-09         0.00000E+00
    0.48314E-07        -0.35165E-09         0.00000E+00
    0.48302E-07        -0.37563E-09         0.00000E+00
    0.48289E-07        -0.39842E-09         0.00000E+00
    0.48275E-07        -0.42004E-09         0.00000E+00
    0.48261E-07        -0.44051E-09         0.00000E+00
    0.48245E-07        -0.45987E-09         0.00000E+00
    0.48229E-07        -0.47814E-09         0.00000E+00
    0.48213E-07        -0.49534E-09         0.00000E+00
    0.48195E-07        -0.51149E-09         0.00000E+00
    0.48177E-07        -0.52662E-09         0.00000E+00
    0.48158E-07        -0.54073E-09         0.00000E+00
    0.48139E-07        -0.55383E-09         0.00000E+00
    0.48118E-07        -0.56592E-09         0.00000E+00
    0.48097E-07        -0.57700E-09         0.00000E+00
    0.48075E-07        -0.58706E-09         0.00000E+00
    0.48053E-07        -0.59608E-09         0.00000E+00
    0.48029E-07        -0.60404E-09         0.00000E+00
    0.48005E-07        -0.61088E-09         0.00000E+00
    0.47980E-07        -0.61657E-09         0.00000E+00
    0.47954E-07        -0.62103E-09         0.00000E+00
    0.47927E-07        -0.62417E-09         0.00000E+00
    0.47899E-07        -0.62590E-09         0.00000E+00
    0.47870E-07        -0.62610E-09         0.00000E+00
    0.47839E-07        -0.62462E-09         0.00000E+00
    0.47808E-07        -0.62130E-09         0.00000E+00
    0.47775E-07        -0.61589E-09         0.00000E+00
    0.47742E-07        -0.60814E-09         0.00000E+00
    0.47706E-07        -0.59767E-09         0.00000E+00
    0.47670E-07        -0.58397E-09         0.00000E+00
    0.47631E-07        -0.56649E-09         0.00000E+00
    0.47591E-07        -0.54466E-09         0.00000E+00
    0.47550E-07        -0.51791E-09         0.00000E+00
    0.47507E-07        -0.48581E-09         0.00000E+00
    0.47463E-07        -0.44724E-09         0.00000E+00
    0.47419E-07        -0.40000E-09         0.00000E+00
    0.47374E-07        -0.34062E-09         0.00000E+00
    0.47328E-07        -0.26547E-09         0.00000E+00
    0.47284E-07        -0.17630E-09         0.00000E+00
    0.47244E-07        -0.84640E-10         0.00000E+00
    0.47227E-07        -0.40281E-10         0.00000E+00
    0.47327E-07        -0.16455E-10         0.00000E+00
    0.47326E-07        -0.32467E-10         0.00000E+00
    0.47324E-07        -0.63836E-10         0.00000E+00
    0.47321E-07        -0.93917E-10         0.00000E+00
    0.47316E-07        -0.12274E-09         0.00000E+00
    0.47311E-07        -0.15034E-09         0.00000E+00
    0.47304E-07        -0.17673E-09         0.00000E+00
    0.47296E-07        -0.20195E-09         0.00000E+00
    0.47287E-07        -0.22601E-09         0.00000E+00
    0.47278E-07        -0.24894E-09         0.00000E+00
    0.47267E-07        -0.27076E-09         0.00000E+00
    0.47255E-07        -0.29148E-09         0.00000E+00
    0.47243E-07        -0.31113E-09         0.00000E+00
    0.47229E-07        -0.32971E-09         0.00000E+00
    0.47215E-07        -0.34724E-09         0.00000E+00
    0.47200E-07        -0.36374E-09         0.00000E+00
    0.47184E-07        -0.37922E-09         0.00000E+00
    0.47167E-07        -0.39368E-09         0.00000E+00
    0.47150E-07        -0.40712E-09         0.00000E+00
    0.47132E-07        -0.41956E-09         0.00000E+00
    0.47113E-07        -0.43099E-09         0.00000E+00
    0.47093E-07        -0.44141E-09         0.00000E+00
    0.47073E-07        -0.45080E-09         0.00000E+00
    0.47052E-07        -0.45915E-09         0.00000E+00
    0.47030E-07        -0.46645E-09         0.00000E+00
    0.47008E-07        -0.47265E-09         0.00000E+00
    0.46985E-07        -0.47774E-09         0.00000E+00
    0.46961E-07        -0.48166E-09         0.00000E+00
    0.46937E-07        -0.48435E-09         0.00000E+00
    0.46911E-07        -0.48577E-09         0.00000E+00
    0.46885E-07        -0.48583E-09         0.00000E+00
    0.46859E-07        -0.48444E-09         0.00000E+00
    0.46831E-07        -0.48149E-09         0.00000E+00
    0.46803E-07        -0.47688E-09         0.00000E+00
    0.46774E-07        -0.47045E-09         0.00000E+00
    0.46744E-07        -0.46204E-09         0.00000E+00
    0.46714E-07        -0.45146E-09         0.00000E+00
    0.46683E-07        -0.43851E-09         0.00000E+00
    0.46652E-07        -0.42297E-09         0.00000E+00
    0.46620E-07        -0.40461E-09         0.00000E+00
    0.46588E-07        -0.38319E-09         0.00000E+00
    0.46556E-07        -0.35845E-09         0.00000E+00
    0.46524E-07        -0.33008E-09         0.00000E+00
    0.46493E-07        -0.29775E-09         0.00000E+00
    0.46463E-07        -0.26133E-09         0.00000E+00
    0.46434E-07        -0.22112E-09         0.00000E+00
    0.46409E-07        -0.17809E-09         0.00000E+00
    0.46387E-07        -0.13393E-09         0.00000E+00
    0.46371E-07        -0.89753E-10         0.00000E+00
    0.46361E-07        -0.44961E-10         0.00000E+00
    0.46358E-07        -0.22222E-10         0.00000E+00
    0.46283E-07        -0.13044E-10         0.00000E+00
    0.46283E-07        -0.25736E-10         0.00000E+00
    0.46281E-07        -0.50600E-10         0.00000E+00
    0.46277E-07        -0.74439E-10         0.00000E+00
    0.46273E-07        -0.97270E-10         0.00000E+00
    0.46267E-07        -0.11911E-09         0.00000E+00
    0.46260E-07        -0.13998E-09         0.00000E+00
    0.46252E-07        -0.15989E-09         0.00000E+00
    0.46244E-07        -0.17885E-09         0.00000E+00
    0.46234E-07        -0.19687E-09         0.00000E+00
    0.46223E-07        -0.21397E-09         0.00000E+00
    0.46211E-07        -0.23014E-09         0.00000E+00
    0.46199E-07        -0.24539E-09         0.00000E+00
    0.46185E-07        -0.25974E-09         0.00000E+00
    0.46171E-07        -0.27317E-09         0.00000E+00
    0.46156E-07        -0.28570E-09         0.00000E+00
    0.46140E-07        -0.29731E-09         0.00000E+00
    0.46124E-07        -0.30801E-09         0.00000E+00
    0.46106E-07        -0.31780E-09         0.00000E+00
    0.46089E-07        -0.32666E-09         0.00000E+00
    0.46070E-07        -0.33459E-09         0.00000E+00
    0.46051E-07        -0.34156E-09         0.00000E+00
    0.46031E-07        -0.34757E-09         0.00000E+00
    0.46011E-07        -0.35260E-09         0.00000E+00
    0.45990E-07        -0.35661E-09         0.00000E+00
    0.45968E-07        -0.35959E-09         0.00000E+00
    0.45946E-07        -0.36149E-09         0.00000E+00
    0.45923E-07        -0.36228E-09         0.00000E+00
    0.45900E-07        -0.36191E-09         0.00000E+00
    0.45877E-07        -0.36034E-09         0.00000E+00
    0.45853E-07        -0.35751E-09         0.00000E+00
    0.45828E-07        -0.35336E-09         0.00000E+00
    0.45804E-07        -0.34783E-09         0.00000E+00
    0.45779E-07        -0.34084E-09         0.00000E+00
    0.45753E-07        -0.33234E-09         0.00000E+00
    0.45728E-07        -0.32224E-09         0.00000E+00
    0.45703E-07        -0.31048E-09         0.00000E+00
    0.45677E-07        -0.29700E-09         0.00000E+00
    0.45652E-07        -0.28175E-09         0.00000E+00
    0.45628E-07        -0.26469E-09         0.00000E+00
    0.45604E-07        -0.24582E-09         0.00000E+00
    0.45581E-07        -0.22518E-09         0.00000E+00
    0.45559E-07        -0.20289E-09         0.00000E+00
    0.45538E-07        -0.17914E-09         0.00000E+00
    0.45520E-07        -0.15423E-09         0.00000E+00
    0.45503E-07        -0.12848E-09         0.00000E+00
    0.45489E-07        -0.10218E-09         0.00000E+00
    0.45478E-07        -0.75552E-10         0.00000E+00
    0.45470E-07        -0.49104E-10         0.00000E+00
    0.45466E-07        -0.23810E-10         0.00000E+00
    0.45464E-07        -0.11604E-10         0.00000E+00
    0.45254E-07        -0.96190E-11         0.00000E+00
    0.45253E-07        -0.18992E-10         0.00000E+00
    0.45251E-07        -0.37369E-10         0.00000E+00
    0.45248E-07        -0.55013E-10         0.00000E+00
    0.45243E-07        -0.71927E-10         0.00000E+00
    0.45238E-07        -0.88112E-10         0.00000E+00
    0.45231E-07        -0.10357E-09         0.00000E+00
    0.45224E-07        -0.11830E-09         0.00000E+00
    0.45215E-07        -0.13230E-09         0.00000E+00
    0.45206E-07        -0.14558E-09         0.00000E+00
    0.45195E-07        -0.15813E-09         0.00000E+00
    0.45184E-07        -0.16994E-09         0.00000E+00
    0.45172E-07        -0.18102E-09         0.00000E+00
    0.45159E-07        -0.19135E-09         0.00000E+00
    0.45145E-07        -0.20094E-09         0.00000E+00
    0.45131E-07        -0.20978E-09         0.00000E+00
    0.45116E-07        -0.21785E-09         0.00000E+00
    0.45100E-07        -0.22516E-09         0.00000E+00
    0.45084E-07        -0.23169E-09         0.00000E+00
    0.45067E-07        -0.23743E-09         0.00000E+00
    0.45050E-07        -0.24237E-09         0.00000E+00
    0.45032E-07        -0.24650E-09         0.00000E+00
    0.45013E-07        -0.24980E-09         0.00000E+00
    0.44994E-07        -0.25225E-09         0.00000E+00
    0.44975E-07        -0.25383E-09         0.00000E+00
    0.44956E-07        -0.25453E-09         0.00000E+00
    0.44936E-07        -0.25433E-09         0.00000E+00
    0.44915E-07        -0.25320E-09         0.00000E+00
    0.44895E-07        -0.25113E-09         0.00000E+00
    0.44874E-07        -0.24808E-09         0.00000E+00
    0.44853E-07        -0.24404E-09         0.00000E+00
    0.44832E-07        -0.23899E-09         0.00000E+00
    0.44811E-07        -0.23292E-09         0.00000E+00
    0.44790E-07        -0.22580E-09         0.00000E+00
    0.44769E-07        -0.21763E-09         0.00000E+00
    0.44749E-07        -0.20841E-09         0.00000E+00
    0.44729E-07        -0.19816E-09         0.00000E+00
    0.44709E-07        -0.18690E-09         0.00000E+00
    0.44690E-07        -0.17467E-09         0.00000E+00
    0.44671E-07        -0.16153E-09         0.00000E+00
    0.44654E-07        -0.14757E-09         0.00000E+00
    0.44637E-07        -0.13291E-09         0.00000E+00
    0.44622E-07        -0.11768E-09         0.00000E+00
    0.44608E-07        -0.10203E-09         0.00000E+00
    0.44596E-07        -0.86148E-10         0.00000E+00
    0.44585E-07        -0.70253E-10         0.00000E+00
    0.44576E-07        -0.54609E-10         0.00000E+00
    0.44569E-07        -0.39533E-10         0.00000E+00
    0.44564E-07        -0.25293E-10         0.00000E+00
    0.44561E-07        -0.12046E-10         0.00000E+00
    0.44560E-07        -0.56828E-11         0.00000E+00
    0.44239E-07        -0.63159E-11         0.00000E+00
    0.44239E-07        -0.12495E-10         0.00000E+00
    0.44237E-07        -0.24643E-10         0.00000E+00
    0.44234E-07        -0.36361E-10         0.00000E+00
    0.44230E-07        -0.47637E-10         0.00000E+00
    0.44225E-07        -0.58455E-10         0.00000E+00
    0.44218E-07        -0.68803E-10         0.00000E+00
    0.44211E-07        -0.78670E-10         0.00000E+00
    0.44203E-07        -0.88042E-10         0.00000E+00
    0.44194E-07        -0.96908E-10         0.00000E+00
    0.44185E-07        -0.10526E-09         0.00000E+00
    0.44174E-07        -0.11308E-09         0.00000E+00
    0.44163E-07        -0.12036E-09         0.00000E+00
    0.44151E-07        -0.12710E-09         0.00000E+00
    0.44138E-07        -0.13327E-09         0.00000E+00
    0.44125E-07        -0.13888E-09         0.00000E+00
    0.44111E-07        -0.14390E-09         0.00000E+00
    0.44097E-07        -0.14834E-09         0.00000E+00
    0.44082E-07        -0.15217E-09         0.00000E+00
    0.44067E-07        -0.15539E-09         0.00000E+00
    0.44051E-07        -0.15800E-09         0.00000E+00
    0.44035E-07        -0.15997E-09         0.00000E+00
    0.44019E-07        -0.16130E-09         0.00000E+00
    0.44002E-07        -0.16199E-09         0.00000E+00
    0.43985E-07        -0.16201E-09         0.00000E+00
    0.43968E-07        -0.16137E-09         0.00000E+00
    0.43950E-07        -0.16006E-09         0.00000E+00
    0.43933E-07        -0.15808E-09         0.00000E+00
    0.43915E-07        -0.15542E-09         0.00000E+00
    0.43898E-07        -0.15208E-09         0.00000E+00
    0.43880E-07        -0.14806E-09         0.00000E+00
    0.43863E-07        -0.14339E-09         0.00000E+00
    0.43845E-07        -0.13805E-09         0.00000E+00
    0.43828E-07        -0.13209E-09         0.00000E+00
    0.43812E-07        -0.12551E-09         0.00000E+00
    0.43795E-07        -0.11837E-09         0.00000E+00
    0.43779E-07        -0.11069E-09         0.00000E+00
    0.43764E-07        -0.10254E-09         0.00000E+00
    0.43750E-07        -0.93971E-10         0.00000E+00
    0.43736E-07        -0.85073E-10         0.00000E+00
    0.43723E-07        -0.75932E-10         0.00000E+00
    0.43711E-07        -0.66651E-10         0.00000E+00
    0.43700E-07        -0.57349E-10         0.00000E+00
    0.43690E-07        -0.48157E-10         0.00000E+00
    0.43681E-07        -0.39222E-10         0.00000E+00
    0.43674E-07        -0.30699E-10         0.00000E+00
    0.43667E-07        -0.22746E-10         0.00000E+00
    0.43663E-07        -0.15520E-10         0.00000E+00
    0.43659E-07        -0.92021E-11         0.00000E+00
    0.43657E-07        -0.40157E-11         0.00000E+00
    0.43657E-07        -0.17356E-11         0.00000E+00
    0.43241E-07        -0.32598E-11         0.00000E+00
    0.43241E-07        -0.64875E-11         0.00000E+00
    0.43239E-07        -0.12883E-10         0.00000E+00
    0.43236E-07        -0.19143E-10         0.00000E+00
    0.43233E-07        -0.25239E-10         0.00000E+00
    0.43228E-07        -0.31143E-10         0.00000E+00
    0.43222E-07        -0.36832E-10         0.00000E+00
    0.43216E-07        -0.42282E-10         0.00000E+00
    0.43209E-07        -0.47473E-10         0.00000E+00
    0.43200E-07        -0.52383E-10         0.00000E+00
    0.43192E-07        -0.56995E-10         0.00000E+00
    0.43182E-07        -0.61292E-10         0.00000E+00
    0.43172E-07        -0.65257E-10         0.00000E+00
    0.43162E-07        -0.68876E-10         0.00000E+00
    0.43150E-07        -0.72136E-10         0.00000E+00
    0.43139E-07        -0.75023E-10         0.00000E+00
    0.43126E-07        -0.77527E-10         0.00000E+00
    0.43114E-07        -0.79636E-10         0.00000E+00
    0.43101E-07        -0.81341E-10         0.00000E+00
    0.43087E-07        -0.82634E-10         0.00000E+00
    0.43074E-07        -0.83509E-10         0.00000E+00
    0.43060E-07        -0.83959E-10         0.00000E+00
    0.43046E-07        -0.83980E-10         0.00000E+00
    0.43031E-07        -0.83571E-10         0.00000E+00
    0.43017E-07        -0.82730E-10         0.00000E+00
    0.43002E-07        -0.81458E-10         0.00000E+00
    0.42987E-07        -0.79761E-10         0.00000E+00
    0.42973E-07        -0.77645E-10         0.00000E+00
    0.42958E-07        -0.75118E-10         0.00000E+00
    0.42943E-07        -0.72196E-10         0.00000E+00
    0.42929E-07        -0.68893E-10         0.00000E+00
    0.42915E-07        -0.65233E-10         0.00000E+00
    0.42901E-07        -0.61240E-10         0.00000E+00
    0.42887E-07        -0.56947E-10         0.00000E+00
    0.42874E-07        -0.52391E-10         0.00000E+00
    0.42861E-07        -0.47614E-10         0.00000E+00
    0.42848E-07        -0.42667E-10         0.00000E+00
    0.42837E-07        -0.37607E-10         0.00000E+00
    0.42825E-07        -0.32497E-10         0.00000E+00
    0.42815E-07        -0.27410E-10         0.00000E+00
    0.42805E-07        -0.22424E-10         0.00000E+00
    0.42796E-07        -0.17625E-10         0.00000E+00
    0.42788E-07        -0.13108E-10         0.00000E+00
    0.42780E-07        -0.89699E-11         0.00000E+00
    0.42774E-07        -0.53174E-11         0.00000E+00
    0.42769E-07        -0.22607E-11         0.00000E+00
    0.42764E-07         0.82738E-13         0.00000E+00
    0.42761E-07         0.15888E-11         0.00000E+00
    0.42758E-07         0.21357E-11         0.00000E+00
    0.42757E-07         0.16127E-11         0.00000E+00
    0.42756E-07         0.10705E-11         0.00000E+00
    0.42261E-07        -0.54375E-12         0.00000E+00
    0.42260E-07        -0.11480E-11         0.00000E+00
    0.42259E-07        -0.24311E-11         0.00000E+00
    0.42256E-07        -0.38431E-11         0.00000E+00
    0.42253E-07        -0.53451E-11         0.00000E+00
    0.42249E-07        -0.69010E-11         0.00000E+00
    0.42244E-07        -0.84777E-11         0.00000E+00
    0.42238E-07        -0.10045E-10         0.00000E+00
    0.42232E-07        -0.11574E-10         0.00000E+00
    0.42225E-07        -0.13040E-10         0.00000E+00
    0.42217E-07        -0.14420E-10         0.00000E+00
    0.42209E-07        -0.15691E-10         0.00000E+00
    0.42201E-07        -0.16835E-10         0.00000E+00
    0.42191E-07        -0.17833E-10         0.00000E+00
    0.42182E-07        -0.18670E-10         0.00000E+00
    0.42172E-07        -0.19333E-10         0.00000E+00
    0.42161E-07        -0.19808E-10         0.00000E+00
    0.42150E-07        -0.20085E-10         0.00000E+00
    0.42139E-07        -0.20156E-10         0.00000E+00
    0.42128E-07        -0.20014E-10         0.00000E+00
    0.42116E-07        -0.19655E-10         0.00000E+00
    0.42104E-07        -0.19074E-10         0.00000E+00
    0.42092E-07        -0.18272E-10         0.00000E+00
    0.42080E-07        -0.17250E-10         0.00000E+00
    0.42068E-07        -0.16012E-10         0.00000E+00
    0.42056E-07        -0.14564E-10         0.00000E+00
    0.42044E-07        -0.12916E-10         0.00000E+00
    0.42032E-07        -0.11078E-10         0.00000E+00
    0.42020E-07        -0.90657E-11         0.00000E+00
    0.42008E-07        -0.68977E-11         0.00000E+00
    0.41996E-07        -0.45954E-11         0.00000E+00
    0.41985E-07        -0.21842E-11         0.00000E+00
    0.41973E-07         0.30674E-12         0.00000E+00
    0.41962E-07         0.28440E-11         0.00000E+00
    0.41952E-07         0.53900E-11         0.00000E+00
    0.41942E-07         0.79027E-11         0.00000E+00
    0.41932E-07         0.10336E-10         0.00000E+00
    0.41923E-07         0.12638E-10         0.00000E+00
    0.41914E-07         0.14754E-10         0.00000E+00
    0.41906E-07         0.16623E-10         0.00000E+00
    0.41899E-07         0.18181E-10         0.00000E+00
    0.41892E-07         0.19360E-10         0.00000E+00
    0.41886E-07         0.20086E-10         0.00000E+00
    0.41880E-07         0.20284E-10         0.00000E+00
    0.41875E-07         0.19873E-10         0.00000E+00
    0.41871E-07         0.18770E-10         0.00000E+00
    0.41868E-07         0.16893E-10         0.00000E+00
    0.41866E-07         0.14155E-10         0.00000E+00
    0.41864E-07         0.10470E-10         0.00000E+00
    0.41863E-07         0.57465E-11         0.00000E+00
    0.41862E-07         0.31135E-11         0.00000E+00
    0.41299E-07         0.17795E-11         0.00000E+00
    0.41299E-07         0.34217E-11         0.00000E+00
    0.41297E-07         0.65184E-11         0.00000E+00
    0.41295E-07         0.92629E-11         0.00000E+00
    0.41293E-07         0.11700E-10         0.00000E+00
    0.41289E-07         0.13870E-10         0.00000E+00
    0.41285E-07         0.15811E-10         0.00000E+00
    0.41280E-07         0.17558E-10         0.00000E+00
    0.41275E-07         0.19143E-10         0.00000E+00
    0.41269E-07         0.20595E-10         0.00000E+00
    0.41263E-07         0.21940E-10         0.00000E+00
    0.41256E-07         0.23203E-10         0.00000E+00
    0.41248E-07         0.24405E-10         0.00000E+00
    0.41241E-07         0.25566E-10         0.00000E+00
    0.41233E-07         0.26702E-10         0.00000E+00
    0.41224E-07         0.27829E-10         0.00000E+00
    0.41215E-07         0.28959E-10         0.00000E+00
    0.41206E-07         0.30102E-10         0.00000E+00
    0.41197E-07         0.31268E-10         0.00000E+00
    0.41188E-07         0.32462E-10         0.00000E+00
    0.41178E-07         0.33689E-10         0.00000E+00
    0.41168E-07         0.34950E-10         0.00000E+00
    0.41158E-07         0.36245E-10         0.00000E+00
    0.41148E-07         0.37570E-10         0.00000E+00
    0.41139E-07         0.38921E-10         0.00000E+00
    0.41129E-07         0.40290E-10         0.00000E+00
    0.41119E-07         0.41667E-10         0.00000E+00
    0.41109E-07         0.43038E-10         0.00000E+00
    0.41099E-07         0.44389E-10         0.00000E+00
    0.41090E-07         0.45699E-10         0.00000E+00
    0.41080E-07         0.46949E-10         0.00000E+00
    0.41071E-07         0.48113E-10         0.00000E+00
    0.41062E-07         0.49165E-10         0.00000E+00
    0.41054E-07         0.50073E-10         0.00000E+00
    0.41046E-07         0.50804E-10         0.00000E+00
    0.41038E-07         0.51322E-10         0.00000E+00
    0.41030E-07         0.51585E-10         0.00000E+00
    0.41023E-07         0.51553E-10         0.00000E+00
    0.41016E-07         0.51178E-10         0.00000E+00
    0.41010E-07         0.50411E-10         0.00000E+00
    0.41005E-07         0.49202E-10         0.00000E+00
    0.40999E-07         0.47496E-10         0.00000E+00
    0.40995E-07         0.45237E-10         0.00000E+00
    0.40990E-07         0.42365E-10         0.00000E+00
    0.40987E-07         0.38821E-10         0.00000E+00
    0.40984E-07         0.34543E-10         0.00000E+00
    0.40981E-07         0.29467E-10         0.00000E+00
    0.40979E-07         0.23530E-10         0.00000E+00
    0.40978E-07         0.16667E-10         0.00000E+00
    0.40977E-07         0.88137E-11         0.00000E+00
    0.40977E-07         0.46321E-11         0.00000E+00
    0.40358E-07         0.36938E-11         0.00000E+00
    0.40358E-07         0.71905E-11         0.00000E+00
    0.40357E-07         0.13907E-10         0.00000E+00
    0.40355E-07         0.20094E-10         0.00000E+00
    0.40353E-07         0.25796E-10         0.00000E+00
    0.40350E-07         0.31058E-10         0.00000E+00
    0.40347E-07         0.35917E-10         0.00000E+00
    0.40343E-07         0.40411E-10         0.00000E+00
    0.40339E-07         0.44573E-10         0.00000E+00
    0.40334E-07         0.48433E-10         0.00000E+00
    0.40329E-07         0.52019E-10         0.00000E+00
    0.40323E-07         0.55357E-10         0.00000E+00
    0.40317E-07         0.58468E-10         0.00000E+00
    0.40311E-07         0.61373E-10         0.00000E+00
    0.40304E-07         0.64090E-10         0.00000E+00
    0.40297E-07         0.66635E-10         0.00000E+00
    0.40290E-07         0.69020E-10         0.00000E+00
    0.40283E-07         0.71256E-10         0.00000E+00
    0.40275E-07         0.73353E-10         0.00000E+00
    0.40268E-07         0.75316E-10         0.00000E+00
    0.40260E-07         0.77149E-10         0.00000E+00
    0.40252E-07         0.78855E-10         0.00000E+00
    0.40244E-07         0.80433E-10         0.00000E+00
    0.40236E-07         0.81881E-10         0.00000E+00
    0.40228E-07         0.83193E-10         0.00000E+00
    0.40220E-07         0.84363E-10         0.00000E+00
    0.40213E-07         0.85382E-10         0.00000E+00
    0.40205E-07         0.86237E-10         0.00000E+00
    0.40197E-07         0.86914E-10         0.00000E+00
    0.40190E-07         0.87396E-10         0.00000E+00
    0.40182E-07         0.87666E-10         0.00000E+00
    0.40175E-07         0.87702E-10         0.00000E+00
    0.40168E-07         0.87480E-10         0.00000E+00
    0.40162E-07         0.86974E-10         0.00000E+00
    0.40155E-07         0.86156E-10         0.00000E+00
    0.40149E-07         0.84995E-10         0.00000E+00
    0.40143E-07         0.83459E-10         0.00000E+00
    0.40138E-07         0.81513E-10         0.00000E+00
    0.40133E-07         0.79119E-10         0.00000E+00
    0.40128E-07         0.76240E-10         0.00000E+00
    0.40124E-07         0.72833E-10         0.00000E+00
    0.40120E-07         0.68858E-10         0.00000E+00
    0.40116E-07         0.64270E-10         0.00000E+00
    0.40113E-07         0.59024E-10         0.00000E+00
    0.40111E-07         0.53073E-10         0.00000E+00
    0.40108E-07         0.46372E-10         0.00000E+00
    0.40106E-07         0.38871E-10         0.00000E+00
    0.40105E-07         0.30523E-10         0.00000E+00
    0.40104E-07         0.21279E-10         0.00000E+00
    0.40103E-07         0.11092E-10         0.00000E+00
    0.40103E-07         0.57566E-11         0.00000E+00
    0.39440E-07         0.52113E-11         0.00000E+00
    0.39440E-07         0.10182E-10         0.00000E+00
    0.39439E-07         0.19780E-10         0.00000E+00
    0.39438E-07         0.28716E-10         0.00000E+00
    0.39436E-07         0.37034E-10         0.00000E+00
    0.39434E-07         0.44775E-10         0.00000E+00
    0.39431E-07         0.51978E-10         0.00000E+00
    0.39428E-07         0.58679E-10         0.00000E+00
    0.39425E-07         0.64911E-10         0.00000E+00
    0.39421E-07         0.70704E-10         0.00000E+00
    0.39417E-07         0.76085E-10         0.00000E+00
    0.39413E-07         0.81079E-10         0.00000E+00
    0.39408E-07         0.85710E-10         0.00000E+00
    0.39403E-07         0.89997E-10         0.00000E+00
    0.39398E-07         0.93958E-10         0.00000E+00
    0.39392E-07         0.97610E-10         0.00000E+00
    0.39387E-07         0.10096E-09         0.00000E+00
    0.39381E-07         0.10403E-09         0.00000E+00
    0.39375E-07         0.10683E-09         0.00000E+00
    0.39369E-07         0.10935E-09         0.00000E+00
    0.39363E-07         0.11161E-09         0.00000E+00
    0.39357E-07         0.11361E-09         0.00000E+00
    0.39351E-07         0.11534E-09         0.00000E+00
    0.39345E-07         0.11681E-09         0.00000E+00
    0.39339E-07         0.11802E-09         0.00000E+00
    0.39333E-07         0.11895E-09         0.00000E+00
    0.39326E-07         0.11961E-09         0.00000E+00
    0.39320E-07         0.11997E-09         0.00000E+00
    0.39315E-07         0.12004E-09         0.00000E+00
    0.39309E-07         0.11979E-09         0.00000E+00
    0.39303E-07         0.11921E-09         0.00000E+00
    0.39298E-07         0.11829E-09         0.00000E+00
    0.39292E-07         0.11699E-09         0.00000E+00
    0.39287E-07         0.11531E-09         0.00000E+00
    0.39283E-07         0.11323E-09         0.00000E+00
    0.39278E-07         0.11070E-09         0.00000E+00
    0.39274E-07         0.10772E-09         0.00000E+00
    0.39270E-07         0.10425E-09         0.00000E+00
    0.39266E-07         0.10026E-09         0.00000E+00
    0.39262E-07         0.95718E-10         0.00000E+00
    0.39259E-07         0.90600E-10         0.00000E+00
    0.39256E-07         0.84869E-10         0.00000E+00
    0.39253E-07         0.78492E-10         0.00000E+00
    0.39251E-07         0.71433E-10         0.00000E+00
    0.39249E-07         0.63658E-10         0.00000E+00
    0.39247E-07         0.55129E-10         0.00000E+00
    0.39246E-07         0.45812E-10         0.00000E+00
    0.39245E-07         0.35668E-10         0.00000E+00
    0.39244E-07         0.24663E-10         0.00000E+00
    0.39244E-07         0.12758E-10         0.00000E+00
    0.39244E-07         0.65770E-11         0.00000E+00
    0.38548E-07         0.63627E-11         0.00000E+00
    0.38548E-07         0.12456E-10         0.00000E+00
    0.38547E-07         0.24254E-10         0.00000E+00
    0.38546E-07         0.35297E-10         0.00000E+00
    0.38545E-07         0.45627E-10         0.00000E+00
    0.38543E-07         0.55283E-10         0.00000E+00
    0.38541E-07         0.64300E-10         0.00000E+00
    0.38539E-07         0.72713E-10         0.00000E+00
    0.38536E-07         0.80551E-10         0.00000E+00
    0.38534E-07         0.87845E-10         0.00000E+00
    0.38530E-07         0.94620E-10         0.00000E+00
    0.38527E-07         0.10090E-09         0.00000E+00
    0.38524E-07         0.10671E-09         0.00000E+00
    0.38520E-07         0.11206E-09         0.00000E+00
    0.38516E-07         0.11698E-09         0.00000E+00
    0.38512E-07         0.12148E-09         0.00000E+00
    0.38508E-07         0.12557E-09         0.00000E+00
    0.38503E-07         0.12926E-09         0.00000E+00
    0.38499E-07         0.13257E-09         0.00000E+00
    0.38494E-07         0.13550E-09         0.00000E+00
    0.38490E-07         0.13806E-09         0.00000E+00
    0.38485E-07         0.14025E-09         0.00000E+00
    0.38481E-07         0.14207E-09         0.00000E+00
    0.38476E-07         0.14352E-09         0.00000E+00
    0.38471E-07         0.14460E-09         0.00000E+00
    0.38467E-07         0.14531E-09         0.00000E+00
    0.38462E-07         0.14563E-09         0.00000E+00
    0.38458E-07         0.14558E-09         0.00000E+00
    0.38453E-07         0.14512E-09         0.00000E+00
    0.38449E-07         0.14426E-09         0.00000E+00
    0.38445E-07         0.14299E-09         0.00000E+00
    0.38441E-07         0.14128E-09         0.00000E+00
    0.38437E-07         0.13913E-09         0.00000E+00
    0.38433E-07         0.13651E-09         0.00000E+00
    0.38430E-07         0.13342E-09         0.00000E+00
    0.38426E-07         0.12983E-09         0.00000E+00
    0.38423E-07         0.12571E-09         0.00000E+00
    0.38420E-07         0.12106E-09         0.00000E+00
    0.38417E-07         0.11584E-09         0.00000E+00
    0.38415E-07         0.11003E-09         0.00000E+00
    0.38412E-07         0.10361E-09         0.00000E+00
    0.38410E-07         0.96557E-10         0.00000E+00
    0.38408E-07         0.88838E-10         0.00000E+00
    0.38407E-07         0.80428E-10         0.00000E+00
    0.38405E-07         0.71301E-10         0.00000E+00
    0.38404E-07         0.61428E-10         0.00000E+00
    0.38403E-07         0.50784E-10         0.00000E+00
    0.38403E-07         0.39339E-10         0.00000E+00
    0.38402E-07         0.27065E-10         0.00000E+00
    0.38402E-07         0.13936E-10         0.00000E+00
    0.38402E-07         0.71544E-11         0.00000E+00
    0.37683E-07         0.71889E-11         0.00000E+00
    0.37683E-07         0.14091E-10         0.00000E+00
    0.37683E-07         0.27480E-10         0.00000E+00
    0.37682E-07         0.40059E-10         0.00000E+00
    0.37681E-07         0.51862E-10         0.00000E+00
    0.37680E-07         0.62927E-10         0.00000E+00
    0.37679E-07         0.73285E-10         0.00000E+00
    0.37677E-07         0.82966E-10         0.00000E+00
    0.37675E-07         0.92000E-10         0.00000E+00
    0.37673E-07         0.10041E-09         0.00000E+00
    0.37671E-07         0.10823E-09         0.00000E+00
    0.37669E-07         0.11547E-09         0.00000E+00
    0.37666E-07         0.12215E-09         0.00000E+00
    0.37663E-07         0.12830E-09         0.00000E+00
    0.37661E-07         0.13393E-09         0.00000E+00
    0.37658E-07         0.13906E-09         0.00000E+00
    0.37655E-07         0.14370E-09         0.00000E+00
    0.37651E-07         0.14785E-09         0.00000E+00
    0.37648E-07         0.15153E-09         0.00000E+00
    0.37645E-07         0.15475E-09         0.00000E+00
    0.37642E-07         0.15752E-09         0.00000E+00
    0.37638E-07         0.15983E-09         0.00000E+00
    0.37635E-07         0.16169E-09         0.00000E+00
    0.37632E-07         0.16310E-09         0.00000E+00
    0.37629E-07         0.16406E-09         0.00000E+00
    0.37625E-07         0.16457E-09         0.00000E+00
    0.37622E-07         0.16463E-09         0.00000E+00
    0.37619E-07         0.16423E-09         0.00000E+00
    0.37616E-07         0.16336E-09         0.00000E+00
    0.37613E-07         0.16202E-09         0.00000E+00
    0.37610E-07         0.16020E-09         0.00000E+00
    0.37607E-07         0.15788E-09         0.00000E+00
    0.37604E-07         0.15507E-09         0.00000E+00
    0.37602E-07         0.15174E-09         0.00000E+00
    0.37599E-07         0.14788E-09         0.00000E+00
    0.37597E-07         0.14347E-09         0.00000E+00
    0.37595E-07         0.13851E-09         0.00000E+00
    0.37593E-07         0.13297E-09         0.00000E+00
    0.37591E-07         0.12684E-09         0.00000E+00
    0.37589E-07         0.12010E-09         0.00000E+00
    0.37587E-07         0.11273E-09         0.00000E+00
    0.37586E-07         0.10470E-09         0.00000E+00
    0.37585E-07         0.96014E-10         0.00000E+00
    0.37584E-07         0.86635E-10         0.00000E+00
    0.37583E-07         0.76546E-10         0.00000E+00
    0.37582E-07         0.65726E-10         0.00000E+00
    0.37581E-07         0.54154E-10         0.00000E+00
    0.37581E-07         0.41809E-10         0.00000E+00
    0.37580E-07         0.28671E-10         0.00000E+00
    0.37580E-07         0.14717E-10         0.00000E+00
    0.37580E-07         0.75345E-11         0.00000E+00
    0.36849E-07         0.77347E-11         0.00000E+00
    0.36849E-07         0.15176E-10         0.00000E+00
    0.36849E-07         0.29630E-10         0.00000E+00
    0.36848E-07         0.43246E-10         0.00000E+00
    0.36848E-07         0.56054E-10         0.00000E+00
    0.36847E-07         0.68087E-10         0.00000E+00
    0.36846E-07         0.79372E-10         0.00000E+00
    0.36845E-07         0.89937E-10         0.00000E+00
    0.36844E-07         0.99807E-10         0.00000E+00
    0.36842E-07         0.10901E-09         0.00000E+00
    0.36841E-07         0.11755E-09         0.00000E+00
    0.36839E-07         0.12547E-09         0.00000E+00
    0.36838E-07         0.13278E-09         0.00000E+00
    0.36836E-07         0.13949E-09         0.00000E+00
    0.36834E-07         0.14563E-09         0.00000E+00
    0.36832E-07         0.15120E-09         0.00000E+00
    0.36830E-07         0.15622E-09         0.00000E+00
    0.36828E-07         0.16069E-09         0.00000E+00
    0.36826E-07         0.16464E-09         0.00000E+00
    0.36824E-07         0.16805E-09         0.00000E+00
    0.36822E-07         0.17095E-09         0.00000E+00
    0.36820E-07         0.17334E-09         0.00000E+00
    0.36817E-07         0.17522E-09         0.00000E+00
    0.36815E-07         0.17659E-09         0.00000E+00
    0.36813E-07         0.17745E-09         0.00000E+00
    0.36811E-07         0.17780E-09         0.00000E+00
    0.36809E-07         0.17765E-09         0.00000E+00
    0.36807E-07         0.17698E-09         0.00000E+00
    0.36805E-07         0.17580E-09         0.00000E+00
    0.36803E-07         0.17410E-09         0.00000E+00
    0.36801E-07         0.17187E-09         0.00000E+00
    0.36799E-07         0.16911E-09         0.00000E+00
    0.36797E-07         0.16581E-09         0.00000E+00
    0.36795E-07         0.16196E-09         0.00000E+00
    0.36794E-07         0.15754E-09         0.00000E+00
    0.36792E-07         0.15255E-09         0.00000E+00
    0.36791E-07         0.14698E-09         0.00000E+00
    0.36790E-07         0.14082E-09         0.00000E+00
    0.36789E-07         0.13404E-09         0.00000E+00
    0.36788E-07         0.12664E-09         0.00000E+00
    0.36787E-07         0.11861E-09         0.00000E+00
    0.36786E-07         0.10993E-09         0.00000E+00
    0.36785E-07         0.10058E-09         0.00000E+00
    0.36784E-07         0.90545E-10         0.00000E+00
    0.36784E-07         0.79817E-10         0.00000E+00
    0.36783E-07         0.68376E-10         0.00000E+00
    0.36783E-07         0.56207E-10         0.00000E+00
    0.36783E-07         0.43294E-10         0.00000E+00
    0.36783E-07         0.29621E-10         0.00000E+00
    0.36782E-07         0.15172E-10         0.00000E+00
    0.36782E-07         0.77523E-11         0.00000E+00
    0.36048E-07         0.80450E-11         0.00000E+00
    0.36048E-07         0.15797E-10         0.00000E+00
    0.36047E-07         0.30872E-10         0.00000E+00
    0.36047E-07         0.45104E-10         0.00000E+00
    0.36047E-07         0.58520E-10         0.00000E+00
    0.36047E-07         0.71146E-10         0.00000E+00
    0.36046E-07         0.83007E-10         0.00000E+00
    0.36045E-07         0.94126E-10         0.00000E+00
    0.36045E-07         0.10452E-09         0.00000E+00
    0.36044E-07         0.11422E-09         0.00000E+00
    0.36043E-07         0.12324E-09         0.00000E+00
    0.36042E-07         0.13160E-09         0.00000E+00
    0.36042E-07         0.13931E-09         0.00000E+00
    0.36041E-07         0.14639E-09         0.00000E+00
    0.36039E-07         0.15285E-09         0.00000E+00
    0.36038E-07         0.15871E-09         0.00000E+00
    0.36037E-07         0.16398E-09         0.00000E+00
    0.36036E-07         0.16866E-09         0.00000E+00
    0.36035E-07         0.17277E-09         0.00000E+00
    0.36034E-07         0.17631E-09         0.00000E+00
    0.36032E-07         0.17930E-09         0.00000E+00
    0.36031E-07         0.18172E-09         0.00000E+00
    0.36030E-07         0.18360E-09         0.00000E+00
    0.36029E-07         0.18493E-09         0.00000E+00
    0.36027E-07         0.18571E-09         0.00000E+00
    0.36026E-07         0.18595E-09         0.00000E+00
    0.36025E-07         0.18564E-09         0.00000E+00
    0.36024E-07         0.18479E-09         0.00000E+00
    0.36023E-07         0.18338E-09         0.00000E+00
    0.36022E-07         0.18143E-09         0.00000E+00
    0.36021E-07         0.17892E-09         0.00000E+00
    0.36020E-07         0.17585E-09         0.00000E+00
    0.36019E-07         0.17221E-09         0.00000E+00
    0.36018E-07         0.16800E-09         0.00000E+00
    0.36017E-07         0.16321E-09         0.00000E+00
    0.36016E-07         0.15784E-09         0.00000E+00
    0.36015E-07         0.15186E-09         0.00000E+00
    0.36015E-07         0.14529E-09         0.00000E+00
    0.36014E-07         0.13809E-09         0.00000E+00
    0.36014E-07         0.13028E-09         0.00000E+00
    0.36013E-07         0.12183E-09         0.00000E+00
    0.36013E-07         0.11273E-09         0.00000E+00
    0.36012E-07         0.10298E-09         0.00000E+00
    0.36012E-07         0.92558E-10         0.00000E+00
    0.36012E-07         0.81458E-10         0.00000E+00
    0.36012E-07         0.69667E-10         0.00000E+00
    0.36012E-07         0.57174E-10         0.00000E+00
    0.36012E-07         0.43965E-10         0.00000E+00
    0.36012E-07         0.30031E-10         0.00000E+00
    0.36012E-07         0.15358E-10         0.00000E+00
    0.36012E-07         0.78362E-11         0.00000E+00
    0.35282E-07         0.81618E-11         0.00000E+00
    0.35282E-07         0.16037E-10         0.00000E+00
    0.35282E-07         0.31367E-10         0.00000E+00
    0.35282E-07         0.45866E-10         0.00000E+00
    0.35281E-07         0.59559E-10         0.00000E+00
    0.35281E-07         0.72466E-10         0.00000E+00
    0.35281E-07         0.84608E-10         0.00000E+00
    0.35281E-07         0.96005E-10         0.00000E+00
    0.35281E-07         0.10668E-09         0.00000E+00
    0.35281E-07         0.11664E-09         0.00000E+00
    0.35280E-07         0.12591E-09         0.00000E+00
    0.35280E-07         0.13450E-09         0.00000E+00
    0.35280E-07         0.14243E-09         0.00000E+00
    0.35279E-07         0.14971E-09         0.00000E+00
    0.35279E-07         0.15635E-09         0.00000E+00
    0.35279E-07         0.16237E-09         0.00000E+00
    0.35278E-07         0.16777E-09         0.00000E+00
    0.35278E-07         0.17256E-09         0.00000E+00
    0.35277E-07         0.17676E-09         0.00000E+00
    0.35277E-07         0.18037E-09         0.00000E+00
    0.35276E-07         0.18339E-09         0.00000E+00
    0.35276E-07         0.18583E-09         0.00000E+00
    0.35275E-07         0.18769E-09         0.00000E+00
    0.35275E-07         0.18898E-09         0.00000E+00
    0.35274E-07         0.18971E-09         0.00000E+00
    0.35274E-07         0.18986E-09         0.00000E+00
    0.35274E-07         0.18945E-09         0.00000E+00
    0.35273E-07         0.18847E-09         0.00000E+00
    0.35273E-07         0.18693E-09         0.00000E+00
    0.35272E-07         0.18481E-09         0.00000E+00
    0.35272E-07         0.18212E-09         0.00000E+00
    0.35272E-07         0.17886E-09         0.00000E+00
    0.35271E-07         0.17502E-09         0.00000E+00
    0.35271E-07         0.17059E-09         0.00000E+00
    0.35271E-07         0.16558E-09         0.00000E+00
    0.35271E-07         0.15998E-09         0.00000E+00
    0.35271E-07         0.15377E-09         0.00000E+00
    0.35271E-07         0.14697E-09         0.00000E+00
    0.35270E-07         0.13955E-09         0.00000E+00
    0.35270E-07         0.13151E-09         0.00000E+00
    0.35270E-07         0.12284E-09         0.00000E+00
    0.35270E-07         0.11354E-09         0.00000E+00
    0.35270E-07         0.10360E-09         0.00000E+00
    0.35270E-07         0.93008E-10         0.00000E+00
    0.35270E-07         0.81757E-10         0.00000E+00
    0.35271E-07         0.69839E-10         0.00000E+00
    0.35271E-07         0.57245E-10         0.00000E+00
    0.35271E-07         0.43967E-10         0.00000E+00
    0.35271E-07         0.29995E-10         0.00000E+00
    0.35271E-07         0.15323E-10         0.00000E+00
    0.35271E-07         0.78098E-11         0.00000E+00
    0.34553E-07         0.81233E-11         0.00000E+00
    0.34553E-07         0.15971E-10         0.00000E+00
    0.34553E-07         0.31259E-10         0.00000E+00
    0.34554E-07         0.45744E-10         0.00000E+00
    0.34554E-07         0.59444E-10         0.00000E+00
    0.34554E-07         0.72376E-10         0.00000E+00
    0.34554E-07         0.84558E-10         0.00000E+00
    0.34554E-07         0.96007E-10         0.00000E+00
    0.34554E-07         0.10674E-09         0.00000E+00
    0.34554E-07         0.11676E-09         0.00000E+00
    0.34554E-07         0.12610E-09         0.00000E+00
    0.34555E-07         0.13476E-09         0.00000E+00
    0.34555E-07         0.14275E-09         0.00000E+00
    0.34555E-07         0.15009E-09         0.00000E+00
    0.34555E-07         0.15679E-09         0.00000E+00
    0.34555E-07         0.16286E-09         0.00000E+00
    0.34555E-07         0.16830E-09         0.00000E+00
    0.34556E-07         0.17313E-09         0.00000E+00
    0.34556E-07         0.17735E-09         0.00000E+00
    0.34556E-07         0.18096E-09         0.00000E+00
    0.34556E-07         0.18398E-09         0.00000E+00
    0.34556E-07         0.18641E-09         0.00000E+00
    0.34556E-07         0.18826E-09         0.00000E+00
    0.34557E-07         0.18952E-09         0.00000E+00
    0.34557E-07         0.19020E-09         0.00000E+00
    0.34557E-07         0.19030E-09         0.00000E+00
    0.34557E-07         0.18982E-09         0.00000E+00
    0.34557E-07         0.18877E-09         0.00000E+00
    0.34558E-07         0.18715E-09         0.00000E+00
    0.34558E-07         0.18494E-09         0.00000E+00
    0.34558E-07         0.18217E-09         0.00000E+00
    0.34558E-07         0.17881E-09         0.00000E+00
    0.34559E-07         0.17487E-09         0.00000E+00
    0.34559E-07         0.17035E-09         0.00000E+00
    0.34559E-07         0.16524E-09         0.00000E+00
    0.34559E-07         0.15954E-09         0.00000E+00
    0.34560E-07         0.15325E-09         0.00000E+00
    0.34560E-07         0.14636E-09         0.00000E+00
    0.34560E-07         0.13886E-09         0.00000E+00
    0.34561E-07         0.13076E-09         0.00000E+00
    0.34561E-07         0.12205E-09         0.00000E+00
    0.34561E-07         0.11272E-09         0.00000E+00
    0.34562E-07         0.10276E-09         0.00000E+00
    0.34562E-07         0.92178E-10         0.00000E+00
    0.34562E-07         0.80957E-10         0.00000E+00
    0.34562E-07         0.69094E-10         0.00000E+00
    0.34563E-07         0.56583E-10         0.00000E+00
    0.34563E-07         0.43419E-10         0.00000E+00
    0.34563E-07         0.29595E-10         0.00000E+00
    0.34563E-07         0.15105E-10         0.00000E+00
    0.34563E-07         0.76930E-11         0.00000E+00
    0.33865E-07         0.79629E-11         0.00000E+00
    0.33865E-07         0.15664E-10         0.00000E+00
    0.33865E-07         0.30677E-10         0.00000E+00
    0.33865E-07         0.44923E-10         0.00000E+00
    0.33866E-07         0.58415E-10         0.00000E+00
    0.33866E-07         0.71169E-10         0.00000E+00
    0.33866E-07         0.83198E-10         0.00000E+00
    0.33867E-07         0.94515E-10         0.00000E+00
    0.33867E-07         0.10513E-09         0.00000E+00
    0.33868E-07         0.11506E-09         0.00000E+00
    0.33868E-07         0.12432E-09         0.00000E+00
    0.33869E-07         0.13291E-09         0.00000E+00
    0.33869E-07         0.14084E-09         0.00000E+00
    0.33870E-07         0.14813E-09         0.00000E+00
    0.33870E-07         0.15478E-09         0.00000E+00
    0.33871E-07         0.16081E-09         0.00000E+00
    0.33872E-07         0.16621E-09         0.00000E+00
    0.33872E-07         0.17100E-09         0.00000E+00
    0.33873E-07         0.17519E-09         0.00000E+00
    0.33873E-07         0.17877E-09         0.00000E+00
    0.33874E-07         0.18176E-09         0.00000E+00
    0.33875E-07         0.18416E-09         0.00000E+00
    0.33876E-07         0.18597E-09         0.00000E+00
    0.33876E-07         0.18720E-09         0.00000E+00
    0.33877E-07         0.18785E-09         0.00000E+00
    0.33878E-07         0.18792E-09         0.00000E+00
    0.33878E-07         0.18741E-09         0.00000E+00
    0.33879E-07         0.18633E-09         0.00000E+00
    0.33880E-07         0.18468E-09         0.00000E+00
    0.33880E-07         0.18245E-09         0.00000E+00
    0.33881E-07         0.17965E-09         0.00000E+00
    0.33882E-07         0.17628E-09         0.00000E+00
    0.33883E-07         0.17233E-09         0.00000E+00
    0.33883E-07         0.16780E-09         0.00000E+00
    0.33884E-07         0.16270E-09         0.00000E+00
    0.33885E-07         0.15701E-09         0.00000E+00
    0.33885E-07         0.15075E-09         0.00000E+00
    0.33886E-07         0.14390E-09         0.00000E+00
    0.33887E-07         0.13646E-09         0.00000E+00
    0.33887E-07         0.12842E-09         0.00000E+00
    0.33888E-07         0.11980E-09         0.00000E+00
    0.33888E-07         0.11057E-09         0.00000E+00
    0.33889E-07         0.10074E-09         0.00000E+00
    0.33889E-07         0.90308E-10         0.00000E+00
    0.33890E-07         0.79264E-10         0.00000E+00
    0.33890E-07         0.67605E-10         0.00000E+00
    0.33890E-07         0.55327E-10         0.00000E+00
    0.33891E-07         0.42426E-10         0.00000E+00
    0.33891E-07         0.28899E-10         0.00000E+00
    0.33891E-07         0.14740E-10         0.00000E+00
    0.33891E-07         0.75027E-11         0.00000E+00
    0.33219E-07         0.77094E-11         0.00000E+00
    0.33219E-07         0.15172E-10         0.00000E+00
    0.33219E-07         0.29731E-10         0.00000E+00
    0.33219E-07         0.43564E-10         0.00000E+00
    0.33220E-07         0.56683E-10         0.00000E+00
    0.33220E-07         0.69099E-10         0.00000E+00
    0.33221E-07         0.80821E-10         0.00000E+00
    0.33221E-07         0.91862E-10         0.00000E+00
    0.33222E-07         0.10223E-09         0.00000E+00
    0.33223E-07         0.11194E-09         0.00000E+00
    0.33223E-07         0.12099E-09         0.00000E+00
    0.33224E-07         0.12940E-09         0.00000E+00
    0.33225E-07         0.13717E-09         0.00000E+00
    0.33226E-07         0.14431E-09         0.00000E+00
    0.33227E-07         0.15084E-09         0.00000E+00
    0.33228E-07         0.15675E-09         0.00000E+00
    0.33229E-07         0.16205E-09         0.00000E+00
    0.33230E-07         0.16675E-09         0.00000E+00
    0.33231E-07         0.17086E-09         0.00000E+00
    0.33232E-07         0.17437E-09         0.00000E+00
    0.33233E-07         0.17730E-09         0.00000E+00
    0.33234E-07         0.17965E-09         0.00000E+00
    0.33235E-07         0.18142E-09         0.00000E+00
    0.33236E-07         0.18262E-09         0.00000E+00
    0.33237E-07         0.18324E-09         0.00000E+00
    0.33238E-07         0.18330E-09         0.00000E+00
    0.33239E-07         0.18279E-09         0.00000E+00
    0.33241E-07         0.18171E-09         0.00000E+00
    0.33242E-07         0.18007E-09         0.00000E+00
    0.33243E-07         0.17787E-09         0.00000E+00
    0.33244E-07         0.17510E-09         0.00000E+00
    0.33245E-07         0.17177E-09         0.00000E+00
    0.33246E-07         0.16788E-09         0.00000E+00
    0.33247E-07         0.16342E-09         0.00000E+00
    0.33248E-07         0.15840E-09         0.00000E+00
    0.33249E-07         0.15282E-09         0.00000E+00
    0.33250E-07         0.14667E-09         0.00000E+00
    0.33251E-07         0.13995E-09         0.00000E+00
    0.33252E-07         0.13266E-09         0.00000E+00
    0.33253E-07         0.12480E-09         0.00000E+00
    0.33253E-07         0.11637E-09         0.00000E+00
    0.33254E-07         0.10736E-09         0.00000E+00
    0.33255E-07         0.97776E-10         0.00000E+00
    0.33255E-07         0.87608E-10         0.00000E+00
    0.33256E-07         0.76857E-10         0.00000E+00
    0.33256E-07         0.65519E-10         0.00000E+00
    0.33257E-07         0.53594E-10         0.00000E+00
    0.33257E-07         0.41076E-10         0.00000E+00
    0.33258E-07         0.27965E-10         0.00000E+00
    0.33258E-07         0.14257E-10         0.00000E+00
    0.33258E-07         0.72536E-11         0.00000E+00
    0.32617E-07         0.73870E-11         0.00000E+00
    0.32617E-07         0.14544E-10         0.00000E+00
    0.32617E-07         0.28514E-10         0.00000E+00
    0.32617E-07         0.41805E-10         0.00000E+00
    0.32618E-07         0.54423E-10         0.00000E+00
    0.32618E-07         0.66379E-10         0.00000E+00
    0.32619E-07         0.77679E-10         0.00000E+00
    0.32620E-07         0.88332E-10         0.00000E+00
    0.32620E-07         0.98346E-10         0.00000E+00
    0.32621E-07         0.10773E-09         0.00000E+00
    0.32622E-07         0.11649E-09         0.00000E+00
    0.32623E-07         0.12463E-09         0.00000E+00
    0.32624E-07         0.13216E-09         0.00000E+00
    0.32625E-07         0.13908E-09         0.00000E+00
    0.32627E-07         0.14541E-09         0.00000E+00
    0.32628E-07         0.15115E-09         0.00000E+00
    0.32629E-07         0.15629E-09         0.00000E+00
    0.32630E-07         0.16086E-09         0.00000E+00
    0.32632E-07         0.16485E-09         0.00000E+00
    0.32633E-07         0.16826E-09         0.00000E+00
    0.32634E-07         0.17111E-09         0.00000E+00
    0.32636E-07         0.17339E-09         0.00000E+00
    0.32637E-07         0.17511E-09         0.00000E+00
    0.32639E-07         0.17627E-09         0.00000E+00
    0.32640E-07         0.17688E-09         0.00000E+00
    0.32641E-07         0.17693E-09         0.00000E+00
    0.32643E-07         0.17643E-09         0.00000E+00
    0.32644E-07         0.17538E-09         0.00000E+00
    0.32646E-07         0.17378E-09         0.00000E+00
    0.32647E-07         0.17164E-09         0.00000E+00
    0.32648E-07         0.16895E-09         0.00000E+00
    0.32650E-07         0.16571E-09         0.00000E+00
    0.32651E-07         0.16193E-09         0.00000E+00
    0.32652E-07         0.15760E-09         0.00000E+00
    0.32654E-07         0.15273E-09         0.00000E+00
    0.32655E-07         0.14731E-09         0.00000E+00
    0.32656E-07         0.14135E-09         0.00000E+00
    0.32657E-07         0.13484E-09         0.00000E+00
    0.32658E-07         0.12779E-09         0.00000E+00
    0.32659E-07         0.12018E-09         0.00000E+00
    0.32660E-07         0.11203E-09         0.00000E+00
    0.32661E-07         0.10332E-09         0.00000E+00
    0.32662E-07         0.94063E-10         0.00000E+00
    0.32663E-07         0.84252E-10         0.00000E+00
    0.32663E-07         0.73887E-10         0.00000E+00
    0.32664E-07         0.62965E-10         0.00000E+00
    0.32664E-07         0.51485E-10         0.00000E+00
    0.32665E-07         0.39445E-10         0.00000E+00
    0.32665E-07         0.26844E-10         0.00000E+00
    0.32665E-07         0.13681E-10         0.00000E+00
    0.32665E-07         0.69580E-11         0.00000E+00
    0.32060E-07         0.70158E-11         0.00000E+00
    0.32060E-07         0.13818E-10         0.00000E+00
    0.32061E-07         0.27104E-10         0.00000E+00
    0.32061E-07         0.39757E-10         0.00000E+00
    0.32061E-07         0.51783E-10         0.00000E+00
    0.32062E-07         0.63188E-10         0.00000E+00
    0.32063E-07         0.73979E-10         0.00000E+00
    0.32064E-07         0.84162E-10         0.00000E+00
    0.32065E-07         0.93742E-10         0.00000E+00
    0.32066E-07         0.10272E-09         0.00000E+00
    0.32067E-07         0.11112E-09         0.00000E+00
    0.32068E-07         0.11892E-09         0.00000E+00
    0.32069E-07         0.12615E-09         0.00000E+00
    0.32070E-07         0.13280E-09         0.00000E+00
    0.32072E-07         0.13888E-09         0.00000E+00
    0.32073E-07         0.14439E-09         0.00000E+00
    0.32075E-07         0.14934E-09         0.00000E+00
    0.32076E-07         0.15374E-09         0.00000E+00
    0.32078E-07         0.15758E-09         0.00000E+00
    0.32079E-07         0.16087E-09         0.00000E+00
    0.32081E-07         0.16361E-09         0.00000E+00
    0.32082E-07         0.16581E-09         0.00000E+00
    0.32084E-07         0.16747E-09         0.00000E+00
    0.32086E-07         0.16859E-09         0.00000E+00
    0.32087E-07         0.16918E-09         0.00000E+00
    0.32089E-07         0.16923E-09         0.00000E+00
    0.32091E-07         0.16876E-09         0.00000E+00
    0.32092E-07         0.16775E-09         0.00000E+00
    0.32094E-07         0.16622E-09         0.00000E+00
    0.32095E-07         0.16416E-09         0.00000E+00
    0.32097E-07         0.16157E-09         0.00000E+00
    0.32099E-07         0.15846E-09         0.00000E+00
    0.32100E-07         0.15483E-09         0.00000E+00
    0.32102E-07         0.15068E-09         0.00000E+00
    0.32103E-07         0.14600E-09         0.00000E+00
    0.32104E-07         0.14080E-09         0.00000E+00
    0.32106E-07         0.13508E-09         0.00000E+00
    0.32107E-07         0.12884E-09         0.00000E+00
    0.32108E-07         0.12207E-09         0.00000E+00
    0.32109E-07         0.11478E-09         0.00000E+00
    0.32111E-07         0.10697E-09         0.00000E+00
    0.32112E-07         0.98634E-10         0.00000E+00
    0.32113E-07         0.89775E-10         0.00000E+00
    0.32113E-07         0.80392E-10         0.00000E+00
    0.32114E-07         0.70482E-10         0.00000E+00
    0.32115E-07         0.60047E-10         0.00000E+00
    0.32115E-07         0.49086E-10         0.00000E+00
    0.32116E-07         0.37596E-10         0.00000E+00
    0.32116E-07         0.25579E-10         0.00000E+00
    0.32116E-07         0.13032E-10         0.00000E+00
    0.32116E-07         0.66264E-11         0.00000E+00
    0.31551E-07         0.66120E-11         0.00000E+00
    0.31551E-07         0.13027E-10         0.00000E+00
    0.31552E-07         0.25563E-10         0.00000E+00
    0.31552E-07         0.37513E-10         0.00000E+00
    0.31553E-07         0.48882E-10         0.00000E+00
    0.31553E-07         0.59674E-10         0.00000E+00
    0.31554E-07         0.69893E-10         0.00000E+00
    0.31555E-07         0.79545E-10         0.00000E+00
    0.31556E-07         0.88632E-10         0.00000E+00
    0.31557E-07         0.97160E-10         0.00000E+00
    0.31558E-07         0.10513E-09         0.00000E+00
    0.31560E-07         0.11255E-09         0.00000E+00
    0.31561E-07         0.11943E-09         0.00000E+00
    0.31562E-07         0.12576E-09         0.00000E+00
    0.31564E-07         0.13155E-09         0.00000E+00
    0.31565E-07         0.13680E-09         0.00000E+00
    0.31567E-07         0.14152E-09         0.00000E+00
    0.31569E-07         0.14572E-09         0.00000E+00
    0.31570E-07         0.14938E-09         0.00000E+00
    0.31572E-07         0.15253E-09         0.00000E+00
    0.31574E-07         0.15515E-09         0.00000E+00
    0.31576E-07         0.15726E-09         0.00000E+00
    0.31577E-07         0.15885E-09         0.00000E+00
    0.31579E-07         0.15992E-09         0.00000E+00
    0.31581E-07         0.16049E-09         0.00000E+00
    0.31583E-07         0.16055E-09         0.00000E+00
    0.31585E-07         0.16011E-09         0.00000E+00
    0.31586E-07         0.15915E-09         0.00000E+00
    0.31588E-07         0.15770E-09         0.00000E+00
    0.31590E-07         0.15574E-09         0.00000E+00
    0.31592E-07         0.15329E-09         0.00000E+00
    0.31593E-07         0.15033E-09         0.00000E+00
    0.31595E-07         0.14688E-09         0.00000E+00
    0.31597E-07         0.14293E-09         0.00000E+00
    0.31598E-07         0.13848E-09         0.00000E+00
    0.31600E-07         0.13353E-09         0.00000E+00
    0.31601E-07         0.12809E-09         0.00000E+00
    0.31603E-07         0.12216E-09         0.00000E+00
    0.31604E-07         0.11573E-09         0.00000E+00
    0.31605E-07         0.10880E-09         0.00000E+00
    0.31606E-07         0.10138E-09         0.00000E+00
    0.31608E-07         0.93464E-10         0.00000E+00
    0.31609E-07         0.85054E-10         0.00000E+00
    0.31610E-07         0.76150E-10         0.00000E+00
    0.31610E-07         0.66751E-10         0.00000E+00
    0.31611E-07         0.56857E-10         0.00000E+00
    0.31612E-07         0.46468E-10         0.00000E+00
    0.31612E-07         0.35583E-10         0.00000E+00
    0.31613E-07         0.24204E-10         0.00000E+00
    0.31613E-07         0.12329E-10         0.00000E+00
    0.31613E-07         0.62678E-11         0.00000E+00
    0.31091E-07         0.61885E-11         0.00000E+00
    0.31091E-07         0.12196E-10         0.00000E+00
    0.31092E-07         0.23941E-10         0.00000E+00
    0.31092E-07         0.35147E-10         0.00000E+00
    0.31093E-07         0.45816E-10         0.00000E+00
    0.31093E-07         0.55953E-10         0.00000E+00
    0.31094E-07         0.65558E-10         0.00000E+00
    0.31095E-07         0.74637E-10         0.00000E+00
    0.31096E-07         0.83191E-10         0.00000E+00
    0.31097E-07         0.91224E-10         0.00000E+00
    0.31099E-07         0.98739E-10         0.00000E+00
    0.31100E-07         0.10574E-09         0.00000E+00
    0.31101E-07         0.11223E-09         0.00000E+00
    0.31103E-07         0.11820E-09         0.00000E+00
    0.31104E-07         0.12367E-09         0.00000E+00
    0.31106E-07         0.12864E-09         0.00000E+00
    0.31108E-07         0.13311E-09         0.00000E+00
    0.31110E-07         0.13708E-09         0.00000E+00
    0.31111E-07         0.14055E-09         0.00000E+00
    0.31113E-07         0.14353E-09         0.00000E+00
    0.31115E-07         0.14602E-09         0.00000E+00
    0.31117E-07         0.14802E-09         0.00000E+00
    0.31119E-07         0.14953E-09         0.00000E+00
    0.31121E-07         0.15056E-09         0.00000E+00
    0.31123E-07         0.15111E-09         0.00000E+00
    0.31125E-07         0.15117E-09         0.00000E+00
    0.31127E-07         0.15076E-09         0.00000E+00
    0.31128E-07         0.14987E-09         0.00000E+00
    0.31130E-07         0.14850E-09         0.00000E+00
    0.31132E-07         0.14666E-09         0.00000E+00
    0.31134E-07         0.14435E-09         0.00000E+00
    0.31136E-07         0.14156E-09         0.00000E+00
    0.31138E-07         0.13830E-09         0.00000E+00
    0.31139E-07         0.13458E-09         0.00000E+00
    0.31141E-07         0.13038E-09         0.00000E+00
    0.31143E-07         0.12572E-09         0.00000E+00
    0.31144E-07         0.12058E-09         0.00000E+00
    0.31146E-07         0.11499E-09         0.00000E+00
    0.31147E-07         0.10892E-09         0.00000E+00
    0.31149E-07         0.10239E-09         0.00000E+00
    0.31150E-07         0.95399E-10         0.00000E+00
    0.31151E-07         0.87940E-10         0.00000E+00
    0.31152E-07         0.80017E-10         0.00000E+00
    0.31153E-07         0.71630E-10         0.00000E+00
    0.31154E-07         0.62780E-10         0.00000E+00
    0.31155E-07         0.53466E-10         0.00000E+00
    0.31155E-07         0.43690E-10         0.00000E+00
    0.31156E-07         0.33451E-10         0.00000E+00
    0.31156E-07         0.22750E-10         0.00000E+00
    0.31156E-07         0.11586E-10         0.00000E+00
    0.31156E-07         0.58893E-11         0.00000E+00
    0.30682E-07         0.57552E-11         0.00000E+00
    0.30682E-07         0.11345E-10         0.00000E+00
    0.30682E-07         0.22277E-10         0.00000E+00
    0.30682E-07         0.32715E-10         0.00000E+00
    0.30683E-07         0.42660E-10         0.00000E+00
    0.30684E-07         0.52115E-10         0.00000E+00
    0.30685E-07         0.61081E-10         0.00000E+00
    0.30685E-07         0.69560E-10         0.00000E+00
    0.30687E-07         0.77554E-10         0.00000E+00
    0.30688E-07         0.85066E-10         0.00000E+00
    0.30689E-07         0.92097E-10         0.00000E+00
    0.30690E-07         0.98649E-10         0.00000E+00
    0.30692E-07         0.10473E-09         0.00000E+00
    0.30693E-07         0.11033E-09         0.00000E+00
    0.30695E-07         0.11546E-09         0.00000E+00
    0.30697E-07         0.12012E-09         0.00000E+00
    0.30699E-07         0.12431E-09         0.00000E+00
    0.30700E-07         0.12804E-09         0.00000E+00
    0.30702E-07         0.13130E-09         0.00000E+00
    0.30704E-07         0.13410E-09         0.00000E+00
    0.30706E-07         0.13644E-09         0.00000E+00
    0.30708E-07         0.13832E-09         0.00000E+00
    0.30710E-07         0.13975E-09         0.00000E+00
    0.30712E-07         0.14073E-09         0.00000E+00
    0.30714E-07         0.14125E-09         0.00000E+00
    0.30716E-07         0.14132E-09         0.00000E+00
    0.30718E-07         0.14094E-09         0.00000E+00
    0.30720E-07         0.14011E-09         0.00000E+00
    0.30722E-07         0.13883E-09         0.00000E+00
    0.30724E-07         0.13711E-09         0.00000E+00
    0.30726E-07         0.13495E-09         0.00000E+00
    0.30728E-07         0.13235E-09         0.00000E+00
    0.30730E-07         0.12930E-09         0.00000E+00
    0.30731E-07         0.12581E-09         0.00000E+00
    0.30733E-07         0.12188E-09         0.00000E+00
    0.30735E-07         0.11752E-09         0.00000E+00
    0.30736E-07         0.11272E-09         0.00000E+00
    0.30738E-07         0.10748E-09         0.00000E+00
    0.30740E-07         0.10180E-09         0.00000E+00
    0.30741E-07         0.95691E-10         0.00000E+00
    0.30742E-07         0.89147E-10         0.00000E+00
    0.30743E-07         0.82169E-10         0.00000E+00
    0.30745E-07         0.74758E-10         0.00000E+00
    0.30746E-07         0.66915E-10         0.00000E+00
    0.30746E-07         0.58640E-10         0.00000E+00
    0.30747E-07         0.49935E-10         0.00000E+00
    0.30748E-07         0.40799E-10         0.00000E+00
    0.30748E-07         0.31234E-10         0.00000E+00
    0.30749E-07         0.21239E-10         0.00000E+00
    0.30749E-07         0.10816E-10         0.00000E+00
    0.30749E-07         0.54969E-11         0.00000E+00
    0.30323E-07         0.53195E-11         0.00000E+00
    0.30324E-07         0.10488E-10         0.00000E+00
    0.30324E-07         0.20600E-10         0.00000E+00
    0.30324E-07         0.30260E-10         0.00000E+00
    0.30325E-07         0.39470E-10         0.00000E+00
    0.30325E-07         0.48230E-10         0.00000E+00
    0.30326E-07         0.56542E-10         0.00000E+00
    0.30327E-07         0.64406E-10         0.00000E+00
    0.30328E-07         0.71824E-10         0.00000E+00
    0.30330E-07         0.78798E-10         0.00000E+00
    0.30331E-07         0.85328E-10         0.00000E+00
    0.30332E-07         0.91417E-10         0.00000E+00
    0.30334E-07         0.97065E-10         0.00000E+00
    0.30335E-07         0.10228E-09         0.00000E+00
    0.30337E-07         0.10705E-09         0.00000E+00
    0.30339E-07         0.11139E-09         0.00000E+00
    0.30341E-07         0.11529E-09         0.00000E+00
    0.30342E-07         0.11876E-09         0.00000E+00
    0.30344E-07         0.12180E-09         0.00000E+00
    0.30346E-07         0.12441E-09         0.00000E+00
    0.30348E-07         0.12660E-09         0.00000E+00
    0.30350E-07         0.12836E-09         0.00000E+00
    0.30352E-07         0.12969E-09         0.00000E+00
    0.30354E-07         0.13060E-09         0.00000E+00
    0.30356E-07         0.13109E-09         0.00000E+00
    0.30358E-07         0.13116E-09         0.00000E+00
    0.30360E-07         0.13081E-09         0.00000E+00
    0.30362E-07         0.13005E-09         0.00000E+00
    0.30364E-07         0.12887E-09         0.00000E+00
    0.30366E-07         0.12727E-09         0.00000E+00
    0.30368E-07         0.12527E-09         0.00000E+00
    0.30370E-07         0.12285E-09         0.00000E+00
    0.30372E-07         0.12001E-09         0.00000E+00
    0.30374E-07         0.11677E-09         0.00000E+00
    0.30376E-07         0.11313E-09         0.00000E+00
    0.30378E-07         0.10907E-09         0.00000E+00
    0.30379E-07         0.10461E-09         0.00000E+00
    0.30381E-07         0.99739E-10         0.00000E+00
    0.30382E-07         0.94466E-10         0.00000E+00
    0.30384E-07         0.88790E-10         0.00000E+00
    0.30385E-07         0.82712E-10         0.00000E+00
    0.30386E-07         0.76231E-10         0.00000E+00
    0.30388E-07         0.69350E-10         0.00000E+00
    0.30389E-07         0.62069E-10         0.00000E+00
    0.30390E-07         0.54388E-10         0.00000E+00
    0.30390E-07         0.46309E-10         0.00000E+00
    0.30391E-07         0.37833E-10         0.00000E+00
    0.30392E-07         0.28959E-10         0.00000E+00
    0.30392E-07         0.19690E-10         0.00000E+00
    0.30392E-07         0.10026E-10         0.00000E+00
    0.30392E-07         0.50950E-11         0.00000E+00
    0.30018E-07         0.48868E-11         0.00000E+00
    0.30018E-07         0.96365E-11         0.00000E+00
    0.30018E-07         0.18930E-10         0.00000E+00
    0.30019E-07         0.27813E-10         0.00000E+00
    0.30019E-07         0.36285E-10         0.00000E+00
    0.30020E-07         0.44347E-10         0.00000E+00
    0.30021E-07         0.51999E-10         0.00000E+00
    0.30022E-07         0.59242E-10         0.00000E+00
    0.30023E-07         0.66076E-10         0.00000E+00
    0.30024E-07         0.72503E-10         0.00000E+00
    0.30025E-07         0.78523E-10         0.00000E+00
    0.30027E-07         0.84138E-10         0.00000E+00
    0.30028E-07         0.89348E-10         0.00000E+00
    0.30030E-07         0.94155E-10         0.00000E+00
    0.30031E-07         0.98559E-10         0.00000E+00
    0.30033E-07         0.10256E-09         0.00000E+00
    0.30035E-07         0.10617E-09         0.00000E+00
    0.30037E-07         0.10937E-09         0.00000E+00
    0.30039E-07         0.11218E-09         0.00000E+00
    0.30041E-07         0.11460E-09         0.00000E+00
    0.30043E-07         0.11661E-09         0.00000E+00
    0.30045E-07         0.11824E-09         0.00000E+00
    0.30047E-07         0.11947E-09         0.00000E+00
    0.30049E-07         0.12032E-09         0.00000E+00
    0.30051E-07         0.12077E-09         0.00000E+00
    0.30053E-07         0.12084E-09         0.00000E+00
    0.30055E-07         0.12052E-09         0.00000E+00
    0.30057E-07         0.11982E-09         0.00000E+00
    0.30059E-07         0.11873E-09         0.00000E+00
    0.30061E-07         0.11726E-09         0.00000E+00
    0.30063E-07         0.11541E-09         0.00000E+00
    0.30065E-07         0.11317E-09         0.00000E+00
    0.30067E-07         0.11056E-09         0.00000E+00
    0.30069E-07         0.10757E-09         0.00000E+00
    0.30071E-07         0.10421E-09         0.00000E+00
    0.30072E-07         0.10047E-09         0.00000E+00
    0.30074E-07         0.96351E-10         0.00000E+00
    0.30076E-07         0.91861E-10         0.00000E+00
    0.30077E-07         0.86999E-10         0.00000E+00
    0.30079E-07         0.81766E-10         0.00000E+00
    0.30080E-07         0.76163E-10         0.00000E+00
    0.30081E-07         0.70190E-10         0.00000E+00
    0.30083E-07         0.63848E-10         0.00000E+00
    0.30084E-07         0.57140E-10         0.00000E+00
    0.30085E-07         0.50064E-10         0.00000E+00
    0.30085E-07         0.42624E-10         0.00000E+00
    0.30086E-07         0.34818E-10         0.00000E+00
    0.30087E-07         0.26649E-10         0.00000E+00
    0.30087E-07         0.18118E-10         0.00000E+00
    0.30087E-07         0.92242E-11         0.00000E+00
    0.30087E-07         0.46872E-11         0.00000E+00
    0.29766E-07         0.44603E-11         0.00000E+00
    0.29766E-07         0.87962E-11         0.00000E+00
    0.29766E-07         0.17282E-10         0.00000E+00
    0.29767E-07         0.25394E-10         0.00000E+00
    0.29767E-07         0.33133E-10         0.00000E+00
    0.29768E-07         0.40498E-10         0.00000E+00
    0.29769E-07         0.47491E-10         0.00000E+00
    0.29770E-07         0.54111E-10         0.00000E+00
    0.29771E-07         0.60359E-10         0.00000E+00
    0.29772E-07         0.66235E-10         0.00000E+00
    0.29773E-07         0.71741E-10         0.00000E+00
    0.29775E-07         0.76876E-10         0.00000E+00
    0.29776E-07         0.81641E-10         0.00000E+00
    0.29778E-07         0.86038E-10         0.00000E+00
    0.29779E-07         0.90068E-10         0.00000E+00
    0.29781E-07         0.93731E-10         0.00000E+00
    0.29783E-07         0.97029E-10         0.00000E+00
    0.29785E-07         0.99962E-10         0.00000E+00
    0.29787E-07         0.10253E-09         0.00000E+00
    0.29789E-07         0.10474E-09         0.00000E+00
    0.29791E-07         0.10659E-09         0.00000E+00
    0.29793E-07         0.10807E-09         0.00000E+00
    0.29795E-07         0.10920E-09         0.00000E+00
    0.29797E-07         0.10997E-09         0.00000E+00
    0.29799E-07         0.11038E-09         0.00000E+00
    0.29801E-07         0.11044E-09         0.00000E+00
    0.29803E-07         0.11015E-09         0.00000E+00
    0.29805E-07         0.10950E-09         0.00000E+00
    0.29807E-07         0.10850E-09         0.00000E+00
    0.29809E-07         0.10716E-09         0.00000E+00
    0.29811E-07         0.10546E-09         0.00000E+00
    0.29813E-07         0.10341E-09         0.00000E+00
    0.29815E-07         0.10102E-09         0.00000E+00
    0.29817E-07         0.98284E-10         0.00000E+00
    0.29819E-07         0.95203E-10         0.00000E+00
    0.29820E-07         0.91778E-10         0.00000E+00
    0.29822E-07         0.88012E-10         0.00000E+00
    0.29824E-07         0.83904E-10         0.00000E+00
    0.29825E-07         0.79457E-10         0.00000E+00
    0.29827E-07         0.74671E-10         0.00000E+00
    0.29828E-07         0.69548E-10         0.00000E+00
    0.29830E-07         0.64087E-10         0.00000E+00
    0.29831E-07         0.58292E-10         0.00000E+00
    0.29832E-07         0.52162E-10         0.00000E+00
    0.29833E-07         0.45698E-10         0.00000E+00
    0.29833E-07         0.38902E-10         0.00000E+00
    0.29834E-07         0.31775E-10         0.00000E+00
    0.29835E-07         0.24318E-10         0.00000E+00
    0.29835E-07         0.16531E-10         0.00000E+00
    0.29835E-07         0.84153E-11         0.00000E+00
    0.29835E-07         0.42758E-11         0.00000E+00
    0.29568E-07         0.40418E-11         0.00000E+00
    0.29568E-07         0.79711E-11         0.00000E+00
    0.29569E-07         0.15661E-10         0.00000E+00
    0.29569E-07         0.23013E-10         0.00000E+00
    0.29570E-07         0.30026E-10         0.00000E+00
    0.29570E-07         0.36702E-10         0.00000E+00
    0.29571E-07         0.43040E-10         0.00000E+00
    0.29572E-07         0.49040E-10         0.00000E+00
    0.29573E-07         0.54702E-10         0.00000E+00
    0.29574E-07         0.60028E-10         0.00000E+00
    0.29576E-07         0.65017E-10         0.00000E+00
    0.29577E-07         0.69670E-10         0.00000E+00
    0.29578E-07         0.73987E-10         0.00000E+00
    0.29580E-07         0.77971E-10         0.00000E+00
    0.29582E-07         0.81620E-10         0.00000E+00
    0.29583E-07         0.84937E-10         0.00000E+00
    0.29585E-07         0.87923E-10         0.00000E+00
    0.29587E-07         0.90577E-10         0.00000E+00
    0.29589E-07         0.92901E-10         0.00000E+00
    0.29591E-07         0.94897E-10         0.00000E+00
    0.29593E-07         0.96565E-10         0.00000E+00
    0.29595E-07         0.97907E-10         0.00000E+00
    0.29597E-07         0.98923E-10         0.00000E+00
    0.29599E-07         0.99614E-10         0.00000E+00
    0.29601E-07         0.99983E-10         0.00000E+00
    0.29603E-07         0.10003E-09         0.00000E+00
    0.29605E-07         0.99755E-10         0.00000E+00
    0.29607E-07         0.99161E-10         0.00000E+00
    0.29609E-07         0.98249E-10         0.00000E+00
    0.29611E-07         0.97020E-10         0.00000E+00
    0.29613E-07         0.95474E-10         0.00000E+00
    0.29615E-07         0.93614E-10         0.00000E+00
    0.29617E-07         0.91440E-10         0.00000E+00
    0.29619E-07         0.88954E-10         0.00000E+00
    0.29621E-07         0.86156E-10         0.00000E+00
    0.29623E-07         0.83048E-10         0.00000E+00
    0.29625E-07         0.79631E-10         0.00000E+00
    0.29626E-07         0.75907E-10         0.00000E+00
    0.29628E-07         0.71875E-10         0.00000E+00
    0.29629E-07         0.67538E-10         0.00000E+00
    0.29631E-07         0.62897E-10         0.00000E+00
    0.29632E-07         0.57952E-10         0.00000E+00
    0.29633E-07         0.52705E-10         0.00000E+00
    0.29634E-07         0.47157E-10         0.00000E+00
    0.29635E-07         0.41308E-10         0.00000E+00
    0.29636E-07         0.35161E-10         0.00000E+00
    0.29637E-07         0.28715E-10         0.00000E+00
    0.29637E-07         0.21973E-10         0.00000E+00
    0.29637E-07         0.14935E-10         0.00000E+00
    0.29638E-07         0.76022E-11         0.00000E+00
    0.29638E-07         0.38622E-11         0.00000E+00
    0.29426E-07         0.36318E-11         0.00000E+00
    0.29426E-07         0.71620E-11         0.00000E+00
    0.29426E-07         0.14070E-10         0.00000E+00
    0.29427E-07         0.20673E-10         0.00000E+00
    0.29427E-07         0.26971E-10         0.00000E+00
    0.29428E-07         0.32965E-10         0.00000E+00
    0.29429E-07         0.38653E-10         0.00000E+00
    0.29430E-07         0.44037E-10         0.00000E+00
    0.29431E-07         0.49117E-10         0.00000E+00
    0.29432E-07         0.53893E-10         0.00000E+00
    0.29433E-07         0.58365E-10         0.00000E+00
    0.29435E-07         0.62535E-10         0.00000E+00
    0.29436E-07         0.66404E-10         0.00000E+00
    0.29438E-07         0.69971E-10         0.00000E+00
    0.29439E-07         0.73237E-10         0.00000E+00
    0.29441E-07         0.76204E-10         0.00000E+00
    0.29443E-07         0.78873E-10         0.00000E+00
    0.29445E-07         0.81244E-10         0.00000E+00
    0.29446E-07         0.83318E-10         0.00000E+00
    0.29448E-07         0.85097E-10         0.00000E+00
    0.29450E-07         0.86581E-10         0.00000E+00
    0.29452E-07         0.87772E-10         0.00000E+00
    0.29454E-07         0.88671E-10         0.00000E+00
    0.29457E-07         0.89279E-10         0.00000E+00
    0.29459E-07         0.89597E-10         0.00000E+00
    0.29461E-07         0.89626E-10         0.00000E+00
    0.29463E-07         0.89367E-10         0.00000E+00
    0.29465E-07         0.88823E-10         0.00000E+00
    0.29467E-07         0.87993E-10         0.00000E+00
    0.29469E-07         0.86879E-10         0.00000E+00
    0.29471E-07         0.85482E-10         0.00000E+00
    0.29473E-07         0.83803E-10         0.00000E+00
    0.29475E-07         0.81845E-10         0.00000E+00
    0.29477E-07         0.79607E-10         0.00000E+00
    0.29479E-07         0.77091E-10         0.00000E+00
    0.29480E-07         0.74299E-10         0.00000E+00
    0.29482E-07         0.71231E-10         0.00000E+00
    0.29484E-07         0.67888E-10         0.00000E+00
    0.29485E-07         0.64272E-10         0.00000E+00
    0.29487E-07         0.60384E-10         0.00000E+00
    0.29488E-07         0.56225E-10         0.00000E+00
    0.29489E-07         0.51797E-10         0.00000E+00
    0.29491E-07         0.47099E-10         0.00000E+00
    0.29492E-07         0.42134E-10         0.00000E+00
    0.29493E-07         0.36903E-10         0.00000E+00
    0.29493E-07         0.31406E-10         0.00000E+00
    0.29494E-07         0.25645E-10         0.00000E+00
    0.29495E-07         0.19620E-10         0.00000E+00
    0.29495E-07         0.13334E-10         0.00000E+00
    0.29495E-07         0.67860E-11         0.00000E+00
    0.29495E-07         0.34471E-11         0.00000E+00
    0.29340E-07         0.32295E-11         0.00000E+00
    0.29340E-07         0.63677E-11         0.00000E+00
    0.29340E-07         0.12507E-10         0.00000E+00
    0.29341E-07         0.18373E-10         0.00000E+00
    0.29341E-07         0.23964E-10         0.00000E+00
    0.29342E-07         0.29282E-10         0.00000E+00
    0.29343E-07         0.34327E-10         0.00000E+00
    0.29344E-07         0.39099E-10         0.00000E+00
    0.29345E-07         0.43599E-10         0.00000E+00
    0.29346E-07         0.47827E-10         0.00000E+00
    0.29347E-07         0.51784E-10         0.00000E+00
    0.29348E-07         0.55470E-10         0.00000E+00
    0.29350E-07         0.58888E-10         0.00000E+00
    0.29351E-07         0.62036E-10         0.00000E+00
    0.29353E-07         0.64917E-10         0.00000E+00
    0.29355E-07         0.67531E-10         0.00000E+00
    0.29357E-07         0.69879E-10         0.00000E+00
    0.29358E-07         0.71963E-10         0.00000E+00
    0.29360E-07         0.73783E-10         0.00000E+00
    0.29362E-07         0.75340E-10         0.00000E+00
    0.29364E-07         0.76636E-10         0.00000E+00
    0.29366E-07         0.77672E-10         0.00000E+00
    0.29368E-07         0.78449E-10         0.00000E+00
    0.29370E-07         0.78968E-10         0.00000E+00
    0.29372E-07         0.79230E-10         0.00000E+00
    0.29374E-07         0.79237E-10         0.00000E+00
    0.29376E-07         0.78990E-10         0.00000E+00
    0.29379E-07         0.78490E-10         0.00000E+00
    0.29381E-07         0.77738E-10         0.00000E+00
    0.29383E-07         0.76736E-10         0.00000E+00
    0.29385E-07         0.75484E-10         0.00000E+00
    0.29387E-07         0.73985E-10         0.00000E+00
    0.29389E-07         0.72239E-10         0.00000E+00
    0.29390E-07         0.70247E-10         0.00000E+00
    0.29392E-07         0.68011E-10         0.00000E+00
    0.29394E-07         0.65533E-10         0.00000E+00
    0.29396E-07         0.62812E-10         0.00000E+00
    0.29397E-07         0.59851E-10         0.00000E+00
    0.29399E-07         0.56650E-10         0.00000E+00
    0.29401E-07         0.53211E-10         0.00000E+00
    0.29402E-07         0.49535E-10         0.00000E+00
    0.29403E-07         0.45623E-10         0.00000E+00
    0.29404E-07         0.41476E-10         0.00000E+00
    0.29405E-07         0.37095E-10         0.00000E+00
    0.29406E-07         0.32482E-10         0.00000E+00
    0.29407E-07         0.27638E-10         0.00000E+00
    0.29408E-07         0.22563E-10         0.00000E+00
    0.29408E-07         0.17259E-10         0.00000E+00
    0.29409E-07         0.11726E-10         0.00000E+00
    0.29409E-07         0.59669E-11         0.00000E+00
    0.29409E-07         0.30305E-11         0.00000E+00
    0.29311E-07         0.28334E-11         0.00000E+00
    0.29311E-07         0.55851E-11         0.00000E+00
    0.29311E-07         0.10966E-10         0.00000E+00
    0.29311E-07         0.16102E-10         0.00000E+00
    0.29312E-07         0.20994E-10         0.00000E+00
    0.29313E-07         0.25642E-10         0.00000E+00
    0.29313E-07         0.30048E-10         0.00000E+00
    0.29314E-07         0.34211E-10         0.00000E+00
    0.29315E-07         0.38132E-10         0.00000E+00
    0.29316E-07         0.41813E-10         0.00000E+00
    0.29318E-07         0.45254E-10         0.00000E+00
    0.29319E-07         0.48456E-10         0.00000E+00
    0.29321E-07         0.51420E-10         0.00000E+00
    0.29322E-07         0.54148E-10         0.00000E+00
    0.29324E-07         0.56640E-10         0.00000E+00
    0.29325E-07         0.58898E-10         0.00000E+00
    0.29327E-07         0.60922E-10         0.00000E+00
    0.29329E-07         0.62714E-10         0.00000E+00
    0.29331E-07         0.64275E-10         0.00000E+00
    0.29333E-07         0.65607E-10         0.00000E+00
    0.29335E-07         0.66710E-10         0.00000E+00
    0.29337E-07         0.67586E-10         0.00000E+00
    0.29339E-07         0.68236E-10         0.00000E+00
    0.29341E-07         0.68662E-10         0.00000E+00
    0.29343E-07         0.68865E-10         0.00000E+00
    0.29345E-07         0.68846E-10         0.00000E+00
    0.29347E-07         0.68606E-10         0.00000E+00
    0.29349E-07         0.68147E-10         0.00000E+00
    0.29351E-07         0.67470E-10         0.00000E+00
    0.29353E-07         0.66576E-10         0.00000E+00
    0.29355E-07         0.65467E-10         0.00000E+00
    0.29357E-07         0.64144E-10         0.00000E+00
    0.29359E-07         0.62608E-10         0.00000E+00
    0.29361E-07         0.60861E-10         0.00000E+00
    0.29363E-07         0.58904E-10         0.00000E+00
    0.29365E-07         0.56737E-10         0.00000E+00
    0.29367E-07         0.54364E-10         0.00000E+00
    0.29368E-07         0.51783E-10         0.00000E+00
    0.29370E-07         0.48998E-10         0.00000E+00
    0.29371E-07         0.46008E-10         0.00000E+00
    0.29373E-07         0.42816E-10         0.00000E+00
    0.29374E-07         0.39421E-10         0.00000E+00
    0.29375E-07         0.35827E-10         0.00000E+00
    0.29376E-07         0.32033E-10         0.00000E+00
    0.29377E-07         0.28041E-10         0.00000E+00
    0.29378E-07         0.23851E-10         0.00000E+00
    0.29379E-07         0.19466E-10         0.00000E+00
    0.29379E-07         0.14885E-10         0.00000E+00
    0.29380E-07         0.10111E-10         0.00000E+00
    0.29380E-07         0.51434E-11         0.00000E+00
    0.29380E-07         0.26116E-11         0.00000E+00
    0.29339E-07         0.24412E-11         0.00000E+00
    0.29339E-07         0.48097E-11         0.00000E+00
    0.29339E-07         0.94380E-11         0.00000E+00
    0.29340E-07         0.13850E-10         0.00000E+00
    0.29340E-07         0.18045E-10         0.00000E+00
    0.29341E-07         0.22026E-10         0.00000E+00
    0.29342E-07         0.25793E-10         0.00000E+00
    0.29342E-07         0.29347E-10         0.00000E+00
    0.29343E-07         0.32690E-10         0.00000E+00
    0.29345E-07         0.35822E-10         0.00000E+00
    0.29346E-07         0.38745E-10         0.00000E+00
    0.29347E-07         0.41460E-10         0.00000E+00
    0.29349E-07         0.43969E-10         0.00000E+00
    0.29350E-07         0.46272E-10         0.00000E+00
    0.29352E-07         0.48372E-10         0.00000E+00
    0.29354E-07         0.50269E-10         0.00000E+00
    0.29355E-07         0.51965E-10         0.00000E+00
    0.29357E-07         0.53461E-10         0.00000E+00
    0.29359E-07         0.54759E-10         0.00000E+00
    0.29361E-07         0.55861E-10         0.00000E+00
    0.29363E-07         0.56767E-10         0.00000E+00
    0.29365E-07         0.57479E-10         0.00000E+00
    0.29367E-07         0.57998E-10         0.00000E+00
    0.29369E-07         0.58327E-10         0.00000E+00
    0.29371E-07         0.58466E-10         0.00000E+00
    0.29373E-07         0.58417E-10         0.00000E+00
    0.29375E-07         0.58181E-10         0.00000E+00
    0.29377E-07         0.57760E-10         0.00000E+00
    0.29379E-07         0.57155E-10         0.00000E+00
    0.29382E-07         0.56367E-10         0.00000E+00
    0.29384E-07         0.55399E-10         0.00000E+00
    0.29386E-07         0.54250E-10         0.00000E+00
    0.29388E-07         0.52924E-10         0.00000E+00
    0.29390E-07         0.51420E-10         0.00000E+00
    0.29391E-07         0.49741E-10         0.00000E+00
    0.29393E-07         0.47887E-10         0.00000E+00
    0.29395E-07         0.45861E-10         0.00000E+00
    0.29397E-07         0.43662E-10         0.00000E+00
    0.29398E-07         0.41293E-10         0.00000E+00
    0.29400E-07         0.38755E-10         0.00000E+00
    0.29401E-07         0.36048E-10         0.00000E+00
    0.29402E-07         0.33175E-10         0.00000E+00
    0.29404E-07         0.30136E-10         0.00000E+00
    0.29405E-07         0.26932E-10         0.00000E+00
    0.29406E-07         0.23565E-10         0.00000E+00
    0.29407E-07         0.20035E-10         0.00000E+00
    0.29407E-07         0.16344E-10         0.00000E+00
    0.29408E-07         0.12493E-10         0.00000E+00
    0.29408E-07         0.84822E-11         0.00000E+00
    0.29408E-07         0.43133E-11         0.00000E+00
    0.29409E-07         0.21893E-11         0.00000E+00
    0.29425E-07         0.20497E-11         0.00000E+00
    0.29425E-07         0.40355E-11         0.00000E+00
    0.29425E-07         0.79118E-11         0.00000E+00
    0.29426E-07         0.11598E-10         0.00000E+00
    0.29426E-07         0.15096E-10         0.00000E+00
    0.29427E-07         0.18408E-10         0.00000E+00
    0.29428E-07         0.21534E-10         0.00000E+00
    0.29429E-07         0.24476E-10         0.00000E+00
    0.29430E-07         0.27236E-10         0.00000E+00
    0.29431E-07         0.29816E-10         0.00000E+00
    0.29432E-07         0.32217E-10         0.00000E+00
    0.29434E-07         0.34441E-10         0.00000E+00
    0.29435E-07         0.36489E-10         0.00000E+00
    0.29437E-07         0.38363E-10         0.00000E+00
    0.29438E-07         0.40065E-10         0.00000E+00
    0.29440E-07         0.41597E-10         0.00000E+00
    0.29442E-07         0.42959E-10         0.00000E+00
    0.29444E-07         0.44155E-10         0.00000E+00
    0.29445E-07         0.45185E-10         0.00000E+00
    0.29447E-07         0.46052E-10         0.00000E+00
    0.29449E-07         0.46756E-10         0.00000E+00
    0.29451E-07         0.47299E-10         0.00000E+00
    0.29453E-07         0.47684E-10         0.00000E+00
    0.29456E-07         0.47912E-10         0.00000E+00
    0.29458E-07         0.47984E-10         0.00000E+00
    0.29460E-07         0.47902E-10         0.00000E+00
    0.29462E-07         0.47667E-10         0.00000E+00
    0.29464E-07         0.47282E-10         0.00000E+00
    0.29466E-07         0.46747E-10         0.00000E+00
    0.29468E-07         0.46064E-10         0.00000E+00
    0.29470E-07         0.45235E-10         0.00000E+00
    0.29472E-07         0.44261E-10         0.00000E+00
    0.29474E-07         0.43144E-10         0.00000E+00
    0.29476E-07         0.41885E-10         0.00000E+00
    0.29478E-07         0.40485E-10         0.00000E+00
    0.29480E-07         0.38945E-10         0.00000E+00
    0.29482E-07         0.37268E-10         0.00000E+00
    0.29483E-07         0.35455E-10         0.00000E+00
    0.29485E-07         0.33506E-10         0.00000E+00
    0.29487E-07         0.31422E-10         0.00000E+00
    0.29488E-07         0.29207E-10         0.00000E+00
    0.29489E-07         0.26859E-10         0.00000E+00
    0.29491E-07         0.24381E-10         0.00000E+00
    0.29492E-07         0.21774E-10         0.00000E+00
    0.29493E-07         0.19038E-10         0.00000E+00
    0.29493E-07         0.16175E-10         0.00000E+00
    0.29494E-07         0.13187E-10         0.00000E+00
    0.29495E-07         0.10073E-10         0.00000E+00
    0.29495E-07         0.68345E-11         0.00000E+00
    0.29495E-07         0.34733E-11         0.00000E+00
    0.29496E-07         0.17621E-11         0.00000E+00
    0.29570E-07         0.16556E-11         0.00000E+00
    0.29570E-07         0.32558E-11         0.00000E+00
    0.29570E-07         0.63742E-11         0.00000E+00
    0.29571E-07         0.93294E-11         0.00000E+00
    0.29571E-07         0.12123E-10         0.00000E+00
    0.29572E-07         0.14758E-10         0.00000E+00
    0.29573E-07         0.17237E-10         0.00000E+00
    0.29574E-07         0.19560E-10         0.00000E+00
    0.29575E-07         0.21730E-10         0.00000E+00
    0.29576E-07         0.23750E-10         0.00000E+00
    0.29577E-07         0.25622E-10         0.00000E+00
    0.29579E-07         0.27347E-10         0.00000E+00
    0.29580E-07         0.28927E-10         0.00000E+00
    0.29582E-07         0.30365E-10         0.00000E+00
    0.29583E-07         0.31663E-10         0.00000E+00
    0.29585E-07         0.32823E-10         0.00000E+00
    0.29587E-07         0.33846E-10         0.00000E+00
    0.29589E-07         0.34735E-10         0.00000E+00
    0.29591E-07         0.35491E-10         0.00000E+00
    0.29593E-07         0.36117E-10         0.00000E+00
    0.29595E-07         0.36615E-10         0.00000E+00
    0.29597E-07         0.36986E-10         0.00000E+00
    0.29599E-07         0.37232E-10         0.00000E+00
    0.29601E-07         0.37355E-10         0.00000E+00
    0.29603E-07         0.37357E-10         0.00000E+00
    0.29605E-07         0.37240E-10         0.00000E+00
    0.29607E-07         0.37005E-10         0.00000E+00
    0.29610E-07         0.36654E-10         0.00000E+00
    0.29612E-07         0.36189E-10         0.00000E+00
    0.29614E-07         0.35611E-10         0.00000E+00
    0.29616E-07         0.34922E-10         0.00000E+00
    0.29618E-07         0.34124E-10         0.00000E+00
    0.29620E-07         0.33218E-10         0.00000E+00
    0.29622E-07         0.32205E-10         0.00000E+00
    0.29624E-07         0.31088E-10         0.00000E+00
    0.29626E-07         0.29867E-10         0.00000E+00
    0.29628E-07         0.28544E-10         0.00000E+00
    0.29629E-07         0.27120E-10         0.00000E+00
    0.29631E-07         0.25596E-10         0.00000E+00
    0.29633E-07         0.23975E-10         0.00000E+00
    0.29634E-07         0.22257E-10         0.00000E+00
    0.29635E-07         0.20443E-10         0.00000E+00
    0.29637E-07         0.18535E-10         0.00000E+00
    0.29638E-07         0.16533E-10         0.00000E+00
    0.29639E-07         0.14439E-10         0.00000E+00
    0.29640E-07         0.12253E-10         0.00000E+00
    0.29640E-07         0.99779E-11         0.00000E+00
    0.29641E-07         0.76131E-11         0.00000E+00
    0.29641E-07         0.51601E-11         0.00000E+00
    0.29642E-07         0.26198E-11         0.00000E+00
    0.29642E-07         0.13278E-11         0.00000E+00
    0.29774E-07         0.12549E-11         0.00000E+00
    0.29774E-07         0.24632E-11         0.00000E+00
    0.29775E-07         0.48108E-11         0.00000E+00
    0.29775E-07         0.70218E-11         0.00000E+00
    0.29776E-07         0.90992E-11         0.00000E+00
    0.29776E-07         0.11046E-10         0.00000E+00
    0.29777E-07         0.12864E-10         0.00000E+00
    0.29778E-07         0.14556E-10         0.00000E+00
    0.29779E-07         0.16125E-10         0.00000E+00
    0.29780E-07         0.17574E-10         0.00000E+00
    0.29782E-07         0.18906E-10         0.00000E+00
    0.29783E-07         0.20121E-10         0.00000E+00
    0.29785E-07         0.21224E-10         0.00000E+00
    0.29786E-07         0.22217E-10         0.00000E+00
    0.29788E-07         0.23102E-10         0.00000E+00
    0.29790E-07         0.23881E-10         0.00000E+00
    0.29791E-07         0.24557E-10         0.00000E+00
    0.29793E-07         0.25132E-10         0.00000E+00
    0.29795E-07         0.25609E-10         0.00000E+00
    0.29797E-07         0.25989E-10         0.00000E+00
    0.29799E-07         0.26275E-10         0.00000E+00
    0.29802E-07         0.26468E-10         0.00000E+00
    0.29804E-07         0.26572E-10         0.00000E+00
    0.29806E-07         0.26588E-10         0.00000E+00
    0.29808E-07         0.26518E-10         0.00000E+00
    0.29810E-07         0.26363E-10         0.00000E+00
    0.29812E-07         0.26127E-10         0.00000E+00
    0.29815E-07         0.25810E-10         0.00000E+00
    0.29817E-07         0.25415E-10         0.00000E+00
    0.29819E-07         0.24944E-10         0.00000E+00
    0.29821E-07         0.24397E-10         0.00000E+00
    0.29823E-07         0.23778E-10         0.00000E+00
    0.29825E-07         0.23087E-10         0.00000E+00
    0.29827E-07         0.22325E-10         0.00000E+00
    0.29829E-07         0.21496E-10         0.00000E+00
    0.29831E-07         0.20599E-10         0.00000E+00
    0.29833E-07         0.19637E-10         0.00000E+00
    0.29835E-07         0.18611E-10         0.00000E+00
    0.29837E-07         0.17522E-10         0.00000E+00
    0.29838E-07         0.16372E-10         0.00000E+00
    0.29840E-07         0.15162E-10         0.00000E+00
    0.29841E-07         0.13892E-10         0.00000E+00
    0.29842E-07         0.12565E-10         0.00000E+00
    0.29843E-07         0.11182E-10         0.00000E+00
    0.29845E-07         0.97426E-11         0.00000E+00
    0.29845E-07         0.82489E-11         0.00000E+00
    0.29846E-07         0.67018E-11         0.00000E+00
    0.29847E-07         0.51020E-11         0.00000E+00
    0.29847E-07         0.34505E-11         0.00000E+00
    0.29847E-07         0.17482E-11         0.00000E+00
    0.29848E-07         0.88447E-12         0.00000E+00
    0.30038E-07         0.84365E-12         0.00000E+00
    0.30038E-07         0.16495E-11         0.00000E+00
    0.30039E-07         0.32058E-11         0.00000E+00
    0.30039E-07         0.46530E-11         0.00000E+00
    0.30040E-07         0.59945E-11         0.00000E+00
    0.30040E-07         0.72338E-11         0.00000E+00
    0.30041E-07         0.83742E-11         0.00000E+00
    0.30042E-07         0.94189E-11         0.00000E+00
    0.30043E-07         0.10371E-10         0.00000E+00
    0.30044E-07         0.11234E-10         0.00000E+00
    0.30046E-07         0.12010E-10         0.00000E+00
    0.30047E-07         0.12703E-10         0.00000E+00
    0.30049E-07         0.13316E-10         0.00000E+00
    0.30051E-07         0.13851E-10         0.00000E+00
    0.30052E-07         0.14312E-10         0.00000E+00
    0.30054E-07         0.14701E-10         0.00000E+00
    0.30056E-07         0.15020E-10         0.00000E+00
    0.30058E-07         0.15273E-10         0.00000E+00
    0.30060E-07         0.15462E-10         0.00000E+00
    0.30062E-07         0.15590E-10         0.00000E+00
    0.30064E-07         0.15658E-10         0.00000E+00
    0.30066E-07         0.15670E-10         0.00000E+00
    0.30069E-07         0.15628E-10         0.00000E+00
    0.30071E-07         0.15533E-10         0.00000E+00
    0.30073E-07         0.15389E-10         0.00000E+00
    0.30075E-07         0.15197E-10         0.00000E+00
    0.30078E-07         0.14960E-10         0.00000E+00
    0.30080E-07         0.14678E-10         0.00000E+00
    0.30082E-07         0.14356E-10         0.00000E+00
    0.30084E-07         0.13994E-10         0.00000E+00
    0.30087E-07         0.13593E-10         0.00000E+00
    0.30089E-07         0.13157E-10         0.00000E+00
    0.30091E-07         0.12687E-10         0.00000E+00
    0.30093E-07         0.12184E-10         0.00000E+00
    0.30095E-07         0.11650E-10         0.00000E+00
    0.30097E-07         0.11087E-10         0.00000E+00
    0.30099E-07         0.10496E-10         0.00000E+00
    0.30101E-07         0.98780E-11         0.00000E+00
    0.30102E-07         0.92353E-11         0.00000E+00
    0.30104E-07         0.85689E-11         0.00000E+00
    0.30106E-07         0.78800E-11         0.00000E+00
    0.30107E-07         0.71700E-11         0.00000E+00
    0.30108E-07         0.64398E-11         0.00000E+00
    0.30110E-07         0.56907E-11         0.00000E+00
    0.30111E-07         0.49238E-11         0.00000E+00
    0.30112E-07         0.41400E-11         0.00000E+00
    0.30112E-07         0.33402E-11         0.00000E+00
    0.30113E-07         0.25254E-11         0.00000E+00
    0.30113E-07         0.16964E-11         0.00000E+00
    0.30114E-07         0.85406E-12         0.00000E+00
    0.30114E-07         0.42961E-12         0.00000E+00
    0.30363E-07         0.41749E-12         0.00000E+00
    0.30363E-07         0.80643E-12         0.00000E+00
    0.30363E-07         0.15431E-11         0.00000E+00
    0.30363E-07         0.21993E-11         0.00000E+00
    0.30364E-07         0.27793E-11         0.00000E+00
    0.30365E-07         0.32869E-11         0.00000E+00
    0.30366E-07         0.37262E-11         0.00000E+00
    0.30367E-07         0.41011E-11         0.00000E+00
    0.30368E-07         0.44151E-11         0.00000E+00
    0.30369E-07         0.46721E-11         0.00000E+00
    0.30370E-07         0.48754E-11         0.00000E+00
    0.30372E-07         0.50288E-11         0.00000E+00
    0.30374E-07         0.51354E-11         0.00000E+00
    0.30375E-07         0.51987E-11         0.00000E+00
    0.30377E-07         0.52218E-11         0.00000E+00
    0.30379E-07         0.52079E-11         0.00000E+00
    0.30381E-07         0.51601E-11         0.00000E+00
    0.30383E-07         0.50812E-11         0.00000E+00
    0.30385E-07         0.49742E-11         0.00000E+00
    0.30387E-07         0.48419E-11         0.00000E+00
    0.30390E-07         0.46870E-11         0.00000E+00
    0.30392E-07         0.45122E-11         0.00000E+00
    0.30394E-07         0.43200E-11         0.00000E+00
    0.30396E-07         0.41129E-11         0.00000E+00
    0.30399E-07         0.38933E-11         0.00000E+00
    0.30401E-07         0.36636E-11         0.00000E+00
    0.30403E-07         0.34261E-11         0.00000E+00
    0.30406E-07         0.31829E-11         0.00000E+00
    0.30408E-07         0.29361E-11         0.00000E+00
    0.30410E-07         0.26878E-11         0.00000E+00
    0.30413E-07         0.24399E-11         0.00000E+00
    0.30415E-07         0.21944E-11         0.00000E+00
    0.30417E-07         0.19531E-11         0.00000E+00
    0.30419E-07         0.17177E-11         0.00000E+00
    0.30421E-07         0.14899E-11         0.00000E+00
    0.30424E-07         0.12714E-11         0.00000E+00
    0.30425E-07         0.10637E-11         0.00000E+00
    0.30427E-07         0.86826E-12         0.00000E+00
    0.30429E-07         0.68653E-12         0.00000E+00
    0.30431E-07         0.51986E-12         0.00000E+00
    0.30432E-07         0.36953E-12         0.00000E+00
    0.30434E-07         0.23676E-12         0.00000E+00
    0.30435E-07         0.12272E-12         0.00000E+00
    0.30436E-07         0.28486E-13         0.00000E+00
    0.30438E-07        -0.44904E-13         0.00000E+00
    0.30439E-07        -0.96486E-13         0.00000E+00
    0.30439E-07        -0.12536E-12         0.00000E+00
    0.30440E-07        -0.13067E-12         0.00000E+00
    0.30440E-07        -0.11166E-12         0.00000E+00
    0.30441E-07        -0.67587E-13         0.00000E+00
    0.30441E-07        -0.39203E-13         0.00000E+00
    0.30748E-07        -0.27871E-13         0.00000E+00
    0.30748E-07        -0.74418E-13         0.00000E+00
    0.30748E-07        -0.19369E-12         0.00000E+00
    0.30749E-07        -0.36288E-12         0.00000E+00
    0.30749E-07        -0.57724E-12         0.00000E+00
    0.30750E-07        -0.83210E-12         0.00000E+00
    0.30751E-07        -0.11229E-11         0.00000E+00
    0.30752E-07        -0.14454E-11         0.00000E+00
    0.30753E-07        -0.17951E-11         0.00000E+00
    0.30755E-07        -0.21679E-11         0.00000E+00
    0.30756E-07        -0.25599E-11         0.00000E+00
    0.30758E-07        -0.29670E-11         0.00000E+00
    0.30759E-07        -0.33855E-11         0.00000E+00
    0.30761E-07        -0.38116E-11         0.00000E+00
    0.30763E-07        -0.42417E-11         0.00000E+00
    0.30765E-07        -0.46724E-11         0.00000E+00
    0.30767E-07        -0.51003E-11         0.00000E+00
    0.30769E-07        -0.55221E-11         0.00000E+00
    0.30771E-07        -0.59345E-11         0.00000E+00
    0.30774E-07        -0.63346E-11         0.00000E+00
    0.30776E-07        -0.67193E-11         0.00000E+00
    0.30778E-07        -0.70858E-11         0.00000E+00
    0.30781E-07        -0.74313E-11         0.00000E+00
    0.30783E-07        -0.77531E-11         0.00000E+00
    0.30785E-07        -0.80485E-11         0.00000E+00
    0.30788E-07        -0.83151E-11         0.00000E+00
    0.30790E-07        -0.85505E-11         0.00000E+00
    0.30793E-07        -0.87522E-11         0.00000E+00
    0.30795E-07        -0.89182E-11         0.00000E+00
    0.30798E-07        -0.90462E-11         0.00000E+00
    0.30800E-07        -0.91341E-11         0.00000E+00
    0.30802E-07        -0.91800E-11         0.00000E+00
    0.30805E-07        -0.91819E-11         0.00000E+00
    0.30807E-07        -0.91380E-11         0.00000E+00
    0.30809E-07        -0.90467E-11         0.00000E+00
    0.30811E-07        -0.89061E-11         0.00000E+00
    0.30813E-07        -0.87148E-11         0.00000E+00
    0.30815E-07        -0.84711E-11         0.00000E+00
    0.30817E-07        -0.81738E-11         0.00000E+00
    0.30819E-07        -0.78214E-11         0.00000E+00
    0.30821E-07        -0.74126E-11         0.00000E+00
    0.30822E-07        -0.69462E-11         0.00000E+00
    0.30823E-07        -0.64212E-11         0.00000E+00
    0.30825E-07        -0.58363E-11         0.00000E+00
    0.30826E-07        -0.51907E-11         0.00000E+00
    0.30827E-07        -0.44835E-11         0.00000E+00
    0.30828E-07        -0.37136E-11         0.00000E+00
    0.30828E-07        -0.28805E-11         0.00000E+00
    0.30829E-07        -0.19834E-11         0.00000E+00
    0.30829E-07        -0.10216E-11         0.00000E+00
    0.30829E-07        -0.52443E-12         0.00000E+00
    0.31194E-07        -0.49670E-12         0.00000E+00
    0.31194E-07        -0.10014E-11         0.00000E+00
    0.31195E-07        -0.20207E-11         0.00000E+00
    0.31195E-07        -0.30570E-11         0.00000E+00
    0.31196E-07        -0.41051E-11         0.00000E+00
    0.31197E-07        -0.51595E-11         0.00000E+00
    0.31197E-07        -0.62153E-11         0.00000E+00
    0.31199E-07        -0.72676E-11         0.00000E+00
    0.31200E-07        -0.83115E-11         0.00000E+00
    0.31201E-07        -0.93424E-11         0.00000E+00
    0.31203E-07        -0.10356E-10         0.00000E+00
    0.31204E-07        -0.11347E-10         0.00000E+00
    0.31206E-07        -0.12313E-10         0.00000E+00
    0.31208E-07        -0.13248E-10         0.00000E+00
    0.31210E-07        -0.14150E-10         0.00000E+00
    0.31212E-07        -0.15014E-10         0.00000E+00
    0.31214E-07        -0.15836E-10         0.00000E+00
    0.31217E-07        -0.16612E-10         0.00000E+00
    0.31219E-07        -0.17341E-10         0.00000E+00
    0.31221E-07        -0.18017E-10         0.00000E+00
    0.31224E-07        -0.18639E-10         0.00000E+00
    0.31226E-07        -0.19202E-10         0.00000E+00
    0.31229E-07        -0.19704E-10         0.00000E+00
    0.31231E-07        -0.20142E-10         0.00000E+00
    0.31234E-07        -0.20514E-10         0.00000E+00
    0.31236E-07        -0.20815E-10         0.00000E+00
    0.31239E-07        -0.21045E-10         0.00000E+00
    0.31241E-07        -0.21201E-10         0.00000E+00
    0.31244E-07        -0.21279E-10         0.00000E+00
    0.31246E-07        -0.21279E-10         0.00000E+00
    0.31249E-07        -0.21198E-10         0.00000E+00
    0.31251E-07        -0.21033E-10         0.00000E+00
    0.31254E-07        -0.20783E-10         0.00000E+00
    0.31256E-07        -0.20445E-10         0.00000E+00
    0.31258E-07        -0.20019E-10         0.00000E+00
    0.31261E-07        -0.19503E-10         0.00000E+00
    0.31263E-07        -0.18894E-10         0.00000E+00
    0.31265E-07        -0.18191E-10         0.00000E+00
    0.31267E-07        -0.17394E-10         0.00000E+00
    0.31269E-07        -0.16500E-10         0.00000E+00
    0.31270E-07        -0.15508E-10         0.00000E+00
    0.31272E-07        -0.14417E-10         0.00000E+00
    0.31273E-07        -0.13226E-10         0.00000E+00
    0.31275E-07        -0.11934E-10         0.00000E+00
    0.31276E-07        -0.10540E-10         0.00000E+00
    0.31277E-07        -0.90433E-11         0.00000E+00
    0.31278E-07        -0.74428E-11         0.00000E+00
    0.31278E-07        -0.57379E-11         0.00000E+00
    0.31279E-07        -0.39280E-11         0.00000E+00
    0.31279E-07        -0.20126E-11         0.00000E+00
    0.31279E-07        -0.10284E-11         0.00000E+00
    0.31702E-07        -0.99310E-12         0.00000E+00
    0.31702E-07        -0.19825E-11         0.00000E+00
    0.31703E-07        -0.39534E-11         0.00000E+00
    0.31703E-07        -0.59056E-11         0.00000E+00
    0.31704E-07        -0.78331E-11         0.00000E+00
    0.31705E-07        -0.97301E-11         0.00000E+00
    0.31706E-07        -0.11591E-10         0.00000E+00
    0.31707E-07        -0.13411E-10         0.00000E+00
    0.31708E-07        -0.15183E-10         0.00000E+00
    0.31710E-07        -0.16905E-10         0.00000E+00
    0.31711E-07        -0.18569E-10         0.00000E+00
    0.31713E-07        -0.20173E-10         0.00000E+00
    0.31715E-07        -0.21710E-10         0.00000E+00
    0.31717E-07        -0.23177E-10         0.00000E+00
    0.31719E-07        -0.24570E-10         0.00000E+00
    0.31721E-07        -0.25885E-10         0.00000E+00
    0.31724E-07        -0.27117E-10         0.00000E+00
    0.31726E-07        -0.28262E-10         0.00000E+00
    0.31728E-07        -0.29318E-10         0.00000E+00
    0.31731E-07        -0.30280E-10         0.00000E+00
    0.31733E-07        -0.31145E-10         0.00000E+00
    0.31736E-07        -0.31910E-10         0.00000E+00
    0.31739E-07        -0.32572E-10         0.00000E+00
    0.31741E-07        -0.33128E-10         0.00000E+00
    0.31744E-07        -0.33575E-10         0.00000E+00
    0.31747E-07        -0.33909E-10         0.00000E+00
    0.31749E-07        -0.34129E-10         0.00000E+00
    0.31752E-07        -0.34232E-10         0.00000E+00
    0.31755E-07        -0.34216E-10         0.00000E+00
    0.31757E-07        -0.34077E-10         0.00000E+00
    0.31760E-07        -0.33815E-10         0.00000E+00
    0.31762E-07        -0.33426E-10         0.00000E+00
    0.31765E-07        -0.32910E-10         0.00000E+00
    0.31767E-07        -0.32263E-10         0.00000E+00
    0.31770E-07        -0.31484E-10         0.00000E+00
    0.31772E-07        -0.30572E-10         0.00000E+00
    0.31774E-07        -0.29524E-10         0.00000E+00
    0.31776E-07        -0.28340E-10         0.00000E+00
    0.31779E-07        -0.27018E-10         0.00000E+00
    0.31780E-07        -0.25557E-10         0.00000E+00
    0.31782E-07        -0.23955E-10         0.00000E+00
    0.31784E-07        -0.22211E-10         0.00000E+00
    0.31785E-07        -0.20324E-10         0.00000E+00
    0.31787E-07        -0.18293E-10         0.00000E+00
    0.31788E-07        -0.16118E-10         0.00000E+00
    0.31789E-07        -0.13797E-10         0.00000E+00
    0.31790E-07        -0.11330E-10         0.00000E+00
    0.31791E-07        -0.87156E-11         0.00000E+00
    0.31791E-07        -0.59543E-11         0.00000E+00
    0.31791E-07        -0.30451E-11         0.00000E+00
    0.31792E-07        -0.15534E-11         0.00000E+00
    0.32272E-07        -0.15209E-11         0.00000E+00
    0.32273E-07        -0.30251E-11         0.00000E+00
    0.32273E-07        -0.60063E-11         0.00000E+00
    0.32273E-07        -0.89294E-11         0.00000E+00
    0.32274E-07        -0.11788E-10         0.00000E+00
    0.32275E-07        -0.14576E-10         0.00000E+00
    0.32276E-07        -0.17287E-10         0.00000E+00
    0.32277E-07        -0.19916E-10         0.00000E+00
    0.32279E-07        -0.22457E-10         0.00000E+00
    0.32280E-07        -0.24904E-10         0.00000E+00
    0.32282E-07        -0.27253E-10         0.00000E+00
    0.32284E-07        -0.29498E-10         0.00000E+00
    0.32286E-07        -0.31635E-10         0.00000E+00
    0.32288E-07        -0.33658E-10         0.00000E+00
    0.32290E-07        -0.35565E-10         0.00000E+00
    0.32293E-07        -0.37349E-10         0.00000E+00
    0.32295E-07        -0.39007E-10         0.00000E+00
    0.32297E-07        -0.40536E-10         0.00000E+00
    0.32300E-07        -0.41931E-10         0.00000E+00
    0.32303E-07        -0.43188E-10         0.00000E+00
    0.32305E-07        -0.44305E-10         0.00000E+00
    0.32308E-07        -0.45277E-10         0.00000E+00
    0.32311E-07        -0.46102E-10         0.00000E+00
    0.32314E-07        -0.46776E-10         0.00000E+00
    0.32316E-07        -0.47296E-10         0.00000E+00
    0.32319E-07        -0.47660E-10         0.00000E+00
    0.32322E-07        -0.47865E-10         0.00000E+00
    0.32325E-07        -0.47909E-10         0.00000E+00
    0.32328E-07        -0.47788E-10         0.00000E+00
    0.32330E-07        -0.47500E-10         0.00000E+00
    0.32333E-07        -0.47044E-10         0.00000E+00
    0.32336E-07        -0.46417E-10         0.00000E+00
    0.32339E-07        -0.45617E-10         0.00000E+00
    0.32341E-07        -0.44642E-10         0.00000E+00
    0.32344E-07        -0.43490E-10         0.00000E+00
    0.32346E-07        -0.42161E-10         0.00000E+00
    0.32348E-07        -0.40651E-10         0.00000E+00
    0.32351E-07        -0.38961E-10         0.00000E+00
    0.32353E-07        -0.37087E-10         0.00000E+00
    0.32355E-07        -0.35030E-10         0.00000E+00
    0.32357E-07        -0.32787E-10         0.00000E+00
    0.32358E-07        -0.30358E-10         0.00000E+00
    0.32360E-07        -0.27742E-10         0.00000E+00
    0.32361E-07        -0.24938E-10         0.00000E+00
    0.32363E-07        -0.21945E-10         0.00000E+00
    0.32364E-07        -0.18762E-10         0.00000E+00
    0.32365E-07        -0.15389E-10         0.00000E+00
    0.32365E-07        -0.11825E-10         0.00000E+00
    0.32366E-07        -0.80698E-11         0.00000E+00
    0.32366E-07        -0.41228E-11         0.00000E+00
    0.32366E-07        -0.21014E-11         0.00000E+00
    0.32905E-07        -0.20834E-11         0.00000E+00
    0.32905E-07        -0.41360E-11         0.00000E+00
    0.32906E-07        -0.81921E-11         0.00000E+00
    0.32906E-07        -0.12147E-10         0.00000E+00
    0.32907E-07        -0.15993E-10         0.00000E+00
    0.32908E-07        -0.19725E-10         0.00000E+00
    0.32909E-07        -0.23336E-10         0.00000E+00
    0.32910E-07        -0.26820E-10         0.00000E+00
    0.32912E-07        -0.30171E-10         0.00000E+00
    0.32913E-07        -0.33383E-10         0.00000E+00
    0.32915E-07        -0.36452E-10         0.00000E+00
    0.32917E-07        -0.39371E-10         0.00000E+00
    0.32919E-07        -0.42136E-10         0.00000E+00
    0.32922E-07        -0.44743E-10         0.00000E+00
    0.32924E-07        -0.47185E-10         0.00000E+00
    0.32926E-07        -0.49460E-10         0.00000E+00
    0.32929E-07        -0.51563E-10         0.00000E+00
    0.32932E-07        -0.53490E-10         0.00000E+00
    0.32934E-07        -0.55236E-10         0.00000E+00
    0.32937E-07        -0.56799E-10         0.00000E+00
    0.32940E-07        -0.58174E-10         0.00000E+00
    0.32943E-07        -0.59358E-10         0.00000E+00
    0.32946E-07        -0.60348E-10         0.00000E+00
    0.32949E-07        -0.61141E-10         0.00000E+00
    0.32952E-07        -0.61733E-10         0.00000E+00
    0.32954E-07        -0.62123E-10         0.00000E+00
    0.32957E-07        -0.62306E-10         0.00000E+00
    0.32960E-07        -0.62281E-10         0.00000E+00
    0.32963E-07        -0.62046E-10         0.00000E+00
    0.32966E-07        -0.61596E-10         0.00000E+00
    0.32969E-07        -0.60932E-10         0.00000E+00
    0.32972E-07        -0.60050E-10         0.00000E+00
    0.32975E-07        -0.58948E-10         0.00000E+00
    0.32977E-07        -0.57626E-10         0.00000E+00
    0.32980E-07        -0.56080E-10         0.00000E+00
    0.32983E-07        -0.54309E-10         0.00000E+00
    0.32985E-07        -0.52312E-10         0.00000E+00
    0.32987E-07        -0.50087E-10         0.00000E+00
    0.32990E-07        -0.47633E-10         0.00000E+00
    0.32992E-07        -0.44949E-10         0.00000E+00
    0.32994E-07        -0.42034E-10         0.00000E+00
    0.32995E-07        -0.38886E-10         0.00000E+00
    0.32997E-07        -0.35505E-10         0.00000E+00
    0.32999E-07        -0.31890E-10         0.00000E+00
    0.33000E-07        -0.28040E-10         0.00000E+00
    0.33001E-07        -0.23955E-10         0.00000E+00
    0.33002E-07        -0.19633E-10         0.00000E+00
    0.33003E-07        -0.15075E-10         0.00000E+00
    0.33003E-07        -0.10281E-10         0.00000E+00
    0.33004E-07        -0.52491E-11         0.00000E+00
    0.33004E-07        -0.26740E-11         0.00000E+00
    0.33600E-07        -0.26836E-11         0.00000E+00
    0.33600E-07        -0.53205E-11         0.00000E+00
    0.33601E-07        -0.10522E-10         0.00000E+00
    0.33601E-07        -0.15573E-10         0.00000E+00
    0.33602E-07        -0.20469E-10         0.00000E+00
    0.33603E-07        -0.25201E-10         0.00000E+00
    0.33604E-07        -0.29764E-10         0.00000E+00
    0.33606E-07        -0.34152E-10         0.00000E+00
    0.33607E-07        -0.38358E-10         0.00000E+00
    0.33609E-07        -0.42376E-10         0.00000E+00
    0.33611E-07        -0.46202E-10         0.00000E+00
    0.33613E-07        -0.49830E-10         0.00000E+00
    0.33615E-07        -0.53254E-10         0.00000E+00
    0.33618E-07        -0.56471E-10         0.00000E+00
    0.33620E-07        -0.59475E-10         0.00000E+00
    0.33623E-07        -0.62261E-10         0.00000E+00
    0.33626E-07        -0.64827E-10         0.00000E+00
    0.33628E-07        -0.67167E-10         0.00000E+00
    0.33631E-07        -0.69277E-10         0.00000E+00
    0.33634E-07        -0.71155E-10         0.00000E+00
    0.33637E-07        -0.72796E-10         0.00000E+00
    0.33640E-07        -0.74196E-10         0.00000E+00
    0.33643E-07        -0.75354E-10         0.00000E+00
    0.33646E-07        -0.76265E-10         0.00000E+00
    0.33649E-07        -0.76927E-10         0.00000E+00
    0.33652E-07        -0.77337E-10         0.00000E+00
    0.33656E-07        -0.77492E-10         0.00000E+00
    0.33659E-07        -0.77389E-10         0.00000E+00
    0.33662E-07        -0.77027E-10         0.00000E+00
    0.33665E-07        -0.76403E-10         0.00000E+00
    0.33668E-07        -0.75515E-10         0.00000E+00
    0.33671E-07        -0.74360E-10         0.00000E+00
    0.33674E-07        -0.72938E-10         0.00000E+00
    0.33677E-07        -0.71245E-10         0.00000E+00
    0.33679E-07        -0.69281E-10         0.00000E+00
    0.33682E-07        -0.67044E-10         0.00000E+00
    0.33685E-07        -0.64532E-10         0.00000E+00
    0.33687E-07        -0.61745E-10         0.00000E+00
    0.33689E-07        -0.58680E-10         0.00000E+00
    0.33691E-07        -0.55337E-10         0.00000E+00
    0.33694E-07        -0.51715E-10         0.00000E+00
    0.33695E-07        -0.47813E-10         0.00000E+00
    0.33697E-07        -0.43629E-10         0.00000E+00
    0.33699E-07        -0.39164E-10         0.00000E+00
    0.33700E-07        -0.34416E-10         0.00000E+00
    0.33701E-07        -0.29385E-10         0.00000E+00
    0.33702E-07        -0.24071E-10         0.00000E+00
    0.33703E-07        -0.18474E-10         0.00000E+00
    0.33704E-07        -0.12592E-10         0.00000E+00
    0.33704E-07        -0.64263E-11         0.00000E+00
    0.33704E-07        -0.32723E-11         0.00000E+00
    0.34358E-07        -0.33236E-11         0.00000E+00
    0.34358E-07        -0.65829E-11         0.00000E+00
    0.34359E-07        -0.13002E-10         0.00000E+00
    0.34359E-07        -0.19220E-10         0.00000E+00
    0.34360E-07        -0.25228E-10         0.00000E+00
    0.34361E-07        -0.31021E-10         0.00000E+00
    0.34363E-07        -0.36591E-10         0.00000E+00
    0.34364E-07        -0.41933E-10         0.00000E+00
    0.34366E-07        -0.47040E-10         0.00000E+00
    0.34368E-07        -0.51907E-10         0.00000E+00
    0.34370E-07        -0.56529E-10         0.00000E+00
    0.34372E-07        -0.60900E-10         0.00000E+00
    0.34374E-07        -0.65015E-10         0.00000E+00
    0.34377E-07        -0.68870E-10         0.00000E+00
    0.34379E-07        -0.72459E-10         0.00000E+00
    0.34382E-07        -0.75779E-10         0.00000E+00
    0.34385E-07        -0.78825E-10         0.00000E+00
    0.34388E-07        -0.81593E-10         0.00000E+00
    0.34391E-07        -0.84080E-10         0.00000E+00
    0.34394E-07        -0.86282E-10         0.00000E+00
    0.34397E-07        -0.88196E-10         0.00000E+00
    0.34400E-07        -0.89817E-10         0.00000E+00
    0.34404E-07        -0.91144E-10         0.00000E+00
    0.34407E-07        -0.92173E-10         0.00000E+00
    0.34410E-07        -0.92901E-10         0.00000E+00
    0.34413E-07        -0.93325E-10         0.00000E+00
    0.34417E-07        -0.93444E-10         0.00000E+00
    0.34420E-07        -0.93254E-10         0.00000E+00
    0.34423E-07        -0.92753E-10         0.00000E+00
    0.34426E-07        -0.91939E-10         0.00000E+00
    0.34429E-07        -0.90811E-10         0.00000E+00
    0.34433E-07        -0.89366E-10         0.00000E+00
    0.34436E-07        -0.87602E-10         0.00000E+00
    0.34439E-07        -0.85517E-10         0.00000E+00
    0.34441E-07        -0.83111E-10         0.00000E+00
    0.34444E-07        -0.80382E-10         0.00000E+00
    0.34447E-07        -0.77327E-10         0.00000E+00
    0.34449E-07        -0.73947E-10         0.00000E+00
    0.34452E-07        -0.70240E-10         0.00000E+00
    0.34454E-07        -0.66205E-10         0.00000E+00
    0.34456E-07        -0.61841E-10         0.00000E+00
    0.34458E-07        -0.57147E-10         0.00000E+00
    0.34460E-07        -0.52122E-10         0.00000E+00
    0.34462E-07        -0.46767E-10         0.00000E+00
    0.34463E-07        -0.41079E-10         0.00000E+00
    0.34464E-07        -0.35060E-10         0.00000E+00
    0.34466E-07        -0.28708E-10         0.00000E+00
    0.34466E-07        -0.22023E-10         0.00000E+00
    0.34467E-07        -0.15006E-10         0.00000E+00
    0.34467E-07        -0.76554E-11         0.00000E+00
    0.34467E-07        -0.38970E-11         0.00000E+00
    0.35179E-07        -0.40046E-11         0.00000E+00
    0.35179E-07        -0.79255E-11         0.00000E+00
    0.35180E-07        -0.15639E-10         0.00000E+00
    0.35180E-07        -0.23092E-10         0.00000E+00
    0.35181E-07        -0.30279E-10         0.00000E+00
    0.35182E-07        -0.37192E-10         0.00000E+00
    0.35184E-07        -0.43825E-10         0.00000E+00
    0.35185E-07        -0.50173E-10         0.00000E+00
    0.35187E-07        -0.56228E-10         0.00000E+00
    0.35189E-07        -0.61987E-10         0.00000E+00
    0.35191E-07        -0.67443E-10         0.00000E+00
    0.35194E-07        -0.72592E-10         0.00000E+00
    0.35196E-07        -0.77429E-10         0.00000E+00
    0.35199E-07        -0.81949E-10         0.00000E+00
    0.35201E-07        -0.86148E-10         0.00000E+00
    0.35204E-07        -0.90021E-10         0.00000E+00
    0.35207E-07        -0.93566E-10         0.00000E+00
    0.35210E-07        -0.96778E-10         0.00000E+00
    0.35213E-07        -0.99653E-10         0.00000E+00
    0.35217E-07        -0.10219E-09         0.00000E+00
    0.35220E-07        -0.10438E-09         0.00000E+00
    0.35223E-07        -0.10623E-09         0.00000E+00
    0.35227E-07        -0.10772E-09         0.00000E+00
    0.35230E-07        -0.10887E-09         0.00000E+00
    0.35234E-07        -0.10966E-09         0.00000E+00
    0.35237E-07        -0.11009E-09         0.00000E+00
    0.35240E-07        -0.11016E-09         0.00000E+00
    0.35244E-07        -0.10988E-09         0.00000E+00
    0.35247E-07        -0.10922E-09         0.00000E+00
    0.35251E-07        -0.10821E-09         0.00000E+00
    0.35254E-07        -0.10682E-09         0.00000E+00
    0.35257E-07        -0.10507E-09         0.00000E+00
    0.35260E-07        -0.10294E-09         0.00000E+00
    0.35263E-07        -0.10044E-09         0.00000E+00
    0.35266E-07        -0.97569E-10         0.00000E+00
    0.35269E-07        -0.94321E-10         0.00000E+00
    0.35272E-07        -0.90696E-10         0.00000E+00
    0.35275E-07        -0.86694E-10         0.00000E+00
    0.35277E-07        -0.82313E-10         0.00000E+00
    0.35280E-07        -0.77552E-10         0.00000E+00
    0.35282E-07        -0.72411E-10         0.00000E+00
    0.35284E-07        -0.66889E-10         0.00000E+00
    0.35286E-07        -0.60985E-10         0.00000E+00
    0.35288E-07        -0.54699E-10         0.00000E+00
    0.35289E-07        -0.48030E-10         0.00000E+00
    0.35290E-07        -0.40978E-10         0.00000E+00
    0.35291E-07        -0.33542E-10         0.00000E+00
    0.35292E-07        -0.25724E-10         0.00000E+00
    0.35293E-07        -0.17522E-10         0.00000E+00
    0.35293E-07        -0.89366E-11         0.00000E+00
    0.35294E-07        -0.45481E-11         0.00000E+00
    0.36063E-07        -0.47267E-11         0.00000E+00
    0.36063E-07        -0.93484E-11         0.00000E+00
    0.36063E-07        -0.18432E-10         0.00000E+00
    0.36064E-07        -0.27191E-10         0.00000E+00
    0.36065E-07        -0.35621E-10         0.00000E+00
    0.36066E-07        -0.43714E-10         0.00000E+00
    0.36068E-07        -0.51465E-10         0.00000E+00
    0.36069E-07        -0.58868E-10         0.00000E+00
    0.36071E-07        -0.65918E-10         0.00000E+00
    0.36073E-07        -0.72609E-10         0.00000E+00
    0.36075E-07        -0.78937E-10         0.00000E+00
    0.36078E-07        -0.84897E-10         0.00000E+00
    0.36080E-07        -0.90485E-10         0.00000E+00
    0.36083E-07        -0.95697E-10         0.00000E+00
    0.36086E-07        -0.10053E-09         0.00000E+00
    0.36089E-07        -0.10498E-09         0.00000E+00
    0.36092E-07        -0.10903E-09         0.00000E+00
    0.36095E-07        -0.11270E-09         0.00000E+00
    0.36099E-07        -0.11598E-09         0.00000E+00
    0.36102E-07        -0.11885E-09         0.00000E+00
    0.36106E-07        -0.12133E-09         0.00000E+00
    0.36109E-07        -0.12340E-09         0.00000E+00
    0.36113E-07        -0.12507E-09         0.00000E+00
    0.36116E-07        -0.12633E-09         0.00000E+00
    0.36120E-07        -0.12718E-09         0.00000E+00
    0.36123E-07        -0.12761E-09         0.00000E+00
    0.36127E-07        -0.12763E-09         0.00000E+00
    0.36130E-07        -0.12723E-09         0.00000E+00
    0.36134E-07        -0.12642E-09         0.00000E+00
    0.36137E-07        -0.12518E-09         0.00000E+00
    0.36141E-07        -0.12352E-09         0.00000E+00
    0.36144E-07        -0.12144E-09         0.00000E+00
    0.36148E-07        -0.11893E-09         0.00000E+00
    0.36151E-07        -0.11600E-09         0.00000E+00
    0.36154E-07        -0.11263E-09         0.00000E+00
    0.36157E-07        -0.10884E-09         0.00000E+00
    0.36160E-07        -0.10462E-09         0.00000E+00
    0.36163E-07        -0.99965E-10         0.00000E+00
    0.36165E-07        -0.94880E-10         0.00000E+00
    0.36168E-07        -0.89361E-10         0.00000E+00
    0.36170E-07        -0.83410E-10         0.00000E+00
    0.36172E-07        -0.77024E-10         0.00000E+00
    0.36174E-07        -0.70204E-10         0.00000E+00
    0.36176E-07        -0.62948E-10         0.00000E+00
    0.36177E-07        -0.55257E-10         0.00000E+00
    0.36179E-07        -0.47131E-10         0.00000E+00
    0.36180E-07        -0.38569E-10         0.00000E+00
    0.36181E-07        -0.29571E-10         0.00000E+00
    0.36182E-07        -0.20137E-10         0.00000E+00
    0.36182E-07        -0.10268E-10         0.00000E+00
    0.36182E-07        -0.52248E-11         0.00000E+00
    0.37009E-07        -0.54889E-11         0.00000E+00
    0.37009E-07        -0.10849E-10         0.00000E+00
    0.37009E-07        -0.21376E-10         0.00000E+00
    0.37010E-07        -0.31509E-10         0.00000E+00
    0.37011E-07        -0.41243E-10         0.00000E+00
    0.37012E-07        -0.50573E-10         0.00000E+00
    0.37014E-07        -0.59494E-10         0.00000E+00
    0.37016E-07        -0.68000E-10         0.00000E+00
    0.37018E-07        -0.76086E-10         0.00000E+00
    0.37020E-07        -0.83749E-10         0.00000E+00
    0.37022E-07        -0.90984E-10         0.00000E+00
    0.37025E-07        -0.97786E-10         0.00000E+00
    0.37027E-07        -0.10415E-09         0.00000E+00
    0.37030E-07        -0.11008E-09         0.00000E+00
    0.37033E-07        -0.11556E-09         0.00000E+00
    0.37036E-07        -0.12060E-09         0.00000E+00
    0.37040E-07        -0.12519E-09         0.00000E+00
    0.37043E-07        -0.12933E-09         0.00000E+00
    0.37046E-07        -0.13301E-09         0.00000E+00
    0.37050E-07        -0.13623E-09         0.00000E+00
    0.37053E-07        -0.13900E-09         0.00000E+00
    0.37057E-07        -0.14130E-09         0.00000E+00
    0.37061E-07        -0.14313E-09         0.00000E+00
    0.37064E-07        -0.14450E-09         0.00000E+00
    0.37068E-07        -0.14540E-09         0.00000E+00
    0.37072E-07        -0.14583E-09         0.00000E+00
    0.37076E-07        -0.14579E-09         0.00000E+00
    0.37079E-07        -0.14527E-09         0.00000E+00
    0.37083E-07        -0.14428E-09         0.00000E+00
    0.37087E-07        -0.14281E-09         0.00000E+00
    0.37090E-07        -0.14086E-09         0.00000E+00
    0.37094E-07        -0.13844E-09         0.00000E+00
    0.37097E-07        -0.13553E-09         0.00000E+00
    0.37100E-07        -0.13213E-09         0.00000E+00
    0.37104E-07        -0.12826E-09         0.00000E+00
    0.37107E-07        -0.12390E-09         0.00000E+00
    0.37110E-07        -0.11905E-09         0.00000E+00
    0.37113E-07        -0.11372E-09         0.00000E+00
    0.37115E-07        -0.10791E-09         0.00000E+00
    0.37118E-07        -0.10160E-09         0.00000E+00
    0.37120E-07        -0.94807E-10         0.00000E+00
    0.37122E-07        -0.87525E-10         0.00000E+00
    0.37124E-07        -0.79753E-10         0.00000E+00
    0.37126E-07        -0.71493E-10         0.00000E+00
    0.37128E-07        -0.62743E-10         0.00000E+00
    0.37129E-07        -0.53503E-10         0.00000E+00
    0.37131E-07        -0.43774E-10         0.00000E+00
    0.37131E-07        -0.33554E-10         0.00000E+00
    0.37132E-07        -0.22845E-10         0.00000E+00
    0.37133E-07        -0.11647E-10         0.00000E+00
    0.37133E-07        -0.59253E-11         0.00000E+00
    0.38017E-07        -0.62884E-11         0.00000E+00
    0.38017E-07        -0.12423E-10         0.00000E+00
    0.38017E-07        -0.24460E-10         0.00000E+00
    0.38018E-07        -0.36028E-10         0.00000E+00
    0.38019E-07        -0.47125E-10         0.00000E+00
    0.38021E-07        -0.57743E-10         0.00000E+00
    0.38022E-07        -0.67880E-10         0.00000E+00
    0.38024E-07        -0.77531E-10         0.00000E+00
    0.38026E-07        -0.86692E-10         0.00000E+00
    0.38028E-07        -0.95360E-10         0.00000E+00
    0.38031E-07        -0.10353E-09         0.00000E+00
    0.38034E-07        -0.11120E-09         0.00000E+00
    0.38036E-07        -0.11837E-09         0.00000E+00
    0.38039E-07        -0.12503E-09         0.00000E+00
    0.38042E-07        -0.13119E-09         0.00000E+00
    0.38046E-07        -0.13683E-09         0.00000E+00
    0.38049E-07        -0.14196E-09         0.00000E+00
    0.38052E-07        -0.14657E-09         0.00000E+00
    0.38056E-07        -0.15067E-09         0.00000E+00
    0.38060E-07        -0.15424E-09         0.00000E+00
    0.38063E-07        -0.15730E-09         0.00000E+00
    0.38067E-07        -0.15983E-09         0.00000E+00
    0.38071E-07        -0.16183E-09         0.00000E+00
    0.38075E-07        -0.16331E-09         0.00000E+00
    0.38078E-07        -0.16426E-09         0.00000E+00
    0.38082E-07        -0.16467E-09         0.00000E+00
    0.38086E-07        -0.16456E-09         0.00000E+00
    0.38090E-07        -0.16391E-09         0.00000E+00
    0.38094E-07        -0.16273E-09         0.00000E+00
    0.38097E-07        -0.16102E-09         0.00000E+00
    0.38101E-07        -0.15877E-09         0.00000E+00
    0.38105E-07        -0.15598E-09         0.00000E+00
    0.38108E-07        -0.15265E-09         0.00000E+00
    0.38112E-07        -0.14878E-09         0.00000E+00
    0.38115E-07        -0.14438E-09         0.00000E+00
    0.38118E-07        -0.13943E-09         0.00000E+00
    0.38121E-07        -0.13394E-09         0.00000E+00
    0.38124E-07        -0.12791E-09         0.00000E+00
    0.38127E-07        -0.12133E-09         0.00000E+00
    0.38130E-07        -0.11421E-09         0.00000E+00
    0.38132E-07        -0.10655E-09         0.00000E+00
    0.38134E-07        -0.98346E-10         0.00000E+00
    0.38136E-07        -0.89594E-10         0.00000E+00
    0.38138E-07        -0.80298E-10         0.00000E+00
    0.38140E-07        -0.70456E-10         0.00000E+00
    0.38141E-07        -0.60069E-10         0.00000E+00
    0.38143E-07        -0.49136E-10         0.00000E+00
    0.38144E-07        -0.37658E-10         0.00000E+00
    0.38144E-07        -0.25635E-10         0.00000E+00
    0.38145E-07        -0.13067E-10         0.00000E+00
    0.38145E-07        -0.66471E-11         0.00000E+00
    0.39087E-07        -0.71207E-11         0.00000E+00
    0.39087E-07        -0.14060E-10         0.00000E+00
    0.39087E-07        -0.27666E-10         0.00000E+00
    0.39088E-07        -0.40724E-10         0.00000E+00
    0.39089E-07        -0.53230E-10         0.00000E+00
    0.39090E-07        -0.65180E-10         0.00000E+00
    0.39092E-07        -0.76572E-10         0.00000E+00
    0.39094E-07        -0.87403E-10         0.00000E+00
    0.39096E-07        -0.97670E-10         0.00000E+00
    0.39098E-07        -0.10737E-09         0.00000E+00
    0.39101E-07        -0.11650E-09         0.00000E+00
    0.39104E-07        -0.12506E-09         0.00000E+00
    0.39107E-07        -0.13305E-09         0.00000E+00
    0.39110E-07        -0.14046E-09         0.00000E+00
    0.39113E-07        -0.14730E-09         0.00000E+00
    0.39116E-07        -0.15355E-09         0.00000E+00
    0.39120E-07        -0.15923E-09         0.00000E+00
    0.39123E-07        -0.16433E-09         0.00000E+00
    0.39127E-07        -0.16884E-09         0.00000E+00
    0.39130E-07        -0.17277E-09         0.00000E+00
    0.39134E-07        -0.17611E-09         0.00000E+00
    0.39138E-07        -0.17887E-09         0.00000E+00
    0.39142E-07        -0.18104E-09         0.00000E+00
    0.39146E-07        -0.18262E-09         0.00000E+00
    0.39150E-07        -0.18361E-09         0.00000E+00
    0.39154E-07        -0.18401E-09         0.00000E+00
    0.39158E-07        -0.18382E-09         0.00000E+00
    0.39161E-07        -0.18303E-09         0.00000E+00
    0.39165E-07        -0.18165E-09         0.00000E+00
    0.39169E-07        -0.17968E-09         0.00000E+00
    0.39173E-07        -0.17712E-09         0.00000E+00
    0.39176E-07        -0.17395E-09         0.00000E+00
    0.39180E-07        -0.17020E-09         0.00000E+00
    0.39184E-07        -0.16584E-09         0.00000E+00
    0.39187E-07        -0.16089E-09         0.00000E+00
    0.39190E-07        -0.15533E-09         0.00000E+00
    0.39193E-07        -0.14918E-09         0.00000E+00
    0.39196E-07        -0.14243E-09         0.00000E+00
    0.39199E-07        -0.13508E-09         0.00000E+00
    0.39202E-07        -0.12713E-09         0.00000E+00
    0.39204E-07        -0.11858E-09         0.00000E+00
    0.39207E-07        -0.10942E-09         0.00000E+00
    0.39209E-07        -0.99668E-10         0.00000E+00
    0.39211E-07        -0.89311E-10         0.00000E+00
    0.39212E-07        -0.78352E-10         0.00000E+00
    0.39214E-07        -0.66791E-10         0.00000E+00
    0.39215E-07        -0.54627E-10         0.00000E+00
    0.39216E-07        -0.41861E-10         0.00000E+00
    0.39217E-07        -0.28492E-10         0.00000E+00
    0.39217E-07        -0.14522E-10         0.00000E+00
    0.39217E-07        -0.73864E-11         0.00000E+00
    0.40217E-07        -0.79792E-11         0.00000E+00
    0.40217E-07        -0.15748E-10         0.00000E+00
    0.40218E-07        -0.30969E-10         0.00000E+00
    0.40218E-07        -0.45557E-10         0.00000E+00
    0.40220E-07        -0.59509E-10         0.00000E+00
    0.40221E-07        -0.72823E-10         0.00000E+00
    0.40223E-07        -0.85498E-10         0.00000E+00
    0.40225E-07        -0.97533E-10         0.00000E+00
    0.40227E-07        -0.10893E-09         0.00000E+00
    0.40229E-07        -0.11968E-09         0.00000E+00
    0.40232E-07        -0.12978E-09         0.00000E+00
    0.40234E-07        -0.13924E-09         0.00000E+00
    0.40237E-07        -0.14806E-09         0.00000E+00
    0.40240E-07        -0.15623E-09         0.00000E+00
    0.40244E-07        -0.16375E-09         0.00000E+00
    0.40247E-07        -0.17063E-09         0.00000E+00
    0.40251E-07        -0.17686E-09         0.00000E+00
    0.40254E-07        -0.18243E-09         0.00000E+00
    0.40258E-07        -0.18736E-09         0.00000E+00
    0.40262E-07        -0.19165E-09         0.00000E+00
    0.40265E-07        -0.19528E-09         0.00000E+00
    0.40269E-07        -0.19826E-09         0.00000E+00
    0.40273E-07        -0.20059E-09         0.00000E+00
    0.40277E-07        -0.20227E-09         0.00000E+00
    0.40281E-07        -0.20329E-09         0.00000E+00
    0.40285E-07        -0.20367E-09         0.00000E+00
    0.40289E-07        -0.20339E-09         0.00000E+00
    0.40293E-07        -0.20246E-09         0.00000E+00
    0.40297E-07        -0.20088E-09         0.00000E+00
    0.40301E-07        -0.19865E-09         0.00000E+00
    0.40304E-07        -0.19576E-09         0.00000E+00
    0.40308E-07        -0.19221E-09         0.00000E+00
    0.40312E-07        -0.18801E-09         0.00000E+00
    0.40315E-07        -0.18316E-09         0.00000E+00
    0.40319E-07        -0.17765E-09         0.00000E+00
    0.40322E-07        -0.17148E-09         0.00000E+00
    0.40325E-07        -0.16466E-09         0.00000E+00
    0.40328E-07        -0.15718E-09         0.00000E+00
    0.40331E-07        -0.14904E-09         0.00000E+00
    0.40334E-07        -0.14024E-09         0.00000E+00
    0.40336E-07        -0.13079E-09         0.00000E+00
    0.40339E-07        -0.12067E-09         0.00000E+00
    0.40341E-07        -0.10990E-09         0.00000E+00
    0.40343E-07        -0.98467E-10         0.00000E+00
    0.40344E-07        -0.86373E-10         0.00000E+00
    0.40346E-07        -0.73620E-10         0.00000E+00
    0.40347E-07        -0.60206E-10         0.00000E+00
    0.40348E-07        -0.46131E-10         0.00000E+00
    0.40349E-07        -0.31396E-10         0.00000E+00
    0.40349E-07        -0.16001E-10         0.00000E+00
    0.40350E-07        -0.81380E-11         0.00000E+00
    0.41407E-07        -0.88549E-11         0.00000E+00
    0.41407E-07        -0.17468E-10         0.00000E+00
    0.41408E-07        -0.34334E-10         0.00000E+00
    0.41408E-07        -0.50476E-10         0.00000E+00
    0.41409E-07        -0.65894E-10         0.00000E+00
    0.41411E-07        -0.80588E-10         0.00000E+00
    0.41413E-07        -0.94560E-10         0.00000E+00
    0.41415E-07        -0.10781E-09         0.00000E+00
    0.41417E-07        -0.12034E-09         0.00000E+00
    0.41419E-07        -0.13214E-09         0.00000E+00
    0.41422E-07        -0.14323E-09         0.00000E+00
    0.41424E-07        -0.15359E-09         0.00000E+00
    0.41427E-07        -0.16324E-09         0.00000E+00
    0.41431E-07        -0.17216E-09         0.00000E+00
    0.41434E-07        -0.18037E-09         0.00000E+00
    0.41437E-07        -0.18786E-09         0.00000E+00
    0.41441E-07        -0.19464E-09         0.00000E+00
    0.41444E-07        -0.20069E-09         0.00000E+00
    0.41448E-07        -0.20604E-09         0.00000E+00
    0.41452E-07        -0.21066E-09         0.00000E+00
    0.41456E-07        -0.21458E-09         0.00000E+00
    0.41459E-07        -0.21778E-09         0.00000E+00
    0.41463E-07        -0.22026E-09         0.00000E+00
    0.41467E-07        -0.22204E-09         0.00000E+00
    0.41471E-07        -0.22310E-09         0.00000E+00
    0.41475E-07        -0.22344E-09         0.00000E+00
    0.41479E-07        -0.22308E-09         0.00000E+00
    0.41483E-07        -0.22200E-09         0.00000E+00
    0.41487E-07        -0.22021E-09         0.00000E+00
    0.41491E-07        -0.21771E-09         0.00000E+00
    0.41494E-07        -0.21449E-09         0.00000E+00
    0.41498E-07        -0.21056E-09         0.00000E+00
    0.41502E-07        -0.20592E-09         0.00000E+00
    0.41505E-07        -0.20057E-09         0.00000E+00
    0.41509E-07        -0.19450E-09         0.00000E+00
    0.41512E-07        -0.18771E-09         0.00000E+00
    0.41515E-07        -0.18021E-09         0.00000E+00
    0.41518E-07        -0.17200E-09         0.00000E+00
    0.41521E-07        -0.16307E-09         0.00000E+00
    0.41524E-07        -0.15343E-09         0.00000E+00
    0.41526E-07        -0.14307E-09         0.00000E+00
    0.41529E-07        -0.13199E-09         0.00000E+00
    0.41531E-07        -0.12019E-09         0.00000E+00
    0.41533E-07        -0.10768E-09         0.00000E+00
    0.41535E-07        -0.94445E-10         0.00000E+00
    0.41536E-07        -0.80494E-10         0.00000E+00
    0.41537E-07        -0.65823E-10         0.00000E+00
    0.41538E-07        -0.50432E-10         0.00000E+00
    0.41539E-07        -0.34322E-10         0.00000E+00
    0.41539E-07        -0.17491E-10         0.00000E+00
    0.41540E-07        -0.88957E-11         0.00000E+00
    0.42655E-07        -0.97359E-11         0.00000E+00
    0.42655E-07        -0.19198E-10         0.00000E+00
    0.42656E-07        -0.37714E-10         0.00000E+00
    0.42656E-07        -0.55413E-10         0.00000E+00
    0.42658E-07        -0.72298E-10         0.00000E+00
    0.42659E-07        -0.88370E-10         0.00000E+00
    0.42661E-07        -0.10363E-09         0.00000E+00
    0.42663E-07        -0.11809E-09         0.00000E+00
    0.42665E-07        -0.13174E-09         0.00000E+00
    0.42667E-07        -0.14459E-09         0.00000E+00
    0.42670E-07        -0.15665E-09         0.00000E+00
    0.42672E-07        -0.16790E-09         0.00000E+00
    0.42675E-07        -0.17837E-09         0.00000E+00
    0.42678E-07        -0.18804E-09         0.00000E+00
    0.42682E-07        -0.19692E-09         0.00000E+00
    0.42685E-07        -0.20501E-09         0.00000E+00
    0.42688E-07        -0.21232E-09         0.00000E+00
    0.42692E-07        -0.21885E-09         0.00000E+00
    0.42696E-07        -0.22460E-09         0.00000E+00
    0.42699E-07        -0.22956E-09         0.00000E+00
    0.42703E-07        -0.23375E-09         0.00000E+00
    0.42707E-07        -0.23716E-09         0.00000E+00
    0.42711E-07        -0.23980E-09         0.00000E+00
    0.42715E-07        -0.24166E-09         0.00000E+00
    0.42719E-07        -0.24275E-09         0.00000E+00
    0.42722E-07        -0.24306E-09         0.00000E+00
    0.42726E-07        -0.24261E-09         0.00000E+00
    0.42730E-07        -0.24138E-09         0.00000E+00
    0.42734E-07        -0.23938E-09         0.00000E+00
    0.42738E-07        -0.23661E-09         0.00000E+00
    0.42741E-07        -0.23307E-09         0.00000E+00
    0.42745E-07        -0.22876E-09         0.00000E+00
    0.42749E-07        -0.22368E-09         0.00000E+00
    0.42752E-07        -0.21783E-09         0.00000E+00
    0.42755E-07        -0.21121E-09         0.00000E+00
    0.42759E-07        -0.20382E-09         0.00000E+00
    0.42762E-07        -0.19565E-09         0.00000E+00
    0.42765E-07        -0.18672E-09         0.00000E+00
    0.42768E-07        -0.17701E-09         0.00000E+00
    0.42770E-07        -0.16652E-09         0.00000E+00
    0.42773E-07        -0.15527E-09         0.00000E+00
    0.42775E-07        -0.14323E-09         0.00000E+00
    0.42777E-07        -0.13042E-09         0.00000E+00
    0.42779E-07        -0.11684E-09         0.00000E+00
    0.42781E-07        -0.10248E-09         0.00000E+00
    0.42782E-07        -0.87336E-10         0.00000E+00
    0.42784E-07        -0.71417E-10         0.00000E+00
    0.42785E-07        -0.54717E-10         0.00000E+00
    0.42785E-07        -0.37238E-10         0.00000E+00
    0.42786E-07        -0.18977E-10         0.00000E+00
    0.42786E-07        -0.96514E-11         0.00000E+00
    0.43960E-07        -0.10608E-10         0.00000E+00
    0.43960E-07        -0.20909E-10         0.00000E+00
    0.43960E-07        -0.41054E-10         0.00000E+00
    0.43961E-07        -0.60286E-10         0.00000E+00
    0.43962E-07        -0.78611E-10         0.00000E+00
    0.43964E-07        -0.96035E-10         0.00000E+00
    0.43965E-07        -0.11256E-09         0.00000E+00
    0.43967E-07        -0.12820E-09         0.00000E+00
    0.43969E-07        -0.14295E-09         0.00000E+00
    0.43972E-07        -0.15682E-09         0.00000E+00
    0.43974E-07        -0.16981E-09         0.00000E+00
    0.43977E-07        -0.18194E-09         0.00000E+00
    0.43979E-07        -0.19319E-09         0.00000E+00
    0.43982E-07        -0.20358E-09         0.00000E+00
    0.43986E-07        -0.21311E-09         0.00000E+00
    0.43989E-07        -0.22179E-09         0.00000E+00
    0.43992E-07        -0.22962E-09         0.00000E+00
    0.43996E-07        -0.23660E-09         0.00000E+00
    0.43999E-07        -0.24273E-09         0.00000E+00
    0.44003E-07        -0.24802E-09         0.00000E+00
    0.44006E-07        -0.25247E-09         0.00000E+00
    0.44010E-07        -0.25608E-09         0.00000E+00
    0.44014E-07        -0.25886E-09         0.00000E+00
    0.44017E-07        -0.26080E-09         0.00000E+00
    0.44021E-07        -0.26192E-09         0.00000E+00
    0.44025E-07        -0.26220E-09         0.00000E+00
    0.44029E-07        -0.26166E-09         0.00000E+00
    0.44032E-07        -0.26028E-09         0.00000E+00
    0.44036E-07        -0.25808E-09         0.00000E+00
    0.44040E-07        -0.25506E-09         0.00000E+00
    0.44043E-07        -0.25120E-09         0.00000E+00
    0.44047E-07        -0.24652E-09         0.00000E+00
    0.44050E-07        -0.24102E-09         0.00000E+00
    0.44054E-07        -0.23469E-09         0.00000E+00
    0.44057E-07        -0.22753E-09         0.00000E+00
    0.44060E-07        -0.21955E-09         0.00000E+00
    0.44063E-07        -0.21074E-09         0.00000E+00
    0.44066E-07        -0.20110E-09         0.00000E+00
    0.44069E-07        -0.19063E-09         0.00000E+00
    0.44071E-07        -0.17934E-09         0.00000E+00
    0.44074E-07        -0.16721E-09         0.00000E+00
    0.44076E-07        -0.15425E-09         0.00000E+00
    0.44078E-07        -0.14045E-09         0.00000E+00
    0.44080E-07        -0.12582E-09         0.00000E+00
    0.44081E-07        -0.11036E-09         0.00000E+00
    0.44083E-07        -0.94054E-10         0.00000E+00
    0.44084E-07        -0.76912E-10         0.00000E+00
    0.44085E-07        -0.58930E-10         0.00000E+00
    0.44086E-07        -0.40106E-10         0.00000E+00
    0.44086E-07        -0.20440E-10         0.00000E+00
    0.44086E-07        -0.10396E-10         0.00000E+00
    0.45319E-07        -0.11452E-10         0.00000E+00
    0.45319E-07        -0.22565E-10         0.00000E+00
    0.45319E-07        -0.44283E-10         0.00000E+00
    0.45320E-07        -0.64993E-10         0.00000E+00
    0.45321E-07        -0.84704E-10         0.00000E+00
    0.45323E-07        -0.10342E-09         0.00000E+00
    0.45324E-07        -0.12116E-09         0.00000E+00
    0.45326E-07        -0.13793E-09         0.00000E+00
    0.45328E-07        -0.15372E-09         0.00000E+00
    0.45330E-07        -0.16856E-09         0.00000E+00
    0.45332E-07        -0.18245E-09         0.00000E+00
    0.45335E-07        -0.19539E-09         0.00000E+00
    0.45338E-07        -0.20740E-09         0.00000E+00
    0.45340E-07        -0.21847E-09         0.00000E+00
    0.45343E-07        -0.22862E-09         0.00000E+00
    0.45346E-07        -0.23784E-09         0.00000E+00
    0.45350E-07        -0.24615E-09         0.00000E+00
    0.45353E-07        -0.25356E-09         0.00000E+00
    0.45356E-07        -0.26005E-09         0.00000E+00
    0.45360E-07        -0.26565E-09         0.00000E+00
    0.45363E-07        -0.27034E-09         0.00000E+00
    0.45366E-07        -0.27415E-09         0.00000E+00
    0.45370E-07        -0.27706E-09         0.00000E+00
    0.45373E-07        -0.27908E-09         0.00000E+00
    0.45377E-07        -0.28022E-09         0.00000E+00
    0.45380E-07        -0.28047E-09         0.00000E+00
    0.45384E-07        -0.27984E-09         0.00000E+00
    0.45387E-07        -0.27833E-09         0.00000E+00
    0.45391E-07        -0.27594E-09         0.00000E+00
    0.45394E-07        -0.27267E-09         0.00000E+00
    0.45398E-07        -0.26853E-09         0.00000E+00
    0.45401E-07        -0.26350E-09         0.00000E+00
    0.45404E-07        -0.25760E-09         0.00000E+00
    0.45407E-07        -0.25082E-09         0.00000E+00
    0.45411E-07        -0.24316E-09         0.00000E+00
    0.45413E-07        -0.23462E-09         0.00000E+00
    0.45416E-07        -0.22520E-09         0.00000E+00
    0.45419E-07        -0.21490E-09         0.00000E+00
    0.45422E-07        -0.20371E-09         0.00000E+00
    0.45424E-07        -0.19164E-09         0.00000E+00
    0.45426E-07        -0.17868E-09         0.00000E+00
    0.45429E-07        -0.16484E-09         0.00000E+00
    0.45431E-07        -0.15010E-09         0.00000E+00
    0.45432E-07        -0.13448E-09         0.00000E+00
    0.45434E-07        -0.11795E-09         0.00000E+00
    0.45435E-07        -0.10054E-09         0.00000E+00
    0.45436E-07        -0.82220E-10         0.00000E+00
    0.45437E-07        -0.63002E-10         0.00000E+00
    0.45438E-07        -0.42882E-10         0.00000E+00
    0.45438E-07        -0.21857E-10         0.00000E+00
    0.45439E-07        -0.11117E-10         0.00000E+00
    0.46730E-07        -0.12248E-10         0.00000E+00
    0.46730E-07        -0.24123E-10         0.00000E+00
    0.46731E-07        -0.47319E-10         0.00000E+00
    0.46731E-07        -0.69413E-10         0.00000E+00
    0.46732E-07        -0.90418E-10         0.00000E+00
    0.46734E-07        -0.11035E-09         0.00000E+00
    0.46735E-07        -0.12921E-09         0.00000E+00
    0.46737E-07        -0.14702E-09         0.00000E+00
    0.46739E-07        -0.16378E-09         0.00000E+00
    0.46741E-07        -0.17952E-09         0.00000E+00
    0.46743E-07        -0.19423E-09         0.00000E+00
    0.46745E-07        -0.20792E-09         0.00000E+00
    0.46747E-07        -0.22062E-09         0.00000E+00
    0.46750E-07        -0.23231E-09         0.00000E+00
    0.46753E-07        -0.24302E-09         0.00000E+00
    0.46755E-07        -0.25275E-09         0.00000E+00
    0.46758E-07        -0.26151E-09         0.00000E+00
    0.46761E-07        -0.26930E-09         0.00000E+00
    0.46764E-07        -0.27613E-09         0.00000E+00
    0.46767E-07        -0.28200E-09         0.00000E+00
    0.46770E-07        -0.28692E-09         0.00000E+00
    0.46774E-07        -0.29090E-09         0.00000E+00
    0.46777E-07        -0.29393E-09         0.00000E+00
    0.46780E-07        -0.29603E-09         0.00000E+00
    0.46783E-07        -0.29719E-09         0.00000E+00
    0.46786E-07        -0.29742E-09         0.00000E+00
    0.46790E-07        -0.29672E-09         0.00000E+00
    0.46793E-07        -0.29509E-09         0.00000E+00
    0.46796E-07        -0.29253E-09         0.00000E+00
    0.46799E-07        -0.28904E-09         0.00000E+00
    0.46802E-07        -0.28463E-09         0.00000E+00
    0.46805E-07        -0.27930E-09         0.00000E+00
    0.46808E-07        -0.27303E-09         0.00000E+00
    0.46811E-07        -0.26584E-09         0.00000E+00
    0.46814E-07        -0.25772E-09         0.00000E+00
    0.46817E-07        -0.24868E-09         0.00000E+00
    0.46819E-07        -0.23870E-09         0.00000E+00
    0.46822E-07        -0.22779E-09         0.00000E+00
    0.46824E-07        -0.21595E-09         0.00000E+00
    0.46826E-07        -0.20317E-09         0.00000E+00
    0.46828E-07        -0.18945E-09         0.00000E+00
    0.46830E-07        -0.17479E-09         0.00000E+00
    0.46832E-07        -0.15918E-09         0.00000E+00
    0.46834E-07        -0.14262E-09         0.00000E+00
    0.46835E-07        -0.12512E-09         0.00000E+00
    0.46837E-07        -0.10666E-09         0.00000E+00
    0.46838E-07        -0.87237E-10         0.00000E+00
    0.46839E-07        -0.66857E-10         0.00000E+00
    0.46839E-07        -0.45513E-10         0.00000E+00
    0.46840E-07        -0.23202E-10         0.00000E+00
    0.46840E-07        -0.11803E-10         0.00000E+00
    0.48191E-07        -0.12970E-10         0.00000E+00
    0.48191E-07        -0.25536E-10         0.00000E+00
    0.48191E-07        -0.50068E-10         0.00000E+00
    0.48192E-07        -0.73409E-10         0.00000E+00
    0.48193E-07        -0.95575E-10         0.00000E+00
    0.48194E-07        -0.11658E-09         0.00000E+00
    0.48195E-07        -0.13645E-09         0.00000E+00
    0.48197E-07        -0.15519E-09         0.00000E+00
    0.48198E-07        -0.17281E-09         0.00000E+00
    0.48200E-07        -0.18934E-09         0.00000E+00
    0.48202E-07        -0.20478E-09         0.00000E+00
    0.48204E-07        -0.21914E-09         0.00000E+00
    0.48206E-07        -0.23244E-09         0.00000E+00
    0.48208E-07        -0.24468E-09         0.00000E+00
    0.48211E-07        -0.25589E-09         0.00000E+00
    0.48213E-07        -0.26606E-09         0.00000E+00
    0.48215E-07        -0.27520E-09         0.00000E+00
    0.48218E-07        -0.28333E-09         0.00000E+00
    0.48221E-07        -0.29045E-09         0.00000E+00
    0.48223E-07        -0.29657E-09         0.00000E+00
    0.48226E-07        -0.30169E-09         0.00000E+00
    0.48229E-07        -0.30582E-09         0.00000E+00
    0.48231E-07        -0.30897E-09         0.00000E+00
    0.48234E-07        -0.31113E-09         0.00000E+00
    0.48237E-07        -0.31232E-09         0.00000E+00
    0.48240E-07        -0.31253E-09         0.00000E+00
    0.48243E-07        -0.31177E-09         0.00000E+00
    0.48245E-07        -0.31004E-09         0.00000E+00
    0.48248E-07        -0.30734E-09         0.00000E+00
    0.48251E-07        -0.30367E-09         0.00000E+00
    0.48253E-07        -0.29904E-09         0.00000E+00
    0.48256E-07        -0.29344E-09         0.00000E+00
    0.48259E-07        -0.28686E-09         0.00000E+00
    0.48261E-07        -0.27932E-09         0.00000E+00
    0.48264E-07        -0.27081E-09         0.00000E+00
    0.48266E-07        -0.26133E-09         0.00000E+00
    0.48268E-07        -0.25087E-09         0.00000E+00
    0.48271E-07        -0.23943E-09         0.00000E+00
    0.48273E-07        -0.22701E-09         0.00000E+00
    0.48275E-07        -0.21361E-09         0.00000E+00
    0.48277E-07        -0.19921E-09         0.00000E+00
    0.48278E-07        -0.18382E-09         0.00000E+00
    0.48280E-07        -0.16744E-09         0.00000E+00
    0.48281E-07        -0.15005E-09         0.00000E+00
    0.48283E-07        -0.13166E-09         0.00000E+00
    0.48284E-07        -0.11226E-09         0.00000E+00
    0.48285E-07        -0.91843E-10         0.00000E+00
    0.48286E-07        -0.70404E-10         0.00000E+00
    0.48286E-07        -0.47939E-10         0.00000E+00
    0.48287E-07        -0.24444E-10         0.00000E+00
    0.48287E-07        -0.12438E-10         0.00000E+00
    0.49698E-07        -0.13590E-10         0.00000E+00
    0.49698E-07        -0.26748E-10         0.00000E+00
    0.49698E-07        -0.52421E-10         0.00000E+00
    0.49699E-07        -0.76822E-10         0.00000E+00
    0.49700E-07        -0.99973E-10         0.00000E+00
    0.49701E-07        -0.12189E-09         0.00000E+00
    0.49702E-07        -0.14260E-09         0.00000E+00
    0.49703E-07        -0.16212E-09         0.00000E+00
    0.49704E-07        -0.18046E-09         0.00000E+00
    0.49705E-07        -0.19764E-09         0.00000E+00
    0.49707E-07        -0.21368E-09         0.00000E+00
    0.49709E-07        -0.22859E-09         0.00000E+00
    0.49710E-07        -0.24239E-09         0.00000E+00
    0.49712E-07        -0.25508E-09         0.00000E+00
    0.49714E-07        -0.26669E-09         0.00000E+00
    0.49716E-07        -0.27722E-09         0.00000E+00
    0.49718E-07        -0.28669E-09         0.00000E+00
    0.49720E-07        -0.29509E-09         0.00000E+00
    0.49722E-07        -0.30245E-09         0.00000E+00
    0.49724E-07        -0.30877E-09         0.00000E+00
    0.49726E-07        -0.31406E-09         0.00000E+00
    0.49728E-07        -0.31832E-09         0.00000E+00
    0.49731E-07        -0.32156E-09         0.00000E+00
    0.49733E-07        -0.32379E-09         0.00000E+00
    0.49735E-07        -0.32500E-09         0.00000E+00
    0.49737E-07        -0.32521E-09         0.00000E+00
    0.49740E-07        -0.32441E-09         0.00000E+00
    0.49742E-07        -0.32261E-09         0.00000E+00
    0.49744E-07        -0.31980E-09         0.00000E+00
    0.49746E-07        -0.31600E-09         0.00000E+00
    0.49748E-07        -0.31120E-09         0.00000E+00
    0.49750E-07        -0.30539E-09         0.00000E+00
    0.49753E-07        -0.29858E-09         0.00000E+00
    0.49755E-07        -0.29077E-09         0.00000E+00
    0.49757E-07        -0.28194E-09         0.00000E+00
    0.49759E-07        -0.27211E-09         0.00000E+00
    0.49760E-07        -0.26126E-09         0.00000E+00
    0.49762E-07        -0.24940E-09         0.00000E+00
    0.49764E-07        -0.23651E-09         0.00000E+00
    0.49766E-07        -0.22259E-09         0.00000E+00
    0.49767E-07        -0.20764E-09         0.00000E+00
    0.49769E-07        -0.19165E-09         0.00000E+00
    0.49770E-07        -0.17462E-09         0.00000E+00
    0.49771E-07        -0.15653E-09         0.00000E+00
    0.49772E-07        -0.13739E-09         0.00000E+00
    0.49773E-07        -0.11718E-09         0.00000E+00
    0.49774E-07        -0.95897E-10         0.00000E+00
    0.49775E-07        -0.73536E-10         0.00000E+00
    0.49775E-07        -0.50089E-10         0.00000E+00
    0.49776E-07        -0.25549E-10         0.00000E+00
    0.49776E-07        -0.13004E-10         0.00000E+00
    0.51248E-07        -0.14079E-10         0.00000E+00
    0.51248E-07        -0.27699E-10         0.00000E+00
    0.51248E-07        -0.54263E-10         0.00000E+00
    0.51249E-07        -0.79485E-10         0.00000E+00
    0.51249E-07        -0.10339E-09         0.00000E+00
    0.51250E-07        -0.12601E-09         0.00000E+00
    0.51251E-07        -0.14736E-09         0.00000E+00
    0.51251E-07        -0.16746E-09         0.00000E+00
    0.51252E-07        -0.18633E-09         0.00000E+00
    0.51253E-07        -0.20400E-09         0.00000E+00
    0.51254E-07        -0.22049E-09         0.00000E+00
    0.51255E-07        -0.23580E-09         0.00000E+00
    0.51257E-07        -0.24996E-09         0.00000E+00
    0.51258E-07        -0.26299E-09         0.00000E+00
    0.51259E-07        -0.27489E-09         0.00000E+00
    0.51261E-07        -0.28568E-09         0.00000E+00
    0.51262E-07        -0.29538E-09         0.00000E+00
    0.51263E-07        -0.30398E-09         0.00000E+00
    0.51265E-07        -0.31152E-09         0.00000E+00
    0.51266E-07        -0.31798E-09         0.00000E+00
    0.51268E-07        -0.32339E-09         0.00000E+00
    0.51269E-07        -0.32775E-09         0.00000E+00
    0.51271E-07        -0.33106E-09         0.00000E+00
    0.51272E-07        -0.33334E-09         0.00000E+00
    0.51274E-07        -0.33458E-09         0.00000E+00
    0.51275E-07        -0.33480E-09         0.00000E+00
    0.51277E-07        -0.33398E-09         0.00000E+00
    0.51278E-07        -0.33215E-09         0.00000E+00
    0.51280E-07        -0.32928E-09         0.00000E+00
    0.51281E-07        -0.32540E-09         0.00000E+00
    0.51283E-07        -0.32049E-09         0.00000E+00
    0.51284E-07        -0.31455E-09         0.00000E+00
    0.51286E-07        -0.30759E-09         0.00000E+00
    0.51287E-07        -0.29960E-09         0.00000E+00
    0.51289E-07        -0.29057E-09         0.00000E+00
    0.51290E-07        -0.28050E-09         0.00000E+00
    0.51292E-07        -0.26939E-09         0.00000E+00
    0.51293E-07        -0.25722E-09         0.00000E+00
    0.51294E-07        -0.24400E-09         0.00000E+00
    0.51295E-07        -0.22972E-09         0.00000E+00
    0.51297E-07        -0.21436E-09         0.00000E+00
    0.51298E-07        -0.19793E-09         0.00000E+00
    0.51299E-07        -0.18040E-09         0.00000E+00
    0.51300E-07        -0.16178E-09         0.00000E+00
    0.51300E-07        -0.14205E-09         0.00000E+00
    0.51301E-07        -0.12121E-09         0.00000E+00
    0.51302E-07        -0.99238E-10         0.00000E+00
    0.51302E-07        -0.76132E-10         0.00000E+00
    0.51303E-07        -0.51881E-10         0.00000E+00
    0.51303E-07        -0.26474E-10         0.00000E+00
    0.51303E-07        -0.13481E-10         0.00000E+00
    0.52837E-07        -0.14402E-10         0.00000E+00
    0.52837E-07        -0.28327E-10         0.00000E+00
    0.52837E-07        -0.55472E-10         0.00000E+00
    0.52837E-07        -0.81222E-10         0.00000E+00
    0.52837E-07        -0.10561E-09         0.00000E+00
    0.52838E-07        -0.12866E-09         0.00000E+00
    0.52838E-07        -0.15039E-09         0.00000E+00
    0.52839E-07        -0.17085E-09         0.00000E+00
    0.52839E-07        -0.19004E-09         0.00000E+00
    0.52840E-07        -0.20800E-09         0.00000E+00
    0.52840E-07        -0.22474E-09         0.00000E+00
    0.52841E-07        -0.24028E-09         0.00000E+00
    0.52841E-07        -0.25464E-09         0.00000E+00
    0.52842E-07        -0.26784E-09         0.00000E+00
    0.52842E-07        -0.27990E-09         0.00000E+00
    0.52843E-07        -0.29083E-09         0.00000E+00
    0.52844E-07        -0.30064E-09         0.00000E+00
    0.52844E-07        -0.30936E-09         0.00000E+00
    0.52845E-07        -0.31698E-09         0.00000E+00
    0.52846E-07        -0.32352E-09         0.00000E+00
    0.52846E-07        -0.32899E-09         0.00000E+00
    0.52847E-07        -0.33341E-09         0.00000E+00
    0.52848E-07        -0.33677E-09         0.00000E+00
    0.52848E-07        -0.33908E-09         0.00000E+00
    0.52849E-07        -0.34034E-09         0.00000E+00
    0.52850E-07        -0.34057E-09         0.00000E+00
    0.52851E-07        -0.33977E-09         0.00000E+00
    0.52851E-07        -0.33793E-09         0.00000E+00
    0.52852E-07        -0.33506E-09         0.00000E+00
    0.52853E-07        -0.33115E-09         0.00000E+00
    0.52853E-07        -0.32621E-09         0.00000E+00
    0.52854E-07        -0.32024E-09         0.00000E+00
    0.52855E-07        -0.31322E-09         0.00000E+00
    0.52855E-07        -0.30516E-09         0.00000E+00
    0.52856E-07        -0.29605E-09         0.00000E+00
    0.52857E-07        -0.28588E-09         0.00000E+00
    0.52858E-07        -0.27465E-09         0.00000E+00
    0.52858E-07        -0.26235E-09         0.00000E+00
    0.52859E-07        -0.24896E-09         0.00000E+00
    0.52860E-07        -0.23449E-09         0.00000E+00
    0.52860E-07        -0.21891E-09         0.00000E+00
    0.52861E-07        -0.20223E-09         0.00000E+00
    0.52862E-07        -0.18441E-09         0.00000E+00
    0.52862E-07        -0.16547E-09         0.00000E+00
    0.52863E-07        -0.14537E-09         0.00000E+00
    0.52863E-07        -0.12411E-09         0.00000E+00
    0.52863E-07        -0.10167E-09         0.00000E+00
    0.52864E-07        -0.78047E-10         0.00000E+00
    0.52864E-07        -0.53219E-10         0.00000E+00
    0.52864E-07        -0.27173E-10         0.00000E+00
    0.52864E-07        -0.13844E-10         0.00000E+00
    0.54460E-07        -0.14531E-10         0.00000E+00
    0.54460E-07        -0.28572E-10         0.00000E+00
    0.54460E-07        -0.55931E-10         0.00000E+00
    0.54460E-07        -0.81862E-10         0.00000E+00
    0.54460E-07        -0.10640E-09         0.00000E+00
    0.54460E-07        -0.12957E-09         0.00000E+00
    0.54460E-07        -0.15141E-09         0.00000E+00
    0.54460E-07        -0.17194E-09         0.00000E+00
    0.54460E-07        -0.19120E-09         0.00000E+00
    0.54460E-07        -0.20920E-09         0.00000E+00
    0.54460E-07        -0.22596E-09         0.00000E+00
    0.54460E-07        -0.24152E-09         0.00000E+00
    0.54460E-07        -0.25589E-09         0.00000E+00
    0.54460E-07        -0.26909E-09         0.00000E+00
    0.54460E-07        -0.28114E-09         0.00000E+00
    0.54459E-07        -0.29206E-09         0.00000E+00
    0.54459E-07        -0.30186E-09         0.00000E+00
    0.54459E-07        -0.31055E-09         0.00000E+00
    0.54459E-07        -0.31816E-09         0.00000E+00
    0.54458E-07        -0.32469E-09         0.00000E+00
    0.54458E-07        -0.33015E-09         0.00000E+00
    0.54458E-07        -0.33455E-09         0.00000E+00
    0.54458E-07        -0.33791E-09         0.00000E+00
    0.54457E-07        -0.34022E-09         0.00000E+00
    0.54457E-07        -0.34150E-09         0.00000E+00
    0.54457E-07        -0.34175E-09         0.00000E+00
    0.54456E-07        -0.34096E-09         0.00000E+00
    0.54456E-07        -0.33916E-09         0.00000E+00
    0.54456E-07        -0.33632E-09         0.00000E+00
    0.54455E-07        -0.33246E-09         0.00000E+00
    0.54455E-07        -0.32757E-09         0.00000E+00
    0.54455E-07        -0.32165E-09         0.00000E+00
    0.54455E-07        -0.31470E-09         0.00000E+00
    0.54454E-07        -0.30670E-09         0.00000E+00
    0.54454E-07        -0.29765E-09         0.00000E+00
    0.54454E-07        -0.28755E-09         0.00000E+00
    0.54454E-07        -0.27637E-09         0.00000E+00
    0.54454E-07        -0.26412E-09         0.00000E+00
    0.54454E-07        -0.25078E-09         0.00000E+00
    0.54454E-07        -0.23633E-09         0.00000E+00
    0.54454E-07        -0.22076E-09         0.00000E+00
    0.54454E-07        -0.20406E-09         0.00000E+00
    0.54454E-07        -0.18621E-09         0.00000E+00
    0.54454E-07        -0.16720E-09         0.00000E+00
    0.54454E-07        -0.14700E-09         0.00000E+00
    0.54454E-07        -0.12559E-09         0.00000E+00
    0.54454E-07        -0.10297E-09         0.00000E+00
    0.54455E-07        -0.79106E-10         0.00000E+00
    0.54455E-07        -0.53985E-10         0.00000E+00
    0.54455E-07        -0.27586E-10         0.00000E+00
    0.54455E-07        -0.14065E-10         0.00000E+00
    0.56114E-07        -0.14438E-10         0.00000E+00
    0.56114E-07        -0.28381E-10         0.00000E+00
    0.56114E-07        -0.55540E-10         0.00000E+00
    0.56114E-07        -0.81262E-10         0.00000E+00
    0.56113E-07        -0.10558E-09         0.00000E+00
    0.56113E-07        -0.12853E-09         0.00000E+00
    0.56112E-07        -0.15014E-09         0.00000E+00
    0.56112E-07        -0.17044E-09         0.00000E+00
    0.56111E-07        -0.18946E-09         0.00000E+00
    0.56111E-07        -0.20723E-09         0.00000E+00
    0.56110E-07        -0.22377E-09         0.00000E+00
    0.56109E-07        -0.23910E-09         0.00000E+00
    0.56108E-07        -0.25325E-09         0.00000E+00
    0.56107E-07        -0.26624E-09         0.00000E+00
    0.56106E-07        -0.27808E-09         0.00000E+00
    0.56105E-07        -0.28881E-09         0.00000E+00
    0.56104E-07        -0.29842E-09         0.00000E+00
    0.56102E-07        -0.30695E-09         0.00000E+00
    0.56101E-07        -0.31440E-09         0.00000E+00
    0.56100E-07        -0.32080E-09         0.00000E+00
    0.56098E-07        -0.32614E-09         0.00000E+00
    0.56097E-07        -0.33044E-09         0.00000E+00
    0.56096E-07        -0.33372E-09         0.00000E+00
    0.56094E-07        -0.33598E-09         0.00000E+00
    0.56093E-07        -0.33723E-09         0.00000E+00
    0.56091E-07        -0.33747E-09         0.00000E+00
    0.56090E-07        -0.33671E-09         0.00000E+00
    0.56088E-07        -0.33495E-09         0.00000E+00
    0.56087E-07        -0.33219E-09         0.00000E+00
    0.56085E-07        -0.32843E-09         0.00000E+00
    0.56084E-07        -0.32367E-09         0.00000E+00
    0.56082E-07        -0.31790E-09         0.00000E+00
    0.56081E-07        -0.31112E-09         0.00000E+00
    0.56080E-07        -0.30333E-09         0.00000E+00
    0.56079E-07        -0.29450E-09         0.00000E+00
    0.56077E-07        -0.28464E-09         0.00000E+00
    0.56076E-07        -0.27372E-09         0.00000E+00
    0.56075E-07        -0.26174E-09         0.00000E+00
    0.56074E-07        -0.24868E-09         0.00000E+00
    0.56073E-07        -0.23452E-09         0.00000E+00
    0.56073E-07        -0.21924E-09         0.00000E+00
    0.56072E-07        -0.20282E-09         0.00000E+00
    0.56071E-07        -0.18524E-09         0.00000E+00
    0.56071E-07        -0.16647E-09         0.00000E+00
    0.56070E-07        -0.14650E-09         0.00000E+00
    0.56070E-07        -0.12530E-09         0.00000E+00
    0.56070E-07        -0.10283E-09         0.00000E+00
    0.56070E-07        -0.79089E-10         0.00000E+00
    0.56070E-07        -0.54033E-10         0.00000E+00
    0.56070E-07        -0.27640E-10         0.00000E+00
    0.56070E-07        -0.14106E-10         0.00000E+00
    0.57793E-07        -0.14105E-10         0.00000E+00
    0.57792E-07        -0.27722E-10         0.00000E+00
    0.57792E-07        -0.54234E-10         0.00000E+00
    0.57792E-07        -0.79325E-10         0.00000E+00
    0.57791E-07        -0.10303E-09         0.00000E+00
    0.57790E-07        -0.12538E-09         0.00000E+00
    0.57789E-07        -0.14640E-09         0.00000E+00
    0.57788E-07        -0.16614E-09         0.00000E+00
    0.57787E-07        -0.18461E-09         0.00000E+00
    0.57786E-07        -0.20184E-09         0.00000E+00
    0.57784E-07        -0.21786E-09         0.00000E+00
    0.57783E-07        -0.23269E-09         0.00000E+00
    0.57781E-07        -0.24636E-09         0.00000E+00
    0.57779E-07        -0.25889E-09         0.00000E+00
    0.57777E-07        -0.27030E-09         0.00000E+00
    0.57775E-07        -0.28061E-09         0.00000E+00
    0.57773E-07        -0.28984E-09         0.00000E+00
    0.57770E-07        -0.29800E-09         0.00000E+00
    0.57768E-07        -0.30512E-09         0.00000E+00
    0.57765E-07        -0.31122E-09         0.00000E+00
    0.57763E-07        -0.31629E-09         0.00000E+00
    0.57760E-07        -0.32037E-09         0.00000E+00
    0.57758E-07        -0.32346E-09         0.00000E+00
    0.57755E-07        -0.32556E-09         0.00000E+00
    0.57752E-07        -0.32670E-09         0.00000E+00
    0.57749E-07        -0.32688E-09         0.00000E+00
    0.57746E-07        -0.32610E-09         0.00000E+00
    0.57744E-07        -0.32437E-09         0.00000E+00
    0.57741E-07        -0.32168E-09         0.00000E+00
    0.57738E-07        -0.31806E-09         0.00000E+00
    0.57735E-07        -0.31348E-09         0.00000E+00
    0.57732E-07        -0.30794E-09         0.00000E+00
    0.57730E-07        -0.30145E-09         0.00000E+00
    0.57727E-07        -0.29399E-09         0.00000E+00
    0.57724E-07        -0.28555E-09         0.00000E+00
    0.57722E-07        -0.27612E-09         0.00000E+00
    0.57720E-07        -0.26569E-09         0.00000E+00
    0.57717E-07        -0.25423E-09         0.00000E+00
    0.57715E-07        -0.24172E-09         0.00000E+00
    0.57713E-07        -0.22815E-09         0.00000E+00
    0.57712E-07        -0.21348E-09         0.00000E+00
    0.57710E-07        -0.19770E-09         0.00000E+00
    0.57709E-07        -0.18076E-09         0.00000E+00
    0.57707E-07        -0.16265E-09         0.00000E+00
    0.57706E-07        -0.14332E-09         0.00000E+00
    0.57705E-07        -0.12274E-09         0.00000E+00
    0.57705E-07        -0.10088E-09         0.00000E+00
    0.57704E-07        -0.77704E-10         0.00000E+00
    0.57704E-07        -0.53168E-10         0.00000E+00
    0.57703E-07        -0.27238E-10         0.00000E+00
    0.57703E-07        -0.13920E-10         0.00000E+00
    0.59491E-07        -0.13532E-10         0.00000E+00
    0.59491E-07        -0.26588E-10         0.00000E+00
    0.59490E-07        -0.52003E-10         0.00000E+00
    0.59490E-07        -0.76036E-10         0.00000E+00
    0.59489E-07        -0.98719E-10         0.00000E+00
    0.59488E-07        -0.12008E-09         0.00000E+00
    0.59486E-07        -0.14016E-09         0.00000E+00
    0.59485E-07        -0.15897E-09         0.00000E+00
    0.59483E-07        -0.17655E-09         0.00000E+00
    0.59481E-07        -0.19292E-09         0.00000E+00
    0.59479E-07        -0.20811E-09         0.00000E+00
    0.59476E-07        -0.22215E-09         0.00000E+00
    0.59474E-07        -0.23505E-09         0.00000E+00
    0.59471E-07        -0.24684E-09         0.00000E+00
    0.59468E-07        -0.25754E-09         0.00000E+00
    0.59465E-07        -0.26718E-09         0.00000E+00
    0.59462E-07        -0.27578E-09         0.00000E+00
    0.59458E-07        -0.28334E-09         0.00000E+00
    0.59455E-07        -0.28991E-09         0.00000E+00
    0.59451E-07        -0.29548E-09         0.00000E+00
    0.59447E-07        -0.30009E-09         0.00000E+00
    0.59443E-07        -0.30374E-09         0.00000E+00
    0.59439E-07        -0.30646E-09         0.00000E+00
    0.59435E-07        -0.30826E-09         0.00000E+00
    0.59431E-07        -0.30914E-09         0.00000E+00
    0.59426E-07        -0.30912E-09         0.00000E+00
    0.59422E-07        -0.30822E-09         0.00000E+00
    0.59417E-07        -0.30643E-09         0.00000E+00
    0.59413E-07        -0.30377E-09         0.00000E+00
    0.59409E-07        -0.30024E-09         0.00000E+00
    0.59404E-07        -0.29585E-09         0.00000E+00
    0.59400E-07        -0.29058E-09         0.00000E+00
    0.59396E-07        -0.28444E-09         0.00000E+00
    0.59391E-07        -0.27741E-09         0.00000E+00
    0.59387E-07        -0.26950E-09         0.00000E+00
    0.59383E-07        -0.26069E-09         0.00000E+00
    0.59379E-07        -0.25095E-09         0.00000E+00
    0.59376E-07        -0.24027E-09         0.00000E+00
    0.59372E-07        -0.22863E-09         0.00000E+00
    0.59369E-07        -0.21600E-09         0.00000E+00
    0.59366E-07        -0.20233E-09         0.00000E+00
    0.59363E-07        -0.18761E-09         0.00000E+00
    0.59360E-07        -0.17178E-09         0.00000E+00
    0.59358E-07        -0.15481E-09         0.00000E+00
    0.59356E-07        -0.13665E-09         0.00000E+00
    0.59354E-07        -0.11725E-09         0.00000E+00
    0.59353E-07        -0.96566E-10         0.00000E+00
    0.59352E-07        -0.74536E-10         0.00000E+00
    0.59351E-07        -0.51112E-10         0.00000E+00
    0.59351E-07        -0.26243E-10         0.00000E+00
    0.59351E-07        -0.13441E-10         0.00000E+00
    0.61204E-07        -0.12735E-10         0.00000E+00
    0.61203E-07        -0.25017E-10         0.00000E+00
    0.61203E-07        -0.48915E-10         0.00000E+00
    0.61202E-07        -0.71491E-10         0.00000E+00
    0.61201E-07        -0.92771E-10         0.00000E+00
    0.61199E-07        -0.11278E-09         0.00000E+00
    0.61198E-07        -0.13155E-09         0.00000E+00
    0.61196E-07        -0.14910E-09         0.00000E+00
    0.61193E-07        -0.16546E-09         0.00000E+00
    0.61191E-07        -0.18065E-09         0.00000E+00
    0.61188E-07        -0.19469E-09         0.00000E+00
    0.61185E-07        -0.20761E-09         0.00000E+00
    0.61181E-07        -0.21944E-09         0.00000E+00
    0.61178E-07        -0.23019E-09         0.00000E+00
    0.61174E-07        -0.23989E-09         0.00000E+00
    0.61170E-07        -0.24856E-09         0.00000E+00
    0.61165E-07        -0.25623E-09         0.00000E+00
    0.61161E-07        -0.26291E-09         0.00000E+00
    0.61156E-07        -0.26864E-09         0.00000E+00
    0.61151E-07        -0.27342E-09         0.00000E+00
    0.61146E-07        -0.27728E-09         0.00000E+00
    0.61141E-07        -0.28025E-09         0.00000E+00
    0.61135E-07        -0.28234E-09         0.00000E+00
    0.61130E-07        -0.28357E-09         0.00000E+00
    0.61124E-07        -0.28396E-09         0.00000E+00
    0.61118E-07        -0.28353E-09         0.00000E+00
    0.61112E-07        -0.28229E-09         0.00000E+00
    0.61106E-07        -0.28026E-09         0.00000E+00
    0.61100E-07        -0.27746E-09         0.00000E+00
    0.61094E-07        -0.27389E-09         0.00000E+00
    0.61087E-07        -0.26956E-09         0.00000E+00
    0.61081E-07        -0.26448E-09         0.00000E+00
    0.61075E-07        -0.25866E-09         0.00000E+00
    0.61069E-07        -0.25209E-09         0.00000E+00
    0.61063E-07        -0.24476E-09         0.00000E+00
    0.61057E-07        -0.23667E-09         0.00000E+00
    0.61051E-07        -0.22781E-09         0.00000E+00
    0.61045E-07        -0.21816E-09         0.00000E+00
    0.61040E-07        -0.20768E-09         0.00000E+00
    0.61035E-07        -0.19635E-09         0.00000E+00
    0.61030E-07        -0.18412E-09         0.00000E+00
    0.61026E-07        -0.17096E-09         0.00000E+00
    0.61022E-07        -0.15681E-09         0.00000E+00
    0.61018E-07        -0.14161E-09         0.00000E+00
    0.61015E-07        -0.12529E-09         0.00000E+00
    0.61012E-07        -0.10779E-09         0.00000E+00
    0.61010E-07        -0.89036E-10         0.00000E+00
    0.61008E-07        -0.68953E-10         0.00000E+00
    0.61007E-07        -0.47451E-10         0.00000E+00
    0.61006E-07        -0.24442E-10         0.00000E+00
    0.61006E-07        -0.12549E-10         0.00000E+00
    0.62924E-07        -0.11758E-10         0.00000E+00
    0.62924E-07        -0.23091E-10         0.00000E+00
    0.62924E-07        -0.45128E-10         0.00000E+00
    0.62923E-07        -0.65914E-10         0.00000E+00
    0.62921E-07        -0.85468E-10         0.00000E+00
    0.62920E-07        -0.10381E-09         0.00000E+00
    0.62917E-07        -0.12096E-09         0.00000E+00
    0.62915E-07        -0.13694E-09         0.00000E+00
    0.62912E-07        -0.15177E-09         0.00000E+00
    0.62909E-07        -0.16547E-09         0.00000E+00
    0.62906E-07        -0.17807E-09         0.00000E+00
    0.62902E-07        -0.18957E-09         0.00000E+00
    0.62898E-07        -0.20002E-09         0.00000E+00
    0.62894E-07        -0.20942E-09         0.00000E+00
    0.62889E-07        -0.21781E-09         0.00000E+00
    0.62884E-07        -0.22521E-09         0.00000E+00
    0.62879E-07        -0.23163E-09         0.00000E+00
    0.62874E-07        -0.23711E-09         0.00000E+00
    0.62868E-07        -0.24166E-09         0.00000E+00
    0.62862E-07        -0.24532E-09         0.00000E+00
    0.62856E-07        -0.24811E-09         0.00000E+00
    0.62849E-07        -0.25005E-09         0.00000E+00
    0.62842E-07        -0.25116E-09         0.00000E+00
    0.62835E-07        -0.25148E-09         0.00000E+00
    0.62828E-07        -0.25103E-09         0.00000E+00
    0.62821E-07        -0.24984E-09         0.00000E+00
    0.62813E-07        -0.24792E-09         0.00000E+00
    0.62805E-07        -0.24531E-09         0.00000E+00
    0.62798E-07        -0.24203E-09         0.00000E+00
    0.62789E-07        -0.23810E-09         0.00000E+00
    0.62781E-07        -0.23355E-09         0.00000E+00
    0.62773E-07        -0.22839E-09         0.00000E+00
    0.62765E-07        -0.22265E-09         0.00000E+00
    0.62756E-07        -0.21634E-09         0.00000E+00
    0.62748E-07        -0.20947E-09         0.00000E+00
    0.62740E-07        -0.20204E-09         0.00000E+00
    0.62732E-07        -0.19406E-09         0.00000E+00
    0.62724E-07        -0.18552E-09         0.00000E+00
    0.62716E-07        -0.17641E-09         0.00000E+00
    0.62708E-07        -0.16668E-09         0.00000E+00
    0.62701E-07        -0.15632E-09         0.00000E+00
    0.62695E-07        -0.14526E-09         0.00000E+00
    0.62688E-07        -0.13345E-09         0.00000E+00
    0.62683E-07        -0.12080E-09         0.00000E+00
    0.62678E-07        -0.10724E-09         0.00000E+00
    0.62673E-07        -0.92630E-10         0.00000E+00
    0.62670E-07        -0.76862E-10         0.00000E+00
    0.62667E-07        -0.59812E-10         0.00000E+00
    0.62665E-07        -0.41384E-10         0.00000E+00
    0.62664E-07        -0.21464E-10         0.00000E+00
    0.62664E-07        -0.11114E-10         0.00000E+00
    0.64647E-07        -0.10668E-10         0.00000E+00
    0.64647E-07        -0.20939E-10         0.00000E+00
    0.64646E-07        -0.40886E-10         0.00000E+00
    0.64645E-07        -0.59653E-10         0.00000E+00
    0.64644E-07        -0.77250E-10         0.00000E+00
    0.64642E-07        -0.93689E-10         0.00000E+00
    0.64640E-07        -0.10899E-09         0.00000E+00
    0.64637E-07        -0.12315E-09         0.00000E+00
    0.64634E-07        -0.13621E-09         0.00000E+00
    0.64631E-07        -0.14818E-09         0.00000E+00
    0.64627E-07        -0.15907E-09         0.00000E+00
    0.64623E-07        -0.16890E-09         0.00000E+00
    0.64618E-07        -0.17770E-09         0.00000E+00
    0.64613E-07        -0.18548E-09         0.00000E+00
    0.64608E-07        -0.19227E-09         0.00000E+00
    0.64603E-07        -0.19810E-09         0.00000E+00
    0.64597E-07        -0.20297E-09         0.00000E+00
    0.64591E-07        -0.20693E-09         0.00000E+00
    0.64584E-07        -0.20999E-09         0.00000E+00
    0.64578E-07        -0.21218E-09         0.00000E+00
    0.64571E-07        -0.21353E-09         0.00000E+00
    0.64563E-07        -0.21406E-09         0.00000E+00
    0.64555E-07        -0.21381E-09         0.00000E+00
    0.64547E-07        -0.21280E-09         0.00000E+00
    0.64539E-07        -0.21107E-09         0.00000E+00
    0.64530E-07        -0.20865E-09         0.00000E+00
    0.64521E-07        -0.20558E-09         0.00000E+00
    0.64512E-07        -0.20188E-09         0.00000E+00
    0.64503E-07        -0.19761E-09         0.00000E+00
    0.64493E-07        -0.19278E-09         0.00000E+00
    0.64483E-07        -0.18746E-09         0.00000E+00
    0.64473E-07        -0.18167E-09         0.00000E+00
    0.64462E-07        -0.17545E-09         0.00000E+00
    0.64452E-07        -0.16886E-09         0.00000E+00
    0.64441E-07        -0.16192E-09         0.00000E+00
    0.64430E-07        -0.15468E-09         0.00000E+00
    0.64420E-07        -0.14717E-09         0.00000E+00
    0.64409E-07        -0.13943E-09         0.00000E+00
    0.64398E-07        -0.13149E-09         0.00000E+00
    0.64387E-07        -0.12335E-09         0.00000E+00
    0.64377E-07        -0.11502E-09         0.00000E+00
    0.64367E-07        -0.10647E-09         0.00000E+00
    0.64358E-07        -0.97623E-10         0.00000E+00
    0.64349E-07        -0.88400E-10         0.00000E+00
    0.64341E-07        -0.78683E-10         0.00000E+00
    0.64334E-07        -0.68346E-10         0.00000E+00
    0.64328E-07        -0.57243E-10         0.00000E+00
    0.64323E-07        -0.45130E-10         0.00000E+00
    0.64320E-07        -0.31665E-10         0.00000E+00
    0.64318E-07        -0.16576E-10         0.00000E+00
    0.64317E-07        -0.86025E-11         0.00000E+00
    0.66365E-07        -0.95446E-11         0.00000E+00
    0.66365E-07        -0.18713E-10         0.00000E+00
    0.66364E-07        -0.36485E-10         0.00000E+00
    0.66363E-07        -0.53130E-10         0.00000E+00
    0.66362E-07        -0.68654E-10         0.00000E+00
    0.66360E-07        -0.83064E-10         0.00000E+00
    0.66357E-07        -0.96369E-10         0.00000E+00
    0.66355E-07        -0.10858E-09         0.00000E+00
    0.66352E-07        -0.11971E-09         0.00000E+00
    0.66348E-07        -0.12978E-09         0.00000E+00
    0.66344E-07        -0.13879E-09         0.00000E+00
    0.66340E-07        -0.14678E-09         0.00000E+00
    0.66335E-07        -0.15374E-09         0.00000E+00
    0.66330E-07        -0.15971E-09         0.00000E+00
    0.66325E-07        -0.16470E-09         0.00000E+00
    0.66319E-07        -0.16874E-09         0.00000E+00
    0.66313E-07        -0.17184E-09         0.00000E+00
    0.66307E-07        -0.17403E-09         0.00000E+00
    0.66300E-07        -0.17534E-09         0.00000E+00
    0.66293E-07        -0.17578E-09         0.00000E+00
    0.66285E-07        -0.17539E-09         0.00000E+00
    0.66277E-07        -0.17419E-09         0.00000E+00
    0.66269E-07        -0.17221E-09         0.00000E+00
    0.66260E-07        -0.16949E-09         0.00000E+00
    0.66251E-07        -0.16606E-09         0.00000E+00
    0.66242E-07        -0.16195E-09         0.00000E+00
    0.66232E-07        -0.15721E-09         0.00000E+00
    0.66222E-07        -0.15187E-09         0.00000E+00
    0.66212E-07        -0.14597E-09         0.00000E+00
    0.66201E-07        -0.13958E-09         0.00000E+00
    0.66190E-07        -0.13273E-09         0.00000E+00
    0.66178E-07        -0.12549E-09         0.00000E+00
    0.66166E-07        -0.11792E-09         0.00000E+00
    0.66154E-07        -0.11008E-09         0.00000E+00
    0.66141E-07        -0.10206E-09         0.00000E+00
    0.66128E-07        -0.93928E-10         0.00000E+00
    0.66115E-07        -0.85779E-10         0.00000E+00
    0.66102E-07        -0.77699E-10         0.00000E+00
    0.66088E-07        -0.69776E-10         0.00000E+00
    0.66074E-07        -0.62110E-10         0.00000E+00
    0.66060E-07        -0.54818E-10         0.00000E+00
    0.66046E-07        -0.48033E-10         0.00000E+00
    0.66032E-07        -0.41910E-10         0.00000E+00
    0.66018E-07        -0.36533E-10         0.00000E+00
    0.66005E-07        -0.31846E-10         0.00000E+00
    0.65993E-07        -0.27627E-10         0.00000E+00
    0.65981E-07        -0.23464E-10         0.00000E+00
    0.65972E-07        -0.19030E-10         0.00000E+00
    0.65965E-07        -0.14106E-10         0.00000E+00
    0.65960E-07        -0.80764E-11         0.00000E+00
    0.65959E-07        -0.46650E-11         0.00000E+00
    0.68071E-07        -0.84618E-11         0.00000E+00
    0.68070E-07        -0.16558E-10         0.00000E+00
    0.68070E-07        -0.32200E-10         0.00000E+00
    0.68069E-07        -0.46746E-10         0.00000E+00
    0.68067E-07        -0.60199E-10         0.00000E+00
    0.68066E-07        -0.72564E-10         0.00000E+00
    0.68063E-07        -0.83851E-10         0.00000E+00
    0.68061E-07        -0.94069E-10         0.00000E+00
    0.68058E-07        -0.10323E-09         0.00000E+00
    0.68054E-07        -0.11135E-09         0.00000E+00
    0.68050E-07        -0.11843E-09         0.00000E+00
    0.68046E-07        -0.12450E-09         0.00000E+00
    0.68042E-07        -0.12957E-09         0.00000E+00
    0.68037E-07        -0.13366E-09         0.00000E+00
    0.68031E-07        -0.13678E-09         0.00000E+00
    0.68026E-07        -0.13895E-09         0.00000E+00
    0.68020E-07        -0.14019E-09         0.00000E+00
    0.68013E-07        -0.14052E-09         0.00000E+00
    0.68007E-07        -0.13997E-09         0.00000E+00
    0.68000E-07        -0.13855E-09         0.00000E+00
    0.67992E-07        -0.13628E-09         0.00000E+00
    0.67984E-07        -0.13320E-09         0.00000E+00
    0.67976E-07        -0.12933E-09         0.00000E+00
    0.67968E-07        -0.12469E-09         0.00000E+00
    0.67959E-07        -0.11931E-09         0.00000E+00
    0.67949E-07        -0.11324E-09         0.00000E+00
    0.67940E-07        -0.10649E-09         0.00000E+00
    0.67929E-07        -0.99119E-10         0.00000E+00
    0.67919E-07        -0.91160E-10         0.00000E+00
    0.67908E-07        -0.82664E-10         0.00000E+00
    0.67897E-07        -0.73683E-10         0.00000E+00
    0.67885E-07        -0.64276E-10         0.00000E+00
    0.67873E-07        -0.54505E-10         0.00000E+00
    0.67860E-07        -0.44435E-10         0.00000E+00
    0.67847E-07        -0.34142E-10         0.00000E+00
    0.67833E-07        -0.23721E-10         0.00000E+00
    0.67819E-07        -0.13287E-10         0.00000E+00
    0.67804E-07        -0.29984E-11         0.00000E+00
    0.67789E-07         0.69511E-11         0.00000E+00
    0.67773E-07         0.16380E-10         0.00000E+00
    0.67756E-07         0.25132E-10         0.00000E+00
    0.67739E-07         0.33070E-10         0.00000E+00
    0.67721E-07         0.40093E-10         0.00000E+00
    0.67703E-07         0.45842E-10         0.00000E+00
    0.67685E-07         0.49519E-10         0.00000E+00
    0.67667E-07         0.50029E-10         0.00000E+00
    0.67648E-07         0.46154E-10         0.00000E+00
    0.67630E-07         0.37782E-10         0.00000E+00
    0.67611E-07         0.26326E-10         0.00000E+00
    0.67597E-07         0.13184E-10         0.00000E+00
    0.67591E-07         0.63082E-11         0.00000E+00
    0.69756E-07        -0.74649E-11         0.00000E+00
    0.69756E-07        -0.14562E-10         0.00000E+00
    0.69755E-07        -0.28209E-10         0.00000E+00
    0.69754E-07        -0.40763E-10         0.00000E+00
    0.69753E-07        -0.52233E-10         0.00000E+00
    0.69751E-07        -0.62630E-10         0.00000E+00
    0.69749E-07        -0.71966E-10         0.00000E+00
    0.69746E-07        -0.80253E-10         0.00000E+00
    0.69743E-07        -0.87504E-10         0.00000E+00
    0.69740E-07        -0.93734E-10         0.00000E+00
    0.69737E-07        -0.98955E-10         0.00000E+00
    0.69733E-07        -0.10318E-09         0.00000E+00
    0.69728E-07        -0.10643E-09         0.00000E+00
    0.69724E-07        -0.10871E-09         0.00000E+00
    0.69719E-07        -0.11005E-09         0.00000E+00
    0.69714E-07        -0.11044E-09         0.00000E+00
    0.69708E-07        -0.10992E-09         0.00000E+00
    0.69702E-07        -0.10850E-09         0.00000E+00
    0.69696E-07        -0.10619E-09         0.00000E+00
    0.69689E-07        -0.10301E-09         0.00000E+00
    0.69682E-07        -0.98972E-10         0.00000E+00
    0.69675E-07        -0.94106E-10         0.00000E+00
    0.69667E-07        -0.88429E-10         0.00000E+00
    0.69660E-07        -0.81962E-10         0.00000E+00
    0.69651E-07        -0.74731E-10         0.00000E+00
    0.69643E-07        -0.66760E-10         0.00000E+00
    0.69634E-07        -0.58080E-10         0.00000E+00
    0.69625E-07        -0.48715E-10         0.00000E+00
    0.69615E-07        -0.38692E-10         0.00000E+00
    0.69605E-07        -0.28045E-10         0.00000E+00
    0.69595E-07        -0.16809E-10         0.00000E+00
    0.69584E-07        -0.50331E-11         0.00000E+00
    0.69573E-07         0.72131E-11         0.00000E+00
    0.69561E-07         0.19835E-10         0.00000E+00
    0.69549E-07         0.32747E-10         0.00000E+00
    0.69536E-07         0.45881E-10         0.00000E+00
    0.69523E-07         0.59187E-10         0.00000E+00
    0.69509E-07         0.72675E-10         0.00000E+00
    0.69494E-07         0.86377E-10         0.00000E+00
    0.69479E-07         0.10011E-09         0.00000E+00
    0.69464E-07         0.11342E-09         0.00000E+00
    0.69447E-07         0.12566E-09         0.00000E+00
    0.69430E-07         0.13591E-09         0.00000E+00
    0.69411E-07         0.14392E-09         0.00000E+00
    0.69390E-07         0.15067E-09         0.00000E+00
    0.69369E-07         0.15712E-09         0.00000E+00
    0.69349E-07         0.16351E-09         0.00000E+00
    0.69332E-07         0.16539E-09         0.00000E+00
    0.69320E-07         0.14843E-09         0.00000E+00
    0.69314E-07         0.93172E-10         0.00000E+00
    0.69312E-07         0.53596E-10         0.00000E+00
    0.71411E-07        -0.65492E-11         0.00000E+00
    0.71411E-07        -0.12723E-10         0.00000E+00
    0.71410E-07        -0.24514E-10         0.00000E+00
    0.71410E-07        -0.35204E-10         0.00000E+00
    0.71408E-07        -0.44814E-10         0.00000E+00
    0.71407E-07        -0.53366E-10         0.00000E+00
    0.71405E-07        -0.60880E-10         0.00000E+00
    0.71402E-07        -0.67372E-10         0.00000E+00
    0.71400E-07        -0.72862E-10         0.00000E+00
    0.71397E-07        -0.77364E-10         0.00000E+00
    0.71393E-07        -0.80894E-10         0.00000E+00
    0.71390E-07        -0.83465E-10         0.00000E+00
    0.71386E-07        -0.85091E-10         0.00000E+00
    0.71382E-07        -0.85783E-10         0.00000E+00
    0.71377E-07        -0.85554E-10         0.00000E+00
    0.71372E-07        -0.84418E-10         0.00000E+00
    0.71367E-07        -0.82385E-10         0.00000E+00
    0.71362E-07        -0.79468E-10         0.00000E+00
    0.71356E-07        -0.75681E-10         0.00000E+00
    0.71351E-07        -0.71038E-10         0.00000E+00
    0.71344E-07        -0.65556E-10         0.00000E+00
    0.71338E-07        -0.59241E-10         0.00000E+00
    0.71332E-07        -0.52104E-10         0.00000E+00
    0.71325E-07        -0.44161E-10         0.00000E+00
    0.71318E-07        -0.35425E-10         0.00000E+00
    0.71310E-07        -0.25915E-10         0.00000E+00
    0.71303E-07        -0.15651E-10         0.00000E+00
    0.71295E-07        -0.46764E-11         0.00000E+00
    0.71287E-07         0.69624E-11         0.00000E+00
    0.71278E-07         0.19235E-10         0.00000E+00
    0.71270E-07         0.32111E-10         0.00000E+00
    0.71261E-07         0.45587E-10         0.00000E+00
    0.71251E-07         0.59710E-10         0.00000E+00
    0.71242E-07         0.74582E-10         0.00000E+00
    0.71232E-07         0.90189E-10         0.00000E+00
    0.71221E-07         0.10636E-09         0.00000E+00
    0.71211E-07         0.12285E-09         0.00000E+00
    0.71200E-07         0.13916E-09         0.00000E+00
    0.71189E-07         0.15467E-09         0.00000E+00
    0.71176E-07         0.16958E-09         0.00000E+00
    0.71162E-07         0.18497E-09         0.00000E+00
    0.71147E-07         0.20187E-09         0.00000E+00
    0.71134E-07         0.22193E-09         0.00000E+00
    0.71124E-07         0.24402E-09         0.00000E+00
    0.71118E-07         0.26021E-09         0.00000E+00
    0.71118E-07         0.25870E-09         0.00000E+00
    0.71122E-07         0.23147E-09         0.00000E+00
    0.71130E-07         0.18016E-09         0.00000E+00
    0.71142E-07         0.11621E-09         0.00000E+00
    0.71152E-07         0.54597E-10         0.00000E+00
    0.71157E-07         0.26117E-10         0.00000E+00
    0.73027E-07        -0.56543E-11         0.00000E+00
    0.73027E-07        -0.10927E-10         0.00000E+00
    0.73026E-07        -0.20919E-10         0.00000E+00
    0.73025E-07        -0.29823E-10         0.00000E+00
    0.73024E-07        -0.37676E-10         0.00000E+00
    0.73023E-07        -0.44511E-10         0.00000E+00
    0.73021E-07        -0.50357E-10         0.00000E+00
    0.73018E-07        -0.55237E-10         0.00000E+00
    0.73016E-07        -0.59171E-10         0.00000E+00
    0.73013E-07        -0.62176E-10         0.00000E+00
    0.73010E-07        -0.64266E-10         0.00000E+00
    0.73007E-07        -0.65455E-10         0.00000E+00
    0.73003E-07        -0.65753E-10         0.00000E+00
    0.72999E-07        -0.65168E-10         0.00000E+00
    0.72995E-07        -0.63705E-10         0.00000E+00
    0.72991E-07        -0.61366E-10         0.00000E+00
    0.72987E-07        -0.58162E-10         0.00000E+00
    0.72982E-07        -0.54103E-10         0.00000E+00
    0.72977E-07        -0.49196E-10         0.00000E+00
    0.72972E-07        -0.43442E-10         0.00000E+00
    0.72967E-07        -0.36853E-10         0.00000E+00
    0.72962E-07        -0.29465E-10         0.00000E+00
    0.72956E-07        -0.21307E-10         0.00000E+00
    0.72950E-07        -0.12389E-10         0.00000E+00
    0.72945E-07        -0.27207E-11         0.00000E+00
    0.72938E-07         0.76968E-11         0.00000E+00
    0.72932E-07         0.18870E-10         0.00000E+00
    0.72926E-07         0.30878E-10         0.00000E+00
    0.72919E-07         0.43784E-10         0.00000E+00
    0.72912E-07         0.57536E-10         0.00000E+00
    0.72906E-07         0.72076E-10         0.00000E+00
    0.72899E-07         0.87288E-10         0.00000E+00
    0.72892E-07         0.10282E-09         0.00000E+00
    0.72885E-07         0.11812E-09         0.00000E+00
    0.72878E-07         0.13324E-09         0.00000E+00
    0.72869E-07         0.14891E-09         0.00000E+00
    0.72860E-07         0.16566E-09         0.00000E+00
    0.72851E-07         0.18470E-09         0.00000E+00
    0.72844E-07         0.20795E-09         0.00000E+00
    0.72840E-07         0.23387E-09         0.00000E+00
    0.72841E-07         0.25547E-09         0.00000E+00
    0.72846E-07         0.26363E-09         0.00000E+00
    0.72856E-07         0.25258E-09         0.00000E+00
    0.72871E-07         0.22298E-09         0.00000E+00
    0.72890E-07         0.18206E-09         0.00000E+00
    0.72913E-07         0.13963E-09         0.00000E+00
    0.72936E-07         0.10046E-09         0.00000E+00
    0.72956E-07         0.66225E-10         0.00000E+00
    0.72971E-07         0.38683E-10         0.00000E+00
    0.72979E-07         0.17391E-10         0.00000E+00
    0.72982E-07         0.81159E-11         0.00000E+00
    0.74592E-07        -0.46624E-11         0.00000E+00
    0.74592E-07        -0.89691E-11         0.00000E+00
    0.74592E-07        -0.17069E-10         0.00000E+00
    0.74591E-07        -0.24174E-10         0.00000E+00
    0.74589E-07        -0.30335E-10         0.00000E+00
    0.74588E-07        -0.35591E-10         0.00000E+00
    0.74586E-07        -0.39968E-10         0.00000E+00
    0.74583E-07        -0.43485E-10         0.00000E+00
    0.74581E-07        -0.46149E-10         0.00000E+00
    0.74578E-07        -0.47969E-10         0.00000E+00
    0.74576E-07        -0.48944E-10         0.00000E+00
    0.74573E-07        -0.49073E-10         0.00000E+00
    0.74569E-07        -0.48354E-10         0.00000E+00
    0.74566E-07        -0.46795E-10         0.00000E+00
    0.74563E-07        -0.44415E-10         0.00000E+00
    0.74559E-07        -0.41228E-10         0.00000E+00
    0.74555E-07        -0.37221E-10         0.00000E+00
    0.74551E-07        -0.32382E-10         0.00000E+00
    0.74547E-07        -0.26721E-10         0.00000E+00
    0.74543E-07        -0.20264E-10         0.00000E+00
    0.74538E-07        -0.13015E-10         0.00000E+00
    0.74534E-07        -0.48922E-11         0.00000E+00
    0.74529E-07         0.41349E-11         0.00000E+00
    0.74525E-07         0.14002E-10         0.00000E+00
    0.74520E-07         0.24677E-10         0.00000E+00
    0.74515E-07         0.36129E-10         0.00000E+00
    0.74510E-07         0.48232E-10         0.00000E+00
    0.74506E-07         0.60563E-10         0.00000E+00
    0.74501E-07         0.72902E-10         0.00000E+00
    0.74495E-07         0.85597E-10         0.00000E+00
    0.74488E-07         0.98837E-10         0.00000E+00
    0.74481E-07         0.11276E-09         0.00000E+00
    0.74475E-07         0.12868E-09         0.00000E+00
    0.74470E-07         0.14889E-09         0.00000E+00
    0.74468E-07         0.17270E-09         0.00000E+00
    0.74468E-07         0.19598E-09         0.00000E+00
    0.74472E-07         0.21316E-09         0.00000E+00
    0.74480E-07         0.21716E-09         0.00000E+00
    0.74492E-07         0.20634E-09         0.00000E+00
    0.74508E-07         0.18441E-09         0.00000E+00
    0.74529E-07         0.15600E-09         0.00000E+00
    0.74553E-07         0.12686E-09         0.00000E+00
    0.74579E-07         0.98973E-10         0.00000E+00
    0.74604E-07         0.72813E-10         0.00000E+00
    0.74626E-07         0.50161E-10         0.00000E+00
    0.74645E-07         0.31207E-10         0.00000E+00
    0.74659E-07         0.16136E-10         0.00000E+00
    0.74671E-07         0.54384E-11         0.00000E+00
    0.74678E-07        -0.86468E-12         0.00000E+00
    0.74683E-07        -0.23206E-11         0.00000E+00
    0.74684E-07        -0.17354E-11         0.00000E+00
    0.76095E-07        -0.34235E-11         0.00000E+00
    0.76095E-07        -0.65862E-11         0.00000E+00
    0.76094E-07        -0.12550E-10         0.00000E+00
    0.76093E-07        -0.17810E-10         0.00000E+00
    0.76092E-07        -0.22404E-10         0.00000E+00
    0.76090E-07        -0.26351E-10         0.00000E+00
    0.76088E-07        -0.29645E-10         0.00000E+00
    0.76086E-07        -0.32256E-10         0.00000E+00
    0.76084E-07        -0.34142E-10         0.00000E+00
    0.76082E-07        -0.35253E-10         0.00000E+00
    0.76080E-07        -0.35552E-10         0.00000E+00
    0.76078E-07        -0.35015E-10         0.00000E+00
    0.76075E-07        -0.33633E-10         0.00000E+00
    0.76073E-07        -0.31385E-10         0.00000E+00
    0.76070E-07        -0.28227E-10         0.00000E+00
    0.76067E-07        -0.24161E-10         0.00000E+00
    0.76064E-07        -0.19269E-10         0.00000E+00
    0.76061E-07        -0.13608E-10         0.00000E+00
    0.76057E-07        -0.71477E-11         0.00000E+00
    0.76054E-07         0.16320E-12         0.00000E+00
    0.76051E-07         0.82551E-11         0.00000E+00
    0.76047E-07         0.16756E-10         0.00000E+00
    0.76043E-07         0.25562E-10         0.00000E+00
    0.76038E-07         0.34937E-10         0.00000E+00
    0.76033E-07         0.44713E-10         0.00000E+00
    0.76027E-07         0.54694E-10         0.00000E+00
    0.76020E-07         0.65643E-10         0.00000E+00
    0.76015E-07         0.79863E-10         0.00000E+00
    0.76011E-07         0.98287E-10         0.00000E+00
    0.76009E-07         0.11901E-09         0.00000E+00
    0.76008E-07         0.13912E-09         0.00000E+00
    0.76011E-07         0.15402E-09         0.00000E+00
    0.76015E-07         0.15925E-09         0.00000E+00
    0.76023E-07         0.15480E-09         0.00000E+00
    0.76034E-07         0.14269E-09         0.00000E+00
    0.76049E-07         0.12511E-09         0.00000E+00
    0.76068E-07         0.10644E-09         0.00000E+00
    0.76089E-07         0.87926E-10         0.00000E+00
    0.76112E-07         0.68133E-10         0.00000E+00
    0.76135E-07         0.48427E-10         0.00000E+00
    0.76155E-07         0.30247E-10         0.00000E+00
    0.76174E-07         0.13583E-10         0.00000E+00
    0.76191E-07        -0.10098E-11         0.00000E+00
    0.76206E-07        -0.12855E-10         0.00000E+00
    0.76218E-07        -0.21863E-10         0.00000E+00
    0.76228E-07        -0.27663E-10         0.00000E+00
    0.76236E-07        -0.29899E-10         0.00000E+00
    0.76243E-07        -0.28351E-10         0.00000E+00
    0.76247E-07        -0.22734E-10         0.00000E+00
    0.76249E-07        -0.12919E-10         0.00000E+00
    0.76250E-07        -0.69608E-11         0.00000E+00
    0.77524E-07        -0.19039E-11         0.00000E+00
    0.77523E-07        -0.37431E-11         0.00000E+00
    0.77522E-07        -0.74026E-11         0.00000E+00
    0.77522E-07        -0.11062E-10         0.00000E+00
    0.77521E-07        -0.14693E-10         0.00000E+00
    0.77520E-07        -0.18137E-10         0.00000E+00
    0.77519E-07        -0.21212E-10         0.00000E+00
    0.77518E-07        -0.23746E-10         0.00000E+00
    0.77518E-07        -0.25592E-10         0.00000E+00
    0.77517E-07        -0.26628E-10         0.00000E+00
    0.77516E-07        -0.26713E-10         0.00000E+00
    0.77515E-07        -0.25696E-10         0.00000E+00
    0.77515E-07        -0.23474E-10         0.00000E+00
    0.77513E-07        -0.20097E-10         0.00000E+00
    0.77512E-07        -0.15821E-10         0.00000E+00
    0.77509E-07        -0.10822E-10         0.00000E+00
    0.77506E-07        -0.51660E-11         0.00000E+00
    0.77502E-07         0.82638E-12         0.00000E+00
    0.77497E-07         0.68531E-11         0.00000E+00
    0.77492E-07         0.13198E-10         0.00000E+00
    0.77486E-07         0.21084E-10         0.00000E+00
    0.77481E-07         0.32708E-10         0.00000E+00
    0.77476E-07         0.48286E-10         0.00000E+00
    0.77472E-07         0.65926E-10         0.00000E+00
    0.77469E-07         0.83357E-10         0.00000E+00
    0.77468E-07         0.97151E-10         0.00000E+00
    0.77467E-07         0.10543E-09         0.00000E+00
    0.77468E-07         0.10796E-09         0.00000E+00
    0.77471E-07         0.10507E-09         0.00000E+00
    0.77477E-07         0.97946E-10         0.00000E+00
    0.77486E-07         0.88724E-10         0.00000E+00
    0.77499E-07         0.79550E-10         0.00000E+00
    0.77514E-07         0.69188E-10         0.00000E+00
    0.77530E-07         0.55887E-10         0.00000E+00
    0.77547E-07         0.40951E-10         0.00000E+00
    0.77563E-07         0.25784E-10         0.00000E+00
    0.77579E-07         0.10293E-10         0.00000E+00
    0.77595E-07        -0.50342E-11         0.00000E+00
    0.77609E-07        -0.19178E-10         0.00000E+00
    0.77623E-07        -0.31858E-10         0.00000E+00
    0.77635E-07        -0.42870E-10         0.00000E+00
    0.77646E-07        -0.51711E-10         0.00000E+00
    0.77655E-07        -0.58068E-10         0.00000E+00
    0.77663E-07        -0.61763E-10         0.00000E+00
    0.77670E-07        -0.62559E-10         0.00000E+00
    0.77676E-07        -0.60341E-10         0.00000E+00
    0.77680E-07        -0.54993E-10         0.00000E+00
    0.77684E-07        -0.46341E-10         0.00000E+00
    0.77686E-07        -0.34228E-10         0.00000E+00
    0.77687E-07        -0.18491E-10         0.00000E+00
    0.77687E-07        -0.96951E-11         0.00000E+00
    0.78859E-07         0.24784E-12         0.00000E+00
    0.78860E-07        -0.89064E-12         0.00000E+00
    0.78862E-07        -0.43110E-11         0.00000E+00
    0.78864E-07        -0.91603E-11         0.00000E+00
    0.78867E-07        -0.14153E-10         0.00000E+00
    0.78869E-07        -0.18655E-10         0.00000E+00
    0.78872E-07        -0.22369E-10         0.00000E+00
    0.78874E-07        -0.25198E-10         0.00000E+00
    0.78875E-07        -0.27090E-10         0.00000E+00
    0.78876E-07        -0.27948E-10         0.00000E+00
    0.78876E-07        -0.27709E-10         0.00000E+00
    0.78875E-07        -0.26260E-10         0.00000E+00
    0.78873E-07        -0.23226E-10         0.00000E+00
    0.78871E-07        -0.17708E-10         0.00000E+00
    0.78867E-07        -0.84908E-11         0.00000E+00
    0.78863E-07         0.45129E-11         0.00000E+00
    0.78859E-07         0.18946E-10         0.00000E+00
    0.78856E-07         0.32004E-10         0.00000E+00
    0.78852E-07         0.43286E-10         0.00000E+00
    0.78848E-07         0.53541E-10         0.00000E+00
    0.78843E-07         0.62267E-10         0.00000E+00
    0.78840E-07         0.67899E-10         0.00000E+00
    0.78838E-07         0.69691E-10         0.00000E+00
    0.78838E-07         0.68677E-10         0.00000E+00
    0.78840E-07         0.67269E-10         0.00000E+00
    0.78844E-07         0.66801E-10         0.00000E+00
    0.78850E-07         0.65269E-10         0.00000E+00
    0.78858E-07         0.60253E-10         0.00000E+00
    0.78867E-07         0.51920E-10         0.00000E+00
    0.78877E-07         0.41741E-10         0.00000E+00
    0.78887E-07         0.30203E-10         0.00000E+00
    0.78897E-07         0.17139E-10         0.00000E+00
    0.78908E-07         0.32166E-11         0.00000E+00
    0.78919E-07        -0.10758E-10         0.00000E+00
    0.78929E-07        -0.24591E-10         0.00000E+00
    0.78939E-07        -0.38044E-10         0.00000E+00
    0.78949E-07        -0.50538E-10         0.00000E+00
    0.78958E-07        -0.61658E-10         0.00000E+00
    0.78966E-07        -0.71202E-10         0.00000E+00
    0.78974E-07        -0.78913E-10         0.00000E+00
    0.78980E-07        -0.84596E-10         0.00000E+00
    0.78986E-07        -0.88164E-10         0.00000E+00
    0.78991E-07        -0.89473E-10         0.00000E+00
    0.78996E-07        -0.88334E-10         0.00000E+00
    0.78999E-07        -0.84572E-10         0.00000E+00
    0.79002E-07        -0.78007E-10         0.00000E+00
    0.79004E-07        -0.68494E-10         0.00000E+00
    0.79006E-07        -0.55935E-10         0.00000E+00
    0.79007E-07        -0.40242E-10         0.00000E+00
    0.79007E-07        -0.21340E-10         0.00000E+00
    0.79008E-07        -0.11077E-10         0.00000E+00
    0.80112E-07        -0.88717E-11         0.00000E+00
    0.80114E-07        -0.16362E-10         0.00000E+00
    0.80118E-07        -0.28638E-10         0.00000E+00
    0.80124E-07        -0.36292E-10         0.00000E+00
    0.80129E-07        -0.40630E-10         0.00000E+00
    0.80134E-07        -0.42513E-10         0.00000E+00
    0.80139E-07        -0.42432E-10         0.00000E+00
    0.80142E-07        -0.40418E-10         0.00000E+00
    0.80144E-07        -0.36407E-10         0.00000E+00
    0.80145E-07        -0.30533E-10         0.00000E+00
    0.80145E-07        -0.22751E-10         0.00000E+00
    0.80144E-07        -0.12982E-10         0.00000E+00
    0.80141E-07        -0.15574E-11         0.00000E+00
    0.80138E-07         0.10601E-10         0.00000E+00
    0.80134E-07         0.21443E-10         0.00000E+00
    0.80130E-07         0.28805E-10         0.00000E+00
    0.80126E-07         0.33561E-10         0.00000E+00
    0.80124E-07         0.39074E-10         0.00000E+00
    0.80122E-07         0.46545E-10         0.00000E+00
    0.80121E-07         0.54038E-10         0.00000E+00
    0.80121E-07         0.59249E-10         0.00000E+00
    0.80122E-07         0.60990E-10         0.00000E+00
    0.80124E-07         0.59644E-10         0.00000E+00
    0.80126E-07         0.56344E-10         0.00000E+00
    0.80129E-07         0.51191E-10         0.00000E+00
    0.80133E-07         0.43839E-10         0.00000E+00
    0.80137E-07         0.34691E-10         0.00000E+00
    0.80143E-07         0.24293E-10         0.00000E+00
    0.80149E-07         0.12796E-10         0.00000E+00
    0.80155E-07         0.27284E-12         0.00000E+00
    0.80161E-07        -0.12889E-10         0.00000E+00
    0.80167E-07        -0.26125E-10         0.00000E+00
    0.80173E-07        -0.39079E-10         0.00000E+00
    0.80179E-07        -0.51491E-10         0.00000E+00
    0.80184E-07        -0.63069E-10         0.00000E+00
    0.80189E-07        -0.73593E-10         0.00000E+00
    0.80194E-07        -0.82949E-10         0.00000E+00
    0.80198E-07        -0.90985E-10         0.00000E+00
    0.80202E-07        -0.97492E-10         0.00000E+00
    0.80205E-07        -0.10228E-09         0.00000E+00
    0.80207E-07        -0.10515E-09         0.00000E+00
    0.80210E-07        -0.10593E-09         0.00000E+00
    0.80212E-07        -0.10446E-09         0.00000E+00
    0.80213E-07        -0.10064E-09         0.00000E+00
    0.80214E-07        -0.94352E-10         0.00000E+00
    0.80215E-07        -0.85494E-10         0.00000E+00
    0.80216E-07        -0.73966E-10         0.00000E+00
    0.80216E-07        -0.59663E-10         0.00000E+00
    0.80216E-07        -0.42492E-10         0.00000E+00
    0.80217E-07        -0.22368E-10         0.00000E+00
    0.80217E-07        -0.11559E-10         0.00000E+00
    0.81335E-07        -0.19228E-10         0.00000E+00
    0.81335E-07        -0.33436E-10         0.00000E+00
    0.81336E-07        -0.55331E-10         0.00000E+00
    0.81338E-07        -0.65689E-10         0.00000E+00
    0.81339E-07        -0.67630E-10         0.00000E+00
    0.81340E-07        -0.64205E-10         0.00000E+00
    0.81340E-07        -0.58109E-10         0.00000E+00
    0.81340E-07        -0.51550E-10         0.00000E+00
    0.81338E-07        -0.44423E-10         0.00000E+00
    0.81336E-07        -0.34586E-10         0.00000E+00
    0.81334E-07        -0.21697E-10         0.00000E+00
    0.81331E-07        -0.72647E-11         0.00000E+00
    0.81327E-07         0.72730E-11         0.00000E+00
    0.81324E-07         0.20636E-10         0.00000E+00
    0.81321E-07         0.31820E-10         0.00000E+00
    0.81318E-07         0.40704E-10         0.00000E+00
    0.81315E-07         0.47841E-10         0.00000E+00
    0.81312E-07         0.53251E-10         0.00000E+00
    0.81309E-07         0.56608E-10         0.00000E+00
    0.81308E-07         0.57917E-10         0.00000E+00
    0.81307E-07         0.57260E-10         0.00000E+00
    0.81307E-07         0.54657E-10         0.00000E+00
    0.81307E-07         0.50058E-10         0.00000E+00
    0.81308E-07         0.43437E-10         0.00000E+00
    0.81309E-07         0.35082E-10         0.00000E+00
    0.81310E-07         0.25435E-10         0.00000E+00
    0.81312E-07         0.14801E-10         0.00000E+00
    0.81313E-07         0.34452E-11         0.00000E+00
    0.81315E-07        -0.83447E-11         0.00000E+00
    0.81317E-07        -0.20316E-10         0.00000E+00
    0.81318E-07        -0.32290E-10         0.00000E+00
    0.81320E-07        -0.44115E-10         0.00000E+00
    0.81321E-07        -0.55585E-10         0.00000E+00
    0.81322E-07        -0.66468E-10         0.00000E+00
    0.81322E-07        -0.76549E-10         0.00000E+00
    0.81323E-07        -0.85616E-10         0.00000E+00
    0.81323E-07        -0.93465E-10         0.00000E+00
    0.81323E-07        -0.99925E-10         0.00000E+00
    0.81323E-07        -0.10485E-09         0.00000E+00
    0.81323E-07        -0.10811E-09         0.00000E+00
    0.81323E-07        -0.10956E-09         0.00000E+00
    0.81322E-07        -0.10908E-09         0.00000E+00
    0.81322E-07        -0.10653E-09         0.00000E+00
    0.81321E-07        -0.10180E-09         0.00000E+00
    0.81320E-07        -0.94773E-10         0.00000E+00
    0.81320E-07        -0.85351E-10         0.00000E+00
    0.81319E-07        -0.73444E-10         0.00000E+00
    0.81319E-07        -0.58964E-10         0.00000E+00
    0.81318E-07        -0.41827E-10         0.00000E+00
    0.81318E-07        -0.21955E-10         0.00000E+00
    0.81318E-07        -0.11325E-10         0.00000E+00
    0.82524E-07        -0.14763E-10         0.00000E+00
    0.82522E-07        -0.25435E-10         0.00000E+00
    0.82518E-07        -0.42227E-10         0.00000E+00
    0.82512E-07        -0.50644E-10         0.00000E+00
    0.82505E-07        -0.52167E-10         0.00000E+00
    0.82497E-07        -0.48330E-10         0.00000E+00
    0.82490E-07        -0.40650E-10         0.00000E+00
    0.82482E-07        -0.30530E-10         0.00000E+00
    0.82473E-07        -0.18998E-10         0.00000E+00
    0.82464E-07        -0.65603E-11         0.00000E+00
    0.82456E-07         0.63718E-11         0.00000E+00
    0.82447E-07         0.19193E-10         0.00000E+00
    0.82440E-07         0.31268E-10         0.00000E+00
    0.82432E-07         0.42089E-10         0.00000E+00
    0.82426E-07         0.51328E-10         0.00000E+00
    0.82420E-07         0.58700E-10         0.00000E+00
    0.82414E-07         0.63945E-10         0.00000E+00
    0.82409E-07         0.67021E-10         0.00000E+00
    0.82404E-07         0.68038E-10         0.00000E+00
    0.82399E-07         0.67106E-10         0.00000E+00
    0.82395E-07         0.64369E-10         0.00000E+00
    0.82391E-07         0.59980E-10         0.00000E+00
    0.82387E-07         0.54088E-10         0.00000E+00
    0.82384E-07         0.46848E-10         0.00000E+00
    0.82380E-07         0.38393E-10         0.00000E+00
    0.82377E-07         0.28868E-10         0.00000E+00
    0.82374E-07         0.18477E-10         0.00000E+00
    0.82370E-07         0.74493E-11         0.00000E+00
    0.82367E-07        -0.39859E-11         0.00000E+00
    0.82364E-07        -0.15600E-10         0.00000E+00
    0.82361E-07        -0.27171E-10         0.00000E+00
    0.82357E-07        -0.38491E-10         0.00000E+00
    0.82354E-07        -0.49379E-10         0.00000E+00
    0.82351E-07        -0.59667E-10         0.00000E+00
    0.82348E-07        -0.69184E-10         0.00000E+00
    0.82344E-07        -0.77761E-10         0.00000E+00
    0.82341E-07        -0.85231E-10         0.00000E+00
    0.82338E-07        -0.91432E-10         0.00000E+00
    0.82335E-07        -0.96210E-10         0.00000E+00
    0.82332E-07        -0.99421E-10         0.00000E+00
    0.82329E-07        -0.10094E-09         0.00000E+00
    0.82327E-07        -0.10064E-09         0.00000E+00
    0.82324E-07        -0.98412E-10         0.00000E+00
    0.82322E-07        -0.94150E-10         0.00000E+00
    0.82320E-07        -0.87748E-10         0.00000E+00
    0.82318E-07        -0.79108E-10         0.00000E+00
    0.82316E-07        -0.68137E-10         0.00000E+00
    0.82315E-07        -0.54750E-10         0.00000E+00
    0.82314E-07        -0.38867E-10         0.00000E+00
    0.82313E-07        -0.20411E-10         0.00000E+00
    0.82313E-07        -0.10530E-10         0.00000E+00
    0.83601E-07        -0.20869E-11         0.00000E+00
    0.83599E-07        -0.28322E-11         0.00000E+00
    0.83592E-07        -0.28925E-11         0.00000E+00
    0.83583E-07        -0.20397E-12         0.00000E+00
    0.83571E-07         0.49505E-11         0.00000E+00
    0.83559E-07         0.12192E-10         0.00000E+00
    0.83545E-07         0.21077E-10         0.00000E+00
    0.83531E-07         0.31129E-10         0.00000E+00
    0.83516E-07         0.41839E-10         0.00000E+00
    0.83502E-07         0.52673E-10         0.00000E+00
    0.83487E-07         0.63161E-10         0.00000E+00
    0.83474E-07         0.72959E-10         0.00000E+00
    0.83460E-07         0.81805E-10         0.00000E+00
    0.83447E-07         0.89476E-10         0.00000E+00
    0.83435E-07         0.95759E-10         0.00000E+00
    0.83423E-07         0.10048E-09         0.00000E+00
    0.83412E-07         0.10353E-09         0.00000E+00
    0.83401E-07         0.10481E-09         0.00000E+00
    0.83391E-07         0.10431E-09         0.00000E+00
    0.83381E-07         0.10205E-09         0.00000E+00
    0.83371E-07         0.98121E-10         0.00000E+00
    0.83362E-07         0.92638E-10         0.00000E+00
    0.83353E-07         0.85754E-10         0.00000E+00
    0.83344E-07         0.77630E-10         0.00000E+00
    0.83335E-07         0.68437E-10         0.00000E+00
    0.83327E-07         0.58346E-10         0.00000E+00
    0.83319E-07         0.47522E-10         0.00000E+00
    0.83311E-07         0.36133E-10         0.00000E+00
    0.83303E-07         0.24356E-10         0.00000E+00
    0.83296E-07         0.12372E-10         0.00000E+00
    0.83288E-07         0.37036E-12         0.00000E+00
    0.83281E-07        -0.11462E-10         0.00000E+00
    0.83274E-07        -0.22939E-10         0.00000E+00
    0.83268E-07        -0.33880E-10         0.00000E+00
    0.83261E-07        -0.44114E-10         0.00000E+00
    0.83255E-07        -0.53481E-10         0.00000E+00
    0.83249E-07        -0.61825E-10         0.00000E+00
    0.83243E-07        -0.69000E-10         0.00000E+00
    0.83238E-07        -0.74861E-10         0.00000E+00
    0.83233E-07        -0.79272E-10         0.00000E+00
    0.83228E-07        -0.82099E-10         0.00000E+00
    0.83224E-07        -0.83216E-10         0.00000E+00
    0.83220E-07        -0.82504E-10         0.00000E+00
    0.83217E-07        -0.79852E-10         0.00000E+00
    0.83214E-07        -0.75162E-10         0.00000E+00
    0.83211E-07        -0.68338E-10         0.00000E+00
    0.83209E-07        -0.59293E-10         0.00000E+00
    0.83207E-07        -0.47945E-10         0.00000E+00
    0.83206E-07        -0.34216E-10         0.00000E+00
    0.83205E-07        -0.18032E-10         0.00000E+00
    0.83205E-07        -0.93175E-11         0.00000E+00
    0.84507E-07         0.92678E-11         0.00000E+00
    0.84505E-07         0.18414E-10         0.00000E+00
    0.84499E-07         0.36294E-10         0.00000E+00
    0.84490E-07         0.53350E-10         0.00000E+00
    0.84479E-07         0.69580E-10         0.00000E+00
    0.84465E-07         0.84966E-10         0.00000E+00
    0.84450E-07         0.99467E-10         0.00000E+00
    0.84434E-07         0.11301E-09         0.00000E+00
    0.84417E-07         0.12549E-09         0.00000E+00
    0.84399E-07         0.13679E-09         0.00000E+00
    0.84381E-07         0.14680E-09         0.00000E+00
    0.84363E-07         0.15538E-09         0.00000E+00
    0.84346E-07         0.16243E-09         0.00000E+00
    0.84328E-07         0.16788E-09         0.00000E+00
    0.84311E-07         0.17168E-09         0.00000E+00
    0.84295E-07         0.17378E-09         0.00000E+00
    0.84278E-07         0.17421E-09         0.00000E+00
    0.84263E-07         0.17296E-09         0.00000E+00
    0.84248E-07         0.17008E-09         0.00000E+00
    0.84233E-07         0.16561E-09         0.00000E+00
    0.84219E-07         0.15964E-09         0.00000E+00
    0.84205E-07         0.15225E-09         0.00000E+00
    0.84192E-07         0.14357E-09         0.00000E+00
    0.84179E-07         0.13372E-09         0.00000E+00
    0.84166E-07         0.12285E-09         0.00000E+00
    0.84154E-07         0.11112E-09         0.00000E+00
    0.84143E-07         0.98688E-10         0.00000E+00
    0.84131E-07         0.85721E-10         0.00000E+00
    0.84121E-07         0.72384E-10         0.00000E+00
    0.84110E-07         0.58844E-10         0.00000E+00
    0.84100E-07         0.45268E-10         0.00000E+00
    0.84090E-07         0.31825E-10         0.00000E+00
    0.84081E-07         0.18681E-10         0.00000E+00
    0.84072E-07         0.60034E-11         0.00000E+00
    0.84064E-07        -0.60442E-11         0.00000E+00
    0.84056E-07        -0.17301E-10         0.00000E+00
    0.84048E-07        -0.27612E-10         0.00000E+00
    0.84041E-07        -0.36825E-10         0.00000E+00
    0.84034E-07        -0.44793E-10         0.00000E+00
    0.84028E-07        -0.51376E-10         0.00000E+00
    0.84023E-07        -0.56441E-10         0.00000E+00
    0.84018E-07        -0.59862E-10         0.00000E+00
    0.84013E-07        -0.61521E-10         0.00000E+00
    0.84009E-07        -0.61305E-10         0.00000E+00
    0.84005E-07        -0.59108E-10         0.00000E+00
    0.84002E-07        -0.54833E-10         0.00000E+00
    0.84000E-07        -0.48388E-10         0.00000E+00
    0.83998E-07        -0.39689E-10         0.00000E+00
    0.83996E-07        -0.28658E-10         0.00000E+00
    0.83996E-07        -0.15225E-10         0.00000E+00
    0.83995E-07        -0.79008E-11         0.00000E+00
    0.85218E-07         0.18782E-10         0.00000E+00
    0.85216E-07         0.36690E-10         0.00000E+00
    0.85211E-07         0.71000E-10         0.00000E+00
    0.85202E-07         0.10231E-09         0.00000E+00
    0.85192E-07         0.13065E-09         0.00000E+00
    0.85179E-07         0.15605E-09         0.00000E+00
    0.85165E-07         0.17857E-09         0.00000E+00
    0.85149E-07         0.19827E-09         0.00000E+00
    0.85132E-07         0.21523E-09         0.00000E+00
    0.85115E-07         0.22954E-09         0.00000E+00
    0.85097E-07         0.24131E-09         0.00000E+00
    0.85078E-07         0.25060E-09         0.00000E+00
    0.85060E-07         0.25750E-09         0.00000E+00
    0.85041E-07         0.26209E-09         0.00000E+00
    0.85023E-07         0.26445E-09         0.00000E+00
    0.85005E-07         0.26469E-09         0.00000E+00
    0.84988E-07         0.26291E-09         0.00000E+00
    0.84971E-07         0.25922E-09         0.00000E+00
    0.84954E-07         0.25375E-09         0.00000E+00
    0.84938E-07         0.24661E-09         0.00000E+00
    0.84923E-07         0.23795E-09         0.00000E+00
    0.84908E-07         0.22790E-09         0.00000E+00
    0.84893E-07         0.21660E-09         0.00000E+00
    0.84879E-07         0.20419E-09         0.00000E+00
    0.84866E-07         0.19083E-09         0.00000E+00
    0.84853E-07         0.17665E-09         0.00000E+00
    0.84841E-07         0.16181E-09         0.00000E+00
    0.84829E-07         0.14648E-09         0.00000E+00
    0.84817E-07         0.13079E-09         0.00000E+00
    0.84806E-07         0.11492E-09         0.00000E+00
    0.84795E-07         0.99012E-10         0.00000E+00
    0.84785E-07         0.83223E-10         0.00000E+00
    0.84776E-07         0.67708E-10         0.00000E+00
    0.84766E-07         0.52621E-10         0.00000E+00
    0.84758E-07         0.38117E-10         0.00000E+00
    0.84749E-07         0.24350E-10         0.00000E+00
    0.84742E-07         0.11476E-10         0.00000E+00
    0.84734E-07        -0.35340E-12         0.00000E+00
    0.84727E-07        -0.10991E-10         0.00000E+00
    0.84721E-07        -0.20293E-10         0.00000E+00
    0.84715E-07        -0.28120E-10         0.00000E+00
    0.84710E-07        -0.34338E-10         0.00000E+00
    0.84706E-07        -0.38823E-10         0.00000E+00
    0.84702E-07        -0.41452E-10         0.00000E+00
    0.84698E-07        -0.42113E-10         0.00000E+00
    0.84695E-07        -0.40697E-10         0.00000E+00
    0.84693E-07        -0.37102E-10         0.00000E+00
    0.84691E-07        -0.31238E-10         0.00000E+00
    0.84690E-07        -0.23026E-10         0.00000E+00
    0.84689E-07        -0.12399E-10         0.00000E+00
    0.84689E-07        -0.64749E-11         0.00000E+00
    0.85713E-07         0.27463E-10         0.00000E+00
    0.85712E-07         0.53309E-10         0.00000E+00
    0.85707E-07         0.10245E-09         0.00000E+00
    0.85700E-07         0.14654E-09         0.00000E+00
    0.85691E-07         0.18574E-09         0.00000E+00
    0.85680E-07         0.22018E-09         0.00000E+00
    0.85668E-07         0.25010E-09         0.00000E+00
    0.85655E-07         0.27576E-09         0.00000E+00
    0.85641E-07         0.29736E-09         0.00000E+00
    0.85626E-07         0.31507E-09         0.00000E+00
    0.85611E-07         0.32908E-09         0.00000E+00
    0.85596E-07         0.33959E-09         0.00000E+00
    0.85581E-07         0.34681E-09         0.00000E+00
    0.85566E-07         0.35094E-09         0.00000E+00
    0.85552E-07         0.35222E-09         0.00000E+00
    0.85537E-07         0.35087E-09         0.00000E+00
    0.85524E-07         0.34709E-09         0.00000E+00
    0.85510E-07         0.34111E-09         0.00000E+00
    0.85497E-07         0.33314E-09         0.00000E+00
    0.85485E-07         0.32339E-09         0.00000E+00
    0.85473E-07         0.31205E-09         0.00000E+00
    0.85461E-07         0.29931E-09         0.00000E+00
    0.85450E-07         0.28534E-09         0.00000E+00
    0.85440E-07         0.27033E-09         0.00000E+00
    0.85430E-07         0.25444E-09         0.00000E+00
    0.85420E-07         0.23782E-09         0.00000E+00
    0.85411E-07         0.22062E-09         0.00000E+00
    0.85401E-07         0.20299E-09         0.00000E+00
    0.85393E-07         0.18507E-09         0.00000E+00
    0.85384E-07         0.16701E-09         0.00000E+00
    0.85376E-07         0.14893E-09         0.00000E+00
    0.85368E-07         0.13098E-09         0.00000E+00
    0.85361E-07         0.11329E-09         0.00000E+00
    0.85353E-07         0.95999E-10         0.00000E+00
    0.85346E-07         0.79243E-10         0.00000E+00
    0.85340E-07         0.63163E-10         0.00000E+00
    0.85333E-07         0.47903E-10         0.00000E+00
    0.85327E-07         0.33609E-10         0.00000E+00
    0.85322E-07         0.20428E-10         0.00000E+00
    0.85317E-07         0.85108E-11         0.00000E+00
    0.85312E-07        -0.19924E-11         0.00000E+00
    0.85308E-07        -0.10932E-10         0.00000E+00
    0.85304E-07        -0.18160E-10         0.00000E+00
    0.85301E-07        -0.23532E-10         0.00000E+00
    0.85298E-07        -0.26911E-10         0.00000E+00
    0.85295E-07        -0.28172E-10         0.00000E+00
    0.85293E-07        -0.27206E-10         0.00000E+00
    0.85292E-07        -0.23915E-10         0.00000E+00
    0.85291E-07        -0.18207E-10         0.00000E+00
    0.85290E-07        -0.10007E-10         0.00000E+00
    0.85290E-07        -0.52755E-11         0.00000E+00
    0.85974E-07         0.35100E-10         0.00000E+00
    0.85972E-07         0.67620E-10         0.00000E+00
    0.85969E-07         0.12883E-09         0.00000E+00
    0.85964E-07         0.18261E-09         0.00000E+00
    0.85958E-07         0.22956E-09         0.00000E+00
    0.85950E-07         0.27038E-09         0.00000E+00
    0.85942E-07         0.30541E-09         0.00000E+00
    0.85934E-07         0.33473E-09         0.00000E+00
    0.85926E-07         0.35859E-09         0.00000E+00
    0.85919E-07         0.37736E-09         0.00000E+00
    0.85912E-07         0.39142E-09         0.00000E+00
    0.85905E-07         0.40118E-09         0.00000E+00
    0.85899E-07         0.40704E-09         0.00000E+00
    0.85893E-07         0.40939E-09         0.00000E+00
    0.85889E-07         0.40858E-09         0.00000E+00
    0.85884E-07         0.40496E-09         0.00000E+00
    0.85880E-07         0.39884E-09         0.00000E+00
    0.85877E-07         0.39051E-09         0.00000E+00
    0.85874E-07         0.38025E-09         0.00000E+00
    0.85871E-07         0.36830E-09         0.00000E+00
    0.85868E-07         0.35489E-09         0.00000E+00
    0.85866E-07         0.34023E-09         0.00000E+00
    0.85864E-07         0.32452E-09         0.00000E+00
    0.85862E-07         0.30791E-09         0.00000E+00
    0.85860E-07         0.29059E-09         0.00000E+00
    0.85858E-07         0.27269E-09         0.00000E+00
    0.85856E-07         0.25436E-09         0.00000E+00
    0.85854E-07         0.23572E-09         0.00000E+00
    0.85852E-07         0.21689E-09         0.00000E+00
    0.85849E-07         0.19799E-09         0.00000E+00
    0.85847E-07         0.17913E-09         0.00000E+00
    0.85845E-07         0.16042E-09         0.00000E+00
    0.85842E-07         0.14197E-09         0.00000E+00
    0.85839E-07         0.12387E-09         0.00000E+00
    0.85837E-07         0.10623E-09         0.00000E+00
    0.85834E-07         0.89182E-10         0.00000E+00
    0.85831E-07         0.72825E-10         0.00000E+00
    0.85828E-07         0.57288E-10         0.00000E+00
    0.85825E-07         0.42702E-10         0.00000E+00
    0.85822E-07         0.29214E-10         0.00000E+00
    0.85819E-07         0.16980E-10         0.00000E+00
    0.85817E-07         0.61663E-11         0.00000E+00
    0.85814E-07        -0.30508E-11         0.00000E+00
    0.85812E-07        -0.10490E-10         0.00000E+00
    0.85811E-07        -0.15970E-10         0.00000E+00
    0.85809E-07        -0.19316E-10         0.00000E+00
    0.85808E-07        -0.20367E-10         0.00000E+00
    0.85807E-07        -0.18984E-10         0.00000E+00
    0.85807E-07        -0.15053E-10         0.00000E+00
    0.85806E-07        -0.84600E-11         0.00000E+00
    0.85806E-07        -0.44827E-11         0.00000E+00
    0.85973E-07         0.38894E-10         0.00000E+00
    0.85972E-07         0.75211E-10         0.00000E+00
    0.85969E-07         0.14331E-09         0.00000E+00
    0.85965E-07         0.20308E-09         0.00000E+00
    0.85962E-07         0.25479E-09         0.00000E+00
    0.85962E-07         0.29717E-09         0.00000E+00
    0.85965E-07         0.33039E-09         0.00000E+00
    0.85969E-07         0.35601E-09         0.00000E+00
    0.85975E-07         0.37523E-09         0.00000E+00
    0.85983E-07         0.38899E-09         0.00000E+00
    0.85992E-07         0.39807E-09         0.00000E+00
    0.86003E-07         0.40311E-09         0.00000E+00
    0.86014E-07         0.40465E-09         0.00000E+00
    0.86026E-07         0.40315E-09         0.00000E+00
    0.86039E-07         0.39903E-09         0.00000E+00
    0.86052E-07         0.39264E-09         0.00000E+00
    0.86066E-07         0.38429E-09         0.00000E+00
    0.86079E-07         0.37425E-09         0.00000E+00
    0.86093E-07         0.36278E-09         0.00000E+00
    0.86106E-07         0.35008E-09         0.00000E+00
    0.86119E-07         0.33635E-09         0.00000E+00
    0.86132E-07         0.32176E-09         0.00000E+00
    0.86144E-07         0.30647E-09         0.00000E+00
    0.86156E-07         0.29060E-09         0.00000E+00
    0.86167E-07         0.27429E-09         0.00000E+00
    0.86177E-07         0.25765E-09         0.00000E+00
    0.86187E-07         0.24078E-09         0.00000E+00
    0.86196E-07         0.22377E-09         0.00000E+00
    0.86204E-07         0.20671E-09         0.00000E+00
    0.86212E-07         0.18967E-09         0.00000E+00
    0.86219E-07         0.17273E-09         0.00000E+00
    0.86225E-07         0.15596E-09         0.00000E+00
    0.86230E-07         0.13943E-09         0.00000E+00
    0.86234E-07         0.12320E-09         0.00000E+00
    0.86238E-07         0.10735E-09         0.00000E+00
    0.86241E-07         0.91942E-10         0.00000E+00
    0.86243E-07         0.77050E-10         0.00000E+00
    0.86245E-07         0.62757E-10         0.00000E+00
    0.86246E-07         0.49155E-10         0.00000E+00
    0.86247E-07         0.36353E-10         0.00000E+00
    0.86247E-07         0.24476E-10         0.00000E+00
    0.86246E-07         0.13670E-10         0.00000E+00
    0.86246E-07         0.41084E-11         0.00000E+00
    0.86245E-07        -0.40089E-11         0.00000E+00
    0.86244E-07        -0.10455E-10         0.00000E+00
    0.86244E-07        -0.14968E-10         0.00000E+00
    0.86243E-07        -0.17253E-10         0.00000E+00
    0.86242E-07        -0.17001E-10         0.00000E+00
    0.86242E-07        -0.13954E-10         0.00000E+00
    0.86242E-07        -0.79908E-11         0.00000E+00
    0.86242E-07        -0.42777E-11         0.00000E+00
    0.85604E-07         0.46830E-10         0.00000E+00
    0.85608E-07         0.88449E-10         0.00000E+00
    0.85619E-07         0.16276E-09         0.00000E+00
    0.85636E-07         0.21438E-09         0.00000E+00
    0.85660E-07         0.24287E-09         0.00000E+00
    0.85687E-07         0.25982E-09         0.00000E+00
    0.85719E-07         0.27275E-09         0.00000E+00
    0.85754E-07         0.28212E-09         0.00000E+00
    0.85790E-07         0.28834E-09         0.00000E+00
    0.85829E-07         0.29182E-09         0.00000E+00
    0.85868E-07         0.29286E-09         0.00000E+00
    0.85908E-07         0.29176E-09         0.00000E+00
    0.85949E-07         0.28884E-09         0.00000E+00
    0.85989E-07         0.28438E-09         0.00000E+00
    0.86029E-07         0.27862E-09         0.00000E+00
    0.86069E-07         0.27175E-09         0.00000E+00
    0.86108E-07         0.26396E-09         0.00000E+00
    0.86146E-07         0.25539E-09         0.00000E+00
    0.86183E-07         0.24617E-09         0.00000E+00
    0.86218E-07         0.23642E-09         0.00000E+00
    0.86253E-07         0.22623E-09         0.00000E+00
    0.86286E-07         0.21568E-09         0.00000E+00
    0.86317E-07         0.20487E-09         0.00000E+00
    0.86347E-07         0.19386E-09         0.00000E+00
    0.86375E-07         0.18270E-09         0.00000E+00
    0.86402E-07         0.17145E-09         0.00000E+00
    0.86427E-07         0.16016E-09         0.00000E+00
    0.86450E-07         0.14888E-09         0.00000E+00
    0.86471E-07         0.13765E-09         0.00000E+00
    0.86491E-07         0.12649E-09         0.00000E+00
    0.86509E-07         0.11545E-09         0.00000E+00
    0.86526E-07         0.10455E-09         0.00000E+00
    0.86541E-07         0.93832E-10         0.00000E+00
    0.86554E-07         0.83311E-10         0.00000E+00
    0.86565E-07         0.73021E-10         0.00000E+00
    0.86575E-07         0.62992E-10         0.00000E+00
    0.86584E-07         0.53253E-10         0.00000E+00
    0.86591E-07         0.43837E-10         0.00000E+00
    0.86596E-07         0.34781E-10         0.00000E+00
    0.86600E-07         0.26131E-10         0.00000E+00
    0.86603E-07         0.17946E-10         0.00000E+00
    0.86605E-07         0.10299E-10         0.00000E+00
    0.86606E-07         0.32897E-11         0.00000E+00
    0.86606E-07        -0.29530E-11         0.00000E+00
    0.86605E-07        -0.82527E-11         0.00000E+00
    0.86604E-07        -0.12374E-10         0.00000E+00
    0.86602E-07        -0.15000E-10         0.00000E+00
    0.86601E-07        -0.15674E-10         0.00000E+00
    0.86599E-07        -0.13717E-10         0.00000E+00
    0.86598E-07        -0.81424E-11         0.00000E+00
    0.86597E-07        -0.43056E-11         0.00000E+00
    0.85304E-07         0.00000E+00         0.00000E+00
    0.85313E-07         0.00000E+00         0.00000E+00
    0.85339E-07         0.00000E+00         0.00000E+00
    0.85378E-07         0.00000E+00         0.00000E+00
    0.85425E-07         0.00000E+00         0.00000E+00
    0.85476E-07         0.00000E+00         0.00000E+00
    0.85529E-07         0.00000E+00         0.00000E+00
    0.85585E-07         0.00000E+00         0.00000E+00
    0.85642E-07         0.00000E+00         0.00000E+00
    0.85700E-07        -0.27940E-20         0.00000E+00
    0.85759E-07         0.00000E+00         0.00000E+00
    0.85817E-07         0.27940E-20         0.00000E+00
    0.85875E-07         0.00000E+00         0.00000E+00
    0.85933E-07         0.00000E+00         0.00000E+00
    0.85989E-07         0.00000E+00         0.00000E+00
    0.86044E-07         0.00000E+00         0.00000E+00
    0.86098E-07         0.00000E+00         0.00000E+00
    0.86150E-07         0.27940E-20         0.00000E+00
    0.86200E-07         0.00000E+00         0.00000E+00
    0.86248E-07        -0.27940E-20         0.00000E+00
    0.86295E-07         0.00000E+00         0.00000E+00
    0.86339E-07         0.00000E+00         0.00000E+00
    0.86381E-07         0.00000E+00         0.00000E+00
    0.86421E-07         0.00000E+00         0.00000E+00
    0.86458E-07         0.00000E+00         0.00000E+00
    0.86494E-07         0.00000E+00         0.00000E+00
    0.86527E-07         0.00000E+00         0.00000E+00
    0.86558E-07         0.00000E+00         0.00000E+00
    0.86586E-07         0.00000E+00         0.00000E+00
    0.86613E-07         0.00000E+00         0.00000E+00
    0.86637E-07         0.00000E+00         0.00000E+00
    0.86659E-07         0.00000E+00         0.00000E+00
    0.86679E-07         0.00000E+00         0.00000E+00
    0.86697E-07         0.00000E+00         0.00000E+00
    0.86712E-07         0.00000E+00         0.00000E+00
    0.86726E-07         0.00000E+00         0.00000E+00
    0.86737E-07         0.00000E+00         0.00000E+00
    0.86747E-07         0.00000E+00         0.00000E+00
    0.86755E-07         0.00000E+00         0.00000E+00
    0.86761E-07        -0.37253E-20         0.00000E+00
    0.86765E-07        -0.27940E-20         0.00000E+00
    0.86768E-07         0.27940E-20         0.00000E+00
    0.86770E-07         0.27940E-20         0.00000E+00
    0.86770E-07         0.00000E+00         0.00000E+00
    0.86768E-07         0.00000E+00         0.00000E+00
    0.86766E-07         0.00000E+00         0.00000E+00
    0.86763E-07         0.00000E+00         0.00000E+00
    0.86760E-07         0.27940E-20         0.00000E+00
    0.86757E-07         0.93132E-21         0.00000E+00
    0.86755E-07         0.00000E+00         0.00000E+00
    0.86754E-07         0.55879E-20         0.00000E+00
CELL_DATA       5000
TENSORS stressef double 
    0.10936E+08         0.37766E+05         0.00000E+00
    0.37766E+05         0.19870E+08         0.00000E+00
    0.00000E+00         0.00000E+00         0.10628E+08
 
    0.11305E+08         0.12712E+06         0.00000E+00
    0.12712E+06         0.19912E+08         0.00000E+00
    0.00000E+00         0.00000E+00         0.94321E+07
 
    0.11350E+08         0.11622E+06         0.00000E+00
    0.11622E+06         0.19919E+08         0.00000E+00
    0.00000E+00         0.00000E+00         0.85133E+07
 
    0.11129E+08         0.70180E+04         0.00000E+00
    0.70180E+04         0.19880E+08         0.00000E+00
    0.00000E+00         0.00000E+00         0.78985E+07
 
    0.10794E+08        -0.10292E+06         0.00000E+00
   -0.10292E+06         0.19841E+08         0.00000E+00
    0.00000E+00         0.00000E+00         0.77992E+07
 
    0.10371E+08        -0.15573E+06         0.00000E+00
   -0.15573E+06         0.19786E+08         0.00000E+00
    0.00000E+00         0.00000E+00         0.78053E+07
 
    0.99777E+07        -0.18493E+06         0.00000E+00
   -0.18493E+06         0.19719E+08         0.00000E+00
    0.00000E+00         0.00000E+00         0.77982E+07
 
    0.96084E+07        -0.20098E+06         0.00000E+00
   -0.20098E+06         0.19644E+08         0.00000E+00
    0.00000E+00         0.00000E+00         0.77824E+07
 
    0.92745E+07        -0.20906E+06         0.00000E+00
   -0.20906E+06         0.19564E+08         0.00000E+00
    0.00000E+00         0.00000E+00         0.77540E+07
 
    0.89725E+07        -0.21289E+06         0.00000E+00
   -0.21289E+06         0.19481E+08         0.00000E+00
    0.00000E+00         0.00000E+00         0.77137E+07
 
    0.86993E+07        -0.21355E+06         0.00000E+00
   -0.21355E+06         0.19397E+08         0.00000E+00
    0.00000E+00         0.00000E+00         0.76616E+07
 
    0.84508E+07        -0.21150E+06         0.00000E+00
   -0.21150E+06         0.19313E+08         0.00000E+00
    0.00000E+00         0.00000E+00         0.75996E+07
 
    0.82240E+07        -0.20750E+06         0.00000E+00
   -0.20750E+06         0.19229E+08         0.00000E+00
    0.00000E+00         0.00000E+00         0.75293E+07
 
    0.80158E+07        -0.20415E+06         0.00000E+00
   -0.20415E+06         0.19147E+08         0.00000E+00
    0.00000E+00         0.00000E+00         0.74521E+07
 
    0.78271E+07        -0.19926E+06         0.00000E+00
   -0.19926E+06         0.19067E+08         0.00000E+00
    0.00000E+00         0.00000E+00         0.73669E+07
 
    0.76538E+07        -0.19353E+06         0.00000E+00
   -0.19353E+06         0.18988E+08         0.00000E+00
    0.00000E+00         0.00000E+00         0.72768E+07
 
    0.74948E+07        -0.18747E+06         0.00000E+00
   -0.18747E+06         0.18912E+08         0.00000E+00
    0.00000E+00         0.00000E+00         0.71828E+07
 
    0.73489E+07        -0.18116E+06         0.00000E+00
   -0.18116E+06         0.18839E+08         0.00000E+00
    0.00000E+00         0.00000E+00         0.70857E+07
 
    0.72144E+07        -0.17476E+06         0.00000E+00
   -0.17476E+06         0.18768E+08         0.00000E+00
    0.00000E+00         0.00000E+00         0.69867E+07
 
    0.70909E+07        -0.16814E+06         0.00000E+00
   -0.16814E+06         0.18700E+08         0.00000E+00
    0.00000E+00         0.00000E+00         0.68863E+07
 
    0.69799E+07        -0.16171E+06         0.00000E+00
   -0.16171E+06         0.18635E+08         0.00000E+00
    0.00000E+00         0.00000E+00         0.67864E+07
 
    0.68749E+07        -0.15522E+06         0.00000E+00
   -0.15522E+06         0.18572E+08         0.00000E+00
    0.00000E+00         0.00000E+00         0.66902E+07
 
    0.67777E+07        -0.14865E+06         0.00000E+00
   -0.14865E+06         0.18512E+08         0.00000E+00
    0.00000E+00         0.00000E+00         0.65962E+07
 
    0.66886E+07        -0.14214E+06         0.00000E+00
   -0.14214E+06         0.18454E+08         0.00000E+00
    0.00000E+00         0.00000E+00         0.65027E+07
 
    0.66064E+07        -0.13578E+06         0.00000E+00
   -0.13578E+06         0.18399E+08         0.00000E+00
    0.00000E+00         0.00000E+00         0.64106E+07
 
    0.65303E+07        -0.12965E+06         0.00000E+00
   -0.12965E+06         0.18347E+08         0.00000E+00
    0.00000E+00         0.00000E+00         0.63206E+07
 
    0.64579E+07        -0.12364E+06         0.00000E+00
   -0.12364E+06         0.18297E+08         0.00000E+00
    0.00000E+00         0.00000E+00         0.62349E+07
 
    0.63915E+07        -0.11763E+06         0.00000E+00
   -0.11763E+06         0.18250E+08         0.00000E+00
    0.00000E+00         0.00000E+00         0.61511E+07
 
    0.63305E+07        -0.11169E+06         0.00000E+00
   -0.11169E+06         0.18205E+08         0.00000E+00
    0.00000E+00         0.00000E+00         0.60696E+07
 
    0.62743E+07        -0.10574E+06         0.00000E+00
   -0.10574E+06         0.18162E+08         0.00000E+00
    0.00000E+00         0.00000E+00         0.59909E+07
 
    0.62223E+07        -0.99948E+05         0.00000E+00
   -0.99948E+05         0.18122E+08         0.00000E+00
    0.00000E+00         0.00000E+00         0.59153E+07
 
    0.61739E+07        -0.94167E+05         0.00000E+00
   -0.94167E+05         0.18084E+08         0.00000E+00
    0.00000E+00         0.00000E+00         0.58434E+07
 
    0.61288E+07        -0.88331E+05         0.00000E+00
   -0.88331E+05         0.18048E+08         0.00000E+00
    0.00000E+00         0.00000E+00         0.57755E+07
 
    0.60865E+07        -0.82395E+05         0.00000E+00
   -0.82395E+05         0.18015E+08         0.00000E+00
    0.00000E+00         0.00000E+00         0.57122E+07
 
    0.60468E+07        -0.76325E+05         0.00000E+00
   -0.76325E+05         0.17984E+08         0.00000E+00
    0.00000E+00         0.00000E+00         0.56538E+07
 
    0.60093E+07        -0.70102E+05         0.00000E+00
   -0.70102E+05         0.17955E+08         0.00000E+00
    0.00000E+00         0.00000E+00         0.56008E+07
 
    0.59740E+07        -0.63680E+05         0.00000E+00
   -0.63680E+05         0.17929E+08         0.00000E+00
    0.00000E+00         0.00000E+00         0.55536E+07
 
    0.59405E+07        -0.57025E+05         0.00000E+00
   -0.57025E+05         0.17905E+08         0.00000E+00
    0.00000E+00         0.00000E+00         0.55125E+07
 
    0.59090E+07        -0.50167E+05         0.00000E+00
   -0.50167E+05         0.17884E+08         0.00000E+00
    0.00000E+00         0.00000E+00         0.54778E+07
 
    0.58793E+07        -0.43177E+05         0.00000E+00
   -0.43177E+05         0.17866E+08         0.00000E+00
    0.00000E+00         0.00000E+00         0.54499E+07
 
    0.58515E+07        -0.36085E+05         0.00000E+00
   -0.36085E+05         0.17851E+08         0.00000E+00
    0.00000E+00         0.00000E+00         0.54290E+07
 
    0.58256E+07        -0.28923E+05         0.00000E+00
   -0.28923E+05         0.17839E+08         0.00000E+00
    0.00000E+00         0.00000E+00         0.54154E+07
 
    0.58016E+07        -0.21693E+05         0.00000E+00
   -0.21693E+05         0.17829E+08         0.00000E+00
    0.00000E+00         0.00000E+00         0.54091E+07
 
    0.57797E+07        -0.14379E+05         0.00000E+00
   -0.14379E+05         0.17823E+08         0.00000E+00
    0.00000E+00         0.00000E+00         0.54103E+07
 
    0.57597E+07        -0.68817E+04         0.00000E+00
   -0.68817E+04         0.17819E+08         0.00000E+00
    0.00000E+00         0.00000E+00         0.54190E+07
 
    0.57413E+07         0.14724E+04         0.00000E+00
    0.14724E+04         0.17819E+08         0.00000E+00
    0.00000E+00         0.00000E+00         0.54356E+07
 
    0.57130E+07         0.11103E+05         0.00000E+00
    0.11103E+05         0.17822E+08         0.00000E+00
    0.00000E+00         0.00000E+00         0.54711E+07
 
    0.56854E+07         0.21459E+05         0.00000E+00
    0.21459E+05         0.17828E+08         0.00000E+00
    0.00000E+00         0.00000E+00         0.55162E+07
 
    0.56573E+07         0.32108E+05         0.00000E+00
    0.32108E+05         0.17835E+08         0.00000E+00
    0.00000E+00         0.00000E+00         0.55668E+07
 
    0.56213E+07         0.46510E+05         0.00000E+00
    0.46510E+05         0.17837E+08         0.00000E+00
    0.00000E+00         0.00000E+00         0.56053E+07
 
    0.10700E+08         0.26764E+06         0.00000E+00
    0.26764E+06         0.18861E+08         0.00000E+00
    0.00000E+00         0.00000E+00         0.60061E+07
 
    0.10557E+08         0.14367E+06         0.00000E+00
    0.14367E+06         0.18830E+08         0.00000E+00
    0.00000E+00         0.00000E+00         0.59406E+07
 
    0.10315E+08        -0.39505E+04         0.00000E+00
   -0.39505E+04         0.18817E+08         0.00000E+00
    0.00000E+00         0.00000E+00         0.59127E+07
 
    0.10011E+08        -0.12164E+06         0.00000E+00
   -0.12164E+06         0.18831E+08         0.00000E+00
    0.00000E+00         0.00000E+00         0.59613E+07
 
    0.96991E+07        -0.22043E+06         0.00000E+00
   -0.22043E+06         0.18823E+08         0.00000E+00
    0.00000E+00         0.00000E+00         0.59931E+07
 
    0.93931E+07        -0.31435E+06         0.00000E+00
   -0.31435E+06         0.18810E+08         0.00000E+00
    0.00000E+00         0.00000E+00         0.60365E+07
 
    0.90845E+07        -0.38898E+06         0.00000E+00
   -0.38898E+06         0.18792E+08         0.00000E+00
    0.00000E+00         0.00000E+00         0.60865E+07
 
    0.87870E+07        -0.44404E+06         0.00000E+00
   -0.44404E+06         0.18768E+08         0.00000E+00
    0.00000E+00         0.00000E+00         0.61339E+07
 
    0.85053E+07        -0.48267E+06         0.00000E+00
   -0.48267E+06         0.18736E+08         0.00000E+00
    0.00000E+00         0.00000E+00         0.61740E+07
 
    0.82401E+07        -0.50801E+06         0.00000E+00
   -0.50801E+06         0.18699E+08         0.00000E+00
    0.00000E+00         0.00000E+00         0.62050E+07
 
    0.79967E+07        -0.52299E+06         0.00000E+00
   -0.52299E+06         0.18658E+08         0.00000E+00
    0.00000E+00         0.00000E+00         0.62239E+07
 
    0.77706E+07        -0.53013E+06         0.00000E+00
   -0.53013E+06         0.18613E+08         0.00000E+00
    0.00000E+00         0.00000E+00         0.62320E+07
 
    0.75596E+07        -0.53094E+06         0.00000E+00
   -0.53094E+06         0.18565E+08         0.00000E+00
    0.00000E+00         0.00000E+00         0.62301E+07
 
    0.73643E+07        -0.52614E+06         0.00000E+00
   -0.52614E+06         0.18515E+08         0.00000E+00
    0.00000E+00         0.00000E+00         0.62193E+07
 
    0.71858E+07        -0.51826E+06         0.00000E+00
   -0.51826E+06         0.18465E+08         0.00000E+00
    0.00000E+00         0.00000E+00         0.61990E+07
 
    0.70200E+07        -0.50781E+06         0.00000E+00
   -0.50781E+06         0.18415E+08         0.00000E+00
    0.00000E+00         0.00000E+00         0.61718E+07
 
    0.68657E+07        -0.49528E+06         0.00000E+00
   -0.49528E+06         0.18364E+08         0.00000E+00
    0.00000E+00         0.00000E+00         0.61387E+07
 
    0.67230E+07        -0.48150E+06         0.00000E+00
   -0.48150E+06         0.18314E+08         0.00000E+00
    0.00000E+00         0.00000E+00         0.61000E+07
 
    0.65908E+07        -0.46672E+06         0.00000E+00
   -0.46672E+06         0.18265E+08         0.00000E+00
    0.00000E+00         0.00000E+00         0.60569E+07
 
    0.64683E+07        -0.45155E+06         0.00000E+00
   -0.45155E+06         0.18217E+08         0.00000E+00
    0.00000E+00         0.00000E+00         0.60099E+07
 
    0.63552E+07        -0.43639E+06         0.00000E+00
   -0.43639E+06         0.18169E+08         0.00000E+00
    0.00000E+00         0.00000E+00         0.59592E+07
 
    0.62509E+07        -0.42137E+06         0.00000E+00
   -0.42137E+06         0.18124E+08         0.00000E+00
    0.00000E+00         0.00000E+00         0.59063E+07
 
    0.61540E+07        -0.40609E+06         0.00000E+00
   -0.40609E+06         0.18080E+08         0.00000E+00
    0.00000E+00         0.00000E+00         0.58517E+07
 
    0.60642E+07        -0.39078E+06         0.00000E+00
   -0.39078E+06         0.18036E+08         0.00000E+00
    0.00000E+00         0.00000E+00         0.57949E+07
 
    0.59811E+07        -0.37553E+06         0.00000E+00
   -0.37553E+06         0.17994E+08         0.00000E+00
    0.00000E+00         0.00000E+00         0.57366E+07
 
    0.59043E+07        -0.36027E+06         0.00000E+00
   -0.36027E+06         0.17953E+08         0.00000E+00
    0.00000E+00         0.00000E+00         0.56776E+07
 
    0.58333E+07        -0.34487E+06         0.00000E+00
   -0.34487E+06         0.17913E+08         0.00000E+00
    0.00000E+00         0.00000E+00         0.56184E+07
 
    0.57676E+07        -0.32927E+06         0.00000E+00
   -0.32927E+06         0.17874E+08         0.00000E+00
    0.00000E+00         0.00000E+00         0.55590E+07
 
    0.57068E+07        -0.31357E+06         0.00000E+00
   -0.31357E+06         0.17837E+08         0.00000E+00
    0.00000E+00         0.00000E+00         0.54999E+07
 
    0.56507E+07        -0.29789E+06         0.00000E+00
   -0.29789E+06         0.17802E+08         0.00000E+00
    0.00000E+00         0.00000E+00         0.54416E+07
 
    0.55988E+07        -0.28214E+06         0.00000E+00
   -0.28214E+06         0.17769E+08         0.00000E+00
    0.00000E+00         0.00000E+00         0.53851E+07
 
    0.55508E+07        -0.26632E+06         0.00000E+00
   -0.26632E+06         0.17737E+08         0.00000E+00
    0.00000E+00         0.00000E+00         0.53304E+07
 
    0.55065E+07        -0.25033E+06         0.00000E+00
   -0.25033E+06         0.17708E+08         0.00000E+00
    0.00000E+00         0.00000E+00         0.52782E+07
 
    0.54655E+07        -0.23404E+06         0.00000E+00
   -0.23404E+06         0.17680E+08         0.00000E+00
    0.00000E+00         0.00000E+00         0.52288E+07
 
    0.54273E+07        -0.21738E+06         0.00000E+00
   -0.21738E+06         0.17654E+08         0.00000E+00
    0.00000E+00         0.00000E+00         0.51826E+07
 
    0.53917E+07        -0.20024E+06         0.00000E+00
   -0.20024E+06         0.17630E+08         0.00000E+00
    0.00000E+00         0.00000E+00         0.51400E+07
 
    0.53585E+07        -0.18253E+06         0.00000E+00
   -0.18253E+06         0.17608E+08         0.00000E+00
    0.00000E+00         0.00000E+00         0.51014E+07
 
    0.53272E+07        -0.16423E+06         0.00000E+00
   -0.16423E+06         0.17588E+08         0.00000E+00
    0.00000E+00         0.00000E+00         0.50673E+07
 
    0.52976E+07        -0.14534E+06         0.00000E+00
   -0.14534E+06         0.17570E+08         0.00000E+00
    0.00000E+00         0.00000E+00         0.50383E+07
 
    0.52698E+07        -0.12581E+06         0.00000E+00
   -0.12581E+06         0.17554E+08         0.00000E+00
    0.00000E+00         0.00000E+00         0.50146E+07
 
    0.52439E+07        -0.10558E+06         0.00000E+00
   -0.10558E+06         0.17540E+08         0.00000E+00
    0.00000E+00         0.00000E+00         0.49966E+07
 
    0.52199E+07        -0.84638E+05         0.00000E+00
   -0.84638E+05         0.17529E+08         0.00000E+00
    0.00000E+00         0.00000E+00         0.49845E+07
 
    0.51980E+07        -0.63071E+05         0.00000E+00
   -0.63071E+05         0.17521E+08         0.00000E+00
    0.00000E+00         0.00000E+00         0.49789E+07
 
    0.51787E+07        -0.40795E+05         0.00000E+00
   -0.40795E+05         0.17515E+08         0.00000E+00
    0.00000E+00         0.00000E+00         0.49802E+07
 
    0.51624E+07        -0.17691E+05         0.00000E+00
   -0.17691E+05         0.17512E+08         0.00000E+00
    0.00000E+00         0.00000E+00         0.49884E+07
 
    0.51497E+07         0.62405E+04         0.00000E+00
    0.62405E+04         0.17512E+08         0.00000E+00
    0.00000E+00         0.00000E+00         0.50038E+07
 
    0.51355E+07         0.33034E+05         0.00000E+00
    0.33034E+05         0.17515E+08         0.00000E+00
    0.00000E+00         0.00000E+00         0.50295E+07
 
    0.51242E+07         0.65151E+05         0.00000E+00
    0.65151E+05         0.17520E+08         0.00000E+00
    0.00000E+00         0.00000E+00         0.50609E+07
 
    0.51238E+07         0.10384E+06         0.00000E+00
    0.10384E+06         0.17530E+08         0.00000E+00
    0.00000E+00         0.00000E+00         0.51010E+07
 
    0.51666E+07         0.14912E+06         0.00000E+00
    0.14912E+06         0.17559E+08         0.00000E+00
    0.00000E+00         0.00000E+00         0.51633E+07
 
    0.10036E+08        -0.62130E+05         0.00000E+00
   -0.62130E+05         0.18304E+08         0.00000E+00
    0.00000E+00         0.00000E+00         0.50716E+07
 
    0.95776E+07        -0.10102E+06         0.00000E+00
   -0.10102E+06         0.18258E+08         0.00000E+00
    0.00000E+00         0.00000E+00         0.49833E+07
 
    0.92133E+07        -0.16671E+06         0.00000E+00
   -0.16671E+06         0.18217E+08         0.00000E+00
    0.00000E+00         0.00000E+00         0.49257E+07
 
    0.88994E+07        -0.25189E+06         0.00000E+00
   -0.25189E+06         0.18177E+08         0.00000E+00
    0.00000E+00         0.00000E+00         0.48848E+07
 
    0.86151E+07        -0.34006E+06         0.00000E+00
   -0.34006E+06         0.18147E+08         0.00000E+00
    0.00000E+00         0.00000E+00         0.48759E+07
 
    0.83500E+07        -0.42063E+06         0.00000E+00
   -0.42063E+06         0.18121E+08         0.00000E+00
    0.00000E+00         0.00000E+00         0.48866E+07
 
    0.81039E+07        -0.49393E+06         0.00000E+00
   -0.49393E+06         0.18097E+08         0.00000E+00
    0.00000E+00         0.00000E+00         0.49110E+07
 
    0.78718E+07        -0.55731E+06         0.00000E+00
   -0.55731E+06         0.18076E+08         0.00000E+00
    0.00000E+00         0.00000E+00         0.49447E+07
 
    0.76520E+07        -0.60933E+06         0.00000E+00
   -0.60933E+06         0.18054E+08         0.00000E+00
    0.00000E+00         0.00000E+00         0.49827E+07
 
    0.74438E+07        -0.64970E+06         0.00000E+00
   -0.64970E+06         0.18032E+08         0.00000E+00
    0.00000E+00         0.00000E+00         0.50208E+07
 
    0.72468E+07        -0.67940E+06         0.00000E+00
   -0.67940E+06         0.18008E+08         0.00000E+00
    0.00000E+00         0.00000E+00         0.50557E+07
 
    0.70604E+07        -0.69954E+06         0.00000E+00
   -0.69954E+06         0.17982E+08         0.00000E+00
    0.00000E+00         0.00000E+00         0.50855E+07
 
    0.68838E+07        -0.71139E+06         0.00000E+00
   -0.71139E+06         0.17954E+08         0.00000E+00
    0.00000E+00         0.00000E+00         0.51094E+07
 
    0.67161E+07        -0.71573E+06         0.00000E+00
   -0.71573E+06         0.17925E+08         0.00000E+00
    0.00000E+00         0.00000E+00         0.51262E+07
 
    0.65571E+07        -0.71384E+06         0.00000E+00
   -0.71384E+06         0.17893E+08         0.00000E+00
    0.00000E+00         0.00000E+00         0.51359E+07
 
    0.64068E+07        -0.70701E+06         0.00000E+00
   -0.70701E+06         0.17861E+08         0.00000E+00
    0.00000E+00         0.00000E+00         0.51392E+07
 
    0.62649E+07        -0.69642E+06         0.00000E+00
   -0.69642E+06         0.17828E+08         0.00000E+00
    0.00000E+00         0.00000E+00         0.51368E+07
 
    0.61312E+07        -0.68274E+06         0.00000E+00
   -0.68274E+06         0.17794E+08         0.00000E+00
    0.00000E+00         0.00000E+00         0.51292E+07
 
    0.60054E+07        -0.66694E+06         0.00000E+00
   -0.66694E+06         0.17760E+08         0.00000E+00
    0.00000E+00         0.00000E+00         0.51171E+07
 
    0.58873E+07        -0.64942E+06         0.00000E+00
   -0.64942E+06         0.17726E+08         0.00000E+00
    0.00000E+00         0.00000E+00         0.51009E+07
 
    0.57767E+07        -0.63058E+06         0.00000E+00
   -0.63058E+06         0.17692E+08         0.00000E+00
    0.00000E+00         0.00000E+00         0.50816E+07
 
    0.56736E+07        -0.61096E+06         0.00000E+00
   -0.61096E+06         0.17659E+08         0.00000E+00
    0.00000E+00         0.00000E+00         0.50593E+07
 
    0.55777E+07        -0.59096E+06         0.00000E+00
   -0.59096E+06         0.17627E+08         0.00000E+00
    0.00000E+00         0.00000E+00         0.50348E+07
 
    0.54886E+07        -0.57073E+06         0.00000E+00
   -0.57073E+06         0.17596E+08         0.00000E+00
    0.00000E+00         0.00000E+00         0.50084E+07
 
    0.54062E+07        -0.55035E+06         0.00000E+00
   -0.55035E+06         0.17566E+08         0.00000E+00
    0.00000E+00         0.00000E+00         0.49805E+07
 
    0.53303E+07        -0.52982E+06         0.00000E+00
   -0.52982E+06         0.17538E+08         0.00000E+00
    0.00000E+00         0.00000E+00         0.49515E+07
 
    0.52604E+07        -0.50906E+06         0.00000E+00
   -0.50906E+06         0.17510E+08         0.00000E+00
    0.00000E+00         0.00000E+00         0.49220E+07
 
    0.51961E+07        -0.48797E+06         0.00000E+00
   -0.48797E+06         0.17484E+08         0.00000E+00
    0.00000E+00         0.00000E+00         0.48918E+07
 
    0.51368E+07        -0.46643E+06         0.00000E+00
   -0.46643E+06         0.17459E+08         0.00000E+00
    0.00000E+00         0.00000E+00         0.48609E+07
 
    0.50822E+07        -0.44435E+06         0.00000E+00
   -0.44435E+06         0.17435E+08         0.00000E+00
    0.00000E+00         0.00000E+00         0.48301E+07
 
    0.50320E+07        -0.42171E+06         0.00000E+00
   -0.42171E+06         0.17412E+08         0.00000E+00
    0.00000E+00         0.00000E+00         0.47996E+07
 
    0.49858E+07        -0.39852E+06         0.00000E+00
   -0.39852E+06         0.17389E+08         0.00000E+00
    0.00000E+00         0.00000E+00         0.47697E+07
 
    0.49436E+07        -0.37484E+06         0.00000E+00
   -0.37484E+06         0.17368E+08         0.00000E+00
    0.00000E+00         0.00000E+00         0.47409E+07
 
    0.49048E+07        -0.35069E+06         0.00000E+00
   -0.35069E+06         0.17349E+08         0.00000E+00
    0.00000E+00         0.00000E+00         0.47134E+07
 
    0.48693E+07        -0.32597E+06         0.00000E+00
   -0.32597E+06         0.17331E+08         0.00000E+00
    0.00000E+00         0.00000E+00         0.46876E+07
 
    0.48368E+07        -0.30063E+06         0.00000E+00
   -0.30063E+06         0.17315E+08         0.00000E+00
    0.00000E+00         0.00000E+00         0.46638E+07
 
    0.48073E+07        -0.27455E+06         0.00000E+00
   -0.27455E+06         0.17300E+08         0.00000E+00
    0.00000E+00         0.00000E+00         0.46423E+07
 
    0.47804E+07        -0.24747E+06         0.00000E+00
   -0.24747E+06         0.17287E+08         0.00000E+00
    0.00000E+00         0.00000E+00         0.46236E+07
 
    0.47559E+07        -0.21906E+06         0.00000E+00
   -0.21906E+06         0.17276E+08         0.00000E+00
    0.00000E+00         0.00000E+00         0.46082E+07
 
    0.47333E+07        -0.18921E+06         0.00000E+00
   -0.18921E+06         0.17266E+08         0.00000E+00
    0.00000E+00         0.00000E+00         0.45966E+07
 
    0.47130E+07        -0.15787E+06         0.00000E+00
   -0.15787E+06         0.17258E+08         0.00000E+00
    0.00000E+00         0.00000E+00         0.45893E+07
 
    0.46954E+07        -0.12476E+06         0.00000E+00
   -0.12476E+06         0.17252E+08         0.00000E+00
    0.00000E+00         0.00000E+00         0.45868E+07
 
    0.46807E+07        -0.89420E+05         0.00000E+00
   -0.89420E+05         0.17248E+08         0.00000E+00
    0.00000E+00         0.00000E+00         0.45896E+07
 
    0.46694E+07        -0.51732E+05         0.00000E+00
   -0.51732E+05         0.17247E+08         0.00000E+00
    0.00000E+00         0.00000E+00         0.45981E+07
 
    0.46623E+07        -0.11488E+05         0.00000E+00
   -0.11488E+05         0.17248E+08         0.00000E+00
    0.00000E+00         0.00000E+00         0.46129E+07
 
    0.46606E+07         0.31524E+05         0.00000E+00
    0.31524E+05         0.17253E+08         0.00000E+00
    0.00000E+00         0.00000E+00         0.46344E+07
 
    0.46688E+07         0.76750E+05         0.00000E+00
    0.76750E+05         0.17263E+08         0.00000E+00
    0.00000E+00         0.00000E+00         0.46646E+07
 
    0.46910E+07         0.12582E+06         0.00000E+00
    0.12582E+06         0.17278E+08         0.00000E+00
    0.00000E+00         0.00000E+00         0.47014E+07
 
    0.47277E+07         0.18071E+06         0.00000E+00
    0.18071E+06         0.17297E+08         0.00000E+00
    0.00000E+00         0.00000E+00         0.47407E+07
 
    0.47687E+07         0.23990E+06         0.00000E+00
    0.23990E+06         0.17315E+08         0.00000E+00
    0.00000E+00         0.00000E+00         0.47742E+07
 
    0.88157E+07        -0.10543E+06         0.00000E+00
   -0.10543E+06         0.17686E+08         0.00000E+00
    0.00000E+00         0.00000E+00         0.40150E+07
 
    0.84585E+07        -0.23999E+06         0.00000E+00
   -0.23999E+06         0.17683E+08         0.00000E+00
    0.00000E+00         0.00000E+00         0.40295E+07
 
    0.81298E+07        -0.34355E+06         0.00000E+00
   -0.34355E+06         0.17663E+08         0.00000E+00
    0.00000E+00         0.00000E+00         0.40311E+07
 
    0.78391E+07        -0.42869E+06         0.00000E+00
   -0.42869E+06         0.17636E+08         0.00000E+00
    0.00000E+00         0.00000E+00         0.40289E+07
 
    0.75809E+07        -0.50348E+06         0.00000E+00
   -0.50348E+06         0.17605E+08         0.00000E+00
    0.00000E+00         0.00000E+00         0.40275E+07
 
    0.73521E+07        -0.57179E+06         0.00000E+00
   -0.57179E+06         0.17573E+08         0.00000E+00
    0.00000E+00         0.00000E+00         0.40306E+07
 
    0.71460E+07        -0.63251E+06         0.00000E+00
   -0.63251E+06         0.17542E+08         0.00000E+00
    0.00000E+00         0.00000E+00         0.40359E+07
 
    0.69582E+07        -0.68583E+06         0.00000E+00
   -0.68583E+06         0.17512E+08         0.00000E+00
    0.00000E+00         0.00000E+00         0.40443E+07
 
    0.67851E+07        -0.73147E+06         0.00000E+00
   -0.73147E+06         0.17484E+08         0.00000E+00
    0.00000E+00         0.00000E+00         0.40553E+07
 
    0.66234E+07        -0.76916E+06         0.00000E+00
   -0.76916E+06         0.17458E+08         0.00000E+00
    0.00000E+00         0.00000E+00         0.40682E+07
 
    0.64706E+07        -0.79874E+06         0.00000E+00
   -0.79874E+06         0.17433E+08         0.00000E+00
    0.00000E+00         0.00000E+00         0.40823E+07
 
    0.63247E+07        -0.82041E+06         0.00000E+00
   -0.82041E+06         0.17410E+08         0.00000E+00
    0.00000E+00         0.00000E+00         0.40966E+07
 
    0.61848E+07        -0.83453E+06         0.00000E+00
   -0.83453E+06         0.17387E+08         0.00000E+00
    0.00000E+00         0.00000E+00         0.41105E+07
 
    0.60498E+07        -0.84172E+06         0.00000E+00
   -0.84172E+06         0.17364E+08         0.00000E+00
    0.00000E+00         0.00000E+00         0.41238E+07
 
    0.59193E+07        -0.84264E+06         0.00000E+00
   -0.84264E+06         0.17342E+08         0.00000E+00
    0.00000E+00         0.00000E+00         0.41360E+07
 
    0.57929E+07        -0.83795E+06         0.00000E+00
   -0.83795E+06         0.17320E+08         0.00000E+00
    0.00000E+00         0.00000E+00         0.41468E+07
 
    0.56709E+07        -0.82836E+06         0.00000E+00
   -0.82836E+06         0.17299E+08         0.00000E+00
    0.00000E+00         0.00000E+00         0.41562E+07
 
    0.55529E+07        -0.81478E+06         0.00000E+00
   -0.81478E+06         0.17277E+08         0.00000E+00
    0.00000E+00         0.00000E+00         0.41646E+07
 
    0.54396E+07        -0.79792E+06         0.00000E+00
   -0.79792E+06         0.17256E+08         0.00000E+00
    0.00000E+00         0.00000E+00         0.41721E+07
 
    0.53310E+07        -0.77849E+06         0.00000E+00
   -0.77849E+06         0.17236E+08         0.00000E+00
    0.00000E+00         0.00000E+00         0.41789E+07
 
    0.52274E+07        -0.75717E+06         0.00000E+00
   -0.75717E+06         0.17216E+08         0.00000E+00
    0.00000E+00         0.00000E+00         0.41850E+07
 
    0.51293E+07        -0.73443E+06         0.00000E+00
   -0.73443E+06         0.17196E+08         0.00000E+00
    0.00000E+00         0.00000E+00         0.41905E+07
 
    0.50369E+07        -0.71065E+06         0.00000E+00
   -0.71065E+06         0.17178E+08         0.00000E+00
    0.00000E+00         0.00000E+00         0.41955E+07
 
    0.49504E+07        -0.68614E+06         0.00000E+00
   -0.68614E+06         0.17160E+08         0.00000E+00
    0.00000E+00         0.00000E+00         0.41998E+07
 
    0.48699E+07        -0.66107E+06         0.00000E+00
   -0.66107E+06         0.17143E+08         0.00000E+00
    0.00000E+00         0.00000E+00         0.42035E+07
 
    0.47954E+07        -0.63570E+06         0.00000E+00
   -0.63570E+06         0.17127E+08         0.00000E+00
    0.00000E+00         0.00000E+00         0.42063E+07
 
    0.47270E+07        -0.61021E+06         0.00000E+00
   -0.61021E+06         0.17112E+08         0.00000E+00
    0.00000E+00         0.00000E+00         0.42081E+07
 
    0.46644E+07        -0.58448E+06         0.00000E+00
   -0.58448E+06         0.17098E+08         0.00000E+00
    0.00000E+00         0.00000E+00         0.42089E+07
 
    0.46072E+07        -0.55849E+06         0.00000E+00
   -0.55849E+06         0.17085E+08         0.00000E+00
    0.00000E+00         0.00000E+00         0.42088E+07
 
    0.45553E+07        -0.53214E+06         0.00000E+00
   -0.53214E+06         0.17073E+08         0.00000E+00
    0.00000E+00         0.00000E+00         0.42078E+07
 
    0.45080E+07        -0.50529E+06         0.00000E+00
   -0.50529E+06         0.17061E+08         0.00000E+00
    0.00000E+00         0.00000E+00         0.42059E+07
 
    0.44653E+07        -0.47773E+06         0.00000E+00
   -0.47773E+06         0.17051E+08         0.00000E+00
    0.00000E+00         0.00000E+00         0.42035E+07
 
    0.44267E+07        -0.44925E+06         0.00000E+00
   -0.44925E+06         0.17041E+08         0.00000E+00
    0.00000E+00         0.00000E+00         0.42009E+07
 
    0.43918E+07        -0.41971E+06         0.00000E+00
   -0.41971E+06         0.17033E+08         0.00000E+00
    0.00000E+00         0.00000E+00         0.41982E+07
 
    0.43607E+07        -0.38909E+06         0.00000E+00
   -0.38909E+06         0.17025E+08         0.00000E+00
    0.00000E+00         0.00000E+00         0.41962E+07
 
    0.43333E+07        -0.35717E+06         0.00000E+00
   -0.35717E+06         0.17018E+08         0.00000E+00
    0.00000E+00         0.00000E+00         0.41951E+07
 
    0.43094E+07        -0.32386E+06         0.00000E+00
   -0.32386E+06         0.17013E+08         0.00000E+00
    0.00000E+00         0.00000E+00         0.41955E+07
 
    0.42891E+07        -0.28918E+06         0.00000E+00
   -0.28918E+06         0.17008E+08         0.00000E+00
    0.00000E+00         0.00000E+00         0.41978E+07
 
    0.42728E+07        -0.25314E+06         0.00000E+00
   -0.25314E+06         0.17006E+08         0.00000E+00
    0.00000E+00         0.00000E+00         0.42018E+07
 
    0.42604E+07        -0.21516E+06         0.00000E+00
   -0.21516E+06         0.17006E+08         0.00000E+00
    0.00000E+00         0.00000E+00         0.42081E+07
 
    0.42514E+07        -0.17447E+06         0.00000E+00
   -0.17447E+06         0.17006E+08         0.00000E+00
    0.00000E+00         0.00000E+00         0.42170E+07
 
    0.42459E+07        -0.13113E+06         0.00000E+00
   -0.13113E+06         0.17009E+08         0.00000E+00
    0.00000E+00         0.00000E+00         0.42291E+07
 
    0.42447E+07        -0.85075E+05         0.00000E+00
   -0.85075E+05         0.17013E+08         0.00000E+00
    0.00000E+00         0.00000E+00         0.42439E+07
 
    0.42483E+07        -0.35514E+05         0.00000E+00
   -0.35514E+05         0.17018E+08         0.00000E+00
    0.00000E+00         0.00000E+00         0.42611E+07
 
    0.42573E+07         0.17950E+05         0.00000E+00
    0.17950E+05         0.17026E+08         0.00000E+00
    0.00000E+00         0.00000E+00         0.42820E+07
 
    0.42721E+07         0.75391E+05         0.00000E+00
    0.75391E+05         0.17036E+08         0.00000E+00
    0.00000E+00         0.00000E+00         0.43073E+07
 
    0.42924E+07         0.13713E+06         0.00000E+00
    0.13713E+06         0.17048E+08         0.00000E+00
    0.00000E+00         0.00000E+00         0.43356E+07
 
    0.43228E+07         0.19923E+06         0.00000E+00
    0.19923E+06         0.17062E+08         0.00000E+00
    0.00000E+00         0.00000E+00         0.43659E+07
 
    0.43658E+07         0.25847E+06         0.00000E+00
    0.25847E+06         0.17079E+08         0.00000E+00
    0.00000E+00         0.00000E+00         0.43961E+07
 
    0.44160E+07         0.31706E+06         0.00000E+00
    0.31706E+06         0.17097E+08         0.00000E+00
    0.00000E+00         0.00000E+00         0.44258E+07
 
    0.73492E+07        -0.11304E+06         0.00000E+00
   -0.11304E+06         0.17049E+08         0.00000E+00
    0.00000E+00         0.00000E+00         0.29455E+07
 
    0.71310E+07        -0.27673E+06         0.00000E+00
   -0.27673E+06         0.17045E+08         0.00000E+00
    0.00000E+00         0.00000E+00         0.29737E+07
 
    0.69232E+07        -0.41574E+06         0.00000E+00
   -0.41574E+06         0.17037E+08         0.00000E+00
    0.00000E+00         0.00000E+00         0.30104E+07
 
    0.67271E+07        -0.53134E+06         0.00000E+00
   -0.53134E+06         0.17024E+08         0.00000E+00
    0.00000E+00         0.00000E+00         0.30449E+07
 
    0.65453E+07        -0.62608E+06         0.00000E+00
   -0.62608E+06         0.17007E+08         0.00000E+00
    0.00000E+00         0.00000E+00         0.30734E+07
 
    0.63778E+07        -0.70237E+06         0.00000E+00
   -0.70237E+06         0.16986E+08         0.00000E+00
    0.00000E+00         0.00000E+00         0.30949E+07
 
    0.62250E+07        -0.76430E+06         0.00000E+00
   -0.76430E+06         0.16964E+08         0.00000E+00
    0.00000E+00         0.00000E+00         0.31108E+07
 
    0.60854E+07        -0.81398E+06         0.00000E+00
   -0.81398E+06         0.16942E+08         0.00000E+00
    0.00000E+00         0.00000E+00         0.31226E+07
 
    0.59566E+07        -0.85306E+06         0.00000E+00
   -0.85306E+06         0.16920E+08         0.00000E+00
    0.00000E+00         0.00000E+00         0.31323E+07
 
    0.58365E+07        -0.88291E+06         0.00000E+00
   -0.88291E+06         0.16900E+08         0.00000E+00
    0.00000E+00         0.00000E+00         0.31413E+07
 
    0.57227E+07        -0.90465E+06         0.00000E+00
   -0.90465E+06         0.16881E+08         0.00000E+00
    0.00000E+00         0.00000E+00         0.31506E+07
 
    0.56139E+07        -0.91903E+06         0.00000E+00
   -0.91903E+06         0.16864E+08         0.00000E+00
    0.00000E+00         0.00000E+00         0.31608E+07
 
    0.55079E+07        -0.92683E+06         0.00000E+00
   -0.92683E+06         0.16849E+08         0.00000E+00
    0.00000E+00         0.00000E+00         0.31725E+07
 
    0.54040E+07        -0.92859E+06         0.00000E+00
   -0.92859E+06         0.16835E+08         0.00000E+00
    0.00000E+00         0.00000E+00         0.31857E+07
 
    0.53014E+07        -0.92488E+06         0.00000E+00
   -0.92488E+06         0.16822E+08         0.00000E+00
    0.00000E+00         0.00000E+00         0.32006E+07
 
    0.51998E+07        -0.91631E+06         0.00000E+00
   -0.91631E+06         0.16811E+08         0.00000E+00
    0.00000E+00         0.00000E+00         0.32171E+07
 
    0.50997E+07        -0.90343E+06         0.00000E+00
   -0.90343E+06         0.16800E+08         0.00000E+00
    0.00000E+00         0.00000E+00         0.32350E+07
 
    0.49997E+07        -0.88665E+06         0.00000E+00
   -0.88665E+06         0.16790E+08         0.00000E+00
    0.00000E+00         0.00000E+00         0.32551E+07
 
    0.49010E+07        -0.86672E+06         0.00000E+00
   -0.86672E+06         0.16780E+08         0.00000E+00
    0.00000E+00         0.00000E+00         0.32770E+07
 
    0.48041E+07        -0.84423E+06         0.00000E+00
   -0.84423E+06         0.16772E+08         0.00000E+00
    0.00000E+00         0.00000E+00         0.33006E+07
 
    0.47096E+07        -0.81951E+06         0.00000E+00
   -0.81951E+06         0.16764E+08         0.00000E+00
    0.00000E+00         0.00000E+00         0.33260E+07
 
    0.46182E+07        -0.79311E+06         0.00000E+00
   -0.79311E+06         0.16757E+08         0.00000E+00
    0.00000E+00         0.00000E+00         0.33532E+07
 
    0.45306E+07        -0.76549E+06         0.00000E+00
   -0.76549E+06         0.16750E+08         0.00000E+00
    0.00000E+00         0.00000E+00         0.33819E+07
 
    0.44473E+07        -0.73710E+06         0.00000E+00
   -0.73710E+06         0.16745E+08         0.00000E+00
    0.00000E+00         0.00000E+00         0.34119E+07
 
    0.43690E+07        -0.70830E+06         0.00000E+00
   -0.70830E+06         0.16740E+08         0.00000E+00
    0.00000E+00         0.00000E+00         0.34427E+07
 
    0.42963E+07        -0.67917E+06         0.00000E+00
   -0.67917E+06         0.16736E+08         0.00000E+00
    0.00000E+00         0.00000E+00         0.34739E+07
 
    0.42290E+07        -0.64959E+06         0.00000E+00
   -0.64959E+06         0.16733E+08         0.00000E+00
    0.00000E+00         0.00000E+00         0.35052E+07
 
    0.41676E+07        -0.62004E+06         0.00000E+00
   -0.62004E+06         0.16731E+08         0.00000E+00
    0.00000E+00         0.00000E+00         0.35362E+07
 
    0.41121E+07        -0.59039E+06         0.00000E+00
   -0.59039E+06         0.16729E+08         0.00000E+00
    0.00000E+00         0.00000E+00         0.35665E+07
 
    0.40625E+07        -0.56045E+06         0.00000E+00
   -0.56045E+06         0.16728E+08         0.00000E+00
    0.00000E+00         0.00000E+00         0.35958E+07
 
    0.40185E+07        -0.52997E+06         0.00000E+00
   -0.52997E+06         0.16729E+08         0.00000E+00
    0.00000E+00         0.00000E+00         0.36240E+07
 
    0.39800E+07        -0.49879E+06         0.00000E+00
   -0.49879E+06         0.16730E+08         0.00000E+00
    0.00000E+00         0.00000E+00         0.36508E+07
 
    0.39465E+07        -0.46669E+06         0.00000E+00
   -0.46669E+06         0.16731E+08         0.00000E+00
    0.00000E+00         0.00000E+00         0.36764E+07
 
    0.39180E+07        -0.43331E+06         0.00000E+00
   -0.43331E+06         0.16734E+08         0.00000E+00
    0.00000E+00         0.00000E+00         0.37007E+07
 
    0.38941E+07        -0.39829E+06         0.00000E+00
   -0.39829E+06         0.16737E+08         0.00000E+00
    0.00000E+00         0.00000E+00         0.37240E+07
 
    0.38746E+07        -0.36159E+06         0.00000E+00
   -0.36159E+06         0.16741E+08         0.00000E+00
    0.00000E+00         0.00000E+00         0.37465E+07
 
    0.38593E+07        -0.32296E+06         0.00000E+00
   -0.32296E+06         0.16746E+08         0.00000E+00
    0.00000E+00         0.00000E+00         0.37691E+07
 
    0.38484E+07        -0.28215E+06         0.00000E+00
   -0.28215E+06         0.16752E+08         0.00000E+00
    0.00000E+00         0.00000E+00         0.37917E+07
 
    0.38415E+07        -0.23883E+06         0.00000E+00
   -0.23883E+06         0.16759E+08         0.00000E+00
    0.00000E+00         0.00000E+00         0.38155E+07
 
    0.38396E+07        -0.19335E+06         0.00000E+00
   -0.19335E+06         0.16767E+08         0.00000E+00
    0.00000E+00         0.00000E+00         0.38402E+07
 
    0.38433E+07        -0.14589E+06         0.00000E+00
   -0.14589E+06         0.16777E+08         0.00000E+00
    0.00000E+00         0.00000E+00         0.38659E+07
 
    0.38522E+07        -0.95730E+05         0.00000E+00
   -0.95730E+05         0.16788E+08         0.00000E+00
    0.00000E+00         0.00000E+00         0.38920E+07
 
    0.38670E+07        -0.42926E+05         0.00000E+00
   -0.42926E+05         0.16801E+08         0.00000E+00
    0.00000E+00         0.00000E+00         0.39187E+07
 
    0.38879E+07         0.12533E+05         0.00000E+00
    0.12533E+05         0.16814E+08         0.00000E+00
    0.00000E+00         0.00000E+00         0.39465E+07
 
    0.39132E+07         0.71100E+05         0.00000E+00
    0.71100E+05         0.16829E+08         0.00000E+00
    0.00000E+00         0.00000E+00         0.39744E+07
 
    0.39426E+07         0.13172E+06         0.00000E+00
    0.13172E+06         0.16843E+08         0.00000E+00
    0.00000E+00         0.00000E+00         0.40015E+07
 
    0.39748E+07         0.19469E+06         0.00000E+00
    0.19469E+06         0.16857E+08         0.00000E+00
    0.00000E+00         0.00000E+00         0.40287E+07
 
    0.40078E+07         0.26106E+06         0.00000E+00
    0.26106E+06         0.16870E+08         0.00000E+00
    0.00000E+00         0.00000E+00         0.40549E+07
 
    0.40452E+07         0.33189E+06         0.00000E+00
    0.33189E+06         0.16882E+08         0.00000E+00
    0.00000E+00         0.00000E+00         0.40797E+07
 
    0.40935E+07         0.40107E+06         0.00000E+00
    0.40107E+06         0.16897E+08         0.00000E+00
    0.00000E+00         0.00000E+00         0.41067E+07
 
    0.57997E+07        -0.12432E+06         0.00000E+00
   -0.12432E+06         0.16428E+08         0.00000E+00
    0.00000E+00         0.00000E+00         0.19829E+07
 
    0.57096E+07        -0.30334E+06         0.00000E+00
   -0.30334E+06         0.16423E+08         0.00000E+00
    0.00000E+00         0.00000E+00         0.20080E+07
 
    0.56237E+07        -0.45786E+06         0.00000E+00
   -0.45786E+06         0.16415E+08         0.00000E+00
    0.00000E+00         0.00000E+00         0.20356E+07
 
    0.55422E+07        -0.58707E+06         0.00000E+00
   -0.58707E+06         0.16406E+08         0.00000E+00
    0.00000E+00         0.00000E+00         0.20657E+07
 
    0.54647E+07        -0.69208E+06         0.00000E+00
   -0.69208E+06         0.16397E+08         0.00000E+00
    0.00000E+00         0.00000E+00         0.20964E+07
 
    0.53890E+07        -0.77545E+06         0.00000E+00
   -0.77545E+06         0.16388E+08         0.00000E+00
    0.00000E+00         0.00000E+00         0.21262E+07
 
    0.53152E+07        -0.83940E+06         0.00000E+00
   -0.83940E+06         0.16381E+08         0.00000E+00
    0.00000E+00         0.00000E+00         0.21538E+07
 
    0.52422E+07        -0.88709E+06         0.00000E+00
   -0.88709E+06         0.16374E+08         0.00000E+00
    0.00000E+00         0.00000E+00         0.21796E+07
 
    0.51696E+07        -0.92170E+06         0.00000E+00
   -0.92170E+06         0.16368E+08         0.00000E+00
    0.00000E+00         0.00000E+00         0.22034E+07
 
    0.50970E+07        -0.94566E+06         0.00000E+00
   -0.94566E+06         0.16362E+08         0.00000E+00
    0.00000E+00         0.00000E+00         0.22257E+07
 
    0.50244E+07        -0.96082E+06         0.00000E+00
   -0.96082E+06         0.16357E+08         0.00000E+00
    0.00000E+00         0.00000E+00         0.22473E+07
 
    0.49514E+07        -0.96861E+06         0.00000E+00
   -0.96861E+06         0.16353E+08         0.00000E+00
    0.00000E+00         0.00000E+00         0.22684E+07
 
    0.48770E+07        -0.96997E+06         0.00000E+00
   -0.96997E+06         0.16350E+08         0.00000E+00
    0.00000E+00         0.00000E+00         0.22899E+07
 
    0.48010E+07        -0.96573E+06         0.00000E+00
   -0.96573E+06         0.16347E+08         0.00000E+00
    0.00000E+00         0.00000E+00         0.23123E+07
 
    0.47232E+07        -0.95669E+06         0.00000E+00
   -0.95669E+06         0.16345E+08         0.00000E+00
    0.00000E+00         0.00000E+00         0.23362E+07
 
    0.46435E+07        -0.94329E+06         0.00000E+00
   -0.94329E+06         0.16344E+08         0.00000E+00
    0.00000E+00         0.00000E+00         0.23620E+07
 
    0.45622E+07        -0.92613E+06         0.00000E+00
   -0.92613E+06         0.16344E+08         0.00000E+00
    0.00000E+00         0.00000E+00         0.23900E+07
 
    0.44794E+07        -0.90568E+06         0.00000E+00
   -0.90568E+06         0.16344E+08         0.00000E+00
    0.00000E+00         0.00000E+00         0.24204E+07
 
    0.43955E+07        -0.88210E+06         0.00000E+00
   -0.88210E+06         0.16344E+08         0.00000E+00
    0.00000E+00         0.00000E+00         0.24532E+07
 
    0.43107E+07        -0.85560E+06         0.00000E+00
   -0.85560E+06         0.16345E+08         0.00000E+00
    0.00000E+00         0.00000E+00         0.24893E+07
 
    0.42258E+07        -0.82690E+06         0.00000E+00
   -0.82690E+06         0.16347E+08         0.00000E+00
    0.00000E+00         0.00000E+00         0.25285E+07
 
    0.41417E+07        -0.79648E+06         0.00000E+00
   -0.79648E+06         0.16350E+08         0.00000E+00
    0.00000E+00         0.00000E+00         0.25710E+07
 
    0.40593E+07        -0.76477E+06         0.00000E+00
   -0.76477E+06         0.16354E+08         0.00000E+00
    0.00000E+00         0.00000E+00         0.26166E+07
 
    0.39794E+07        -0.73213E+06         0.00000E+00
   -0.73213E+06         0.16358E+08         0.00000E+00
    0.00000E+00         0.00000E+00         0.26653E+07
 
    0.39029E+07        -0.69892E+06         0.00000E+00
   -0.69892E+06         0.16363E+08         0.00000E+00
    0.00000E+00         0.00000E+00         0.27168E+07
 
    0.38310E+07        -0.66547E+06         0.00000E+00
   -0.66547E+06         0.16369E+08         0.00000E+00
    0.00000E+00         0.00000E+00         0.27706E+07
 
    0.37643E+07        -0.63214E+06         0.00000E+00
   -0.63214E+06         0.16376E+08         0.00000E+00
    0.00000E+00         0.00000E+00         0.28262E+07
 
    0.37034E+07        -0.59869E+06         0.00000E+00
   -0.59869E+06         0.16384E+08         0.00000E+00
    0.00000E+00         0.00000E+00         0.28830E+07
 
    0.36490E+07        -0.56510E+06         0.00000E+00
   -0.56510E+06         0.16393E+08         0.00000E+00
    0.00000E+00         0.00000E+00         0.29402E+07
 
    0.36011E+07        -0.53134E+06         0.00000E+00
   -0.53134E+06         0.16403E+08         0.00000E+00
    0.00000E+00         0.00000E+00         0.29973E+07
 
    0.35601E+07        -0.49740E+06         0.00000E+00
   -0.49740E+06         0.16414E+08         0.00000E+00
    0.00000E+00         0.00000E+00         0.30536E+07
 
    0.35258E+07        -0.46279E+06         0.00000E+00
   -0.46279E+06         0.16426E+08         0.00000E+00
    0.00000E+00         0.00000E+00         0.31086E+07
 
    0.34982E+07        -0.42724E+06         0.00000E+00
   -0.42724E+06         0.16439E+08         0.00000E+00
    0.00000E+00         0.00000E+00         0.31621E+07
 
    0.34769E+07        -0.39063E+06         0.00000E+00
   -0.39063E+06         0.16452E+08         0.00000E+00
    0.00000E+00         0.00000E+00         0.32137E+07
 
    0.34615E+07        -0.35262E+06         0.00000E+00
   -0.35262E+06         0.16466E+08         0.00000E+00
    0.00000E+00         0.00000E+00         0.32634E+07
 
    0.34515E+07        -0.31258E+06         0.00000E+00
   -0.31258E+06         0.16481E+08         0.00000E+00
    0.00000E+00         0.00000E+00         0.33110E+07
 
    0.34468E+07        -0.27054E+06         0.00000E+00
   -0.27054E+06         0.16496E+08         0.00000E+00
    0.00000E+00         0.00000E+00         0.33562E+07
 
    0.34473E+07        -0.22618E+06         0.00000E+00
   -0.22618E+06         0.16512E+08         0.00000E+00
    0.00000E+00         0.00000E+00         0.33991E+07
 
    0.34524E+07        -0.17951E+06         0.00000E+00
   -0.17951E+06         0.16528E+08         0.00000E+00
    0.00000E+00         0.00000E+00         0.34403E+07
 
    0.34623E+07        -0.13006E+06         0.00000E+00
   -0.13006E+06         0.16544E+08         0.00000E+00
    0.00000E+00         0.00000E+00         0.34795E+07
 
    0.34773E+07        -0.77962E+05         0.00000E+00
   -0.77962E+05         0.16562E+08         0.00000E+00
    0.00000E+00         0.00000E+00         0.35180E+07
 
    0.34978E+07        -0.24009E+05         0.00000E+00
   -0.24009E+05         0.16579E+08         0.00000E+00
    0.00000E+00         0.00000E+00         0.35560E+07
 
    0.35230E+07         0.32227E+05         0.00000E+00
    0.32227E+05         0.16597E+08         0.00000E+00
    0.00000E+00         0.00000E+00         0.35938E+07
 
    0.35526E+07         0.89652E+05         0.00000E+00
    0.89652E+05         0.16615E+08         0.00000E+00
    0.00000E+00         0.00000E+00         0.36297E+07
 
    0.35874E+07         0.14788E+06         0.00000E+00
    0.14788E+06         0.16634E+08         0.00000E+00
    0.00000E+00         0.00000E+00         0.36638E+07
 
    0.36275E+07         0.20824E+06         0.00000E+00
    0.20824E+06         0.16653E+08         0.00000E+00
    0.00000E+00         0.00000E+00         0.36961E+07
 
    0.36717E+07         0.26997E+06         0.00000E+00
    0.26997E+06         0.16671E+08         0.00000E+00
    0.00000E+00         0.00000E+00         0.37273E+07
 
    0.37194E+07         0.33404E+06         0.00000E+00
    0.33404E+06         0.16689E+08         0.00000E+00
    0.00000E+00         0.00000E+00         0.37579E+07
 
    0.37663E+07         0.39770E+06         0.00000E+00
    0.39770E+06         0.16706E+08         0.00000E+00
    0.00000E+00         0.00000E+00         0.37881E+07
 
    0.38086E+07         0.46383E+06         0.00000E+00
    0.46383E+06         0.16719E+08         0.00000E+00
    0.00000E+00         0.00000E+00         0.38160E+07
 
    0.42017E+07        -0.14149E+06         0.00000E+00
   -0.14149E+06         0.15824E+08         0.00000E+00
    0.00000E+00         0.00000E+00         0.11448E+07
 
    0.42533E+07        -0.33126E+06         0.00000E+00
   -0.33126E+06         0.15814E+08         0.00000E+00
    0.00000E+00         0.00000E+00         0.11261E+07
 
    0.43086E+07        -0.48310E+06         0.00000E+00
   -0.48310E+06         0.15811E+08         0.00000E+00
    0.00000E+00         0.00000E+00         0.11279E+07
 
    0.43574E+07        -0.60360E+06         0.00000E+00
   -0.60360E+06         0.15813E+08         0.00000E+00
    0.00000E+00         0.00000E+00         0.11456E+07
 
    0.43951E+07        -0.69891E+06         0.00000E+00
   -0.69891E+06         0.15819E+08         0.00000E+00
    0.00000E+00         0.00000E+00         0.11745E+07
 
    0.44192E+07        -0.77363E+06         0.00000E+00
   -0.77363E+06         0.15828E+08         0.00000E+00
    0.00000E+00         0.00000E+00         0.12107E+07
 
    0.44298E+07        -0.83167E+06         0.00000E+00
   -0.83167E+06         0.15839E+08         0.00000E+00
    0.00000E+00         0.00000E+00         0.12510E+07
 
    0.44275E+07        -0.87602E+06         0.00000E+00
   -0.87602E+06         0.15851E+08         0.00000E+00
    0.00000E+00         0.00000E+00         0.12926E+07
 
    0.44142E+07        -0.90874E+06         0.00000E+00
   -0.90874E+06         0.15862E+08         0.00000E+00
    0.00000E+00         0.00000E+00         0.13343E+07
 
    0.43918E+07        -0.93150E+06         0.00000E+00
   -0.93150E+06         0.15873E+08         0.00000E+00
    0.00000E+00         0.00000E+00         0.13749E+07
 
    0.43611E+07        -0.94559E+06         0.00000E+00
   -0.94559E+06         0.15883E+08         0.00000E+00
    0.00000E+00         0.00000E+00         0.14134E+07
 
    0.43238E+07        -0.95216E+06         0.00000E+00
   -0.95216E+06         0.15893E+08         0.00000E+00
    0.00000E+00         0.00000E+00         0.14507E+07
 
    0.42808E+07        -0.95232E+06         0.00000E+00
   -0.95232E+06         0.15902E+08         0.00000E+00
    0.00000E+00         0.00000E+00         0.14872E+07
 
    0.42323E+07        -0.94674E+06         0.00000E+00
   -0.94674E+06         0.15911E+08         0.00000E+00
    0.00000E+00         0.00000E+00         0.15230E+07
 
    0.41786E+07        -0.93581E+06         0.00000E+00
   -0.93581E+06         0.15919E+08         0.00000E+00
    0.00000E+00         0.00000E+00         0.15589E+07
 
    0.41201E+07        -0.92052E+06         0.00000E+00
   -0.92052E+06         0.15928E+08         0.00000E+00
    0.00000E+00         0.00000E+00         0.15953E+07
 
    0.40574E+07        -0.90126E+06         0.00000E+00
   -0.90126E+06         0.15936E+08         0.00000E+00
    0.00000E+00         0.00000E+00         0.16327E+07
 
    0.39912E+07        -0.87830E+06         0.00000E+00
   -0.87830E+06         0.15944E+08         0.00000E+00
    0.00000E+00         0.00000E+00         0.16721E+07
 
    0.39226E+07        -0.85178E+06         0.00000E+00
   -0.85178E+06         0.15953E+08         0.00000E+00
    0.00000E+00         0.00000E+00         0.17138E+07
 
    0.38504E+07        -0.82228E+06         0.00000E+00
   -0.82228E+06         0.15962E+08         0.00000E+00
    0.00000E+00         0.00000E+00         0.17587E+07
 
    0.37761E+07        -0.79045E+06         0.00000E+00
   -0.79045E+06         0.15972E+08         0.00000E+00
    0.00000E+00         0.00000E+00         0.18070E+07
 
    0.37005E+07        -0.75656E+06         0.00000E+00
   -0.75656E+06         0.15981E+08         0.00000E+00
    0.00000E+00         0.00000E+00         0.18587E+07
 
    0.36244E+07        -0.72090E+06         0.00000E+00
   -0.72090E+06         0.15992E+08         0.00000E+00
    0.00000E+00         0.00000E+00         0.19143E+07
 
    0.35490E+07        -0.68386E+06         0.00000E+00
   -0.68386E+06         0.16003E+08         0.00000E+00
    0.00000E+00         0.00000E+00         0.19743E+07
 
    0.34755E+07        -0.64579E+06         0.00000E+00
   -0.64579E+06         0.16016E+08         0.00000E+00
    0.00000E+00         0.00000E+00         0.20384E+07
 
    0.34049E+07        -0.60705E+06         0.00000E+00
   -0.60705E+06         0.16029E+08         0.00000E+00
    0.00000E+00         0.00000E+00         0.21068E+07
 
    0.33387E+07        -0.56810E+06         0.00000E+00
   -0.56810E+06         0.16044E+08         0.00000E+00
    0.00000E+00         0.00000E+00         0.21788E+07
 
    0.32777E+07        -0.52913E+06         0.00000E+00
   -0.52913E+06         0.16060E+08         0.00000E+00
    0.00000E+00         0.00000E+00         0.22540E+07
 
    0.32230E+07        -0.49037E+06         0.00000E+00
   -0.49037E+06         0.16077E+08         0.00000E+00
    0.00000E+00         0.00000E+00         0.23318E+07
 
    0.31756E+07        -0.45180E+06         0.00000E+00
   -0.45180E+06         0.16095E+08         0.00000E+00
    0.00000E+00         0.00000E+00         0.24114E+07
 
    0.31359E+07        -0.41306E+06         0.00000E+00
   -0.41306E+06         0.16115E+08         0.00000E+00
    0.00000E+00         0.00000E+00         0.24916E+07
 
    0.31040E+07        -0.37435E+06         0.00000E+00
   -0.37435E+06         0.16136E+08         0.00000E+00
    0.00000E+00         0.00000E+00         0.25714E+07
 
    0.30801E+07        -0.33543E+06         0.00000E+00
   -0.33543E+06         0.16158E+08         0.00000E+00
    0.00000E+00         0.00000E+00         0.26497E+07
 
    0.30638E+07        -0.29574E+06         0.00000E+00
   -0.29574E+06         0.16181E+08         0.00000E+00
    0.00000E+00         0.00000E+00         0.27259E+07
 
    0.30551E+07        -0.25521E+06         0.00000E+00
   -0.25521E+06         0.16204E+08         0.00000E+00
    0.00000E+00         0.00000E+00         0.27993E+07
 
    0.30536E+07        -0.21358E+06         0.00000E+00
   -0.21358E+06         0.16228E+08         0.00000E+00
    0.00000E+00         0.00000E+00         0.28692E+07
 
    0.30584E+07        -0.17017E+06         0.00000E+00
   -0.17017E+06         0.16252E+08         0.00000E+00
    0.00000E+00         0.00000E+00         0.29360E+07
 
    0.30694E+07        -0.12521E+06         0.00000E+00
   -0.12521E+06         0.16276E+08         0.00000E+00
    0.00000E+00         0.00000E+00         0.29991E+07
 
    0.30863E+07        -0.78303E+05         0.00000E+00
   -0.78303E+05         0.16301E+08         0.00000E+00
    0.00000E+00         0.00000E+00         0.30585E+07
 
    0.31082E+07        -0.29549E+05         0.00000E+00
   -0.29549E+05         0.16325E+08         0.00000E+00
    0.00000E+00         0.00000E+00         0.31139E+07
 
    0.31336E+07         0.21593E+05         0.00000E+00
    0.21593E+05         0.16349E+08         0.00000E+00
    0.00000E+00         0.00000E+00         0.31654E+07
 
    0.31626E+07         0.74871E+05         0.00000E+00
    0.74871E+05         0.16372E+08         0.00000E+00
    0.00000E+00         0.00000E+00         0.32127E+07
 
    0.31950E+07         0.12996E+06         0.00000E+00
    0.12996E+06         0.16394E+08         0.00000E+00
    0.00000E+00         0.00000E+00         0.32578E+07
 
    0.32318E+07         0.18733E+06         0.00000E+00
    0.18733E+06         0.16416E+08         0.00000E+00
    0.00000E+00         0.00000E+00         0.33009E+07
 
    0.32729E+07         0.24610E+06         0.00000E+00
    0.24610E+06         0.16438E+08         0.00000E+00
    0.00000E+00         0.00000E+00         0.33424E+07
 
    0.33184E+07         0.30452E+06         0.00000E+00
    0.30452E+06         0.16459E+08         0.00000E+00
    0.00000E+00         0.00000E+00         0.33824E+07
 
    0.33665E+07         0.36341E+06         0.00000E+00
    0.36341E+06         0.16480E+08         0.00000E+00
    0.00000E+00         0.00000E+00         0.34208E+07
 
    0.34172E+07         0.42206E+06         0.00000E+00
    0.42206E+06         0.16501E+08         0.00000E+00
    0.00000E+00         0.00000E+00         0.34573E+07
 
    0.34689E+07         0.48194E+06         0.00000E+00
    0.48194E+06         0.16520E+08         0.00000E+00
    0.00000E+00         0.00000E+00         0.34924E+07
 
    0.35209E+07         0.54283E+06         0.00000E+00
    0.54283E+06         0.16539E+08         0.00000E+00
    0.00000E+00         0.00000E+00         0.35284E+07
 
    0.26253E+07        -0.16143E+06         0.00000E+00
   -0.16143E+06         0.15234E+08         0.00000E+00
    0.00000E+00         0.00000E+00         0.43598E+06
 
    0.28636E+07        -0.30530E+06         0.00000E+00
   -0.30530E+06         0.15254E+08         0.00000E+00
    0.00000E+00         0.00000E+00         0.38417E+06
 
    0.30716E+07        -0.42403E+06         0.00000E+00
   -0.42403E+06         0.15279E+08         0.00000E+00
    0.00000E+00         0.00000E+00         0.37403E+06
 
    0.32442E+07        -0.52400E+06         0.00000E+00
   -0.52400E+06         0.15308E+08         0.00000E+00
    0.00000E+00         0.00000E+00         0.39094E+06
 
    0.33828E+07        -0.60848E+06         0.00000E+00
   -0.60848E+06         0.15336E+08         0.00000E+00
    0.00000E+00         0.00000E+00         0.42429E+06
 
    0.34914E+07        -0.67952E+06         0.00000E+00
   -0.67952E+06         0.15364E+08         0.00000E+00
    0.00000E+00         0.00000E+00         0.46652E+06
 
    0.35738E+07        -0.73816E+06         0.00000E+00
   -0.73816E+06         0.15390E+08         0.00000E+00
    0.00000E+00         0.00000E+00         0.51281E+06
 
    0.36332E+07        -0.78516E+06         0.00000E+00
   -0.78516E+06         0.15414E+08         0.00000E+00
    0.00000E+00         0.00000E+00         0.56061E+06
 
    0.36733E+07        -0.82160E+06         0.00000E+00
   -0.82160E+06         0.15435E+08         0.00000E+00
    0.00000E+00         0.00000E+00         0.60798E+06
 
    0.36971E+07        -0.84844E+06         0.00000E+00
   -0.84844E+06         0.15456E+08         0.00000E+00
    0.00000E+00         0.00000E+00         0.65426E+06
 
    0.37081E+07        -0.86650E+06         0.00000E+00
   -0.86650E+06         0.15477E+08         0.00000E+00
    0.00000E+00         0.00000E+00         0.70326E+06
 
    0.37070E+07        -0.87661E+06         0.00000E+00
   -0.87661E+06         0.15496E+08         0.00000E+00
    0.00000E+00         0.00000E+00         0.75114E+06
 
    0.36957E+07        -0.87982E+06         0.00000E+00
   -0.87982E+06         0.15515E+08         0.00000E+00
    0.00000E+00         0.00000E+00         0.79767E+06
 
    0.36757E+07        -0.87750E+06         0.00000E+00
   -0.87750E+06         0.15532E+08         0.00000E+00
    0.00000E+00         0.00000E+00         0.84389E+06
 
    0.36483E+07        -0.87028E+06         0.00000E+00
   -0.87028E+06         0.15548E+08         0.00000E+00
    0.00000E+00         0.00000E+00         0.88788E+06
 
    0.36145E+07        -0.85684E+06         0.00000E+00
   -0.85684E+06         0.15563E+08         0.00000E+00
    0.00000E+00         0.00000E+00         0.93040E+06
 
    0.35739E+07        -0.83740E+06         0.00000E+00
   -0.83740E+06         0.15579E+08         0.00000E+00
    0.00000E+00         0.00000E+00         0.97427E+06
 
    0.35268E+07        -0.81352E+06         0.00000E+00
   -0.81352E+06         0.15594E+08         0.00000E+00
    0.00000E+00         0.00000E+00         0.10197E+07
 
    0.34744E+07        -0.78631E+06         0.00000E+00
   -0.78631E+06         0.15608E+08         0.00000E+00
    0.00000E+00         0.00000E+00         0.10669E+07
 
    0.34174E+07        -0.75627E+06         0.00000E+00
   -0.75627E+06         0.15623E+08         0.00000E+00
    0.00000E+00         0.00000E+00         0.11165E+07
 
    0.33561E+07        -0.72293E+06         0.00000E+00
   -0.72293E+06         0.15637E+08         0.00000E+00
    0.00000E+00         0.00000E+00         0.11679E+07
 
    0.32920E+07        -0.68652E+06         0.00000E+00
   -0.68652E+06         0.15651E+08         0.00000E+00
    0.00000E+00         0.00000E+00         0.12228E+07
 
    0.32258E+07        -0.64743E+06         0.00000E+00
   -0.64743E+06         0.15666E+08         0.00000E+00
    0.00000E+00         0.00000E+00         0.12818E+07
 
    0.31580E+07        -0.60580E+06         0.00000E+00
   -0.60580E+06         0.15682E+08         0.00000E+00
    0.00000E+00         0.00000E+00         0.13449E+07
 
    0.30900E+07        -0.56235E+06         0.00000E+00
   -0.56235E+06         0.15699E+08         0.00000E+00
    0.00000E+00         0.00000E+00         0.14135E+07
 
    0.30226E+07        -0.51790E+06         0.00000E+00
   -0.51790E+06         0.15716E+08         0.00000E+00
    0.00000E+00         0.00000E+00         0.14870E+07
 
    0.29578E+07        -0.47235E+06         0.00000E+00
   -0.47235E+06         0.15735E+08         0.00000E+00
    0.00000E+00         0.00000E+00         0.15662E+07
 
    0.28968E+07        -0.42619E+06         0.00000E+00
   -0.42619E+06         0.15756E+08         0.00000E+00
    0.00000E+00         0.00000E+00         0.16508E+07
 
    0.28412E+07        -0.37986E+06         0.00000E+00
   -0.37986E+06         0.15778E+08         0.00000E+00
    0.00000E+00         0.00000E+00         0.17404E+07
 
    0.27917E+07        -0.33395E+06         0.00000E+00
   -0.33395E+06         0.15802E+08         0.00000E+00
    0.00000E+00         0.00000E+00         0.18340E+07
 
    0.27499E+07        -0.28905E+06         0.00000E+00
   -0.28905E+06         0.15827E+08         0.00000E+00
    0.00000E+00         0.00000E+00         0.19304E+07
 
    0.27166E+07        -0.24500E+06         0.00000E+00
   -0.24500E+06         0.15854E+08         0.00000E+00
    0.00000E+00         0.00000E+00         0.20285E+07
 
    0.26927E+07        -0.20167E+06         0.00000E+00
   -0.20167E+06         0.15883E+08         0.00000E+00
    0.00000E+00         0.00000E+00         0.21267E+07
 
    0.26777E+07        -0.15894E+06         0.00000E+00
   -0.15894E+06         0.15912E+08         0.00000E+00
    0.00000E+00         0.00000E+00         0.22239E+07
 
    0.26720E+07        -0.11643E+06         0.00000E+00
   -0.11643E+06         0.15942E+08         0.00000E+00
    0.00000E+00         0.00000E+00         0.23182E+07
 
    0.26749E+07        -0.73877E+05         0.00000E+00
   -0.73877E+05         0.15973E+08         0.00000E+00
    0.00000E+00         0.00000E+00         0.24088E+07
 
    0.26855E+07        -0.30740E+05         0.00000E+00
   -0.30740E+05         0.16004E+08         0.00000E+00
    0.00000E+00         0.00000E+00         0.24952E+07
 
    0.27031E+07         0.13588E+05         0.00000E+00
    0.13588E+05         0.16035E+08         0.00000E+00
    0.00000E+00         0.00000E+00         0.25766E+07
 
    0.27268E+07         0.59148E+05         0.00000E+00
    0.59148E+05         0.16066E+08         0.00000E+00
    0.00000E+00         0.00000E+00         0.26528E+07
 
    0.27557E+07         0.10602E+06         0.00000E+00
    0.10602E+06         0.16096E+08         0.00000E+00
    0.00000E+00         0.00000E+00         0.27243E+07
 
    0.27905E+07         0.15366E+06         0.00000E+00
    0.15366E+06         0.16126E+08         0.00000E+00
    0.00000E+00         0.00000E+00         0.27909E+07
 
    0.28291E+07         0.20318E+06         0.00000E+00
    0.20318E+06         0.16156E+08         0.00000E+00
    0.00000E+00         0.00000E+00         0.28537E+07
 
    0.28710E+07         0.25372E+06         0.00000E+00
    0.25372E+06         0.16184E+08         0.00000E+00
    0.00000E+00         0.00000E+00         0.29120E+07
 
    0.29158E+07         0.30516E+06         0.00000E+00
    0.30516E+06         0.16211E+08         0.00000E+00
    0.00000E+00         0.00000E+00         0.29657E+07
 
    0.29619E+07         0.35827E+06         0.00000E+00
    0.35827E+06         0.16237E+08         0.00000E+00
    0.00000E+00         0.00000E+00         0.30152E+07
 
    0.30090E+07         0.41416E+06         0.00000E+00
    0.41416E+06         0.16261E+08         0.00000E+00
    0.00000E+00         0.00000E+00         0.30610E+07
 
    0.30585E+07         0.47122E+06         0.00000E+00
    0.47122E+06         0.16284E+08         0.00000E+00
    0.00000E+00         0.00000E+00         0.31054E+07
 
    0.31109E+07         0.52951E+06         0.00000E+00
    0.52951E+06         0.16306E+08         0.00000E+00
    0.00000E+00         0.00000E+00         0.31491E+07
 
    0.31678E+07         0.58840E+06         0.00000E+00
    0.58840E+06         0.16330E+08         0.00000E+00
    0.00000E+00         0.00000E+00         0.31947E+07
 
    0.32299E+07         0.64764E+06         0.00000E+00
    0.64764E+06         0.16354E+08         0.00000E+00
    0.00000E+00         0.00000E+00         0.32406E+07
 
    0.13649E+07        -0.15554E+05         0.00000E+00
   -0.15554E+05         0.14686E+08         0.00000E+00
    0.00000E+00         0.00000E+00         0.46323E+05
 
    0.16909E+07        -0.11865E+06         0.00000E+00
   -0.11865E+06         0.14716E+08         0.00000E+00
    0.00000E+00         0.00000E+00         0.23422E+05
 
    0.19671E+07        -0.22270E+06         0.00000E+00
   -0.22270E+06         0.14758E+08         0.00000E+00
    0.00000E+00         0.00000E+00         0.17892E+05
 
    0.22011E+07        -0.32219E+06         0.00000E+00
   -0.32219E+06         0.14807E+08         0.00000E+00
    0.00000E+00         0.00000E+00         0.23260E+05
 
    0.23987E+07        -0.41387E+06         0.00000E+00
   -0.41387E+06         0.14860E+08         0.00000E+00
    0.00000E+00         0.00000E+00         0.35304E+05
 
    0.25647E+07        -0.49593E+06         0.00000E+00
   -0.49593E+06         0.14915E+08         0.00000E+00
    0.00000E+00         0.00000E+00         0.51243E+05
 
    0.27030E+07        -0.56762E+06         0.00000E+00
   -0.56762E+06         0.14970E+08         0.00000E+00
    0.00000E+00         0.00000E+00         0.69090E+05
 
    0.28165E+07        -0.62869E+06         0.00000E+00
   -0.62869E+06         0.15023E+08         0.00000E+00
    0.00000E+00         0.00000E+00         0.87504E+05
 
    0.29074E+07        -0.67890E+06         0.00000E+00
   -0.67890E+06         0.15073E+08         0.00000E+00
    0.00000E+00         0.00000E+00         0.10584E+06
 
    0.29772E+07        -0.71850E+06         0.00000E+00
   -0.71850E+06         0.15120E+08         0.00000E+00
    0.00000E+00         0.00000E+00         0.12394E+06
 
    0.30361E+07        -0.74711E+06         0.00000E+00
   -0.74711E+06         0.15148E+08         0.00000E+00
    0.00000E+00         0.00000E+00         0.16554E+06
 
    0.30777E+07        -0.76650E+06         0.00000E+00
   -0.76650E+06         0.15171E+08         0.00000E+00
    0.00000E+00         0.00000E+00         0.20792E+06
 
    0.31041E+07        -0.77690E+06         0.00000E+00
   -0.77690E+06         0.15191E+08         0.00000E+00
    0.00000E+00         0.00000E+00         0.24754E+06
 
    0.31159E+07        -0.77805E+06         0.00000E+00
   -0.77805E+06         0.15209E+08         0.00000E+00
    0.00000E+00         0.00000E+00         0.28474E+06
 
    0.31181E+07        -0.77130E+06         0.00000E+00
   -0.77130E+06         0.15231E+08         0.00000E+00
    0.00000E+00         0.00000E+00         0.33029E+06
 
    0.31123E+07        -0.76009E+06         0.00000E+00
   -0.76009E+06         0.15254E+08         0.00000E+00
    0.00000E+00         0.00000E+00         0.38173E+06
 
    0.30970E+07        -0.74523E+06         0.00000E+00
   -0.74523E+06         0.15274E+08         0.00000E+00
    0.00000E+00         0.00000E+00         0.42931E+06
 
    0.30727E+07        -0.72543E+06         0.00000E+00
   -0.72543E+06         0.15292E+08         0.00000E+00
    0.00000E+00         0.00000E+00         0.47440E+06
 
    0.30404E+07        -0.70058E+06         0.00000E+00
   -0.70058E+06         0.15308E+08         0.00000E+00
    0.00000E+00         0.00000E+00         0.51815E+06
 
    0.30013E+07        -0.67087E+06         0.00000E+00
   -0.67087E+06         0.15324E+08         0.00000E+00
    0.00000E+00         0.00000E+00         0.56224E+06
 
    0.29585E+07        -0.63660E+06         0.00000E+00
   -0.63660E+06         0.15341E+08         0.00000E+00
    0.00000E+00         0.00000E+00         0.61249E+06
 
    0.29105E+07        -0.59806E+06         0.00000E+00
   -0.59806E+06         0.15358E+08         0.00000E+00
    0.00000E+00         0.00000E+00         0.66565E+06
 
    0.28583E+07        -0.55623E+06         0.00000E+00
   -0.55623E+06         0.15376E+08         0.00000E+00
    0.00000E+00         0.00000E+00         0.72246E+06
 
    0.28035E+07        -0.51242E+06         0.00000E+00
   -0.51242E+06         0.15394E+08         0.00000E+00
    0.00000E+00         0.00000E+00         0.78385E+06
 
    0.27458E+07        -0.46529E+06         0.00000E+00
   -0.46529E+06         0.15411E+08         0.00000E+00
    0.00000E+00         0.00000E+00         0.84668E+06
 
    0.26873E+07        -0.41382E+06         0.00000E+00
   -0.41382E+06         0.15430E+08         0.00000E+00
    0.00000E+00         0.00000E+00         0.91657E+06
 
    0.26277E+07        -0.36032E+06         0.00000E+00
   -0.36032E+06         0.15450E+08         0.00000E+00
    0.00000E+00         0.00000E+00         0.99395E+06
 
    0.25685E+07        -0.30633E+06         0.00000E+00
   -0.30633E+06         0.15472E+08         0.00000E+00
    0.00000E+00         0.00000E+00         0.10786E+07
 
    0.25117E+07        -0.25247E+06         0.00000E+00
   -0.25247E+06         0.15495E+08         0.00000E+00
    0.00000E+00         0.00000E+00         0.11686E+07
 
    0.24595E+07        -0.19846E+06         0.00000E+00
   -0.19846E+06         0.15520E+08         0.00000E+00
    0.00000E+00         0.00000E+00         0.12646E+07
 
    0.24128E+07        -0.14474E+06         0.00000E+00
   -0.14474E+06         0.15547E+08         0.00000E+00
    0.00000E+00         0.00000E+00         0.13661E+07
 
    0.23736E+07        -0.92306E+05         0.00000E+00
   -0.92306E+05         0.15575E+08         0.00000E+00
    0.00000E+00         0.00000E+00         0.14726E+07
 
    0.23431E+07        -0.41910E+05         0.00000E+00
   -0.41910E+05         0.15606E+08         0.00000E+00
    0.00000E+00         0.00000E+00         0.15824E+07
 
    0.23225E+07         0.64980E+04         0.00000E+00
    0.64980E+04         0.15638E+08         0.00000E+00
    0.00000E+00         0.00000E+00         0.16936E+07
 
    0.23124E+07         0.53393E+05         0.00000E+00
    0.53393E+05         0.15672E+08         0.00000E+00
    0.00000E+00         0.00000E+00         0.18052E+07
 
    0.23129E+07         0.98760E+05         0.00000E+00
    0.98760E+05         0.15708E+08         0.00000E+00
    0.00000E+00         0.00000E+00         0.19151E+07
 
    0.23233E+07         0.14249E+06         0.00000E+00
    0.14249E+06         0.15745E+08         0.00000E+00
    0.00000E+00         0.00000E+00         0.20215E+07
 
    0.23429E+07         0.18529E+06         0.00000E+00
    0.18529E+06         0.15781E+08         0.00000E+00
    0.00000E+00         0.00000E+00         0.21231E+07
 
    0.23703E+07         0.22789E+06         0.00000E+00
    0.22789E+06         0.15818E+08         0.00000E+00
    0.00000E+00         0.00000E+00         0.22190E+07
 
    0.24038E+07         0.27086E+06         0.00000E+00
    0.27086E+06         0.15855E+08         0.00000E+00
    0.00000E+00         0.00000E+00         0.23091E+07
 
    0.24426E+07         0.31425E+06         0.00000E+00
    0.31425E+06         0.15890E+08         0.00000E+00
    0.00000E+00         0.00000E+00         0.23924E+07
 
    0.24854E+07         0.35845E+06         0.00000E+00
    0.35845E+06         0.15924E+08         0.00000E+00
    0.00000E+00         0.00000E+00         0.24697E+07
 
    0.25322E+07         0.40429E+06         0.00000E+00
    0.40429E+06         0.15957E+08         0.00000E+00
    0.00000E+00         0.00000E+00         0.25415E+07
 
    0.25825E+07         0.45179E+06         0.00000E+00
    0.45179E+06         0.15989E+08         0.00000E+00
    0.00000E+00         0.00000E+00         0.26088E+07
 
    0.26371E+07         0.50015E+06         0.00000E+00
    0.50015E+06         0.16021E+08         0.00000E+00
    0.00000E+00         0.00000E+00         0.26727E+07
 
    0.26958E+07         0.54969E+06         0.00000E+00
    0.54969E+06         0.16052E+08         0.00000E+00
    0.00000E+00         0.00000E+00         0.27339E+07
 
    0.27563E+07         0.60128E+06         0.00000E+00
    0.60128E+06         0.16083E+08         0.00000E+00
    0.00000E+00         0.00000E+00         0.27923E+07
 
    0.28180E+07         0.65359E+06         0.00000E+00
    0.65359E+06         0.16111E+08         0.00000E+00
    0.00000E+00         0.00000E+00         0.28474E+07
 
    0.28788E+07         0.70921E+06         0.00000E+00
    0.70921E+06         0.16137E+08         0.00000E+00
    0.00000E+00         0.00000E+00         0.28984E+07
 
    0.29388E+07         0.76692E+06         0.00000E+00
    0.76692E+06         0.16162E+08         0.00000E+00
    0.00000E+00         0.00000E+00         0.29464E+07
 
    0.56455E+06         0.13047E+05         0.00000E+00
    0.13047E+05         0.14097E+08         0.00000E+00
    0.00000E+00         0.00000E+00         0.00000E+00
 
    0.82750E+06        -0.15688E+05         0.00000E+00
   -0.15688E+05         0.14107E+08         0.00000E+00
    0.00000E+00         0.00000E+00         0.00000E+00
 
    0.10717E+07        -0.54842E+05         0.00000E+00
   -0.54842E+05         0.14123E+08         0.00000E+00
    0.00000E+00         0.00000E+00         0.00000E+00
 
    0.12957E+07        -0.10156E+06         0.00000E+00
   -0.10156E+06         0.14148E+08         0.00000E+00
    0.00000E+00         0.00000E+00         0.00000E+00
 
    0.14988E+07        -0.15312E+06         0.00000E+00
   -0.15312E+06         0.14181E+08         0.00000E+00
    0.00000E+00         0.00000E+00         0.00000E+00
 
    0.16810E+07        -0.20716E+06         0.00000E+00
   -0.20716E+06         0.14222E+08         0.00000E+00
    0.00000E+00         0.00000E+00         0.00000E+00
 
    0.18428E+07        -0.26177E+06         0.00000E+00
   -0.26177E+06         0.14270E+08         0.00000E+00
    0.00000E+00         0.00000E+00         0.00000E+00
 
    0.19851E+07        -0.31543E+06         0.00000E+00
   -0.31543E+06         0.14322E+08         0.00000E+00
    0.00000E+00         0.00000E+00         0.00000E+00
 
    0.21092E+07        -0.36700E+06         0.00000E+00
   -0.36700E+06         0.14379E+08         0.00000E+00
    0.00000E+00         0.00000E+00         0.00000E+00
 
    0.22168E+07        -0.41557E+06         0.00000E+00
   -0.41557E+06         0.14439E+08         0.00000E+00
    0.00000E+00         0.00000E+00         0.00000E+00
 
    0.23088E+07        -0.46103E+06         0.00000E+00
   -0.46103E+06         0.14517E+08         0.00000E+00
    0.00000E+00         0.00000E+00         0.00000E+00
 
    0.23854E+07        -0.50100E+06         0.00000E+00
   -0.50100E+06         0.14596E+08         0.00000E+00
    0.00000E+00         0.00000E+00         0.00000E+00
 
    0.24474E+07        -0.53537E+06         0.00000E+00
   -0.53537E+06         0.14672E+08         0.00000E+00
    0.00000E+00         0.00000E+00         0.00000E+00
 
    0.24954E+07        -0.56473E+06         0.00000E+00
   -0.56473E+06         0.14744E+08         0.00000E+00
    0.00000E+00         0.00000E+00         0.00000E+00
 
    0.25357E+07        -0.58764E+06         0.00000E+00
   -0.58764E+06         0.14810E+08         0.00000E+00
    0.00000E+00         0.00000E+00         0.14440E+05
 
    0.25667E+07        -0.60085E+06         0.00000E+00
   -0.60085E+06         0.14869E+08         0.00000E+00
    0.00000E+00         0.00000E+00         0.39352E+05
 
    0.25848E+07        -0.60403E+06         0.00000E+00
   -0.60403E+06         0.14924E+08         0.00000E+00
    0.00000E+00         0.00000E+00         0.60729E+05
 
    0.25922E+07        -0.59885E+06         0.00000E+00
   -0.59885E+06         0.14975E+08         0.00000E+00
    0.00000E+00         0.00000E+00         0.79605E+05
 
    0.25898E+07        -0.58585E+06         0.00000E+00
   -0.58585E+06         0.15022E+08         0.00000E+00
    0.00000E+00         0.00000E+00         0.96909E+05
 
    0.25770E+07        -0.56535E+06         0.00000E+00
   -0.56535E+06         0.15065E+08         0.00000E+00
    0.00000E+00         0.00000E+00         0.11339E+06
 
    0.25651E+07        -0.53728E+06         0.00000E+00
   -0.53728E+06         0.15086E+08         0.00000E+00
    0.00000E+00         0.00000E+00         0.15567E+06
 
    0.25438E+07        -0.50291E+06         0.00000E+00
   -0.50291E+06         0.15103E+08         0.00000E+00
    0.00000E+00         0.00000E+00         0.19870E+06
 
    0.25137E+07        -0.46180E+06         0.00000E+00
   -0.46180E+06         0.15118E+08         0.00000E+00
    0.00000E+00         0.00000E+00         0.24063E+06
 
    0.24757E+07        -0.41330E+06         0.00000E+00
   -0.41330E+06         0.15133E+08         0.00000E+00
    0.00000E+00         0.00000E+00         0.28538E+06
 
    0.24386E+07        -0.36086E+06         0.00000E+00
   -0.36086E+06         0.15156E+08         0.00000E+00
    0.00000E+00         0.00000E+00         0.35010E+06
 
    0.23943E+07        -0.30721E+06         0.00000E+00
   -0.30721E+06         0.15176E+08         0.00000E+00
    0.00000E+00         0.00000E+00         0.41400E+06
 
    0.23442E+07        -0.25075E+06         0.00000E+00
   -0.25075E+06         0.15194E+08         0.00000E+00
    0.00000E+00         0.00000E+00         0.47902E+06
 
    0.22903E+07        -0.19142E+06         0.00000E+00
   -0.19142E+06         0.15211E+08         0.00000E+00
    0.00000E+00         0.00000E+00         0.54736E+06
 
    0.22370E+07        -0.12937E+06         0.00000E+00
   -0.12937E+06         0.15231E+08         0.00000E+00
    0.00000E+00         0.00000E+00         0.62579E+06
 
    0.21848E+07        -0.66012E+05         0.00000E+00
   -0.66012E+05         0.15253E+08         0.00000E+00
    0.00000E+00         0.00000E+00         0.71299E+06
 
    0.21353E+07        -0.33503E+04         0.00000E+00
   -0.33503E+04         0.15277E+08         0.00000E+00
    0.00000E+00         0.00000E+00         0.80827E+06
 
    0.20888E+07         0.58729E+05         0.00000E+00
    0.58729E+05         0.15301E+08         0.00000E+00
    0.00000E+00         0.00000E+00         0.90851E+06
 
    0.20489E+07         0.12105E+06         0.00000E+00
    0.12105E+06         0.15329E+08         0.00000E+00
    0.00000E+00         0.00000E+00         0.10159E+07
 
    0.20172E+07         0.18170E+06         0.00000E+00
    0.18170E+06         0.15360E+08         0.00000E+00
    0.00000E+00         0.00000E+00         0.11321E+07
 
    0.19943E+07         0.23817E+06         0.00000E+00
    0.23817E+06         0.15393E+08         0.00000E+00
    0.00000E+00         0.00000E+00         0.12540E+07
 
    0.19820E+07         0.29042E+06         0.00000E+00
    0.29042E+06         0.15429E+08         0.00000E+00
    0.00000E+00         0.00000E+00         0.13773E+07
 
    0.19811E+07         0.33953E+06         0.00000E+00
    0.33953E+06         0.15467E+08         0.00000E+00
    0.00000E+00         0.00000E+00         0.15010E+07
 
    0.19920E+07         0.38454E+06         0.00000E+00
    0.38454E+06         0.15507E+08         0.00000E+00
    0.00000E+00         0.00000E+00         0.16233E+07
 
    0.20134E+07         0.42602E+06         0.00000E+00
    0.42602E+06         0.15548E+08         0.00000E+00
    0.00000E+00         0.00000E+00         0.17410E+07
 
    0.20445E+07         0.46565E+06         0.00000E+00
    0.46565E+06         0.15590E+08         0.00000E+00
    0.00000E+00         0.00000E+00         0.18526E+07
 
    0.20847E+07         0.50532E+06         0.00000E+00
    0.50532E+06         0.15631E+08         0.00000E+00
    0.00000E+00         0.00000E+00         0.19579E+07
 
    0.21323E+07         0.54485E+06         0.00000E+00
    0.54485E+06         0.15672E+08         0.00000E+00
    0.00000E+00         0.00000E+00         0.20561E+07
 
    0.21854E+07         0.58505E+06         0.00000E+00
    0.58505E+06         0.15712E+08         0.00000E+00
    0.00000E+00         0.00000E+00         0.21473E+07
 
    0.22430E+07         0.62658E+06         0.00000E+00
    0.62658E+06         0.15751E+08         0.00000E+00
    0.00000E+00         0.00000E+00         0.22321E+07
 
    0.23027E+07         0.66965E+06         0.00000E+00
    0.66965E+06         0.15788E+08         0.00000E+00
    0.00000E+00         0.00000E+00         0.23109E+07
 
    0.23640E+07         0.71324E+06         0.00000E+00
    0.71324E+06         0.15823E+08         0.00000E+00
    0.00000E+00         0.00000E+00         0.23838E+07
 
    0.24274E+07         0.75717E+06         0.00000E+00
    0.75717E+06         0.15857E+08         0.00000E+00
    0.00000E+00         0.00000E+00         0.24515E+07
 
    0.24943E+07         0.80451E+06         0.00000E+00
    0.80451E+06         0.15890E+08         0.00000E+00
    0.00000E+00         0.00000E+00         0.25149E+07
 
    0.25638E+07         0.85148E+06         0.00000E+00
    0.85148E+06         0.15922E+08         0.00000E+00
    0.00000E+00         0.00000E+00         0.25775E+07
 
    0.26346E+07         0.89961E+06         0.00000E+00
    0.89961E+06         0.15954E+08         0.00000E+00
    0.00000E+00         0.00000E+00         0.26398E+07
 
   -0.53036E+04         0.84591E+04         0.00000E+00
    0.84591E+04         0.13567E+08         0.00000E+00
    0.00000E+00         0.00000E+00         0.00000E+00
 
    0.20592E+06         0.12934E+05         0.00000E+00
    0.12934E+05         0.13568E+08         0.00000E+00
    0.00000E+00         0.00000E+00         0.00000E+00
 
    0.40934E+06         0.98215E+04         0.00000E+00
    0.98215E+04         0.13574E+08         0.00000E+00
    0.00000E+00         0.00000E+00         0.00000E+00
 
    0.60261E+06         0.31447E+03         0.00000E+00
    0.31447E+03         0.13586E+08         0.00000E+00
    0.00000E+00         0.00000E+00         0.00000E+00
 
    0.78421E+06        -0.14405E+05         0.00000E+00
   -0.14405E+05         0.13603E+08         0.00000E+00
    0.00000E+00         0.00000E+00         0.00000E+00
 
    0.95321E+06        -0.33129E+05         0.00000E+00
   -0.33129E+05         0.13627E+08         0.00000E+00
    0.00000E+00         0.00000E+00         0.00000E+00
 
    0.11091E+07        -0.54633E+05         0.00000E+00
   -0.54633E+05         0.13657E+08         0.00000E+00
    0.00000E+00         0.00000E+00         0.00000E+00
 
    0.12516E+07        -0.77719E+05         0.00000E+00
   -0.77719E+05         0.13693E+08         0.00000E+00
    0.00000E+00         0.00000E+00         0.00000E+00
 
    0.13811E+07        -0.10125E+06         0.00000E+00
   -0.10125E+06         0.13735E+08         0.00000E+00
    0.00000E+00         0.00000E+00         0.00000E+00
 
    0.14979E+07        -0.12420E+06         0.00000E+00
   -0.12420E+06         0.13782E+08         0.00000E+00
    0.00000E+00         0.00000E+00         0.00000E+00
 
    0.16028E+07        -0.14621E+06         0.00000E+00
   -0.14621E+06         0.13831E+08         0.00000E+00
    0.00000E+00         0.00000E+00         0.00000E+00
 
    0.16960E+07        -0.16750E+06         0.00000E+00
   -0.16750E+06         0.13884E+08         0.00000E+00
    0.00000E+00         0.00000E+00         0.00000E+00
 
    0.17779E+07        -0.18694E+06         0.00000E+00
   -0.18694E+06         0.13943E+08         0.00000E+00
    0.00000E+00         0.00000E+00         0.00000E+00
 
    0.18497E+07        -0.20319E+06         0.00000E+00
   -0.20319E+06         0.14007E+08         0.00000E+00
    0.00000E+00         0.00000E+00         0.00000E+00
 
    0.19127E+07        -0.21638E+06         0.00000E+00
   -0.21638E+06         0.14072E+08         0.00000E+00
    0.00000E+00         0.00000E+00         0.00000E+00
 
    0.19671E+07        -0.22817E+06         0.00000E+00
   -0.22817E+06         0.14139E+08         0.00000E+00
    0.00000E+00         0.00000E+00         0.00000E+00
 
    0.20123E+07        -0.23853E+06         0.00000E+00
   -0.23853E+06         0.14209E+08         0.00000E+00
    0.00000E+00         0.00000E+00         0.00000E+00
 
    0.20480E+07        -0.24630E+06         0.00000E+00
   -0.24630E+06         0.14279E+08         0.00000E+00
    0.00000E+00         0.00000E+00         0.00000E+00
 
    0.20750E+07        -0.25101E+06         0.00000E+00
   -0.25101E+06         0.14349E+08         0.00000E+00
    0.00000E+00         0.00000E+00         0.00000E+00
 
    0.20945E+07        -0.25245E+06         0.00000E+00
   -0.25245E+06         0.14419E+08         0.00000E+00
    0.00000E+00         0.00000E+00         0.00000E+00
 
    0.21069E+07        -0.25086E+06         0.00000E+00
   -0.25086E+06         0.14506E+08         0.00000E+00
    0.00000E+00         0.00000E+00         0.00000E+00
 
    0.21119E+07        -0.24459E+06         0.00000E+00
   -0.24459E+06         0.14591E+08         0.00000E+00
    0.00000E+00         0.00000E+00         0.00000E+00
 
    0.21091E+07        -0.23415E+06         0.00000E+00
   -0.23415E+06         0.14671E+08         0.00000E+00
    0.00000E+00         0.00000E+00         0.00000E+00
 
    0.20992E+07        -0.22010E+06         0.00000E+00
   -0.22010E+06         0.14744E+08         0.00000E+00
    0.00000E+00         0.00000E+00         0.34438E+04
 
    0.20935E+07        -0.19848E+06         0.00000E+00
   -0.19848E+06         0.14808E+08         0.00000E+00
    0.00000E+00         0.00000E+00         0.33724E+05
 
    0.20773E+07        -0.16628E+06         0.00000E+00
   -0.16628E+06         0.14866E+08         0.00000E+00
    0.00000E+00         0.00000E+00         0.59781E+05
 
    0.20529E+07        -0.12538E+06         0.00000E+00
   -0.12538E+06         0.14920E+08         0.00000E+00
    0.00000E+00         0.00000E+00         0.83487E+05
 
    0.20194E+07        -0.76227E+05         0.00000E+00
   -0.76227E+05         0.14969E+08         0.00000E+00
    0.00000E+00         0.00000E+00         0.10667E+06
 
    0.19897E+07        -0.19818E+05         0.00000E+00
   -0.19818E+05         0.14995E+08         0.00000E+00
    0.00000E+00         0.00000E+00         0.15606E+06
 
    0.19555E+07         0.43192E+05         0.00000E+00
    0.43192E+05         0.15011E+08         0.00000E+00
    0.00000E+00         0.00000E+00         0.21658E+06
 
    0.19128E+07         0.11341E+06         0.00000E+00
    0.11341E+06         0.15024E+08         0.00000E+00
    0.00000E+00         0.00000E+00         0.27926E+06
 
    0.18726E+07         0.18845E+06         0.00000E+00
    0.18845E+06         0.15045E+08         0.00000E+00
    0.00000E+00         0.00000E+00         0.36339E+06
 
    0.18310E+07         0.26325E+06         0.00000E+00
    0.26325E+06         0.15068E+08         0.00000E+00
    0.00000E+00         0.00000E+00         0.46075E+06
 
    0.17856E+07         0.33651E+06         0.00000E+00
    0.33651E+06         0.15089E+08         0.00000E+00
    0.00000E+00         0.00000E+00         0.56192E+06
 
    0.17433E+07         0.40762E+06         0.00000E+00
    0.40762E+06         0.15113E+08         0.00000E+00
    0.00000E+00         0.00000E+00         0.67127E+06
 
    0.17107E+07         0.47588E+06         0.00000E+00
    0.47588E+06         0.15142E+08         0.00000E+00
    0.00000E+00         0.00000E+00         0.79482E+06
 
    0.16881E+07         0.53737E+06         0.00000E+00
    0.53737E+06         0.15176E+08         0.00000E+00
    0.00000E+00         0.00000E+00         0.92592E+06
 
    0.16755E+07         0.59321E+06         0.00000E+00
    0.59321E+06         0.15211E+08         0.00000E+00
    0.00000E+00         0.00000E+00         0.10583E+07
 
    0.16786E+07         0.64473E+06         0.00000E+00
    0.64473E+06         0.15252E+08         0.00000E+00
    0.00000E+00         0.00000E+00         0.11944E+07
 
    0.16970E+07         0.69039E+06         0.00000E+00
    0.69039E+06         0.15296E+08         0.00000E+00
    0.00000E+00         0.00000E+00         0.13331E+07
 
    0.17278E+07         0.72975E+06         0.00000E+00
    0.72975E+06         0.15343E+08         0.00000E+00
    0.00000E+00         0.00000E+00         0.14662E+07
 
    0.17706E+07         0.76646E+06         0.00000E+00
    0.76646E+06         0.15391E+08         0.00000E+00
    0.00000E+00         0.00000E+00         0.15922E+07
 
    0.18234E+07         0.80049E+06         0.00000E+00
    0.80049E+06         0.15438E+08         0.00000E+00
    0.00000E+00         0.00000E+00         0.17101E+07
 
    0.18818E+07         0.83348E+06         0.00000E+00
    0.83348E+06         0.15484E+08         0.00000E+00
    0.00000E+00         0.00000E+00         0.18173E+07
 
    0.19457E+07         0.86792E+06         0.00000E+00
    0.86792E+06         0.15528E+08         0.00000E+00
    0.00000E+00         0.00000E+00         0.19160E+07
 
    0.20144E+07         0.90429E+06         0.00000E+00
    0.90429E+06         0.15571E+08         0.00000E+00
    0.00000E+00         0.00000E+00         0.20070E+07
 
    0.20885E+07         0.94371E+06         0.00000E+00
    0.94371E+06         0.15613E+08         0.00000E+00
    0.00000E+00         0.00000E+00         0.20915E+07
 
    0.21648E+07         0.98333E+06         0.00000E+00
    0.98333E+06         0.15653E+08         0.00000E+00
    0.00000E+00         0.00000E+00         0.21720E+07
 
    0.22407E+07         0.10250E+07         0.00000E+00
    0.10250E+07         0.15692E+08         0.00000E+00
    0.00000E+00         0.00000E+00         0.22488E+07
 
    0.23180E+07         0.10701E+07         0.00000E+00
    0.10701E+07         0.15728E+08         0.00000E+00
    0.00000E+00         0.00000E+00         0.23220E+07
 
   -0.46970E+06         0.16599E+05         0.00000E+00
    0.16599E+05         0.13026E+08         0.00000E+00
    0.00000E+00         0.00000E+00         0.00000E+00
 
   -0.28251E+06         0.37325E+05         0.00000E+00
    0.37325E+05         0.13030E+08         0.00000E+00
    0.00000E+00         0.00000E+00         0.00000E+00
 
   -0.10332E+06         0.54630E+05         0.00000E+00
    0.54630E+05         0.13036E+08         0.00000E+00
    0.00000E+00         0.00000E+00         0.00000E+00
 
    0.67742E+05         0.68363E+05         0.00000E+00
    0.68363E+05         0.13047E+08         0.00000E+00
    0.00000E+00         0.00000E+00         0.00000E+00
 
    0.23031E+06         0.78702E+05         0.00000E+00
    0.78702E+05         0.13061E+08         0.00000E+00
    0.00000E+00         0.00000E+00         0.00000E+00
 
    0.38401E+06         0.86001E+05         0.00000E+00
    0.86001E+05         0.13079E+08         0.00000E+00
    0.00000E+00         0.00000E+00         0.00000E+00
 
    0.52851E+06         0.90708E+05         0.00000E+00
    0.90708E+05         0.13102E+08         0.00000E+00
    0.00000E+00         0.00000E+00         0.00000E+00
 
    0.66362E+06         0.93304E+05         0.00000E+00
    0.93304E+05         0.13129E+08         0.00000E+00
    0.00000E+00         0.00000E+00         0.00000E+00
 
    0.78920E+06         0.94256E+05         0.00000E+00
    0.94256E+05         0.13160E+08         0.00000E+00
    0.00000E+00         0.00000E+00         0.00000E+00
 
    0.90517E+06         0.93984E+05         0.00000E+00
    0.93984E+05         0.13195E+08         0.00000E+00
    0.00000E+00         0.00000E+00         0.00000E+00
 
    0.10116E+07         0.93143E+05         0.00000E+00
    0.93143E+05         0.13236E+08         0.00000E+00
    0.00000E+00         0.00000E+00         0.00000E+00
 
    0.11087E+07         0.92469E+05         0.00000E+00
    0.92469E+05         0.13280E+08         0.00000E+00
    0.00000E+00         0.00000E+00         0.00000E+00
 
    0.11970E+07         0.92135E+05         0.00000E+00
    0.92135E+05         0.13327E+08         0.00000E+00
    0.00000E+00         0.00000E+00         0.00000E+00
 
    0.12765E+07         0.92131E+05         0.00000E+00
    0.92131E+05         0.13378E+08         0.00000E+00
    0.00000E+00         0.00000E+00         0.00000E+00
 
    0.13475E+07         0.92737E+05         0.00000E+00
    0.92737E+05         0.13432E+08         0.00000E+00
    0.00000E+00         0.00000E+00         0.00000E+00
 
    0.14101E+07         0.94605E+05         0.00000E+00
    0.94605E+05         0.13489E+08         0.00000E+00
    0.00000E+00         0.00000E+00         0.00000E+00
 
    0.14648E+07         0.98007E+05         0.00000E+00
    0.98007E+05         0.13549E+08         0.00000E+00
    0.00000E+00         0.00000E+00         0.00000E+00
 
    0.15119E+07         0.10308E+06         0.00000E+00
    0.10308E+06         0.13612E+08         0.00000E+00
    0.00000E+00         0.00000E+00         0.00000E+00
 
    0.15520E+07         0.11022E+06         0.00000E+00
    0.11022E+06         0.13679E+08         0.00000E+00
    0.00000E+00         0.00000E+00         0.00000E+00
 
    0.15856E+07         0.11991E+06         0.00000E+00
    0.11991E+06         0.13748E+08         0.00000E+00
    0.00000E+00         0.00000E+00         0.00000E+00
 
    0.16134E+07         0.13189E+06         0.00000E+00
    0.13189E+06         0.13815E+08         0.00000E+00
    0.00000E+00         0.00000E+00         0.00000E+00
 
    0.16356E+07         0.14554E+06         0.00000E+00
    0.14554E+06         0.13885E+08         0.00000E+00
    0.00000E+00         0.00000E+00         0.00000E+00
 
    0.16528E+07         0.16182E+06         0.00000E+00
    0.16182E+06         0.13959E+08         0.00000E+00
    0.00000E+00         0.00000E+00         0.00000E+00
 
    0.16665E+07         0.18168E+06         0.00000E+00
    0.18168E+06         0.14035E+08         0.00000E+00
    0.00000E+00         0.00000E+00         0.00000E+00
 
    0.16776E+07         0.20270E+06         0.00000E+00
    0.20270E+06         0.14107E+08         0.00000E+00
    0.00000E+00         0.00000E+00         0.00000E+00
 
    0.16847E+07         0.22286E+06         0.00000E+00
    0.22286E+06         0.14182E+08         0.00000E+00
    0.00000E+00         0.00000E+00         0.00000E+00
 
    0.16866E+07         0.24369E+06         0.00000E+00
    0.24369E+06         0.14256E+08         0.00000E+00
    0.00000E+00         0.00000E+00         0.00000E+00
 
    0.16834E+07         0.26576E+06         0.00000E+00
    0.26576E+06         0.14329E+08         0.00000E+00
    0.00000E+00         0.00000E+00         0.00000E+00
 
    0.16756E+07         0.28993E+06         0.00000E+00
    0.28993E+06         0.14420E+08         0.00000E+00
    0.00000E+00         0.00000E+00         0.00000E+00
 
    0.16620E+07         0.31695E+06         0.00000E+00
    0.31695E+06         0.14514E+08         0.00000E+00
    0.00000E+00         0.00000E+00         0.00000E+00
 
    0.16399E+07         0.34622E+06         0.00000E+00
    0.34622E+06         0.14601E+08         0.00000E+00
    0.00000E+00         0.00000E+00         0.00000E+00
 
    0.16224E+07         0.38048E+06         0.00000E+00
    0.38048E+06         0.14679E+08         0.00000E+00
    0.00000E+00         0.00000E+00         0.25444E+05
 
    0.16021E+07         0.42523E+06         0.00000E+00
    0.42523E+06         0.14747E+08         0.00000E+00
    0.00000E+00         0.00000E+00         0.62722E+05
 
    0.15702E+07         0.48103E+06         0.00000E+00
    0.48103E+06         0.14810E+08         0.00000E+00
    0.00000E+00         0.00000E+00         0.97590E+05
 
    0.15336E+07         0.54622E+06         0.00000E+00
    0.54622E+06         0.14858E+08         0.00000E+00
    0.00000E+00         0.00000E+00         0.14620E+06
 
    0.15067E+07         0.61740E+06         0.00000E+00
    0.61740E+06         0.14875E+08         0.00000E+00
    0.00000E+00         0.00000E+00         0.23229E+06
 
    0.14706E+07         0.69568E+06         0.00000E+00
    0.69568E+06         0.14889E+08         0.00000E+00
    0.00000E+00         0.00000E+00         0.32266E+06
 
    0.14454E+07         0.77683E+06         0.00000E+00
    0.77683E+06         0.14915E+08         0.00000E+00
    0.00000E+00         0.00000E+00         0.44520E+06
 
    0.14218E+07         0.85222E+06         0.00000E+00
    0.85222E+06         0.14945E+08         0.00000E+00
    0.00000E+00         0.00000E+00         0.58266E+06
 
    0.14024E+07         0.91832E+06         0.00000E+00
    0.91832E+06         0.14977E+08         0.00000E+00
    0.00000E+00         0.00000E+00         0.72399E+06
 
    0.14026E+07         0.97540E+06         0.00000E+00
    0.97540E+06         0.15019E+08         0.00000E+00
    0.00000E+00         0.00000E+00         0.88019E+06
 
    0.14201E+07         0.10192E+07         0.00000E+00
    0.10192E+07         0.15067E+08         0.00000E+00
    0.00000E+00         0.00000E+00         0.10383E+07
 
    0.14517E+07         0.10542E+07         0.00000E+00
    0.10542E+07         0.15118E+08         0.00000E+00
    0.00000E+00         0.00000E+00         0.11865E+07
 
    0.15052E+07         0.10853E+07         0.00000E+00
    0.10853E+07         0.15174E+08         0.00000E+00
    0.00000E+00         0.00000E+00         0.13322E+07
 
    0.15708E+07         0.11120E+07         0.00000E+00
    0.11120E+07         0.15230E+08         0.00000E+00
    0.00000E+00         0.00000E+00         0.14678E+07
 
    0.16457E+07         0.11394E+07         0.00000E+00
    0.11394E+07         0.15285E+08         0.00000E+00
    0.00000E+00         0.00000E+00         0.15902E+07
 
    0.17257E+07         0.11675E+07         0.00000E+00
    0.11675E+07         0.15337E+08         0.00000E+00
    0.00000E+00         0.00000E+00         0.17006E+07
 
    0.18054E+07         0.11977E+07         0.00000E+00
    0.11977E+07         0.15385E+08         0.00000E+00
    0.00000E+00         0.00000E+00         0.17992E+07
 
    0.18895E+07         0.12318E+07         0.00000E+00
    0.12318E+07         0.15430E+08         0.00000E+00
    0.00000E+00         0.00000E+00         0.18906E+07
 
    0.19762E+07         0.12663E+07         0.00000E+00
    0.12663E+07         0.15475E+08         0.00000E+00
    0.00000E+00         0.00000E+00         0.19778E+07
 
   -0.83881E+06         0.23308E+05         0.00000E+00
    0.23308E+05         0.12500E+08         0.00000E+00
    0.00000E+00         0.00000E+00         0.00000E+00
 
   -0.66949E+06         0.61429E+05         0.00000E+00
    0.61429E+05         0.12503E+08         0.00000E+00
    0.00000E+00         0.00000E+00         0.00000E+00
 
   -0.50695E+06         0.96280E+05         0.00000E+00
    0.96280E+05         0.12509E+08         0.00000E+00
    0.00000E+00         0.00000E+00         0.00000E+00
 
   -0.35147E+06         0.12817E+06         0.00000E+00
    0.12817E+06         0.12518E+08         0.00000E+00
    0.00000E+00         0.00000E+00         0.00000E+00
 
   -0.20320E+06         0.15734E+06         0.00000E+00
    0.15734E+06         0.12531E+08         0.00000E+00
    0.00000E+00         0.00000E+00         0.00000E+00
 
   -0.62272E+05         0.18400E+06         0.00000E+00
    0.18400E+06         0.12547E+08         0.00000E+00
    0.00000E+00         0.00000E+00         0.00000E+00
 
    0.71215E+05         0.20840E+06         0.00000E+00
    0.20840E+06         0.12566E+08         0.00000E+00
    0.00000E+00         0.00000E+00         0.00000E+00
 
    0.19717E+06         0.23083E+06         0.00000E+00
    0.23083E+06         0.12589E+08         0.00000E+00
    0.00000E+00         0.00000E+00         0.00000E+00
 
    0.31555E+06         0.25158E+06         0.00000E+00
    0.25158E+06         0.12615E+08         0.00000E+00
    0.00000E+00         0.00000E+00         0.00000E+00
 
    0.42636E+06         0.27099E+06         0.00000E+00
    0.27099E+06         0.12645E+08         0.00000E+00
    0.00000E+00         0.00000E+00         0.00000E+00
 
    0.52965E+06         0.28934E+06         0.00000E+00
    0.28934E+06         0.12678E+08         0.00000E+00
    0.00000E+00         0.00000E+00         0.00000E+00
 
    0.62545E+06         0.30682E+06         0.00000E+00
    0.30682E+06         0.12715E+08         0.00000E+00
    0.00000E+00         0.00000E+00         0.00000E+00
 
    0.71378E+06         0.32381E+06         0.00000E+00
    0.32381E+06         0.12754E+08         0.00000E+00
    0.00000E+00         0.00000E+00         0.00000E+00
 
    0.79481E+06         0.34066E+06         0.00000E+00
    0.34066E+06         0.12798E+08         0.00000E+00
    0.00000E+00         0.00000E+00         0.00000E+00
 
    0.86875E+06         0.35768E+06         0.00000E+00
    0.35768E+06         0.12844E+08         0.00000E+00
    0.00000E+00         0.00000E+00         0.00000E+00
 
    0.93582E+06         0.37504E+06         0.00000E+00
    0.37504E+06         0.12893E+08         0.00000E+00
    0.00000E+00         0.00000E+00         0.00000E+00
 
    0.99624E+06         0.39300E+06         0.00000E+00
    0.39300E+06         0.12945E+08         0.00000E+00
    0.00000E+00         0.00000E+00         0.00000E+00
 
    0.10503E+07         0.41178E+06         0.00000E+00
    0.41178E+06         0.13000E+08         0.00000E+00
    0.00000E+00         0.00000E+00         0.00000E+00
 
    0.10982E+07         0.43148E+06         0.00000E+00
    0.43148E+06         0.13057E+08         0.00000E+00
    0.00000E+00         0.00000E+00         0.00000E+00
 
    0.11403E+07         0.45214E+06         0.00000E+00
    0.45214E+06         0.13117E+08         0.00000E+00
    0.00000E+00         0.00000E+00         0.00000E+00
 
    0.11768E+07         0.47405E+06         0.00000E+00
    0.47405E+06         0.13180E+08         0.00000E+00
    0.00000E+00         0.00000E+00         0.00000E+00
 
    0.12081E+07         0.49758E+06         0.00000E+00
    0.49758E+06         0.13244E+08         0.00000E+00
    0.00000E+00         0.00000E+00         0.00000E+00
 
    0.12346E+07         0.52243E+06         0.00000E+00
    0.52243E+06         0.13310E+08         0.00000E+00
    0.00000E+00         0.00000E+00         0.00000E+00
 
    0.12564E+07         0.54817E+06         0.00000E+00
    0.54817E+06         0.13377E+08         0.00000E+00
    0.00000E+00         0.00000E+00         0.00000E+00
 
    0.12735E+07         0.57527E+06         0.00000E+00
    0.57527E+06         0.13447E+08         0.00000E+00
    0.00000E+00         0.00000E+00         0.00000E+00
 
    0.12863E+07         0.60420E+06         0.00000E+00
    0.60420E+06         0.13519E+08         0.00000E+00
    0.00000E+00         0.00000E+00         0.00000E+00
 
    0.12953E+07         0.63474E+06         0.00000E+00
    0.63474E+06         0.13593E+08         0.00000E+00
    0.00000E+00         0.00000E+00         0.00000E+00
 
    0.13010E+07         0.66722E+06         0.00000E+00
    0.66722E+06         0.13669E+08         0.00000E+00
    0.00000E+00         0.00000E+00         0.00000E+00
 
    0.13038E+07         0.70122E+06         0.00000E+00
    0.70122E+06         0.13743E+08         0.00000E+00
    0.00000E+00         0.00000E+00         0.00000E+00
 
    0.13041E+07         0.73624E+06         0.00000E+00
    0.73624E+06         0.13818E+08         0.00000E+00
    0.00000E+00         0.00000E+00         0.00000E+00
 
    0.13031E+07         0.77343E+06         0.00000E+00
    0.77343E+06         0.13896E+08         0.00000E+00
    0.00000E+00         0.00000E+00         0.00000E+00
 
    0.13019E+07         0.81109E+06         0.00000E+00
    0.81109E+06         0.13972E+08         0.00000E+00
    0.00000E+00         0.00000E+00         0.00000E+00
 
    0.12994E+07         0.84565E+06         0.00000E+00
    0.84565E+06         0.14047E+08         0.00000E+00
    0.00000E+00         0.00000E+00         0.00000E+00
 
    0.12929E+07         0.87717E+06         0.00000E+00
    0.87717E+06         0.14123E+08         0.00000E+00
    0.00000E+00         0.00000E+00         0.00000E+00
 
    0.12810E+07         0.90772E+06         0.00000E+00
    0.90772E+06         0.14208E+08         0.00000E+00
    0.00000E+00         0.00000E+00         0.00000E+00
 
    0.12623E+07         0.93982E+06         0.00000E+00
    0.93982E+06         0.14318E+08         0.00000E+00
    0.00000E+00         0.00000E+00         0.00000E+00
 
    0.12316E+07         0.97191E+06         0.00000E+00
    0.97191E+06         0.14422E+08         0.00000E+00
    0.00000E+00         0.00000E+00         0.00000E+00
 
    0.12117E+07         0.10084E+07         0.00000E+00
    0.10084E+07         0.14514E+08         0.00000E+00
    0.00000E+00         0.00000E+00         0.38198E+05
 
    0.11873E+07         0.10576E+07         0.00000E+00
    0.10576E+07         0.14598E+08         0.00000E+00
    0.00000E+00         0.00000E+00         0.89022E+05
 
    0.11497E+07         0.11195E+07         0.00000E+00
    0.11195E+07         0.14672E+08         0.00000E+00
    0.00000E+00         0.00000E+00         0.14385E+06
 
    0.11393E+07         0.11852E+07         0.00000E+00
    0.11852E+07         0.14695E+08         0.00000E+00
    0.00000E+00         0.00000E+00         0.25975E+06
 
    0.11216E+07         0.12570E+07         0.00000E+00
    0.12570E+07         0.14714E+08         0.00000E+00
    0.00000E+00         0.00000E+00         0.37967E+06
 
    0.11348E+07         0.13276E+07         0.00000E+00
    0.13276E+07         0.14758E+08         0.00000E+00
    0.00000E+00         0.00000E+00         0.54968E+06
 
    0.11487E+07         0.13810E+07         0.00000E+00
    0.13810E+07         0.14804E+08         0.00000E+00
    0.00000E+00         0.00000E+00         0.72144E+06
 
    0.11867E+07         0.14186E+07         0.00000E+00
    0.14186E+07         0.14863E+08         0.00000E+00
    0.00000E+00         0.00000E+00         0.90110E+06
 
    0.12471E+07         0.14396E+07         0.00000E+00
    0.14396E+07         0.14931E+08         0.00000E+00
    0.00000E+00         0.00000E+00         0.10767E+07
 
    0.13209E+07         0.14512E+07         0.00000E+00
    0.14512E+07         0.14999E+08         0.00000E+00
    0.00000E+00         0.00000E+00         0.12302E+07
 
    0.14160E+07         0.14668E+07         0.00000E+00
    0.14668E+07         0.15067E+08         0.00000E+00
    0.00000E+00         0.00000E+00         0.13732E+07
 
    0.15151E+07         0.14856E+07         0.00000E+00
    0.14856E+07         0.15130E+08         0.00000E+00
    0.00000E+00         0.00000E+00         0.14984E+07
 
    0.16145E+07         0.15112E+07         0.00000E+00
    0.15112E+07         0.15187E+08         0.00000E+00
    0.00000E+00         0.00000E+00         0.16109E+07
 
   -0.11190E+07         0.30692E+05         0.00000E+00
    0.30692E+05         0.11984E+08         0.00000E+00
    0.00000E+00         0.00000E+00         0.00000E+00
 
   -0.96468E+06         0.83718E+05         0.00000E+00
    0.83718E+05         0.11987E+08         0.00000E+00
    0.00000E+00         0.00000E+00         0.00000E+00
 
   -0.81650E+06         0.13395E+06         0.00000E+00
    0.13395E+06         0.11992E+08         0.00000E+00
    0.00000E+00         0.00000E+00         0.00000E+00
 
   -0.67450E+06         0.18151E+06         0.00000E+00
    0.18151E+06         0.12000E+08         0.00000E+00
    0.00000E+00         0.00000E+00         0.00000E+00
 
   -0.53870E+06         0.22654E+06         0.00000E+00
    0.22654E+06         0.12011E+08         0.00000E+00
    0.00000E+00         0.00000E+00         0.00000E+00
 
   -0.40914E+06         0.26925E+06         0.00000E+00
    0.26925E+06         0.12025E+08         0.00000E+00
    0.00000E+00         0.00000E+00         0.00000E+00
 
   -0.28585E+06         0.30985E+06         0.00000E+00
    0.30985E+06         0.12042E+08         0.00000E+00
    0.00000E+00         0.00000E+00         0.00000E+00
 
   -0.16883E+06         0.34855E+06         0.00000E+00
    0.34855E+06         0.12062E+08         0.00000E+00
    0.00000E+00         0.00000E+00         0.00000E+00
 
   -0.58089E+05         0.38556E+06         0.00000E+00
    0.38556E+06         0.12084E+08         0.00000E+00
    0.00000E+00         0.00000E+00         0.00000E+00
 
    0.46384E+05         0.42110E+06         0.00000E+00
    0.42110E+06         0.12110E+08         0.00000E+00
    0.00000E+00         0.00000E+00         0.00000E+00
 
    0.14461E+06         0.45541E+06         0.00000E+00
    0.45541E+06         0.12138E+08         0.00000E+00
    0.00000E+00         0.00000E+00         0.00000E+00
 
    0.23664E+06         0.48874E+06         0.00000E+00
    0.48874E+06         0.12169E+08         0.00000E+00
    0.00000E+00         0.00000E+00         0.00000E+00
 
    0.32257E+06         0.52130E+06         0.00000E+00
    0.52130E+06         0.12203E+08         0.00000E+00
    0.00000E+00         0.00000E+00         0.00000E+00
 
    0.40247E+06         0.55330E+06         0.00000E+00
    0.55330E+06         0.12240E+08         0.00000E+00
    0.00000E+00         0.00000E+00         0.00000E+00
 
    0.47645E+06         0.58495E+06         0.00000E+00
    0.58495E+06         0.12279E+08         0.00000E+00
    0.00000E+00         0.00000E+00         0.00000E+00
 
    0.54461E+06         0.61647E+06         0.00000E+00
    0.61647E+06         0.12321E+08         0.00000E+00
    0.00000E+00         0.00000E+00         0.00000E+00
 
    0.60711E+06         0.64803E+06         0.00000E+00
    0.64803E+06         0.12366E+08         0.00000E+00
    0.00000E+00         0.00000E+00         0.00000E+00
 
    0.66409E+06         0.67981E+06         0.00000E+00
    0.67981E+06         0.12413E+08         0.00000E+00
    0.00000E+00         0.00000E+00         0.00000E+00
 
    0.71570E+06         0.71197E+06         0.00000E+00
    0.71197E+06         0.12462E+08         0.00000E+00
    0.00000E+00         0.00000E+00         0.00000E+00
 
    0.76215E+06         0.74472E+06         0.00000E+00
    0.74472E+06         0.12514E+08         0.00000E+00
    0.00000E+00         0.00000E+00         0.00000E+00
 
    0.80365E+06         0.77810E+06         0.00000E+00
    0.77810E+06         0.12568E+08         0.00000E+00
    0.00000E+00         0.00000E+00         0.00000E+00
 
    0.84034E+06         0.81214E+06         0.00000E+00
    0.81214E+06         0.12624E+08         0.00000E+00
    0.00000E+00         0.00000E+00         0.00000E+00
 
    0.87234E+06         0.84702E+06         0.00000E+00
    0.84702E+06         0.12683E+08         0.00000E+00
    0.00000E+00         0.00000E+00         0.00000E+00
 
    0.89993E+06         0.88295E+06         0.00000E+00
    0.88295E+06         0.12743E+08         0.00000E+00
    0.00000E+00         0.00000E+00         0.00000E+00
 
    0.92337E+06         0.91991E+06         0.00000E+00
    0.91991E+06         0.12806E+08         0.00000E+00
    0.00000E+00         0.00000E+00         0.00000E+00
 
    0.94288E+06         0.95785E+06         0.00000E+00
    0.95785E+06         0.12870E+08         0.00000E+00
    0.00000E+00         0.00000E+00         0.00000E+00
 
    0.95864E+06         0.99683E+06         0.00000E+00
    0.99683E+06         0.12936E+08         0.00000E+00
    0.00000E+00         0.00000E+00         0.00000E+00
 
    0.97082E+06         0.10367E+07         0.00000E+00
    0.10367E+07         0.13003E+08         0.00000E+00
    0.00000E+00         0.00000E+00         0.00000E+00
 
    0.97957E+06         0.10775E+07         0.00000E+00
    0.10775E+07         0.13073E+08         0.00000E+00
    0.00000E+00         0.00000E+00         0.00000E+00
 
    0.98518E+06         0.11195E+07         0.00000E+00
    0.11195E+07         0.13144E+08         0.00000E+00
    0.00000E+00         0.00000E+00         0.00000E+00
 
    0.98771E+06         0.11619E+07         0.00000E+00
    0.11619E+07         0.13216E+08         0.00000E+00
    0.00000E+00         0.00000E+00         0.00000E+00
 
    0.98695E+06         0.12050E+07         0.00000E+00
    0.12050E+07         0.13291E+08         0.00000E+00
    0.00000E+00         0.00000E+00         0.00000E+00
 
    0.98314E+06         0.12493E+07         0.00000E+00
    0.12493E+07         0.13368E+08         0.00000E+00
    0.00000E+00         0.00000E+00         0.00000E+00
 
    0.97697E+06         0.12950E+07         0.00000E+00
    0.12950E+07         0.13447E+08         0.00000E+00
    0.00000E+00         0.00000E+00         0.00000E+00
 
    0.96910E+06         0.13418E+07         0.00000E+00
    0.13418E+07         0.13528E+08         0.00000E+00
    0.00000E+00         0.00000E+00         0.00000E+00
 
    0.95996E+06         0.13888E+07         0.00000E+00
    0.13888E+07         0.13604E+08         0.00000E+00
    0.00000E+00         0.00000E+00         0.00000E+00
 
    0.95098E+06         0.14368E+07         0.00000E+00
    0.14368E+07         0.13686E+08         0.00000E+00
    0.00000E+00         0.00000E+00         0.00000E+00
 
    0.94320E+06         0.14824E+07         0.00000E+00
    0.14824E+07         0.13762E+08         0.00000E+00
    0.00000E+00         0.00000E+00         0.00000E+00
 
    0.93353E+06         0.15202E+07         0.00000E+00
    0.15202E+07         0.13839E+08         0.00000E+00
    0.00000E+00         0.00000E+00         0.00000E+00
 
    0.91693E+06         0.15512E+07         0.00000E+00
    0.15512E+07         0.13921E+08         0.00000E+00
    0.00000E+00         0.00000E+00         0.00000E+00
 
    0.89042E+06         0.15831E+07         0.00000E+00
    0.15831E+07         0.14052E+08         0.00000E+00
    0.00000E+00         0.00000E+00         0.00000E+00
 
    0.84492E+06         0.16108E+07         0.00000E+00
    0.16108E+07         0.14180E+08         0.00000E+00
    0.00000E+00         0.00000E+00         0.17878E+03
 
    0.82967E+06         0.16422E+07         0.00000E+00
    0.16422E+07         0.14295E+08         0.00000E+00
    0.00000E+00         0.00000E+00         0.65680E+05
 
    0.80102E+06         0.16899E+07         0.00000E+00
    0.16899E+07         0.14403E+08         0.00000E+00
    0.00000E+00         0.00000E+00         0.13173E+06
 
    0.80812E+06         0.17389E+07         0.00000E+00
    0.17389E+07         0.14454E+08         0.00000E+00
    0.00000E+00         0.00000E+00         0.26047E+06
 
    0.82671E+06         0.17891E+07         0.00000E+00
    0.17891E+07         0.14489E+08         0.00000E+00
    0.00000E+00         0.00000E+00         0.40710E+06
 
    0.89718E+06         0.18348E+07         0.00000E+00
    0.18348E+07         0.14560E+08         0.00000E+00
    0.00000E+00         0.00000E+00         0.61422E+06
 
    0.97146E+06         0.18511E+07         0.00000E+00
    0.18511E+07         0.14639E+08         0.00000E+00
    0.00000E+00         0.00000E+00         0.81433E+06
 
    0.10790E+07         0.18497E+07         0.00000E+00
    0.18497E+07         0.14733E+08         0.00000E+00
    0.00000E+00         0.00000E+00         0.10134E+07
 
    0.11975E+07         0.18382E+07         0.00000E+00
    0.18382E+07         0.14826E+08         0.00000E+00
    0.00000E+00         0.00000E+00         0.11840E+07
 
   -0.13176E+07         0.37366E+05         0.00000E+00
    0.37366E+05         0.11478E+08         0.00000E+00
    0.00000E+00         0.00000E+00         0.00000E+00
 
   -0.11778E+07         0.10371E+06         0.00000E+00
    0.10371E+06         0.11481E+08         0.00000E+00
    0.00000E+00         0.00000E+00         0.00000E+00
 
   -0.10432E+07         0.16723E+06         0.00000E+00
    0.16723E+06         0.11486E+08         0.00000E+00
    0.00000E+00         0.00000E+00         0.00000E+00
 
   -0.91401E+06         0.22811E+06         0.00000E+00
    0.22811E+06         0.11493E+08         0.00000E+00
    0.00000E+00         0.00000E+00         0.00000E+00
 
   -0.79008E+06         0.28653E+06         0.00000E+00
    0.28653E+06         0.11502E+08         0.00000E+00
    0.00000E+00         0.00000E+00         0.00000E+00
 
   -0.67143E+06         0.34269E+06         0.00000E+00
    0.34269E+06         0.11514E+08         0.00000E+00
    0.00000E+00         0.00000E+00         0.00000E+00
 
   -0.55804E+06         0.39676E+06         0.00000E+00
    0.39676E+06         0.11528E+08         0.00000E+00
    0.00000E+00         0.00000E+00         0.00000E+00
 
   -0.44992E+06         0.44894E+06         0.00000E+00
    0.44894E+06         0.11544E+08         0.00000E+00
    0.00000E+00         0.00000E+00         0.00000E+00
 
   -0.34703E+06         0.49941E+06         0.00000E+00
    0.49941E+06         0.11563E+08         0.00000E+00
    0.00000E+00         0.00000E+00         0.00000E+00
 
   -0.24936E+06         0.54839E+06         0.00000E+00
    0.54839E+06         0.11585E+08         0.00000E+00
    0.00000E+00         0.00000E+00         0.00000E+00
 
   -0.15688E+06         0.59605E+06         0.00000E+00
    0.59605E+06         0.11608E+08         0.00000E+00
    0.00000E+00         0.00000E+00         0.00000E+00
 
   -0.69543E+05         0.64258E+06         0.00000E+00
    0.64258E+06         0.11634E+08         0.00000E+00
    0.00000E+00         0.00000E+00         0.00000E+00
 
    0.12693E+05         0.68817E+06         0.00000E+00
    0.68817E+06         0.11662E+08         0.00000E+00
    0.00000E+00         0.00000E+00         0.00000E+00
 
    0.89885E+05         0.73301E+06         0.00000E+00
    0.73301E+06         0.11693E+08         0.00000E+00
    0.00000E+00         0.00000E+00         0.00000E+00
 
    0.16210E+06         0.77728E+06         0.00000E+00
    0.77728E+06         0.11726E+08         0.00000E+00
    0.00000E+00         0.00000E+00         0.00000E+00
 
    0.22942E+06         0.82114E+06         0.00000E+00
    0.82114E+06         0.11761E+08         0.00000E+00
    0.00000E+00         0.00000E+00         0.00000E+00
 
    0.29192E+06         0.86476E+06         0.00000E+00
    0.86476E+06         0.11798E+08         0.00000E+00
    0.00000E+00         0.00000E+00         0.00000E+00
 
    0.34971E+06         0.90830E+06         0.00000E+00
    0.90830E+06         0.11838E+08         0.00000E+00
    0.00000E+00         0.00000E+00         0.00000E+00
 
    0.40288E+06         0.95191E+06         0.00000E+00
    0.95191E+06         0.11879E+08         0.00000E+00
    0.00000E+00         0.00000E+00         0.00000E+00
 
    0.45154E+06         0.99569E+06         0.00000E+00
    0.99569E+06         0.11923E+08         0.00000E+00
    0.00000E+00         0.00000E+00         0.00000E+00
 
    0.49579E+06         0.10398E+07         0.00000E+00
    0.10398E+07         0.11968E+08         0.00000E+00
    0.00000E+00         0.00000E+00         0.00000E+00
 
    0.53577E+06         0.10844E+07         0.00000E+00
    0.10844E+07         0.12016E+08         0.00000E+00
    0.00000E+00         0.00000E+00         0.00000E+00
 
    0.57161E+06         0.11295E+07         0.00000E+00
    0.11295E+07         0.12065E+08         0.00000E+00
    0.00000E+00         0.00000E+00         0.00000E+00
 
    0.60343E+06         0.11752E+07         0.00000E+00
    0.11752E+07         0.12116E+08         0.00000E+00
    0.00000E+00         0.00000E+00         0.00000E+00
 
    0.63133E+06         0.12217E+07         0.00000E+00
    0.12217E+07         0.12170E+08         0.00000E+00
    0.00000E+00         0.00000E+00         0.00000E+00
 
    0.65545E+06         0.12689E+07         0.00000E+00
    0.12689E+07         0.12225E+08         0.00000E+00
    0.00000E+00         0.00000E+00         0.00000E+00
 
    0.67590E+06         0.13169E+07         0.00000E+00
    0.13169E+07         0.12281E+08         0.00000E+00
    0.00000E+00         0.00000E+00         0.00000E+00
 
    0.69281E+06         0.13658E+07         0.00000E+00
    0.13658E+07         0.12340E+08         0.00000E+00
    0.00000E+00         0.00000E+00         0.00000E+00
 
    0.70633E+06         0.14156E+07         0.00000E+00
    0.14156E+07         0.12400E+08         0.00000E+00
    0.00000E+00         0.00000E+00         0.00000E+00
 
    0.71650E+06         0.14662E+07         0.00000E+00
    0.14662E+07         0.12462E+08         0.00000E+00
    0.00000E+00         0.00000E+00         0.00000E+00
 
    0.72343E+06         0.15179E+07         0.00000E+00
    0.15179E+07         0.12525E+08         0.00000E+00
    0.00000E+00         0.00000E+00         0.00000E+00
 
    0.72733E+06         0.15705E+07         0.00000E+00
    0.15705E+07         0.12591E+08         0.00000E+00
    0.00000E+00         0.00000E+00         0.00000E+00
 
    0.72834E+06         0.16239E+07         0.00000E+00
    0.16239E+07         0.12658E+08         0.00000E+00
    0.00000E+00         0.00000E+00         0.00000E+00
 
    0.72645E+06         0.16780E+07         0.00000E+00
    0.16780E+07         0.12727E+08         0.00000E+00
    0.00000E+00         0.00000E+00         0.00000E+00
 
    0.72160E+06         0.17325E+07         0.00000E+00
    0.17325E+07         0.12797E+08         0.00000E+00
    0.00000E+00         0.00000E+00         0.00000E+00
 
    0.71385E+06         0.17879E+07         0.00000E+00
    0.17879E+07         0.12871E+08         0.00000E+00
    0.00000E+00         0.00000E+00         0.00000E+00
 
    0.70299E+06         0.18434E+07         0.00000E+00
    0.18434E+07         0.12946E+08         0.00000E+00
    0.00000E+00         0.00000E+00         0.00000E+00
 
    0.68861E+06         0.18993E+07         0.00000E+00
    0.18993E+07         0.13024E+08         0.00000E+00
    0.00000E+00         0.00000E+00         0.00000E+00
 
    0.67124E+06         0.19569E+07         0.00000E+00
    0.19569E+07         0.13106E+08         0.00000E+00
    0.00000E+00         0.00000E+00         0.00000E+00
 
    0.65223E+06         0.20165E+07         0.00000E+00
    0.20165E+07         0.13192E+08         0.00000E+00
    0.00000E+00         0.00000E+00         0.00000E+00
 
    0.63225E+06         0.20753E+07         0.00000E+00
    0.20753E+07         0.13270E+08         0.00000E+00
    0.00000E+00         0.00000E+00         0.00000E+00
 
    0.61337E+06         0.21352E+07         0.00000E+00
    0.21352E+07         0.13355E+08         0.00000E+00
    0.00000E+00         0.00000E+00         0.00000E+00
 
    0.59539E+06         0.21871E+07         0.00000E+00
    0.21871E+07         0.13431E+08         0.00000E+00
    0.00000E+00         0.00000E+00         0.00000E+00
 
    0.57003E+06         0.22239E+07         0.00000E+00
    0.22239E+07         0.13513E+08         0.00000E+00
    0.00000E+00         0.00000E+00         0.00000E+00
 
    0.53012E+06         0.22585E+07         0.00000E+00
    0.22585E+07         0.13656E+08         0.00000E+00
    0.00000E+00         0.00000E+00         0.00000E+00
 
    0.46528E+06         0.22844E+07         0.00000E+00
    0.22844E+07         0.13817E+08         0.00000E+00
    0.00000E+00         0.00000E+00         0.25520E+04
 
    0.45279E+06         0.23092E+07         0.00000E+00
    0.23092E+07         0.13967E+08         0.00000E+00
    0.00000E+00         0.00000E+00         0.89973E+05
 
    0.44864E+06         0.23445E+07         0.00000E+00
    0.23445E+07         0.14097E+08         0.00000E+00
    0.00000E+00         0.00000E+00         0.19239E+06
 
    0.51557E+06         0.23631E+07         0.00000E+00
    0.23631E+07         0.14161E+08         0.00000E+00
    0.00000E+00         0.00000E+00         0.36819E+06
 
    0.64070E+06         0.23740E+07         0.00000E+00
    0.23740E+07         0.14262E+08         0.00000E+00
    0.00000E+00         0.00000E+00         0.59369E+06
 
   -0.14444E+07         0.42990E+05         0.00000E+00
    0.42990E+05         0.10984E+08         0.00000E+00
    0.00000E+00         0.00000E+00         0.00000E+00
 
   -0.13192E+07         0.12038E+06         0.00000E+00
    0.12038E+06         0.10986E+08         0.00000E+00
    0.00000E+00         0.00000E+00         0.00000E+00
 
   -0.11983E+07         0.19492E+06         0.00000E+00
    0.19492E+06         0.10990E+08         0.00000E+00
    0.00000E+00         0.00000E+00         0.00000E+00
 
   -0.10818E+07         0.26682E+06         0.00000E+00
    0.26682E+06         0.10995E+08         0.00000E+00
    0.00000E+00         0.00000E+00         0.00000E+00
 
   -0.96968E+06         0.33625E+06         0.00000E+00
    0.33625E+06         0.11003E+08         0.00000E+00
    0.00000E+00         0.00000E+00         0.00000E+00
 
   -0.86186E+06         0.40340E+06         0.00000E+00
    0.40340E+06         0.11012E+08         0.00000E+00
    0.00000E+00         0.00000E+00         0.00000E+00
 
   -0.75837E+06         0.46847E+06         0.00000E+00
    0.46847E+06         0.11023E+08         0.00000E+00
    0.00000E+00         0.00000E+00         0.00000E+00
 
   -0.65921E+06         0.53164E+06         0.00000E+00
    0.53164E+06         0.11037E+08         0.00000E+00
    0.00000E+00         0.00000E+00         0.00000E+00
 
   -0.56434E+06         0.59308E+06         0.00000E+00
    0.59308E+06         0.11052E+08         0.00000E+00
    0.00000E+00         0.00000E+00         0.00000E+00
 
   -0.47378E+06         0.65297E+06         0.00000E+00
    0.65297E+06         0.11069E+08         0.00000E+00
    0.00000E+00         0.00000E+00         0.00000E+00
 
   -0.38748E+06         0.71148E+06         0.00000E+00
    0.71148E+06         0.11088E+08         0.00000E+00
    0.00000E+00         0.00000E+00         0.00000E+00
 
   -0.30544E+06         0.76879E+06         0.00000E+00
    0.76879E+06         0.11108E+08         0.00000E+00
    0.00000E+00         0.00000E+00         0.00000E+00
 
   -0.22762E+06         0.82505E+06         0.00000E+00
    0.82505E+06         0.11131E+08         0.00000E+00
    0.00000E+00         0.00000E+00         0.00000E+00
 
   -0.15398E+06         0.88044E+06         0.00000E+00
    0.88044E+06         0.11156E+08         0.00000E+00
    0.00000E+00         0.00000E+00         0.00000E+00
 
   -0.84495E+05         0.93511E+06         0.00000E+00
    0.93511E+06         0.11182E+08         0.00000E+00
    0.00000E+00         0.00000E+00         0.00000E+00
 
   -0.19105E+05         0.98921E+06         0.00000E+00
    0.98921E+06         0.11210E+08         0.00000E+00
    0.00000E+00         0.00000E+00         0.00000E+00
 
    0.42236E+05         0.10429E+07         0.00000E+00
    0.10429E+07         0.11240E+08         0.00000E+00
    0.00000E+00         0.00000E+00         0.00000E+00
 
    0.99586E+05         0.10963E+07         0.00000E+00
    0.10963E+07         0.11271E+08         0.00000E+00
    0.00000E+00         0.00000E+00         0.00000E+00
 
    0.15300E+06         0.11496E+07         0.00000E+00
    0.11496E+07         0.11305E+08         0.00000E+00
    0.00000E+00         0.00000E+00         0.00000E+00
 
    0.20256E+06         0.12028E+07         0.00000E+00
    0.12028E+07         0.11340E+08         0.00000E+00
    0.00000E+00         0.00000E+00         0.00000E+00
 
    0.24832E+06         0.12562E+07         0.00000E+00
    0.12562E+07         0.11376E+08         0.00000E+00
    0.00000E+00         0.00000E+00         0.00000E+00
 
    0.29037E+06         0.13098E+07         0.00000E+00
    0.13098E+07         0.11414E+08         0.00000E+00
    0.00000E+00         0.00000E+00         0.00000E+00
 
    0.32876E+06         0.13637E+07         0.00000E+00
    0.13637E+07         0.11454E+08         0.00000E+00
    0.00000E+00         0.00000E+00         0.00000E+00
 
    0.36358E+06         0.14180E+07         0.00000E+00
    0.14180E+07         0.11496E+08         0.00000E+00
    0.00000E+00         0.00000E+00         0.00000E+00
 
    0.39490E+06         0.14729E+07         0.00000E+00
    0.14729E+07         0.11538E+08         0.00000E+00
    0.00000E+00         0.00000E+00         0.00000E+00
 
    0.42280E+06         0.15284E+07         0.00000E+00
    0.15284E+07         0.11583E+08         0.00000E+00
    0.00000E+00         0.00000E+00         0.00000E+00
 
    0.44736E+06         0.15846E+07         0.00000E+00
    0.15846E+07         0.11628E+08         0.00000E+00
    0.00000E+00         0.00000E+00         0.00000E+00
 
    0.46864E+06         0.16416E+07         0.00000E+00
    0.16416E+07         0.11675E+08         0.00000E+00
    0.00000E+00         0.00000E+00         0.00000E+00
 
    0.48671E+06         0.16993E+07         0.00000E+00
    0.16993E+07         0.11724E+08         0.00000E+00
    0.00000E+00         0.00000E+00         0.00000E+00
 
    0.50163E+06         0.17580E+07         0.00000E+00
    0.17580E+07         0.11774E+08         0.00000E+00
    0.00000E+00         0.00000E+00         0.00000E+00
 
    0.51348E+06         0.18176E+07         0.00000E+00
    0.18176E+07         0.11825E+08         0.00000E+00
    0.00000E+00         0.00000E+00         0.00000E+00
 
    0.52227E+06         0.18782E+07         0.00000E+00
    0.18782E+07         0.11878E+08         0.00000E+00
    0.00000E+00         0.00000E+00         0.00000E+00
 
    0.52802E+06         0.19397E+07         0.00000E+00
    0.19397E+07         0.11932E+08         0.00000E+00
    0.00000E+00         0.00000E+00         0.00000E+00
 
    0.53078E+06         0.20024E+07         0.00000E+00
    0.20024E+07         0.11987E+08         0.00000E+00
    0.00000E+00         0.00000E+00         0.00000E+00
 
    0.53057E+06         0.20662E+07         0.00000E+00
    0.20662E+07         0.12044E+08         0.00000E+00
    0.00000E+00         0.00000E+00         0.00000E+00
 
    0.52739E+06         0.21312E+07         0.00000E+00
    0.21312E+07         0.12102E+08         0.00000E+00
    0.00000E+00         0.00000E+00         0.00000E+00
 
    0.52125E+06         0.21974E+07         0.00000E+00
    0.21974E+07         0.12162E+08         0.00000E+00
    0.00000E+00         0.00000E+00         0.00000E+00
 
    0.51228E+06         0.22649E+07         0.00000E+00
    0.22649E+07         0.12223E+08         0.00000E+00
    0.00000E+00         0.00000E+00         0.00000E+00
 
    0.50039E+06         0.23333E+07         0.00000E+00
    0.23333E+07         0.12286E+08         0.00000E+00
    0.00000E+00         0.00000E+00         0.00000E+00
 
    0.48515E+06         0.24026E+07         0.00000E+00
    0.24026E+07         0.12350E+08         0.00000E+00
    0.00000E+00         0.00000E+00         0.00000E+00
 
    0.46630E+06         0.24732E+07         0.00000E+00
    0.24732E+07         0.12419E+08         0.00000E+00
    0.00000E+00         0.00000E+00         0.00000E+00
 
    0.44318E+06         0.25446E+07         0.00000E+00
    0.25446E+07         0.12488E+08         0.00000E+00
    0.00000E+00         0.00000E+00         0.00000E+00
 
    0.41538E+06         0.26187E+07         0.00000E+00
    0.26187E+07         0.12563E+08         0.00000E+00
    0.00000E+00         0.00000E+00         0.00000E+00
 
    0.38471E+06         0.26979E+07         0.00000E+00
    0.26979E+07         0.12642E+08         0.00000E+00
    0.00000E+00         0.00000E+00         0.00000E+00
 
    0.35256E+06         0.27785E+07         0.00000E+00
    0.27785E+07         0.12711E+08         0.00000E+00
    0.00000E+00         0.00000E+00         0.00000E+00
 
    0.32133E+06         0.28627E+07         0.00000E+00
    0.28627E+07         0.12784E+08         0.00000E+00
    0.00000E+00         0.00000E+00         0.00000E+00
 
    0.28801E+06         0.29355E+07         0.00000E+00
    0.29355E+07         0.12843E+08         0.00000E+00
    0.00000E+00         0.00000E+00         0.00000E+00
 
    0.23845E+06         0.29936E+07         0.00000E+00
    0.29936E+07         0.12931E+08         0.00000E+00
    0.00000E+00         0.00000E+00         0.00000E+00
 
    0.15810E+06         0.30535E+07         0.00000E+00
    0.30535E+07         0.13103E+08         0.00000E+00
    0.00000E+00         0.00000E+00         0.00000E+00
 
    0.12724E+06         0.31052E+07         0.00000E+00
    0.31052E+07         0.13274E+08         0.00000E+00
    0.00000E+00         0.00000E+00         0.74175E+05
 
   -0.15113E+07         0.47245E+05         0.00000E+00
    0.47245E+05         0.10500E+08         0.00000E+00
    0.00000E+00         0.00000E+00         0.00000E+00
 
   -0.14008E+07         0.13319E+06         0.00000E+00
    0.13319E+06         0.10501E+08         0.00000E+00
    0.00000E+00         0.00000E+00         0.00000E+00
 
   -0.12937E+07         0.21630E+06         0.00000E+00
    0.21630E+06         0.10504E+08         0.00000E+00
    0.00000E+00         0.00000E+00         0.00000E+00
 
   -0.11899E+07         0.29678E+06         0.00000E+00
    0.29678E+06         0.10508E+08         0.00000E+00
    0.00000E+00         0.00000E+00         0.00000E+00
 
   -0.10896E+07         0.37482E+06         0.00000E+00
    0.37482E+06         0.10514E+08         0.00000E+00
    0.00000E+00         0.00000E+00         0.00000E+00
 
   -0.99257E+06         0.45061E+06         0.00000E+00
    0.45061E+06         0.10521E+08         0.00000E+00
    0.00000E+00         0.00000E+00         0.00000E+00
 
   -0.89901E+06         0.52431E+06         0.00000E+00
    0.52431E+06         0.10529E+08         0.00000E+00
    0.00000E+00         0.00000E+00         0.00000E+00
 
   -0.80888E+06         0.59610E+06         0.00000E+00
    0.59610E+06         0.10539E+08         0.00000E+00
    0.00000E+00         0.00000E+00         0.00000E+00
 
   -0.72219E+06         0.66615E+06         0.00000E+00
    0.66615E+06         0.10550E+08         0.00000E+00
    0.00000E+00         0.00000E+00         0.00000E+00
 
   -0.63895E+06         0.73462E+06         0.00000E+00
    0.73462E+06         0.10563E+08         0.00000E+00
    0.00000E+00         0.00000E+00         0.00000E+00
 
   -0.55916E+06         0.80167E+06         0.00000E+00
    0.80167E+06         0.10577E+08         0.00000E+00
    0.00000E+00         0.00000E+00         0.00000E+00
 
   -0.48280E+06         0.86745E+06         0.00000E+00
    0.86745E+06         0.10593E+08         0.00000E+00
    0.00000E+00         0.00000E+00         0.00000E+00
 
   -0.40988E+06         0.93212E+06         0.00000E+00
    0.93212E+06         0.10610E+08         0.00000E+00
    0.00000E+00         0.00000E+00         0.00000E+00
 
   -0.34038E+06         0.99581E+06         0.00000E+00
    0.99581E+06         0.10629E+08         0.00000E+00
    0.00000E+00         0.00000E+00         0.00000E+00
 
   -0.27427E+06         0.10587E+07         0.00000E+00
    0.10587E+07         0.10648E+08         0.00000E+00
    0.00000E+00         0.00000E+00         0.00000E+00
 
   -0.21155E+06         0.11209E+07         0.00000E+00
    0.11209E+07         0.10670E+08         0.00000E+00
    0.00000E+00         0.00000E+00         0.00000E+00
 
   -0.15219E+06         0.11825E+07         0.00000E+00
    0.11825E+07         0.10692E+08         0.00000E+00
    0.00000E+00         0.00000E+00         0.00000E+00
 
   -0.96145E+05         0.12437E+07         0.00000E+00
    0.12437E+07         0.10716E+08         0.00000E+00
    0.00000E+00         0.00000E+00         0.00000E+00
 
   -0.43392E+05         0.13045E+07         0.00000E+00
    0.13045E+07         0.10742E+08         0.00000E+00
    0.00000E+00         0.00000E+00         0.00000E+00
 
    0.61084E+04         0.13652E+07         0.00000E+00
    0.13652E+07         0.10768E+08         0.00000E+00
    0.00000E+00         0.00000E+00         0.00000E+00
 
    0.52394E+05         0.14258E+07         0.00000E+00
    0.14258E+07         0.10796E+08         0.00000E+00
    0.00000E+00         0.00000E+00         0.00000E+00
 
    0.95509E+05         0.14865E+07         0.00000E+00
    0.14865E+07         0.10825E+08         0.00000E+00
    0.00000E+00         0.00000E+00         0.00000E+00
 
    0.13550E+06         0.15473E+07         0.00000E+00
    0.15473E+07         0.10855E+08         0.00000E+00
    0.00000E+00         0.00000E+00         0.00000E+00
 
    0.17240E+06         0.16083E+07         0.00000E+00
    0.16083E+07         0.10886E+08         0.00000E+00
    0.00000E+00         0.00000E+00         0.00000E+00
 
    0.20627E+06         0.16696E+07         0.00000E+00
    0.16696E+07         0.10919E+08         0.00000E+00
    0.00000E+00         0.00000E+00         0.00000E+00
 
    0.23715E+06         0.17314E+07         0.00000E+00
    0.17314E+07         0.10952E+08         0.00000E+00
    0.00000E+00         0.00000E+00         0.00000E+00
 
    0.26508E+06         0.17937E+07         0.00000E+00
    0.17937E+07         0.10986E+08         0.00000E+00
    0.00000E+00         0.00000E+00         0.00000E+00
 
    0.29010E+06         0.18565E+07         0.00000E+00
    0.18565E+07         0.11022E+08         0.00000E+00
    0.00000E+00         0.00000E+00         0.00000E+00
 
    0.31226E+06         0.19200E+07         0.00000E+00
    0.19200E+07         0.11058E+08         0.00000E+00
    0.00000E+00         0.00000E+00         0.00000E+00
 
    0.33159E+06         0.19842E+07         0.00000E+00
    0.19842E+07         0.11095E+08         0.00000E+00
    0.00000E+00         0.00000E+00         0.00000E+00
 
    0.34812E+06         0.20492E+07         0.00000E+00
    0.20492E+07         0.11133E+08         0.00000E+00
    0.00000E+00         0.00000E+00         0.00000E+00
 
    0.36187E+06         0.21151E+07         0.00000E+00
    0.21151E+07         0.11172E+08         0.00000E+00
    0.00000E+00         0.00000E+00         0.00000E+00
 
    0.37288E+06         0.21819E+07         0.00000E+00
    0.21819E+07         0.11211E+08         0.00000E+00
    0.00000E+00         0.00000E+00         0.00000E+00
 
    0.38115E+06         0.22496E+07         0.00000E+00
    0.22496E+07         0.11251E+08         0.00000E+00
    0.00000E+00         0.00000E+00         0.00000E+00
 
    0.38668E+06         0.23183E+07         0.00000E+00
    0.23183E+07         0.11292E+08         0.00000E+00
    0.00000E+00         0.00000E+00         0.00000E+00
 
    0.38946E+06         0.23882E+07         0.00000E+00
    0.23882E+07         0.11333E+08         0.00000E+00
    0.00000E+00         0.00000E+00         0.00000E+00
 
    0.38946E+06         0.24591E+07         0.00000E+00
    0.24591E+07         0.11375E+08         0.00000E+00
    0.00000E+00         0.00000E+00         0.00000E+00
 
    0.38660E+06         0.25311E+07         0.00000E+00
    0.25311E+07         0.11417E+08         0.00000E+00
    0.00000E+00         0.00000E+00         0.00000E+00
 
    0.38080E+06         0.26044E+07         0.00000E+00
    0.26044E+07         0.11460E+08         0.00000E+00
    0.00000E+00         0.00000E+00         0.00000E+00
 
    0.37203E+06         0.26790E+07         0.00000E+00
    0.26790E+07         0.11503E+08         0.00000E+00
    0.00000E+00         0.00000E+00         0.00000E+00
 
    0.36019E+06         0.27548E+07         0.00000E+00
    0.27548E+07         0.11545E+08         0.00000E+00
    0.00000E+00         0.00000E+00         0.00000E+00
 
    0.34522E+06         0.28321E+07         0.00000E+00
    0.28321E+07         0.11589E+08         0.00000E+00
    0.00000E+00         0.00000E+00         0.00000E+00
 
    0.32703E+06         0.29106E+07         0.00000E+00
    0.29106E+07         0.11631E+08         0.00000E+00
    0.00000E+00         0.00000E+00         0.00000E+00
 
    0.30479E+06         0.29893E+07         0.00000E+00
    0.29893E+07         0.11672E+08         0.00000E+00
    0.00000E+00         0.00000E+00         0.00000E+00
 
    0.27757E+06         0.30691E+07         0.00000E+00
    0.30691E+07         0.11716E+08         0.00000E+00
    0.00000E+00         0.00000E+00         0.00000E+00
 
    0.24388E+06         0.31491E+07         0.00000E+00
    0.31491E+07         0.11759E+08         0.00000E+00
    0.00000E+00         0.00000E+00         0.00000E+00
 
    0.20303E+06         0.32328E+07         0.00000E+00
    0.32328E+07         0.11805E+08         0.00000E+00
    0.00000E+00         0.00000E+00         0.00000E+00
 
    0.15676E+06         0.33215E+07         0.00000E+00
    0.33215E+07         0.11846E+08         0.00000E+00
    0.00000E+00         0.00000E+00         0.00000E+00
 
    0.10542E+06         0.34100E+07         0.00000E+00
    0.34100E+07         0.11869E+08         0.00000E+00
    0.00000E+00         0.00000E+00         0.00000E+00
 
    0.39136E+05         0.34839E+07         0.00000E+00
    0.34839E+07         0.11874E+08         0.00000E+00
    0.00000E+00         0.00000E+00         0.00000E+00
 
   -0.15315E+07         0.50064E+05         0.00000E+00
    0.50064E+05         0.10026E+08         0.00000E+00
    0.00000E+00         0.00000E+00         0.00000E+00
 
   -0.14354E+07         0.14201E+06         0.00000E+00
    0.14201E+06         0.10027E+08         0.00000E+00
    0.00000E+00         0.00000E+00         0.00000E+00
 
   -0.13417E+07         0.23124E+06         0.00000E+00
    0.23124E+06         0.10029E+08         0.00000E+00
    0.00000E+00         0.00000E+00         0.00000E+00
 
   -0.12504E+07         0.31794E+06         0.00000E+00
    0.31794E+06         0.10032E+08         0.00000E+00
    0.00000E+00         0.00000E+00         0.00000E+00
 
   -0.11616E+07         0.40227E+06         0.00000E+00
    0.40227E+06         0.10035E+08         0.00000E+00
    0.00000E+00         0.00000E+00         0.00000E+00
 
   -0.10753E+07         0.48440E+06         0.00000E+00
    0.48440E+06         0.10040E+08         0.00000E+00
    0.00000E+00         0.00000E+00         0.00000E+00
 
   -0.99153E+06         0.56450E+06         0.00000E+00
    0.56450E+06         0.10046E+08         0.00000E+00
    0.00000E+00         0.00000E+00         0.00000E+00
 
   -0.91042E+06         0.64272E+06         0.00000E+00
    0.64272E+06         0.10053E+08         0.00000E+00
    0.00000E+00         0.00000E+00         0.00000E+00
 
   -0.83195E+06         0.71921E+06         0.00000E+00
    0.71921E+06         0.10060E+08         0.00000E+00
    0.00000E+00         0.00000E+00         0.00000E+00
 
   -0.75616E+06         0.79411E+06         0.00000E+00
    0.79411E+06         0.10069E+08         0.00000E+00
    0.00000E+00         0.00000E+00         0.00000E+00
 
   -0.68306E+06         0.86758E+06         0.00000E+00
    0.86758E+06         0.10079E+08         0.00000E+00
    0.00000E+00         0.00000E+00         0.00000E+00
 
   -0.61268E+06         0.93973E+06         0.00000E+00
    0.93973E+06         0.10090E+08         0.00000E+00
    0.00000E+00         0.00000E+00         0.00000E+00
 
   -0.54502E+06         0.10107E+07         0.00000E+00
    0.10107E+07         0.10102E+08         0.00000E+00
    0.00000E+00         0.00000E+00         0.00000E+00
 
   -0.48010E+06         0.10807E+07         0.00000E+00
    0.10807E+07         0.10115E+08         0.00000E+00
    0.00000E+00         0.00000E+00         0.00000E+00
 
   -0.41792E+06         0.11497E+07         0.00000E+00
    0.11497E+07         0.10129E+08         0.00000E+00
    0.00000E+00         0.00000E+00         0.00000E+00
 
   -0.35848E+06         0.12179E+07         0.00000E+00
    0.12179E+07         0.10144E+08         0.00000E+00
    0.00000E+00         0.00000E+00         0.00000E+00
 
   -0.30177E+06         0.12855E+07         0.00000E+00
    0.12855E+07         0.10160E+08         0.00000E+00
    0.00000E+00         0.00000E+00         0.00000E+00
 
   -0.24779E+06         0.13524E+07         0.00000E+00
    0.13524E+07         0.10177E+08         0.00000E+00
    0.00000E+00         0.00000E+00         0.00000E+00
 
   -0.19653E+06         0.14189E+07         0.00000E+00
    0.14189E+07         0.10195E+08         0.00000E+00
    0.00000E+00         0.00000E+00         0.00000E+00
 
   -0.14796E+06         0.14851E+07         0.00000E+00
    0.14851E+07         0.10214E+08         0.00000E+00
    0.00000E+00         0.00000E+00         0.00000E+00
 
   -0.10208E+06         0.15510E+07         0.00000E+00
    0.15510E+07         0.10233E+08         0.00000E+00
    0.00000E+00         0.00000E+00         0.00000E+00
 
   -0.58869E+05         0.16167E+07         0.00000E+00
    0.16167E+07         0.10254E+08         0.00000E+00
    0.00000E+00         0.00000E+00         0.00000E+00
 
   -0.18302E+05         0.16824E+07         0.00000E+00
    0.16824E+07         0.10275E+08         0.00000E+00
    0.00000E+00         0.00000E+00         0.00000E+00
 
    0.19641E+05         0.17481E+07         0.00000E+00
    0.17481E+07         0.10297E+08         0.00000E+00
    0.00000E+00         0.00000E+00         0.00000E+00
 
    0.54981E+05         0.18138E+07         0.00000E+00
    0.18138E+07         0.10320E+08         0.00000E+00
    0.00000E+00         0.00000E+00         0.00000E+00
 
    0.87739E+05         0.18798E+07         0.00000E+00
    0.18798E+07         0.10344E+08         0.00000E+00
    0.00000E+00         0.00000E+00         0.00000E+00
 
    0.11794E+06         0.19460E+07         0.00000E+00
    0.19460E+07         0.10368E+08         0.00000E+00
    0.00000E+00         0.00000E+00         0.00000E+00
 
    0.14559E+06         0.20125E+07         0.00000E+00
    0.20125E+07         0.10393E+08         0.00000E+00
    0.00000E+00         0.00000E+00         0.00000E+00
 
    0.17073E+06         0.20794E+07         0.00000E+00
    0.20794E+07         0.10418E+08         0.00000E+00
    0.00000E+00         0.00000E+00         0.00000E+00
 
    0.19335E+06         0.21467E+07         0.00000E+00
    0.21467E+07         0.10444E+08         0.00000E+00
    0.00000E+00         0.00000E+00         0.00000E+00
 
    0.21347E+06         0.22146E+07         0.00000E+00
    0.22146E+07         0.10470E+08         0.00000E+00
    0.00000E+00         0.00000E+00         0.00000E+00
 
    0.23109E+06         0.22829E+07         0.00000E+00
    0.22829E+07         0.10496E+08         0.00000E+00
    0.00000E+00         0.00000E+00         0.00000E+00
 
    0.24622E+06         0.23519E+07         0.00000E+00
    0.23519E+07         0.10523E+08         0.00000E+00
    0.00000E+00         0.00000E+00         0.00000E+00
 
    0.25882E+06         0.24214E+07         0.00000E+00
    0.24214E+07         0.10550E+08         0.00000E+00
    0.00000E+00         0.00000E+00         0.00000E+00
 
    0.26890E+06         0.24917E+07         0.00000E+00
    0.24917E+07         0.10577E+08         0.00000E+00
    0.00000E+00         0.00000E+00         0.00000E+00
 
    0.27640E+06         0.25626E+07         0.00000E+00
    0.25626E+07         0.10605E+08         0.00000E+00
    0.00000E+00         0.00000E+00         0.00000E+00
 
    0.28127E+06         0.26342E+07         0.00000E+00
    0.26342E+07         0.10632E+08         0.00000E+00
    0.00000E+00         0.00000E+00         0.00000E+00
 
    0.28345E+06         0.27066E+07         0.00000E+00
    0.27066E+07         0.10659E+08         0.00000E+00
    0.00000E+00         0.00000E+00         0.00000E+00
 
    0.28286E+06         0.27796E+07         0.00000E+00
    0.27796E+07         0.10686E+08         0.00000E+00
    0.00000E+00         0.00000E+00         0.00000E+00
 
    0.27936E+06         0.28534E+07         0.00000E+00
    0.28534E+07         0.10713E+08         0.00000E+00
    0.00000E+00         0.00000E+00         0.00000E+00
 
    0.27277E+06         0.29279E+07         0.00000E+00
    0.29279E+07         0.10740E+08         0.00000E+00
    0.00000E+00         0.00000E+00         0.00000E+00
 
    0.26286E+06         0.30030E+07         0.00000E+00
    0.30030E+07         0.10766E+08         0.00000E+00
    0.00000E+00         0.00000E+00         0.00000E+00
 
    0.24930E+06         0.30789E+07         0.00000E+00
    0.30789E+07         0.10792E+08         0.00000E+00
    0.00000E+00         0.00000E+00         0.00000E+00
 
    0.23185E+06         0.31557E+07         0.00000E+00
    0.31557E+07         0.10818E+08         0.00000E+00
    0.00000E+00         0.00000E+00         0.00000E+00
 
    0.21023E+06         0.32333E+07         0.00000E+00
    0.32333E+07         0.10843E+08         0.00000E+00
    0.00000E+00         0.00000E+00         0.00000E+00
 
    0.18418E+06         0.33121E+07         0.00000E+00
    0.33121E+07         0.10869E+08         0.00000E+00
    0.00000E+00         0.00000E+00         0.00000E+00
 
    0.15324E+06         0.33916E+07         0.00000E+00
    0.33916E+07         0.10893E+08         0.00000E+00
    0.00000E+00         0.00000E+00         0.00000E+00
 
    0.11615E+06         0.34716E+07         0.00000E+00
    0.34716E+07         0.10917E+08         0.00000E+00
    0.00000E+00         0.00000E+00         0.00000E+00
 
    0.72114E+05         0.35543E+07         0.00000E+00
    0.35543E+07         0.10946E+08         0.00000E+00
    0.00000E+00         0.00000E+00         0.00000E+00
 
    0.24172E+05         0.36457E+07         0.00000E+00
    0.36457E+07         0.10980E+08         0.00000E+00
    0.00000E+00         0.00000E+00         0.00000E+00
 
   -0.15177E+07         0.51560E+05         0.00000E+00
    0.51560E+05         0.95635E+07         0.00000E+00
    0.00000E+00         0.00000E+00         0.00000E+00
 
   -0.14351E+07         0.14717E+06         0.00000E+00
    0.14717E+06         0.95639E+07         0.00000E+00
    0.00000E+00         0.00000E+00         0.00000E+00
 
   -0.13541E+07         0.24026E+06         0.00000E+00
    0.24026E+06         0.95648E+07         0.00000E+00
    0.00000E+00         0.00000E+00         0.00000E+00
 
   -0.12746E+07         0.33099E+06         0.00000E+00
    0.33099E+06         0.95663E+07         0.00000E+00
    0.00000E+00         0.00000E+00         0.00000E+00
 
   -0.11968E+07         0.41950E+06         0.00000E+00
    0.41950E+06         0.95683E+07         0.00000E+00
    0.00000E+00         0.00000E+00         0.00000E+00
 
   -0.11208E+07         0.50593E+06         0.00000E+00
    0.50593E+06         0.95710E+07         0.00000E+00
    0.00000E+00         0.00000E+00         0.00000E+00
 
   -0.10466E+07         0.59043E+06         0.00000E+00
    0.59043E+06         0.95743E+07         0.00000E+00
    0.00000E+00         0.00000E+00         0.00000E+00
 
   -0.97428E+06         0.67311E+06         0.00000E+00
    0.67311E+06         0.95782E+07         0.00000E+00
    0.00000E+00         0.00000E+00         0.00000E+00
 
   -0.90392E+06         0.75412E+06         0.00000E+00
    0.75412E+06         0.95829E+07         0.00000E+00
    0.00000E+00         0.00000E+00         0.00000E+00
 
   -0.83555E+06         0.83358E+06         0.00000E+00
    0.83358E+06         0.95883E+07         0.00000E+00
    0.00000E+00         0.00000E+00         0.00000E+00
 
   -0.76922E+06         0.91160E+06         0.00000E+00
    0.91160E+06         0.95944E+07         0.00000E+00
    0.00000E+00         0.00000E+00         0.00000E+00
 
   -0.70498E+06         0.98832E+06         0.00000E+00
    0.98832E+06         0.96012E+07         0.00000E+00
    0.00000E+00         0.00000E+00         0.00000E+00
 
   -0.64284E+06         0.10638E+07         0.00000E+00
    0.10638E+07         0.96087E+07         0.00000E+00
    0.00000E+00         0.00000E+00         0.00000E+00
 
   -0.58285E+06         0.11382E+07         0.00000E+00
    0.11382E+07         0.96170E+07         0.00000E+00
    0.00000E+00         0.00000E+00         0.00000E+00
 
   -0.52501E+06         0.12117E+07         0.00000E+00
    0.12117E+07         0.96260E+07         0.00000E+00
    0.00000E+00         0.00000E+00         0.00000E+00
 
   -0.46936E+06         0.12842E+07         0.00000E+00
    0.12842E+07         0.96356E+07         0.00000E+00
    0.00000E+00         0.00000E+00         0.00000E+00
 
   -0.41591E+06         0.13560E+07         0.00000E+00
    0.13560E+07         0.96460E+07         0.00000E+00
    0.00000E+00         0.00000E+00         0.00000E+00
 
   -0.36466E+06         0.14271E+07         0.00000E+00
    0.14271E+07         0.96571E+07         0.00000E+00
    0.00000E+00         0.00000E+00         0.00000E+00
 
   -0.31563E+06         0.14976E+07         0.00000E+00
    0.14976E+07         0.96688E+07         0.00000E+00
    0.00000E+00         0.00000E+00         0.00000E+00
 
   -0.26883E+06         0.15676E+07         0.00000E+00
    0.15676E+07         0.96811E+07         0.00000E+00
    0.00000E+00         0.00000E+00         0.00000E+00
 
   -0.22425E+06         0.16372E+07         0.00000E+00
    0.16372E+07         0.96940E+07         0.00000E+00
    0.00000E+00         0.00000E+00         0.00000E+00
 
   -0.18190E+06         0.17064E+07         0.00000E+00
    0.17064E+07         0.97076E+07         0.00000E+00
    0.00000E+00         0.00000E+00         0.00000E+00
 
   -0.14178E+06         0.17754E+07         0.00000E+00
    0.17754E+07         0.97217E+07         0.00000E+00
    0.00000E+00         0.00000E+00         0.00000E+00
 
   -0.10388E+06         0.18442E+07         0.00000E+00
    0.18442E+07         0.97362E+07         0.00000E+00
    0.00000E+00         0.00000E+00         0.00000E+00
 
   -0.68219E+05         0.19129E+07         0.00000E+00
    0.19129E+07         0.97513E+07         0.00000E+00
    0.00000E+00         0.00000E+00         0.00000E+00
 
   -0.34781E+05         0.19815E+07         0.00000E+00
    0.19815E+07         0.97669E+07         0.00000E+00
    0.00000E+00         0.00000E+00         0.00000E+00
 
   -0.35705E+04         0.20501E+07         0.00000E+00
    0.20501E+07         0.97828E+07         0.00000E+00
    0.00000E+00         0.00000E+00         0.00000E+00
 
    0.25410E+05         0.21188E+07         0.00000E+00
    0.21188E+07         0.97991E+07         0.00000E+00
    0.00000E+00         0.00000E+00         0.00000E+00
 
    0.52156E+05         0.21877E+07         0.00000E+00
    0.21877E+07         0.98157E+07         0.00000E+00
    0.00000E+00         0.00000E+00         0.00000E+00
 
    0.76659E+05         0.22567E+07         0.00000E+00
    0.22567E+07         0.98326E+07         0.00000E+00
    0.00000E+00         0.00000E+00         0.00000E+00
 
    0.98907E+05         0.23259E+07         0.00000E+00
    0.23259E+07         0.98498E+07         0.00000E+00
    0.00000E+00         0.00000E+00         0.00000E+00
 
    0.11888E+06         0.23954E+07         0.00000E+00
    0.23954E+07         0.98672E+07         0.00000E+00
    0.00000E+00         0.00000E+00         0.00000E+00
 
    0.13656E+06         0.24652E+07         0.00000E+00
    0.24652E+07         0.98847E+07         0.00000E+00
    0.00000E+00         0.00000E+00         0.00000E+00
 
    0.15191E+06         0.25353E+07         0.00000E+00
    0.25353E+07         0.99023E+07         0.00000E+00
    0.00000E+00         0.00000E+00         0.00000E+00
 
    0.16489E+06         0.26059E+07         0.00000E+00
    0.26059E+07         0.99201E+07         0.00000E+00
    0.00000E+00         0.00000E+00         0.00000E+00
 
    0.17545E+06         0.26768E+07         0.00000E+00
    0.26768E+07         0.99378E+07         0.00000E+00
    0.00000E+00         0.00000E+00         0.00000E+00
 
    0.18352E+06         0.27482E+07         0.00000E+00
    0.27482E+07         0.99556E+07         0.00000E+00
    0.00000E+00         0.00000E+00         0.00000E+00
 
    0.18904E+06         0.28201E+07         0.00000E+00
    0.28201E+07         0.99734E+07         0.00000E+00
    0.00000E+00         0.00000E+00         0.00000E+00
 
    0.19189E+06         0.28925E+07         0.00000E+00
    0.28925E+07         0.99912E+07         0.00000E+00
    0.00000E+00         0.00000E+00         0.00000E+00
 
    0.19198E+06         0.29655E+07         0.00000E+00
    0.29655E+07         0.10009E+08         0.00000E+00
    0.00000E+00         0.00000E+00         0.00000E+00
 
    0.18919E+06         0.30391E+07         0.00000E+00
    0.30391E+07         0.10027E+08         0.00000E+00
    0.00000E+00         0.00000E+00         0.00000E+00
 
    0.18338E+06         0.31135E+07         0.00000E+00
    0.31135E+07         0.10044E+08         0.00000E+00
    0.00000E+00         0.00000E+00         0.00000E+00
 
    0.17445E+06         0.31887E+07         0.00000E+00
    0.31887E+07         0.10062E+08         0.00000E+00
    0.00000E+00         0.00000E+00         0.00000E+00
 
    0.16223E+06         0.32649E+07         0.00000E+00
    0.32649E+07         0.10080E+08         0.00000E+00
    0.00000E+00         0.00000E+00         0.00000E+00
 
    0.14659E+06         0.33423E+07         0.00000E+00
    0.33423E+07         0.10098E+08         0.00000E+00
    0.00000E+00         0.00000E+00         0.00000E+00
 
    0.12742E+06         0.34211E+07         0.00000E+00
    0.34211E+07         0.10116E+08         0.00000E+00
    0.00000E+00         0.00000E+00         0.00000E+00
 
    0.10467E+06         0.35017E+07         0.00000E+00
    0.35017E+07         0.10135E+08         0.00000E+00
    0.00000E+00         0.00000E+00         0.00000E+00
 
    0.78644E+05         0.35846E+07         0.00000E+00
    0.35846E+07         0.10154E+08         0.00000E+00
    0.00000E+00         0.00000E+00         0.00000E+00
 
    0.49736E+05         0.36699E+07         0.00000E+00
    0.36699E+07         0.10172E+08         0.00000E+00
    0.00000E+00         0.00000E+00         0.00000E+00
 
    0.17300E+05         0.37561E+07         0.00000E+00
    0.37561E+07         0.10188E+08         0.00000E+00
    0.00000E+00         0.00000E+00         0.00000E+00
 
   -0.14810E+07         0.51968E+05         0.00000E+00
    0.51968E+05         0.91109E+07         0.00000E+00
    0.00000E+00         0.00000E+00         0.00000E+00
 
   -0.14107E+07         0.14927E+06         0.00000E+00
    0.14927E+06         0.91109E+07         0.00000E+00
    0.00000E+00         0.00000E+00         0.00000E+00
 
   -0.13412E+07         0.24432E+06         0.00000E+00
    0.24432E+06         0.91112E+07         0.00000E+00
    0.00000E+00         0.00000E+00         0.00000E+00
 
   -0.12727E+07         0.33723E+06         0.00000E+00
    0.33723E+06         0.91116E+07         0.00000E+00
    0.00000E+00         0.00000E+00         0.00000E+00
 
   -0.12051E+07         0.42813E+06         0.00000E+00
    0.42813E+06         0.91123E+07         0.00000E+00
    0.00000E+00         0.00000E+00         0.00000E+00
 
   -0.11387E+07         0.51712E+06         0.00000E+00
    0.51712E+06         0.91133E+07         0.00000E+00
    0.00000E+00         0.00000E+00         0.00000E+00
 
   -0.10735E+07         0.60432E+06         0.00000E+00
    0.60432E+06         0.91147E+07         0.00000E+00
    0.00000E+00         0.00000E+00         0.00000E+00
 
   -0.10096E+07         0.68982E+06         0.00000E+00
    0.68982E+06         0.91165E+07         0.00000E+00
    0.00000E+00         0.00000E+00         0.00000E+00
 
   -0.94699E+06         0.77374E+06         0.00000E+00
    0.77374E+06         0.91186E+07         0.00000E+00
    0.00000E+00         0.00000E+00         0.00000E+00
 
   -0.88585E+06         0.85618E+06         0.00000E+00
    0.85618E+06         0.91212E+07         0.00000E+00
    0.00000E+00         0.00000E+00         0.00000E+00
 
   -0.82619E+06         0.93724E+06         0.00000E+00
    0.93724E+06         0.91243E+07         0.00000E+00
    0.00000E+00         0.00000E+00         0.00000E+00
 
   -0.76808E+06         0.10170E+07         0.00000E+00
    0.10170E+07         0.91278E+07         0.00000E+00
    0.00000E+00         0.00000E+00         0.00000E+00
 
   -0.71156E+06         0.10956E+07         0.00000E+00
    0.10956E+07         0.91318E+07         0.00000E+00
    0.00000E+00         0.00000E+00         0.00000E+00
 
   -0.65668E+06         0.11731E+07         0.00000E+00
    0.11731E+07         0.91362E+07         0.00000E+00
    0.00000E+00         0.00000E+00         0.00000E+00
 
   -0.60347E+06         0.12495E+07         0.00000E+00
    0.12495E+07         0.91412E+07         0.00000E+00
    0.00000E+00         0.00000E+00         0.00000E+00
 
   -0.55197E+06         0.13251E+07         0.00000E+00
    0.13251E+07         0.91466E+07         0.00000E+00
    0.00000E+00         0.00000E+00         0.00000E+00
 
   -0.50221E+06         0.13998E+07         0.00000E+00
    0.13998E+07         0.91525E+07         0.00000E+00
    0.00000E+00         0.00000E+00         0.00000E+00
 
   -0.45422E+06         0.14737E+07         0.00000E+00
    0.14737E+07         0.91588E+07         0.00000E+00
    0.00000E+00         0.00000E+00         0.00000E+00
 
   -0.40802E+06         0.15470E+07         0.00000E+00
    0.15470E+07         0.91656E+07         0.00000E+00
    0.00000E+00         0.00000E+00         0.00000E+00
 
   -0.36364E+06         0.16196E+07         0.00000E+00
    0.16196E+07         0.91728E+07         0.00000E+00
    0.00000E+00         0.00000E+00         0.00000E+00
 
   -0.32110E+06         0.16918E+07         0.00000E+00
    0.16918E+07         0.91805E+07         0.00000E+00
    0.00000E+00         0.00000E+00         0.00000E+00
 
   -0.28040E+06         0.17634E+07         0.00000E+00
    0.17634E+07         0.91885E+07         0.00000E+00
    0.00000E+00         0.00000E+00         0.00000E+00
 
   -0.24158E+06         0.18347E+07         0.00000E+00
    0.18347E+07         0.91970E+07         0.00000E+00
    0.00000E+00         0.00000E+00         0.00000E+00
 
   -0.20465E+06         0.19056E+07         0.00000E+00
    0.19056E+07         0.92058E+07         0.00000E+00
    0.00000E+00         0.00000E+00         0.00000E+00
 
   -0.16962E+06         0.19762E+07         0.00000E+00
    0.19762E+07         0.92149E+07         0.00000E+00
    0.00000E+00         0.00000E+00         0.00000E+00
 
   -0.13650E+06         0.20467E+07         0.00000E+00
    0.20467E+07         0.92244E+07         0.00000E+00
    0.00000E+00         0.00000E+00         0.00000E+00
 
   -0.10532E+06         0.21170E+07         0.00000E+00
    0.21170E+07         0.92342E+07         0.00000E+00
    0.00000E+00         0.00000E+00         0.00000E+00
 
   -0.76087E+05         0.21871E+07         0.00000E+00
    0.21871E+07         0.92442E+07         0.00000E+00
    0.00000E+00         0.00000E+00         0.00000E+00
 
   -0.48825E+05         0.22573E+07         0.00000E+00
    0.22573E+07         0.92545E+07         0.00000E+00
    0.00000E+00         0.00000E+00         0.00000E+00
 
   -0.23553E+05         0.23274E+07         0.00000E+00
    0.23274E+07         0.92650E+07         0.00000E+00
    0.00000E+00         0.00000E+00         0.00000E+00
 
   -0.29545E+03         0.23976E+07         0.00000E+00
    0.23976E+07         0.92758E+07         0.00000E+00
    0.00000E+00         0.00000E+00         0.00000E+00
 
    0.20922E+05         0.24679E+07         0.00000E+00
    0.24679E+07         0.92867E+07         0.00000E+00
    0.00000E+00         0.00000E+00         0.00000E+00
 
    0.40068E+05         0.25384E+07         0.00000E+00
    0.25384E+07         0.92977E+07         0.00000E+00
    0.00000E+00         0.00000E+00         0.00000E+00
 
    0.57108E+05         0.26090E+07         0.00000E+00
    0.26090E+07         0.93090E+07         0.00000E+00
    0.00000E+00         0.00000E+00         0.00000E+00
 
    0.72006E+05         0.26799E+07         0.00000E+00
    0.26799E+07         0.93203E+07         0.00000E+00
    0.00000E+00         0.00000E+00         0.00000E+00
 
    0.84717E+05         0.27512E+07         0.00000E+00
    0.27512E+07         0.93317E+07         0.00000E+00
    0.00000E+00         0.00000E+00         0.00000E+00
 
    0.95195E+05         0.28228E+07         0.00000E+00
    0.28228E+07         0.93433E+07         0.00000E+00
    0.00000E+00         0.00000E+00         0.00000E+00
 
    0.10339E+06         0.28948E+07         0.00000E+00
    0.28948E+07         0.93550E+07         0.00000E+00
    0.00000E+00         0.00000E+00         0.00000E+00
 
    0.10925E+06         0.29673E+07         0.00000E+00
    0.29673E+07         0.93667E+07         0.00000E+00
    0.00000E+00         0.00000E+00         0.00000E+00
 
    0.11273E+06         0.30405E+07         0.00000E+00
    0.30405E+07         0.93786E+07         0.00000E+00
    0.00000E+00         0.00000E+00         0.00000E+00
 
    0.11377E+06         0.31143E+07         0.00000E+00
    0.31143E+07         0.93906E+07         0.00000E+00
    0.00000E+00         0.00000E+00         0.00000E+00
 
    0.11234E+06         0.31889E+07         0.00000E+00
    0.31889E+07         0.94026E+07         0.00000E+00
    0.00000E+00         0.00000E+00         0.00000E+00
 
    0.10839E+06         0.32644E+07         0.00000E+00
    0.32644E+07         0.94148E+07         0.00000E+00
    0.00000E+00         0.00000E+00         0.00000E+00
 
    0.10191E+06         0.33410E+07         0.00000E+00
    0.33410E+07         0.94270E+07         0.00000E+00
    0.00000E+00         0.00000E+00         0.00000E+00
 
    0.92906E+05         0.34188E+07         0.00000E+00
    0.34188E+07         0.94393E+07         0.00000E+00
    0.00000E+00         0.00000E+00         0.00000E+00
 
    0.81400E+05         0.34979E+07         0.00000E+00
    0.34979E+07         0.94517E+07         0.00000E+00
    0.00000E+00         0.00000E+00         0.00000E+00
 
    0.67447E+05         0.35785E+07         0.00000E+00
    0.35785E+07         0.94640E+07         0.00000E+00
    0.00000E+00         0.00000E+00         0.00000E+00
 
    0.51036E+05         0.36606E+07         0.00000E+00
    0.36606E+07         0.94761E+07         0.00000E+00
    0.00000E+00         0.00000E+00         0.00000E+00
 
    0.32135E+05         0.37444E+07         0.00000E+00
    0.37444E+07         0.94883E+07         0.00000E+00
    0.00000E+00         0.00000E+00         0.00000E+00
 
    0.11030E+05         0.38306E+07         0.00000E+00
    0.38306E+07         0.95007E+07         0.00000E+00
    0.00000E+00         0.00000E+00         0.00000E+00
 
   -0.14305E+07         0.51570E+05         0.00000E+00
    0.51570E+05         0.86684E+07         0.00000E+00
    0.00000E+00         0.00000E+00         0.00000E+00
 
   -0.13710E+07         0.14904E+06         0.00000E+00
    0.14904E+06         0.86682E+07         0.00000E+00
    0.00000E+00         0.00000E+00         0.00000E+00
 
   -0.13117E+07         0.24456E+06         0.00000E+00
    0.24456E+06         0.86680E+07         0.00000E+00
    0.00000E+00         0.00000E+00         0.00000E+00
 
   -0.12529E+07         0.33821E+06         0.00000E+00
    0.33821E+06         0.86677E+07         0.00000E+00
    0.00000E+00         0.00000E+00         0.00000E+00
 
   -0.11946E+07         0.43008E+06         0.00000E+00
    0.43008E+06         0.86674E+07         0.00000E+00
    0.00000E+00         0.00000E+00         0.00000E+00
 
   -0.11369E+07         0.52025E+06         0.00000E+00
    0.52025E+06         0.86672E+07         0.00000E+00
    0.00000E+00         0.00000E+00         0.00000E+00
 
   -0.10799E+07         0.60879E+06         0.00000E+00
    0.60879E+06         0.86672E+07         0.00000E+00
    0.00000E+00         0.00000E+00         0.00000E+00
 
   -0.10237E+07         0.69581E+06         0.00000E+00
    0.69581E+06         0.86673E+07         0.00000E+00
    0.00000E+00         0.00000E+00         0.00000E+00
 
   -0.96845E+06         0.78136E+06         0.00000E+00
    0.78136E+06         0.86676E+07         0.00000E+00
    0.00000E+00         0.00000E+00         0.00000E+00
 
   -0.91415E+06         0.86554E+06         0.00000E+00
    0.86554E+06         0.86681E+07         0.00000E+00
    0.00000E+00         0.00000E+00         0.00000E+00
 
   -0.86088E+06         0.94843E+06         0.00000E+00
    0.94843E+06         0.86689E+07         0.00000E+00
    0.00000E+00         0.00000E+00         0.00000E+00
 
   -0.80872E+06         0.10301E+07         0.00000E+00
    0.10301E+07         0.86699E+07         0.00000E+00
    0.00000E+00         0.00000E+00         0.00000E+00
 
   -0.75773E+06         0.11106E+07         0.00000E+00
    0.11106E+07         0.86712E+07         0.00000E+00
    0.00000E+00         0.00000E+00         0.00000E+00
 
   -0.70796E+06         0.11901E+07         0.00000E+00
    0.11901E+07         0.86728E+07         0.00000E+00
    0.00000E+00         0.00000E+00         0.00000E+00
 
   -0.65946E+06         0.12685E+07         0.00000E+00
    0.12685E+07         0.86747E+07         0.00000E+00
    0.00000E+00         0.00000E+00         0.00000E+00
 
   -0.61227E+06         0.13460E+07         0.00000E+00
    0.13460E+07         0.86768E+07         0.00000E+00
    0.00000E+00         0.00000E+00         0.00000E+00
 
   -0.56644E+06         0.14227E+07         0.00000E+00
    0.14227E+07         0.86793E+07         0.00000E+00
    0.00000E+00         0.00000E+00         0.00000E+00
 
   -0.52201E+06         0.14986E+07         0.00000E+00
    0.14986E+07         0.86821E+07         0.00000E+00
    0.00000E+00         0.00000E+00         0.00000E+00
 
   -0.47901E+06         0.15737E+07         0.00000E+00
    0.15737E+07         0.86853E+07         0.00000E+00
    0.00000E+00         0.00000E+00         0.00000E+00
 
   -0.43748E+06         0.16482E+07         0.00000E+00
    0.16482E+07         0.86887E+07         0.00000E+00
    0.00000E+00         0.00000E+00         0.00000E+00
 
   -0.39745E+06         0.17221E+07         0.00000E+00
    0.17221E+07         0.86924E+07         0.00000E+00
    0.00000E+00         0.00000E+00         0.00000E+00
 
   -0.35895E+06         0.17955E+07         0.00000E+00
    0.17955E+07         0.86964E+07         0.00000E+00
    0.00000E+00         0.00000E+00         0.00000E+00
 
   -0.32200E+06         0.18684E+07         0.00000E+00
    0.18684E+07         0.87007E+07         0.00000E+00
    0.00000E+00         0.00000E+00         0.00000E+00
 
   -0.28663E+06         0.19408E+07         0.00000E+00
    0.19408E+07         0.87052E+07         0.00000E+00
    0.00000E+00         0.00000E+00         0.00000E+00
 
   -0.25287E+06         0.20129E+07         0.00000E+00
    0.20129E+07         0.87100E+07         0.00000E+00
    0.00000E+00         0.00000E+00         0.00000E+00
 
   -0.22074E+06         0.20847E+07         0.00000E+00
    0.20847E+07         0.87151E+07         0.00000E+00
    0.00000E+00         0.00000E+00         0.00000E+00
 
   -0.19026E+06         0.21563E+07         0.00000E+00
    0.21563E+07         0.87204E+07         0.00000E+00
    0.00000E+00         0.00000E+00         0.00000E+00
 
   -0.16147E+06         0.22277E+07         0.00000E+00
    0.22277E+07         0.87259E+07         0.00000E+00
    0.00000E+00         0.00000E+00         0.00000E+00
 
   -0.13437E+06         0.22989E+07         0.00000E+00
    0.22989E+07         0.87317E+07         0.00000E+00
    0.00000E+00         0.00000E+00         0.00000E+00
 
   -0.10900E+06         0.23700E+07         0.00000E+00
    0.23700E+07         0.87376E+07         0.00000E+00
    0.00000E+00         0.00000E+00         0.00000E+00
 
   -0.85383E+05         0.24411E+07         0.00000E+00
    0.24411E+07         0.87438E+07         0.00000E+00
    0.00000E+00         0.00000E+00         0.00000E+00
 
   -0.63541E+05         0.25122E+07         0.00000E+00
    0.25122E+07         0.87501E+07         0.00000E+00
    0.00000E+00         0.00000E+00         0.00000E+00
 
   -0.43500E+05         0.25834E+07         0.00000E+00
    0.25834E+07         0.87566E+07         0.00000E+00
    0.00000E+00         0.00000E+00         0.00000E+00
 
   -0.25286E+05         0.26548E+07         0.00000E+00
    0.26548E+07         0.87633E+07         0.00000E+00
    0.00000E+00         0.00000E+00         0.00000E+00
 
   -0.89259E+04         0.27263E+07         0.00000E+00
    0.27263E+07         0.87701E+07         0.00000E+00
    0.00000E+00         0.00000E+00         0.00000E+00
 
    0.55568E+04         0.27981E+07         0.00000E+00
    0.27981E+07         0.87770E+07         0.00000E+00
    0.00000E+00         0.00000E+00         0.00000E+00
 
    0.18138E+05         0.28702E+07         0.00000E+00
    0.28702E+07         0.87841E+07         0.00000E+00
    0.00000E+00         0.00000E+00         0.00000E+00
 
    0.28795E+05         0.29428E+07         0.00000E+00
    0.29428E+07         0.87913E+07         0.00000E+00
    0.00000E+00         0.00000E+00         0.00000E+00
 
    0.37510E+05         0.30158E+07         0.00000E+00
    0.30158E+07         0.87987E+07         0.00000E+00
    0.00000E+00         0.00000E+00         0.00000E+00
 
    0.44268E+05         0.30893E+07         0.00000E+00
    0.30893E+07         0.88061E+07         0.00000E+00
    0.00000E+00         0.00000E+00         0.00000E+00
 
    0.49059E+05         0.31636E+07         0.00000E+00
    0.31636E+07         0.88136E+07         0.00000E+00
    0.00000E+00         0.00000E+00         0.00000E+00
 
    0.51881E+05         0.32385E+07         0.00000E+00
    0.32385E+07         0.88212E+07         0.00000E+00
    0.00000E+00         0.00000E+00         0.00000E+00
 
    0.52741E+05         0.33143E+07         0.00000E+00
    0.33143E+07         0.88289E+07         0.00000E+00
    0.00000E+00         0.00000E+00         0.00000E+00
 
    0.51651E+05         0.33910E+07         0.00000E+00
    0.33910E+07         0.88366E+07         0.00000E+00
    0.00000E+00         0.00000E+00         0.00000E+00
 
    0.48636E+05         0.34688E+07         0.00000E+00
    0.34688E+07         0.88444E+07         0.00000E+00
    0.00000E+00         0.00000E+00         0.00000E+00
 
    0.43726E+05         0.35477E+07         0.00000E+00
    0.35477E+07         0.88520E+07         0.00000E+00
    0.00000E+00         0.00000E+00         0.00000E+00
 
    0.36960E+05         0.36279E+07         0.00000E+00
    0.36279E+07         0.88597E+07         0.00000E+00
    0.00000E+00         0.00000E+00         0.00000E+00
 
    0.28411E+05         0.37095E+07         0.00000E+00
    0.37095E+07         0.88672E+07         0.00000E+00
    0.00000E+00         0.00000E+00         0.00000E+00
 
    0.18187E+05         0.37926E+07         0.00000E+00
    0.37926E+07         0.88745E+07         0.00000E+00
    0.00000E+00         0.00000E+00         0.00000E+00
 
    0.63361E+04         0.38772E+07         0.00000E+00
    0.38772E+07         0.88815E+07         0.00000E+00
    0.00000E+00         0.00000E+00         0.00000E+00
 
   -0.13728E+07         0.50642E+05         0.00000E+00
    0.50642E+05         0.82360E+07         0.00000E+00
    0.00000E+00         0.00000E+00         0.00000E+00
 
   -0.13225E+07         0.14721E+06         0.00000E+00
    0.14721E+06         0.82356E+07         0.00000E+00
    0.00000E+00         0.00000E+00         0.00000E+00
 
   -0.12720E+07         0.24213E+06         0.00000E+00
    0.24213E+06         0.82350E+07         0.00000E+00
    0.00000E+00         0.00000E+00         0.00000E+00
 
   -0.12216E+07         0.33546E+06         0.00000E+00
    0.33546E+06         0.82343E+07         0.00000E+00
    0.00000E+00         0.00000E+00         0.00000E+00
 
   -0.11714E+07         0.42725E+06         0.00000E+00
    0.42725E+06         0.82333E+07         0.00000E+00
    0.00000E+00         0.00000E+00         0.00000E+00
 
   -0.11214E+07         0.51757E+06         0.00000E+00
    0.51757E+06         0.82324E+07         0.00000E+00
    0.00000E+00         0.00000E+00         0.00000E+00
 
   -0.10718E+07         0.60646E+06         0.00000E+00
    0.60646E+06         0.82313E+07         0.00000E+00
    0.00000E+00         0.00000E+00         0.00000E+00
 
   -0.10226E+07         0.69398E+06         0.00000E+00
    0.69398E+06         0.82303E+07         0.00000E+00
    0.00000E+00         0.00000E+00         0.00000E+00
 
   -0.97401E+06         0.78021E+06         0.00000E+00
    0.78021E+06         0.82293E+07         0.00000E+00
    0.00000E+00         0.00000E+00         0.00000E+00
 
   -0.92600E+06         0.86519E+06         0.00000E+00
    0.86519E+06         0.82284E+07         0.00000E+00
    0.00000E+00         0.00000E+00         0.00000E+00
 
   -0.87868E+06         0.94899E+06         0.00000E+00
    0.94899E+06         0.82275E+07         0.00000E+00
    0.00000E+00         0.00000E+00         0.00000E+00
 
   -0.83213E+06         0.10317E+07         0.00000E+00
    0.10317E+07         0.82268E+07         0.00000E+00
    0.00000E+00         0.00000E+00         0.00000E+00
 
   -0.78639E+06         0.11133E+07         0.00000E+00
    0.11133E+07         0.82262E+07         0.00000E+00
    0.00000E+00         0.00000E+00         0.00000E+00
 
   -0.74155E+06         0.11939E+07         0.00000E+00
    0.11939E+07         0.82258E+07         0.00000E+00
    0.00000E+00         0.00000E+00         0.00000E+00
 
   -0.69764E+06         0.12735E+07         0.00000E+00
    0.12735E+07         0.82255E+07         0.00000E+00
    0.00000E+00         0.00000E+00         0.00000E+00
 
   -0.65472E+06         0.13523E+07         0.00000E+00
    0.13523E+07         0.82254E+07         0.00000E+00
    0.00000E+00         0.00000E+00         0.00000E+00
 
   -0.61285E+06         0.14302E+07         0.00000E+00
    0.14302E+07         0.82255E+07         0.00000E+00
    0.00000E+00         0.00000E+00         0.00000E+00
 
   -0.57206E+06         0.15073E+07         0.00000E+00
    0.15073E+07         0.82257E+07         0.00000E+00
    0.00000E+00         0.00000E+00         0.00000E+00
 
   -0.53240E+06         0.15838E+07         0.00000E+00
    0.15838E+07         0.82262E+07         0.00000E+00
    0.00000E+00         0.00000E+00         0.00000E+00
 
   -0.49391E+06         0.16595E+07         0.00000E+00
    0.16595E+07         0.82269E+07         0.00000E+00
    0.00000E+00         0.00000E+00         0.00000E+00
 
   -0.45662E+06         0.17347E+07         0.00000E+00
    0.17347E+07         0.82278E+07         0.00000E+00
    0.00000E+00         0.00000E+00         0.00000E+00
 
   -0.42057E+06         0.18093E+07         0.00000E+00
    0.18093E+07         0.82289E+07         0.00000E+00
    0.00000E+00         0.00000E+00         0.00000E+00
 
   -0.38579E+06         0.18834E+07         0.00000E+00
    0.18834E+07         0.82302E+07         0.00000E+00
    0.00000E+00         0.00000E+00         0.00000E+00
 
   -0.35232E+06         0.19570E+07         0.00000E+00
    0.19570E+07         0.82317E+07         0.00000E+00
    0.00000E+00         0.00000E+00         0.00000E+00
 
   -0.32017E+06         0.20302E+07         0.00000E+00
    0.20302E+07         0.82334E+07         0.00000E+00
    0.00000E+00         0.00000E+00         0.00000E+00
 
   -0.28939E+06         0.21031E+07         0.00000E+00
    0.21031E+07         0.82353E+07         0.00000E+00
    0.00000E+00         0.00000E+00         0.00000E+00
 
   -0.25999E+06         0.21757E+07         0.00000E+00
    0.21757E+07         0.82374E+07         0.00000E+00
    0.00000E+00         0.00000E+00         0.00000E+00
 
   -0.23200E+06         0.22481E+07         0.00000E+00
    0.22481E+07         0.82397E+07         0.00000E+00
    0.00000E+00         0.00000E+00         0.00000E+00
 
   -0.20544E+06         0.23202E+07         0.00000E+00
    0.23202E+07         0.82422E+07         0.00000E+00
    0.00000E+00         0.00000E+00         0.00000E+00
 
   -0.18034E+06         0.23923E+07         0.00000E+00
    0.23923E+07         0.82448E+07         0.00000E+00
    0.00000E+00         0.00000E+00         0.00000E+00
 
   -0.15672E+06         0.24642E+07         0.00000E+00
    0.24642E+07         0.82477E+07         0.00000E+00
    0.00000E+00         0.00000E+00         0.00000E+00
 
   -0.13459E+06         0.25362E+07         0.00000E+00
    0.25362E+07         0.82506E+07         0.00000E+00
    0.00000E+00         0.00000E+00         0.00000E+00
 
   -0.11398E+06         0.26081E+07         0.00000E+00
    0.26081E+07         0.82538E+07         0.00000E+00
    0.00000E+00         0.00000E+00         0.00000E+00
 
   -0.94897E+05         0.26802E+07         0.00000E+00
    0.26802E+07         0.82571E+07         0.00000E+00
    0.00000E+00         0.00000E+00         0.00000E+00
 
   -0.77359E+05         0.27524E+07         0.00000E+00
    0.27524E+07         0.82605E+07         0.00000E+00
    0.00000E+00         0.00000E+00         0.00000E+00
 
   -0.61379E+05         0.28248E+07         0.00000E+00
    0.28248E+07         0.82640E+07         0.00000E+00
    0.00000E+00         0.00000E+00         0.00000E+00
 
   -0.46964E+05         0.28975E+07         0.00000E+00
    0.28975E+07         0.82677E+07         0.00000E+00
    0.00000E+00         0.00000E+00         0.00000E+00
 
   -0.34120E+05         0.29706E+07         0.00000E+00
    0.29706E+07         0.82715E+07         0.00000E+00
    0.00000E+00         0.00000E+00         0.00000E+00
 
   -0.22849E+05         0.30440E+07         0.00000E+00
    0.30440E+07         0.82754E+07         0.00000E+00
    0.00000E+00         0.00000E+00         0.00000E+00
 
   -0.13148E+05         0.31180E+07         0.00000E+00
    0.31180E+07         0.82793E+07         0.00000E+00
    0.00000E+00         0.00000E+00         0.00000E+00
 
   -0.50082E+04         0.31925E+07         0.00000E+00
    0.31925E+07         0.82834E+07         0.00000E+00
    0.00000E+00         0.00000E+00         0.00000E+00
 
    0.15835E+04         0.32677E+07         0.00000E+00
    0.32677E+07         0.82874E+07         0.00000E+00
    0.00000E+00         0.00000E+00         0.00000E+00
 
    0.66465E+04         0.33436E+07         0.00000E+00
    0.33436E+07         0.82915E+07         0.00000E+00
    0.00000E+00         0.00000E+00         0.00000E+00
 
    0.10207E+05         0.34202E+07         0.00000E+00
    0.34202E+07         0.82956E+07         0.00000E+00
    0.00000E+00         0.00000E+00         0.00000E+00
 
    0.12300E+05         0.34978E+07         0.00000E+00
    0.34978E+07         0.82996E+07         0.00000E+00
    0.00000E+00         0.00000E+00         0.00000E+00
 
    0.12967E+05         0.35763E+07         0.00000E+00
    0.35763E+07         0.83035E+07         0.00000E+00
    0.00000E+00         0.00000E+00         0.00000E+00
 
    0.12262E+05         0.36559E+07         0.00000E+00
    0.36559E+07         0.83073E+07         0.00000E+00
    0.00000E+00         0.00000E+00         0.00000E+00
 
    0.10240E+05         0.37366E+07         0.00000E+00
    0.37366E+07         0.83110E+07         0.00000E+00
    0.00000E+00         0.00000E+00         0.00000E+00
 
    0.69605E+04         0.38185E+07         0.00000E+00
    0.38185E+07         0.83144E+07         0.00000E+00
    0.00000E+00         0.00000E+00         0.00000E+00
 
    0.25066E+04         0.39017E+07         0.00000E+00
    0.39017E+07         0.83176E+07         0.00000E+00
    0.00000E+00         0.00000E+00         0.00000E+00
 
   -0.13125E+07         0.49414E+05         0.00000E+00
    0.49414E+05         0.78134E+07         0.00000E+00
    0.00000E+00         0.00000E+00         0.00000E+00
 
   -0.12697E+07         0.14440E+06         0.00000E+00
    0.14440E+06         0.78129E+07         0.00000E+00
    0.00000E+00         0.00000E+00         0.00000E+00
 
   -0.12267E+07         0.23803E+06         0.00000E+00
    0.23803E+06         0.78121E+07         0.00000E+00
    0.00000E+00         0.00000E+00         0.00000E+00
 
   -0.11834E+07         0.33032E+06         0.00000E+00
    0.33032E+06         0.78111E+07         0.00000E+00
    0.00000E+00         0.00000E+00         0.00000E+00
 
   -0.11401E+07         0.42132E+06         0.00000E+00
    0.42132E+06         0.78098E+07         0.00000E+00
    0.00000E+00         0.00000E+00         0.00000E+00
 
   -0.10968E+07         0.51106E+06         0.00000E+00
    0.51106E+06         0.78083E+07         0.00000E+00
    0.00000E+00         0.00000E+00         0.00000E+00
 
   -0.10536E+07         0.59958E+06         0.00000E+00
    0.59958E+06         0.78067E+07         0.00000E+00
    0.00000E+00         0.00000E+00         0.00000E+00
 
   -0.10107E+07         0.68691E+06         0.00000E+00
    0.68691E+06         0.78049E+07         0.00000E+00
    0.00000E+00         0.00000E+00         0.00000E+00
 
   -0.96795E+06         0.77310E+06         0.00000E+00
    0.77310E+06         0.78031E+07         0.00000E+00
    0.00000E+00         0.00000E+00         0.00000E+00
 
   -0.92559E+06         0.85820E+06         0.00000E+00
    0.85820E+06         0.78013E+07         0.00000E+00
    0.00000E+00         0.00000E+00         0.00000E+00
 
   -0.88366E+06         0.94224E+06         0.00000E+00
    0.94224E+06         0.77994E+07         0.00000E+00
    0.00000E+00         0.00000E+00         0.00000E+00
 
   -0.84223E+06         0.10253E+07         0.00000E+00
    0.10253E+07         0.77975E+07         0.00000E+00
    0.00000E+00         0.00000E+00         0.00000E+00
 
   -0.80136E+06         0.11073E+07         0.00000E+00
    0.11073E+07         0.77957E+07         0.00000E+00
    0.00000E+00         0.00000E+00         0.00000E+00
 
   -0.76110E+06         0.11885E+07         0.00000E+00
    0.11885E+07         0.77939E+07         0.00000E+00
    0.00000E+00         0.00000E+00         0.00000E+00
 
   -0.72153E+06         0.12687E+07         0.00000E+00
    0.12687E+07         0.77921E+07         0.00000E+00
    0.00000E+00         0.00000E+00         0.00000E+00
 
   -0.68268E+06         0.13482E+07         0.00000E+00
    0.13482E+07         0.77905E+07         0.00000E+00
    0.00000E+00         0.00000E+00         0.00000E+00
 
   -0.64461E+06         0.14268E+07         0.00000E+00
    0.14268E+07         0.77889E+07         0.00000E+00
    0.00000E+00         0.00000E+00         0.00000E+00
 
   -0.60737E+06         0.15048E+07         0.00000E+00
    0.15048E+07         0.77875E+07         0.00000E+00
    0.00000E+00         0.00000E+00         0.00000E+00
 
   -0.57099E+06         0.15820E+07         0.00000E+00
    0.15820E+07         0.77862E+07         0.00000E+00
    0.00000E+00         0.00000E+00         0.00000E+00
 
   -0.53553E+06         0.16586E+07         0.00000E+00
    0.16586E+07         0.77850E+07         0.00000E+00
    0.00000E+00         0.00000E+00         0.00000E+00
 
   -0.50102E+06         0.17346E+07         0.00000E+00
    0.17346E+07         0.77839E+07         0.00000E+00
    0.00000E+00         0.00000E+00         0.00000E+00
 
   -0.46749E+06         0.18100E+07         0.00000E+00
    0.18100E+07         0.77830E+07         0.00000E+00
    0.00000E+00         0.00000E+00         0.00000E+00
 
   -0.43498E+06         0.18850E+07         0.00000E+00
    0.18850E+07         0.77822E+07         0.00000E+00
    0.00000E+00         0.00000E+00         0.00000E+00
 
   -0.40352E+06         0.19595E+07         0.00000E+00
    0.19595E+07         0.77816E+07         0.00000E+00
    0.00000E+00         0.00000E+00         0.00000E+00
 
   -0.37313E+06         0.20336E+07         0.00000E+00
    0.20336E+07         0.77811E+07         0.00000E+00
    0.00000E+00         0.00000E+00         0.00000E+00
 
   -0.34386E+06         0.21073E+07         0.00000E+00
    0.21073E+07         0.77808E+07         0.00000E+00
    0.00000E+00         0.00000E+00         0.00000E+00
 
   -0.31571E+06         0.21807E+07         0.00000E+00
    0.21807E+07         0.77806E+07         0.00000E+00
    0.00000E+00         0.00000E+00         0.00000E+00
 
   -0.28872E+06         0.22539E+07         0.00000E+00
    0.22539E+07         0.77805E+07         0.00000E+00
    0.00000E+00         0.00000E+00         0.00000E+00
 
   -0.26291E+06         0.23268E+07         0.00000E+00
    0.23268E+07         0.77806E+07         0.00000E+00
    0.00000E+00         0.00000E+00         0.00000E+00
 
   -0.23829E+06         0.23996E+07         0.00000E+00
    0.23996E+07         0.77809E+07         0.00000E+00
    0.00000E+00         0.00000E+00         0.00000E+00
 
   -0.21488E+06         0.24723E+07         0.00000E+00
    0.24723E+07         0.77812E+07         0.00000E+00
    0.00000E+00         0.00000E+00         0.00000E+00
 
   -0.19270E+06         0.25450E+07         0.00000E+00
    0.25450E+07         0.77817E+07         0.00000E+00
    0.00000E+00         0.00000E+00         0.00000E+00
 
   -0.17175E+06         0.26176E+07         0.00000E+00
    0.26176E+07         0.77824E+07         0.00000E+00
    0.00000E+00         0.00000E+00         0.00000E+00
 
   -0.15206E+06         0.26903E+07         0.00000E+00
    0.26903E+07         0.77831E+07         0.00000E+00
    0.00000E+00         0.00000E+00         0.00000E+00
 
   -0.13361E+06         0.27630E+07         0.00000E+00
    0.27630E+07         0.77840E+07         0.00000E+00
    0.00000E+00         0.00000E+00         0.00000E+00
 
   -0.11643E+06         0.28360E+07         0.00000E+00
    0.28360E+07         0.77849E+07         0.00000E+00
    0.00000E+00         0.00000E+00         0.00000E+00
 
   -0.10050E+06         0.29092E+07         0.00000E+00
    0.29092E+07         0.77859E+07         0.00000E+00
    0.00000E+00         0.00000E+00         0.00000E+00
 
   -0.85829E+05         0.29826E+07         0.00000E+00
    0.29826E+07         0.77870E+07         0.00000E+00
    0.00000E+00         0.00000E+00         0.00000E+00
 
   -0.72407E+05         0.30564E+07         0.00000E+00
    0.30564E+07         0.77882E+07         0.00000E+00
    0.00000E+00         0.00000E+00         0.00000E+00
 
   -0.60223E+05         0.31306E+07         0.00000E+00
    0.31306E+07         0.77894E+07         0.00000E+00
    0.00000E+00         0.00000E+00         0.00000E+00
 
   -0.49261E+05         0.32052E+07         0.00000E+00
    0.32052E+07         0.77906E+07         0.00000E+00
    0.00000E+00         0.00000E+00         0.00000E+00
 
   -0.39502E+05         0.32804E+07         0.00000E+00
    0.32804E+07         0.77918E+07         0.00000E+00
    0.00000E+00         0.00000E+00         0.00000E+00
 
   -0.30920E+05         0.33562E+07         0.00000E+00
    0.33562E+07         0.77930E+07         0.00000E+00
    0.00000E+00         0.00000E+00         0.00000E+00
 
   -0.23485E+05         0.34326E+07         0.00000E+00
    0.34326E+07         0.77941E+07         0.00000E+00
    0.00000E+00         0.00000E+00         0.00000E+00
 
   -0.17161E+05         0.35098E+07         0.00000E+00
    0.35098E+07         0.77952E+07         0.00000E+00
    0.00000E+00         0.00000E+00         0.00000E+00
 
   -0.11907E+05         0.35877E+07         0.00000E+00
    0.35877E+07         0.77961E+07         0.00000E+00
    0.00000E+00         0.00000E+00         0.00000E+00
 
   -0.76752E+04         0.36665E+07         0.00000E+00
    0.36665E+07         0.77969E+07         0.00000E+00
    0.00000E+00         0.00000E+00         0.00000E+00
 
   -0.44135E+04         0.37462E+07         0.00000E+00
    0.37462E+07         0.77974E+07         0.00000E+00
    0.00000E+00         0.00000E+00         0.00000E+00
 
   -0.20599E+04         0.38269E+07         0.00000E+00
    0.38269E+07         0.77977E+07         0.00000E+00
    0.00000E+00         0.00000E+00         0.00000E+00
 
   -0.55089E+03         0.39086E+07         0.00000E+00
    0.39086E+07         0.77978E+07         0.00000E+00
    0.00000E+00         0.00000E+00         0.00000E+00
 
   -0.12522E+07         0.48058E+05         0.00000E+00
    0.48058E+05         0.74004E+07         0.00000E+00
    0.00000E+00         0.00000E+00         0.00000E+00
 
   -0.12156E+07         0.14109E+06         0.00000E+00
    0.14109E+06         0.73999E+07         0.00000E+00
    0.00000E+00         0.00000E+00         0.00000E+00
 
   -0.11787E+07         0.23302E+06         0.00000E+00
    0.23302E+06         0.73990E+07         0.00000E+00
    0.00000E+00         0.00000E+00         0.00000E+00
 
   -0.11414E+07         0.32385E+06         0.00000E+00
    0.32385E+06         0.73979E+07         0.00000E+00
    0.00000E+00         0.00000E+00         0.00000E+00
 
   -0.11039E+07         0.41361E+06         0.00000E+00
    0.41361E+06         0.73964E+07         0.00000E+00
    0.00000E+00         0.00000E+00         0.00000E+00
 
   -0.10663E+07         0.50230E+06         0.00000E+00
    0.50230E+06         0.73947E+07         0.00000E+00
    0.00000E+00         0.00000E+00         0.00000E+00
 
   -0.10286E+07         0.58997E+06         0.00000E+00
    0.58997E+06         0.73927E+07         0.00000E+00
    0.00000E+00         0.00000E+00         0.00000E+00
 
   -0.99095E+06         0.67662E+06         0.00000E+00
    0.67662E+06         0.73906E+07         0.00000E+00
    0.00000E+00         0.00000E+00         0.00000E+00
 
   -0.95340E+06         0.76230E+06         0.00000E+00
    0.76230E+06         0.73883E+07         0.00000E+00
    0.00000E+00         0.00000E+00         0.00000E+00
 
   -0.91601E+06         0.84702E+06         0.00000E+00
    0.84702E+06         0.73859E+07         0.00000E+00
    0.00000E+00         0.00000E+00         0.00000E+00
 
   -0.87885E+06         0.93083E+06         0.00000E+00
    0.93083E+06         0.73834E+07         0.00000E+00
    0.00000E+00         0.00000E+00         0.00000E+00
 
   -0.84200E+06         0.10137E+07         0.00000E+00
    0.10137E+07         0.73809E+07         0.00000E+00
    0.00000E+00         0.00000E+00         0.00000E+00
 
   -0.80550E+06         0.10958E+07         0.00000E+00
    0.10958E+07         0.73783E+07         0.00000E+00
    0.00000E+00         0.00000E+00         0.00000E+00
 
   -0.76942E+06         0.11770E+07         0.00000E+00
    0.11770E+07         0.73757E+07         0.00000E+00
    0.00000E+00         0.00000E+00         0.00000E+00
 
   -0.73381E+06         0.12575E+07         0.00000E+00
    0.12575E+07         0.73730E+07         0.00000E+00
    0.00000E+00         0.00000E+00         0.00000E+00
 
   -0.69872E+06         0.13372E+07         0.00000E+00
    0.13372E+07         0.73704E+07         0.00000E+00
    0.00000E+00         0.00000E+00         0.00000E+00
 
   -0.66419E+06         0.14162E+07         0.00000E+00
    0.14162E+07         0.73678E+07         0.00000E+00
    0.00000E+00         0.00000E+00         0.00000E+00
 
   -0.63028E+06         0.14945E+07         0.00000E+00
    0.14945E+07         0.73653E+07         0.00000E+00
    0.00000E+00         0.00000E+00         0.00000E+00
 
   -0.59701E+06         0.15721E+07         0.00000E+00
    0.15721E+07         0.73628E+07         0.00000E+00
    0.00000E+00         0.00000E+00         0.00000E+00
 
   -0.56445E+06         0.16492E+07         0.00000E+00
    0.16492E+07         0.73603E+07         0.00000E+00
    0.00000E+00         0.00000E+00         0.00000E+00
 
   -0.53261E+06         0.17257E+07         0.00000E+00
    0.17257E+07         0.73580E+07         0.00000E+00
    0.00000E+00         0.00000E+00         0.00000E+00
 
   -0.50154E+06         0.18017E+07         0.00000E+00
    0.18017E+07         0.73557E+07         0.00000E+00
    0.00000E+00         0.00000E+00         0.00000E+00
 
   -0.47126E+06         0.18772E+07         0.00000E+00
    0.18772E+07         0.73535E+07         0.00000E+00
    0.00000E+00         0.00000E+00         0.00000E+00
 
   -0.44181E+06         0.19523E+07         0.00000E+00
    0.19523E+07         0.73514E+07         0.00000E+00
    0.00000E+00         0.00000E+00         0.00000E+00
 
   -0.41321E+06         0.20270E+07         0.00000E+00
    0.20270E+07         0.73494E+07         0.00000E+00
    0.00000E+00         0.00000E+00         0.00000E+00
 
   -0.38549E+06         0.21013E+07         0.00000E+00
    0.21013E+07         0.73475E+07         0.00000E+00
    0.00000E+00         0.00000E+00         0.00000E+00
 
   -0.35868E+06         0.21754E+07         0.00000E+00
    0.21754E+07         0.73457E+07         0.00000E+00
    0.00000E+00         0.00000E+00         0.00000E+00
 
   -0.33278E+06         0.22491E+07         0.00000E+00
    0.22491E+07         0.73439E+07         0.00000E+00
    0.00000E+00         0.00000E+00         0.00000E+00
 
   -0.30783E+06         0.23227E+07         0.00000E+00
    0.23227E+07         0.73423E+07         0.00000E+00
    0.00000E+00         0.00000E+00         0.00000E+00
 
   -0.28383E+06         0.23960E+07         0.00000E+00
    0.23960E+07         0.73408E+07         0.00000E+00
    0.00000E+00         0.00000E+00         0.00000E+00
 
   -0.26079E+06         0.24693E+07         0.00000E+00
    0.24693E+07         0.73394E+07         0.00000E+00
    0.00000E+00         0.00000E+00         0.00000E+00
 
   -0.23874E+06         0.25424E+07         0.00000E+00
    0.25424E+07         0.73380E+07         0.00000E+00
    0.00000E+00         0.00000E+00         0.00000E+00
 
   -0.21768E+06         0.26155E+07         0.00000E+00
    0.26155E+07         0.73368E+07         0.00000E+00
    0.00000E+00         0.00000E+00         0.00000E+00
 
   -0.19761E+06         0.26887E+07         0.00000E+00
    0.26887E+07         0.73356E+07         0.00000E+00
    0.00000E+00         0.00000E+00         0.00000E+00
 
   -0.17853E+06         0.27619E+07         0.00000E+00
    0.27619E+07         0.73345E+07         0.00000E+00
    0.00000E+00         0.00000E+00         0.00000E+00
 
   -0.16045E+06         0.28352E+07         0.00000E+00
    0.28352E+07         0.73334E+07         0.00000E+00
    0.00000E+00         0.00000E+00         0.00000E+00
 
   -0.14336E+06         0.29086E+07         0.00000E+00
    0.29086E+07         0.73324E+07         0.00000E+00
    0.00000E+00         0.00000E+00         0.00000E+00
 
   -0.12725E+06         0.29823E+07         0.00000E+00
    0.29823E+07         0.73314E+07         0.00000E+00
    0.00000E+00         0.00000E+00         0.00000E+00
 
   -0.11212E+06         0.30562E+07         0.00000E+00
    0.30562E+07         0.73304E+07         0.00000E+00
    0.00000E+00         0.00000E+00         0.00000E+00
 
   -0.97942E+05         0.31304E+07         0.00000E+00
    0.31304E+07         0.73295E+07         0.00000E+00
    0.00000E+00         0.00000E+00         0.00000E+00
 
   -0.84708E+05         0.32050E+07         0.00000E+00
    0.32050E+07         0.73285E+07         0.00000E+00
    0.00000E+00         0.00000E+00         0.00000E+00
 
   -0.72394E+05         0.32801E+07         0.00000E+00
    0.32801E+07         0.73274E+07         0.00000E+00
    0.00000E+00         0.00000E+00         0.00000E+00
 
   -0.60973E+05         0.33556E+07         0.00000E+00
    0.33556E+07         0.73263E+07         0.00000E+00
    0.00000E+00         0.00000E+00         0.00000E+00
 
   -0.50416E+05         0.34316E+07         0.00000E+00
    0.34316E+07         0.73251E+07         0.00000E+00
    0.00000E+00         0.00000E+00         0.00000E+00
 
   -0.40689E+05         0.35081E+07         0.00000E+00
    0.35081E+07         0.73237E+07         0.00000E+00
    0.00000E+00         0.00000E+00         0.00000E+00
 
   -0.31752E+05         0.35853E+07         0.00000E+00
    0.35853E+07         0.73223E+07         0.00000E+00
    0.00000E+00         0.00000E+00         0.00000E+00
 
   -0.23563E+05         0.36632E+07         0.00000E+00
    0.36632E+07         0.73206E+07         0.00000E+00
    0.00000E+00         0.00000E+00         0.00000E+00
 
   -0.16073E+05         0.37418E+07         0.00000E+00
    0.37418E+07         0.73187E+07         0.00000E+00
    0.00000E+00         0.00000E+00         0.00000E+00
 
   -0.92327E+04         0.38212E+07         0.00000E+00
    0.38212E+07         0.73165E+07         0.00000E+00
    0.00000E+00         0.00000E+00         0.00000E+00
 
   -0.29839E+04         0.39014E+07         0.00000E+00
    0.39014E+07         0.73140E+07         0.00000E+00
    0.00000E+00         0.00000E+00         0.00000E+00
 
   -0.11933E+07         0.46691E+05         0.00000E+00
    0.46691E+05         0.69968E+07         0.00000E+00
    0.00000E+00         0.00000E+00         0.00000E+00
 
   -0.11618E+07         0.13762E+06         0.00000E+00
    0.13762E+06         0.69963E+07         0.00000E+00
    0.00000E+00         0.00000E+00         0.00000E+00
 
   -0.11298E+07         0.22766E+06         0.00000E+00
    0.22766E+06         0.69955E+07         0.00000E+00
    0.00000E+00         0.00000E+00         0.00000E+00
 
   -0.10974E+07         0.31681E+06         0.00000E+00
    0.31681E+06         0.69943E+07         0.00000E+00
    0.00000E+00         0.00000E+00         0.00000E+00
 
   -0.10647E+07         0.40507E+06         0.00000E+00
    0.40507E+06         0.69927E+07         0.00000E+00
    0.00000E+00         0.00000E+00         0.00000E+00
 
   -0.10318E+07         0.49245E+06         0.00000E+00
    0.49245E+06         0.69909E+07         0.00000E+00
    0.00000E+00         0.00000E+00         0.00000E+00
 
   -0.99882E+06         0.57897E+06         0.00000E+00
    0.57897E+06         0.69889E+07         0.00000E+00
    0.00000E+00         0.00000E+00         0.00000E+00
 
   -0.96570E+06         0.66465E+06         0.00000E+00
    0.66465E+06         0.69866E+07         0.00000E+00
    0.00000E+00         0.00000E+00         0.00000E+00
 
   -0.93256E+06         0.74949E+06         0.00000E+00
    0.74949E+06         0.69841E+07         0.00000E+00
    0.00000E+00         0.00000E+00         0.00000E+00
 
   -0.89946E+06         0.83352E+06         0.00000E+00
    0.83352E+06         0.69815E+07         0.00000E+00
    0.00000E+00         0.00000E+00         0.00000E+00
 
   -0.86647E+06         0.91675E+06         0.00000E+00
    0.91675E+06         0.69787E+07         0.00000E+00
    0.00000E+00         0.00000E+00         0.00000E+00
 
   -0.83363E+06         0.99921E+06         0.00000E+00
    0.99921E+06         0.69758E+07         0.00000E+00
    0.00000E+00         0.00000E+00         0.00000E+00
 
   -0.80100E+06         0.10809E+07         0.00000E+00
    0.10809E+07         0.69728E+07         0.00000E+00
    0.00000E+00         0.00000E+00         0.00000E+00
 
   -0.76863E+06         0.11619E+07         0.00000E+00
    0.11619E+07         0.69697E+07         0.00000E+00
    0.00000E+00         0.00000E+00         0.00000E+00
 
   -0.73658E+06         0.12422E+07         0.00000E+00
    0.12422E+07         0.69666E+07         0.00000E+00
    0.00000E+00         0.00000E+00         0.00000E+00
 
   -0.70487E+06         0.13219E+07         0.00000E+00
    0.13219E+07         0.69634E+07         0.00000E+00
    0.00000E+00         0.00000E+00         0.00000E+00
 
   -0.67357E+06         0.14008E+07         0.00000E+00
    0.14008E+07         0.69602E+07         0.00000E+00
    0.00000E+00         0.00000E+00         0.00000E+00
 
   -0.64270E+06         0.14792E+07         0.00000E+00
    0.14792E+07         0.69570E+07         0.00000E+00
    0.00000E+00         0.00000E+00         0.00000E+00
 
   -0.61231E+06         0.15570E+07         0.00000E+00
    0.15570E+07         0.69538E+07         0.00000E+00
    0.00000E+00         0.00000E+00         0.00000E+00
 
   -0.58243E+06         0.16343E+07         0.00000E+00
    0.16343E+07         0.69506E+07         0.00000E+00
    0.00000E+00         0.00000E+00         0.00000E+00
 
   -0.55310E+06         0.17110E+07         0.00000E+00
    0.17110E+07         0.69474E+07         0.00000E+00
    0.00000E+00         0.00000E+00         0.00000E+00
 
   -0.52435E+06         0.17873E+07         0.00000E+00
    0.17873E+07         0.69443E+07         0.00000E+00
    0.00000E+00         0.00000E+00         0.00000E+00
 
   -0.49620E+06         0.18631E+07         0.00000E+00
    0.18631E+07         0.69411E+07         0.00000E+00
    0.00000E+00         0.00000E+00         0.00000E+00
 
   -0.46869E+06         0.19385E+07         0.00000E+00
    0.19385E+07         0.69381E+07         0.00000E+00
    0.00000E+00         0.00000E+00         0.00000E+00
 
   -0.44183E+06         0.20136E+07         0.00000E+00
    0.20136E+07         0.69350E+07         0.00000E+00
    0.00000E+00         0.00000E+00         0.00000E+00
 
   -0.41566E+06         0.20883E+07         0.00000E+00
    0.20883E+07         0.69320E+07         0.00000E+00
    0.00000E+00         0.00000E+00         0.00000E+00
 
   -0.39019E+06         0.21627E+07         0.00000E+00
    0.21627E+07         0.69291E+07         0.00000E+00
    0.00000E+00         0.00000E+00         0.00000E+00
 
   -0.36543E+06         0.22368E+07         0.00000E+00
    0.22368E+07         0.69262E+07         0.00000E+00
    0.00000E+00         0.00000E+00         0.00000E+00
 
   -0.34141E+06         0.23107E+07         0.00000E+00
    0.23107E+07         0.69234E+07         0.00000E+00
    0.00000E+00         0.00000E+00         0.00000E+00
 
   -0.31813E+06         0.23844E+07         0.00000E+00
    0.23844E+07         0.69206E+07         0.00000E+00
    0.00000E+00         0.00000E+00         0.00000E+00
 
   -0.29561E+06         0.24580E+07         0.00000E+00
    0.24580E+07         0.69179E+07         0.00000E+00
    0.00000E+00         0.00000E+00         0.00000E+00
 
   -0.27385E+06         0.25315E+07         0.00000E+00
    0.25315E+07         0.69152E+07         0.00000E+00
    0.00000E+00         0.00000E+00         0.00000E+00
 
   -0.25286E+06         0.26049E+07         0.00000E+00
    0.26049E+07         0.69126E+07         0.00000E+00
    0.00000E+00         0.00000E+00         0.00000E+00
 
   -0.23265E+06         0.26783E+07         0.00000E+00
    0.26783E+07         0.69099E+07         0.00000E+00
    0.00000E+00         0.00000E+00         0.00000E+00
 
   -0.21320E+06         0.27516E+07         0.00000E+00
    0.27516E+07         0.69073E+07         0.00000E+00
    0.00000E+00         0.00000E+00         0.00000E+00
 
   -0.19453E+06         0.28251E+07         0.00000E+00
    0.28251E+07         0.69048E+07         0.00000E+00
    0.00000E+00         0.00000E+00         0.00000E+00
 
   -0.17661E+06         0.28986E+07         0.00000E+00
    0.28986E+07         0.69022E+07         0.00000E+00
    0.00000E+00         0.00000E+00         0.00000E+00
 
   -0.15945E+06         0.29723E+07         0.00000E+00
    0.29723E+07         0.68996E+07         0.00000E+00
    0.00000E+00         0.00000E+00         0.00000E+00
 
   -0.14304E+06         0.30462E+07         0.00000E+00
    0.30462E+07         0.68970E+07         0.00000E+00
    0.00000E+00         0.00000E+00         0.00000E+00
 
   -0.12735E+06         0.31203E+07         0.00000E+00
    0.31203E+07         0.68943E+07         0.00000E+00
    0.00000E+00         0.00000E+00         0.00000E+00
 
   -0.11237E+06         0.31947E+07         0.00000E+00
    0.31947E+07         0.68916E+07         0.00000E+00
    0.00000E+00         0.00000E+00         0.00000E+00
 
   -0.98081E+05         0.32694E+07         0.00000E+00
    0.32694E+07         0.68888E+07         0.00000E+00
    0.00000E+00         0.00000E+00         0.00000E+00
 
   -0.84455E+05         0.33444E+07         0.00000E+00
    0.33444E+07         0.68858E+07         0.00000E+00
    0.00000E+00         0.00000E+00         0.00000E+00
 
   -0.71465E+05         0.34199E+07         0.00000E+00
    0.34199E+07         0.68828E+07         0.00000E+00
    0.00000E+00         0.00000E+00         0.00000E+00
 
   -0.59080E+05         0.34957E+07         0.00000E+00
    0.34957E+07         0.68796E+07         0.00000E+00
    0.00000E+00         0.00000E+00         0.00000E+00
 
   -0.47265E+05         0.35721E+07         0.00000E+00
    0.35721E+07         0.68762E+07         0.00000E+00
    0.00000E+00         0.00000E+00         0.00000E+00
 
   -0.35981E+05         0.36490E+07         0.00000E+00
    0.36490E+07         0.68726E+07         0.00000E+00
    0.00000E+00         0.00000E+00         0.00000E+00
 
   -0.25187E+05         0.37264E+07         0.00000E+00
    0.37264E+07         0.68688E+07         0.00000E+00
    0.00000E+00         0.00000E+00         0.00000E+00
 
   -0.14838E+05         0.38044E+07         0.00000E+00
    0.38044E+07         0.68647E+07         0.00000E+00
    0.00000E+00         0.00000E+00         0.00000E+00
 
   -0.48841E+04         0.38830E+07         0.00000E+00
    0.38830E+07         0.68603E+07         0.00000E+00
    0.00000E+00         0.00000E+00         0.00000E+00
 
   -0.11363E+07         0.45386E+05         0.00000E+00
    0.45386E+05         0.66024E+07         0.00000E+00
    0.00000E+00         0.00000E+00         0.00000E+00
 
   -0.11088E+07         0.13421E+06         0.00000E+00
    0.13421E+06         0.66020E+07         0.00000E+00
    0.00000E+00         0.00000E+00         0.00000E+00
 
   -0.10808E+07         0.22232E+06         0.00000E+00
    0.22232E+06         0.66011E+07         0.00000E+00
    0.00000E+00         0.00000E+00         0.00000E+00
 
   -0.10524E+07         0.30970E+06         0.00000E+00
    0.30970E+06         0.66000E+07         0.00000E+00
    0.00000E+00         0.00000E+00         0.00000E+00
 
   -0.10237E+07         0.39637E+06         0.00000E+00
    0.39637E+06         0.65985E+07         0.00000E+00
    0.00000E+00         0.00000E+00         0.00000E+00
 
   -0.99479E+06         0.48231E+06         0.00000E+00
    0.48231E+06         0.65967E+07         0.00000E+00
    0.00000E+00         0.00000E+00         0.00000E+00
 
   -0.96564E+06         0.56753E+06         0.00000E+00
    0.56753E+06         0.65947E+07         0.00000E+00
    0.00000E+00         0.00000E+00         0.00000E+00
 
   -0.93635E+06         0.65204E+06         0.00000E+00
    0.65204E+06         0.65924E+07         0.00000E+00
    0.00000E+00         0.00000E+00         0.00000E+00
 
   -0.90696E+06         0.73586E+06         0.00000E+00
    0.73586E+06         0.65899E+07         0.00000E+00
    0.00000E+00         0.00000E+00         0.00000E+00
 
   -0.87753E+06         0.81898E+06         0.00000E+00
    0.81898E+06         0.65872E+07         0.00000E+00
    0.00000E+00         0.00000E+00         0.00000E+00
 
   -0.84812E+06         0.90143E+06         0.00000E+00
    0.90143E+06         0.65844E+07         0.00000E+00
    0.00000E+00         0.00000E+00         0.00000E+00
 
   -0.81876E+06         0.98322E+06         0.00000E+00
    0.98322E+06         0.65814E+07         0.00000E+00
    0.00000E+00         0.00000E+00         0.00000E+00
 
   -0.78950E+06         0.10644E+07         0.00000E+00
    0.10644E+07         0.65782E+07         0.00000E+00
    0.00000E+00         0.00000E+00         0.00000E+00
 
   -0.76039E+06         0.11449E+07         0.00000E+00
    0.11449E+07         0.65750E+07         0.00000E+00
    0.00000E+00         0.00000E+00         0.00000E+00
 
   -0.73147E+06         0.12248E+07         0.00000E+00
    0.12248E+07         0.65716E+07         0.00000E+00
    0.00000E+00         0.00000E+00         0.00000E+00
 
   -0.70278E+06         0.13041E+07         0.00000E+00
    0.13041E+07         0.65682E+07         0.00000E+00
    0.00000E+00         0.00000E+00         0.00000E+00
 
   -0.67436E+06         0.13829E+07         0.00000E+00
    0.13829E+07         0.65647E+07         0.00000E+00
    0.00000E+00         0.00000E+00         0.00000E+00
 
   -0.64623E+06         0.14611E+07         0.00000E+00
    0.14611E+07         0.65611E+07         0.00000E+00
    0.00000E+00         0.00000E+00         0.00000E+00
 
   -0.61845E+06         0.15388E+07         0.00000E+00
    0.15388E+07         0.65575E+07         0.00000E+00
    0.00000E+00         0.00000E+00         0.00000E+00
 
   -0.59103E+06         0.16160E+07         0.00000E+00
    0.16160E+07         0.65539E+07         0.00000E+00
    0.00000E+00         0.00000E+00         0.00000E+00
 
   -0.56400E+06         0.16927E+07         0.00000E+00
    0.16927E+07         0.65502E+07         0.00000E+00
    0.00000E+00         0.00000E+00         0.00000E+00
 
   -0.53740E+06         0.17690E+07         0.00000E+00
    0.17690E+07         0.65465E+07         0.00000E+00
    0.00000E+00         0.00000E+00         0.00000E+00
 
   -0.51125E+06         0.18449E+07         0.00000E+00
    0.18449E+07         0.65428E+07         0.00000E+00
    0.00000E+00         0.00000E+00         0.00000E+00
 
   -0.48558E+06         0.19204E+07         0.00000E+00
    0.19204E+07         0.65391E+07         0.00000E+00
    0.00000E+00         0.00000E+00         0.00000E+00
 
   -0.46039E+06         0.19955E+07         0.00000E+00
    0.19955E+07         0.65354E+07         0.00000E+00
    0.00000E+00         0.00000E+00         0.00000E+00
 
   -0.43572E+06         0.20704E+07         0.00000E+00
    0.20704E+07         0.65318E+07         0.00000E+00
    0.00000E+00         0.00000E+00         0.00000E+00
 
   -0.41158E+06         0.21449E+07         0.00000E+00
    0.21449E+07         0.65281E+07         0.00000E+00
    0.00000E+00         0.00000E+00         0.00000E+00
 
   -0.38798E+06         0.22192E+07         0.00000E+00
    0.22192E+07         0.65244E+07         0.00000E+00
    0.00000E+00         0.00000E+00         0.00000E+00
 
   -0.36494E+06         0.22933E+07         0.00000E+00
    0.22933E+07         0.65208E+07         0.00000E+00
    0.00000E+00         0.00000E+00         0.00000E+00
 
   -0.34246E+06         0.23671E+07         0.00000E+00
    0.23671E+07         0.65171E+07         0.00000E+00
    0.00000E+00         0.00000E+00         0.00000E+00
 
   -0.32056E+06         0.24408E+07         0.00000E+00
    0.24408E+07         0.65135E+07         0.00000E+00
    0.00000E+00         0.00000E+00         0.00000E+00
 
   -0.29924E+06         0.25144E+07         0.00000E+00
    0.25144E+07         0.65098E+07         0.00000E+00
    0.00000E+00         0.00000E+00         0.00000E+00
 
   -0.27851E+06         0.25879E+07         0.00000E+00
    0.25879E+07         0.65062E+07         0.00000E+00
    0.00000E+00         0.00000E+00         0.00000E+00
 
   -0.25835E+06         0.26613E+07         0.00000E+00
    0.26613E+07         0.65025E+07         0.00000E+00
    0.00000E+00         0.00000E+00         0.00000E+00
 
   -0.23879E+06         0.27347E+07         0.00000E+00
    0.27347E+07         0.64988E+07         0.00000E+00
    0.00000E+00         0.00000E+00         0.00000E+00
 
   -0.21980E+06         0.28081E+07         0.00000E+00
    0.28081E+07         0.64951E+07         0.00000E+00
    0.00000E+00         0.00000E+00         0.00000E+00
 
   -0.20138E+06         0.28815E+07         0.00000E+00
    0.28815E+07         0.64914E+07         0.00000E+00
    0.00000E+00         0.00000E+00         0.00000E+00
 
   -0.18353E+06         0.29551E+07         0.00000E+00
    0.29551E+07         0.64876E+07         0.00000E+00
    0.00000E+00         0.00000E+00         0.00000E+00
 
   -0.16623E+06         0.30287E+07         0.00000E+00
    0.30287E+07         0.64837E+07         0.00000E+00
    0.00000E+00         0.00000E+00         0.00000E+00
 
   -0.14947E+06         0.31025E+07         0.00000E+00
    0.31025E+07         0.64798E+07         0.00000E+00
    0.00000E+00         0.00000E+00         0.00000E+00
 
   -0.13323E+06         0.31765E+07         0.00000E+00
    0.31765E+07         0.64757E+07         0.00000E+00
    0.00000E+00         0.00000E+00         0.00000E+00
 
   -0.11749E+06         0.32507E+07         0.00000E+00
    0.32507E+07         0.64716E+07         0.00000E+00
    0.00000E+00         0.00000E+00         0.00000E+00
 
   -0.10222E+06         0.33252E+07         0.00000E+00
    0.33252E+07         0.64673E+07         0.00000E+00
    0.00000E+00         0.00000E+00         0.00000E+00
 
   -0.87417E+05         0.33999E+07         0.00000E+00
    0.33999E+07         0.64629E+07         0.00000E+00
    0.00000E+00         0.00000E+00         0.00000E+00
 
   -0.73035E+05         0.34750E+07         0.00000E+00
    0.34750E+07         0.64582E+07         0.00000E+00
    0.00000E+00         0.00000E+00         0.00000E+00
 
   -0.59048E+05         0.35504E+07         0.00000E+00
    0.35504E+07         0.64534E+07         0.00000E+00
    0.00000E+00         0.00000E+00         0.00000E+00
 
   -0.45421E+05         0.36262E+07         0.00000E+00
    0.36262E+07         0.64484E+07         0.00000E+00
    0.00000E+00         0.00000E+00         0.00000E+00
 
   -0.32120E+05         0.37024E+07         0.00000E+00
    0.37024E+07         0.64431E+07         0.00000E+00
    0.00000E+00         0.00000E+00         0.00000E+00
 
   -0.19103E+05         0.37790E+07         0.00000E+00
    0.37790E+07         0.64375E+07         0.00000E+00
    0.00000E+00         0.00000E+00         0.00000E+00
 
   -0.63308E+04         0.38562E+07         0.00000E+00
    0.38562E+07         0.64316E+07         0.00000E+00
    0.00000E+00         0.00000E+00         0.00000E+00
 
   -0.10812E+07         0.44180E+05         0.00000E+00
    0.44180E+05         0.62169E+07         0.00000E+00
    0.00000E+00         0.00000E+00         0.00000E+00
 
   -0.10568E+07         0.13099E+06         0.00000E+00
    0.13099E+06         0.62165E+07         0.00000E+00
    0.00000E+00         0.00000E+00         0.00000E+00
 
   -0.10321E+07         0.21722E+06         0.00000E+00
    0.21722E+06         0.62158E+07         0.00000E+00
    0.00000E+00         0.00000E+00         0.00000E+00
 
   -0.10070E+07         0.30287E+06         0.00000E+00
    0.30287E+06         0.62147E+07         0.00000E+00
    0.00000E+00         0.00000E+00         0.00000E+00
 
   -0.98153E+06         0.38792E+06         0.00000E+00
    0.38792E+06         0.62133E+07         0.00000E+00
    0.00000E+00         0.00000E+00         0.00000E+00
 
   -0.95583E+06         0.47238E+06         0.00000E+00
    0.47238E+06         0.62116E+07         0.00000E+00
    0.00000E+00         0.00000E+00         0.00000E+00
 
   -0.92992E+06         0.55625E+06         0.00000E+00
    0.55625E+06         0.62097E+07         0.00000E+00
    0.00000E+00         0.00000E+00         0.00000E+00
 
   -0.90383E+06         0.63952E+06         0.00000E+00
    0.63952E+06         0.62075E+07         0.00000E+00
    0.00000E+00         0.00000E+00         0.00000E+00
 
   -0.87761E+06         0.72221E+06         0.00000E+00
    0.72221E+06         0.62051E+07         0.00000E+00
    0.00000E+00         0.00000E+00         0.00000E+00
 
   -0.85130E+06         0.80431E+06         0.00000E+00
    0.80431E+06         0.62025E+07         0.00000E+00
    0.00000E+00         0.00000E+00         0.00000E+00
 
   -0.82494E+06         0.88584E+06         0.00000E+00
    0.88584E+06         0.61997E+07         0.00000E+00
    0.00000E+00         0.00000E+00         0.00000E+00
 
   -0.79857E+06         0.96680E+06         0.00000E+00
    0.96680E+06         0.61967E+07         0.00000E+00
    0.00000E+00         0.00000E+00         0.00000E+00
 
   -0.77224E+06         0.10472E+07         0.00000E+00
    0.10472E+07         0.61936E+07         0.00000E+00
    0.00000E+00         0.00000E+00         0.00000E+00
 
   -0.74597E+06         0.11271E+07         0.00000E+00
    0.11271E+07         0.61903E+07         0.00000E+00
    0.00000E+00         0.00000E+00         0.00000E+00
 
   -0.71980E+06         0.12064E+07         0.00000E+00
    0.12064E+07         0.61869E+07         0.00000E+00
    0.00000E+00         0.00000E+00         0.00000E+00
 
   -0.69377E+06         0.12852E+07         0.00000E+00
    0.12852E+07         0.61834E+07         0.00000E+00
    0.00000E+00         0.00000E+00         0.00000E+00
 
   -0.66790E+06         0.13636E+07         0.00000E+00
    0.13636E+07         0.61798E+07         0.00000E+00
    0.00000E+00         0.00000E+00         0.00000E+00
 
   -0.64223E+06         0.14414E+07         0.00000E+00
    0.14414E+07         0.61762E+07         0.00000E+00
    0.00000E+00         0.00000E+00         0.00000E+00
 
   -0.61678E+06         0.15188E+07         0.00000E+00
    0.15188E+07         0.61724E+07         0.00000E+00
    0.00000E+00         0.00000E+00         0.00000E+00
 
   -0.59158E+06         0.15957E+07         0.00000E+00
    0.15957E+07         0.61686E+07         0.00000E+00
    0.00000E+00         0.00000E+00         0.00000E+00
 
   -0.56667E+06         0.16723E+07         0.00000E+00
    0.16723E+07         0.61647E+07         0.00000E+00
    0.00000E+00         0.00000E+00         0.00000E+00
 
   -0.54205E+06         0.17484E+07         0.00000E+00
    0.17484E+07         0.61607E+07         0.00000E+00
    0.00000E+00         0.00000E+00         0.00000E+00
 
   -0.51775E+06         0.18241E+07         0.00000E+00
    0.18241E+07         0.61567E+07         0.00000E+00
    0.00000E+00         0.00000E+00         0.00000E+00
 
   -0.49379E+06         0.18995E+07         0.00000E+00
    0.18995E+07         0.61527E+07         0.00000E+00
    0.00000E+00         0.00000E+00         0.00000E+00
 
   -0.47019E+06         0.19746E+07         0.00000E+00
    0.19746E+07         0.61486E+07         0.00000E+00
    0.00000E+00         0.00000E+00         0.00000E+00
 
   -0.44697E+06         0.20493E+07         0.00000E+00
    0.20493E+07         0.61445E+07         0.00000E+00
    0.00000E+00         0.00000E+00         0.00000E+00
 
   -0.42413E+06         0.21238E+07         0.00000E+00
    0.21238E+07         0.61404E+07         0.00000E+00
    0.00000E+00         0.00000E+00         0.00000E+00
 
   -0.40169E+06         0.21981E+07         0.00000E+00
    0.21981E+07         0.61363E+07         0.00000E+00
    0.00000E+00         0.00000E+00         0.00000E+00
 
   -0.37966E+06         0.22721E+07         0.00000E+00
    0.22721E+07         0.61321E+07         0.00000E+00
    0.00000E+00         0.00000E+00         0.00000E+00
 
   -0.35806E+06         0.23459E+07         0.00000E+00
    0.23459E+07         0.61278E+07         0.00000E+00
    0.00000E+00         0.00000E+00         0.00000E+00
 
   -0.33687E+06         0.24195E+07         0.00000E+00
    0.24195E+07         0.61236E+07         0.00000E+00
    0.00000E+00         0.00000E+00         0.00000E+00
 
   -0.31611E+06         0.24930E+07         0.00000E+00
    0.24930E+07         0.61193E+07         0.00000E+00
    0.00000E+00         0.00000E+00         0.00000E+00
 
   -0.29578E+06         0.25664E+07         0.00000E+00
    0.25664E+07         0.61149E+07         0.00000E+00
    0.00000E+00         0.00000E+00         0.00000E+00
 
   -0.27589E+06         0.26396E+07         0.00000E+00
    0.26396E+07         0.61106E+07         0.00000E+00
    0.00000E+00         0.00000E+00         0.00000E+00
 
   -0.25642E+06         0.27128E+07         0.00000E+00
    0.27128E+07         0.61061E+07         0.00000E+00
    0.00000E+00         0.00000E+00         0.00000E+00
 
   -0.23737E+06         0.27860E+07         0.00000E+00
    0.27860E+07         0.61016E+07         0.00000E+00
    0.00000E+00         0.00000E+00         0.00000E+00
 
   -0.21874E+06         0.28592E+07         0.00000E+00
    0.28592E+07         0.60970E+07         0.00000E+00
    0.00000E+00         0.00000E+00         0.00000E+00
 
   -0.20052E+06         0.29324E+07         0.00000E+00
    0.29324E+07         0.60924E+07         0.00000E+00
    0.00000E+00         0.00000E+00         0.00000E+00
 
   -0.18269E+06         0.30057E+07         0.00000E+00
    0.30057E+07         0.60876E+07         0.00000E+00
    0.00000E+00         0.00000E+00         0.00000E+00
 
   -0.16525E+06         0.30790E+07         0.00000E+00
    0.30790E+07         0.60827E+07         0.00000E+00
    0.00000E+00         0.00000E+00         0.00000E+00
 
   -0.14818E+06         0.31525E+07         0.00000E+00
    0.31525E+07         0.60777E+07         0.00000E+00
    0.00000E+00         0.00000E+00         0.00000E+00
 
   -0.13145E+06         0.32261E+07         0.00000E+00
    0.32261E+07         0.60726E+07         0.00000E+00
    0.00000E+00         0.00000E+00         0.00000E+00
 
   -0.11506E+06         0.32998E+07         0.00000E+00
    0.32998E+07         0.60673E+07         0.00000E+00
    0.00000E+00         0.00000E+00         0.00000E+00
 
   -0.98974E+05         0.33738E+07         0.00000E+00
    0.33738E+07         0.60618E+07         0.00000E+00
    0.00000E+00         0.00000E+00         0.00000E+00
 
   -0.83172E+05         0.34479E+07         0.00000E+00
    0.34479E+07         0.60562E+07         0.00000E+00
    0.00000E+00         0.00000E+00         0.00000E+00
 
   -0.67627E+05         0.35223E+07         0.00000E+00
    0.35223E+07         0.60503E+07         0.00000E+00
    0.00000E+00         0.00000E+00         0.00000E+00
 
   -0.52308E+05         0.35970E+07         0.00000E+00
    0.35970E+07         0.60441E+07         0.00000E+00
    0.00000E+00         0.00000E+00         0.00000E+00
 
   -0.37186E+05         0.36720E+07         0.00000E+00
    0.36720E+07         0.60377E+07         0.00000E+00
    0.00000E+00         0.00000E+00         0.00000E+00
 
   -0.22225E+05         0.37472E+07         0.00000E+00
    0.37472E+07         0.60310E+07         0.00000E+00
    0.00000E+00         0.00000E+00         0.00000E+00
 
   -0.73904E+04         0.38228E+07         0.00000E+00
    0.38228E+07         0.60240E+07         0.00000E+00
    0.00000E+00         0.00000E+00         0.00000E+00
 
   -0.10274E+07         0.43092E+05         0.00000E+00
    0.43092E+05         0.58401E+07         0.00000E+00
    0.00000E+00         0.00000E+00         0.00000E+00
 
   -0.10056E+07         0.12803E+06         0.00000E+00
    0.12803E+06         0.58398E+07         0.00000E+00
    0.00000E+00         0.00000E+00         0.00000E+00
 
   -0.98351E+06         0.21249E+06         0.00000E+00
    0.21249E+06         0.58391E+07         0.00000E+00
    0.00000E+00         0.00000E+00         0.00000E+00
 
   -0.96106E+06         0.29648E+06         0.00000E+00
    0.29648E+06         0.58381E+07         0.00000E+00
    0.00000E+00         0.00000E+00         0.00000E+00
 
   -0.93832E+06         0.37998E+06         0.00000E+00
    0.37998E+06         0.58368E+07         0.00000E+00
    0.00000E+00         0.00000E+00         0.00000E+00
 
   -0.91532E+06         0.46298E+06         0.00000E+00
    0.46298E+06         0.58353E+07         0.00000E+00
    0.00000E+00         0.00000E+00         0.00000E+00
 
   -0.89211E+06         0.54549E+06         0.00000E+00
    0.54549E+06         0.58335E+07         0.00000E+00
    0.00000E+00         0.00000E+00         0.00000E+00
 
   -0.86871E+06         0.62751E+06         0.00000E+00
    0.62751E+06         0.58315E+07         0.00000E+00
    0.00000E+00         0.00000E+00         0.00000E+00
 
   -0.84516E+06         0.70903E+06         0.00000E+00
    0.70903E+06         0.58292E+07         0.00000E+00
    0.00000E+00         0.00000E+00         0.00000E+00
 
   -0.82150E+06         0.79005E+06         0.00000E+00
    0.79005E+06         0.58267E+07         0.00000E+00
    0.00000E+00         0.00000E+00         0.00000E+00
 
   -0.79775E+06         0.87059E+06         0.00000E+00
    0.87059E+06         0.58241E+07         0.00000E+00
    0.00000E+00         0.00000E+00         0.00000E+00
 
   -0.77396E+06         0.95064E+06         0.00000E+00
    0.95064E+06         0.58212E+07         0.00000E+00
    0.00000E+00         0.00000E+00         0.00000E+00
 
   -0.75015E+06         0.10302E+07         0.00000E+00
    0.10302E+07         0.58182E+07         0.00000E+00
    0.00000E+00         0.00000E+00         0.00000E+00
 
   -0.72635E+06         0.11093E+07         0.00000E+00
    0.11093E+07         0.58151E+07         0.00000E+00
    0.00000E+00         0.00000E+00         0.00000E+00
 
   -0.70258E+06         0.11880E+07         0.00000E+00
    0.11880E+07         0.58118E+07         0.00000E+00
    0.00000E+00         0.00000E+00         0.00000E+00
 
   -0.67889E+06         0.12662E+07         0.00000E+00
    0.12662E+07         0.58083E+07         0.00000E+00
    0.00000E+00         0.00000E+00         0.00000E+00
 
   -0.65528E+06         0.13439E+07         0.00000E+00
    0.13439E+07         0.58048E+07         0.00000E+00
    0.00000E+00         0.00000E+00         0.00000E+00
 
   -0.63179E+06         0.14212E+07         0.00000E+00
    0.14212E+07         0.58011E+07         0.00000E+00
    0.00000E+00         0.00000E+00         0.00000E+00
 
   -0.60845E+06         0.14982E+07         0.00000E+00
    0.14982E+07         0.57974E+07         0.00000E+00
    0.00000E+00         0.00000E+00         0.00000E+00
 
   -0.58526E+06         0.15747E+07         0.00000E+00
    0.15747E+07         0.57935E+07         0.00000E+00
    0.00000E+00         0.00000E+00         0.00000E+00
 
   -0.56226E+06         0.16508E+07         0.00000E+00
    0.16508E+07         0.57896E+07         0.00000E+00
    0.00000E+00         0.00000E+00         0.00000E+00
 
   -0.53946E+06         0.17266E+07         0.00000E+00
    0.17266E+07         0.57855E+07         0.00000E+00
    0.00000E+00         0.00000E+00         0.00000E+00
 
   -0.51687E+06         0.18021E+07         0.00000E+00
    0.18021E+07         0.57814E+07         0.00000E+00
    0.00000E+00         0.00000E+00         0.00000E+00
 
   -0.49453E+06         0.18772E+07         0.00000E+00
    0.18772E+07         0.57773E+07         0.00000E+00
    0.00000E+00         0.00000E+00         0.00000E+00
 
   -0.47243E+06         0.19520E+07         0.00000E+00
    0.19520E+07         0.57730E+07         0.00000E+00
    0.00000E+00         0.00000E+00         0.00000E+00
 
   -0.45059E+06         0.20265E+07         0.00000E+00
    0.20265E+07         0.57687E+07         0.00000E+00
    0.00000E+00         0.00000E+00         0.00000E+00
 
   -0.42903E+06         0.21007E+07         0.00000E+00
    0.21007E+07         0.57643E+07         0.00000E+00
    0.00000E+00         0.00000E+00         0.00000E+00
 
   -0.40775E+06         0.21747E+07         0.00000E+00
    0.21747E+07         0.57599E+07         0.00000E+00
    0.00000E+00         0.00000E+00         0.00000E+00
 
   -0.38676E+06         0.22485E+07         0.00000E+00
    0.22485E+07         0.57554E+07         0.00000E+00
    0.00000E+00         0.00000E+00         0.00000E+00
 
   -0.36607E+06         0.23221E+07         0.00000E+00
    0.23221E+07         0.57508E+07         0.00000E+00
    0.00000E+00         0.00000E+00         0.00000E+00
 
   -0.34568E+06         0.23955E+07         0.00000E+00
    0.23955E+07         0.57462E+07         0.00000E+00
    0.00000E+00         0.00000E+00         0.00000E+00
 
   -0.32560E+06         0.24687E+07         0.00000E+00
    0.24687E+07         0.57415E+07         0.00000E+00
    0.00000E+00         0.00000E+00         0.00000E+00
 
   -0.30581E+06         0.25418E+07         0.00000E+00
    0.25418E+07         0.57367E+07         0.00000E+00
    0.00000E+00         0.00000E+00         0.00000E+00
 
   -0.28634E+06         0.26148E+07         0.00000E+00
    0.26148E+07         0.57319E+07         0.00000E+00
    0.00000E+00         0.00000E+00         0.00000E+00
 
   -0.26716E+06         0.26876E+07         0.00000E+00
    0.26876E+07         0.57269E+07         0.00000E+00
    0.00000E+00         0.00000E+00         0.00000E+00
 
   -0.24828E+06         0.27605E+07         0.00000E+00
    0.27605E+07         0.57219E+07         0.00000E+00
    0.00000E+00         0.00000E+00         0.00000E+00
 
   -0.22969E+06         0.28332E+07         0.00000E+00
    0.28332E+07         0.57168E+07         0.00000E+00
    0.00000E+00         0.00000E+00         0.00000E+00
 
   -0.21138E+06         0.29060E+07         0.00000E+00
    0.29060E+07         0.57115E+07         0.00000E+00
    0.00000E+00         0.00000E+00         0.00000E+00
 
   -0.19335E+06         0.29787E+07         0.00000E+00
    0.29787E+07         0.57061E+07         0.00000E+00
    0.00000E+00         0.00000E+00         0.00000E+00
 
   -0.17557E+06         0.30515E+07         0.00000E+00
    0.30515E+07         0.57006E+07         0.00000E+00
    0.00000E+00         0.00000E+00         0.00000E+00
 
   -0.15804E+06         0.31243E+07         0.00000E+00
    0.31243E+07         0.56949E+07         0.00000E+00
    0.00000E+00         0.00000E+00         0.00000E+00
 
   -0.14074E+06         0.31971E+07         0.00000E+00
    0.31971E+07         0.56891E+07         0.00000E+00
    0.00000E+00         0.00000E+00         0.00000E+00
 
   -0.12366E+06         0.32701E+07         0.00000E+00
    0.32701E+07         0.56831E+07         0.00000E+00
    0.00000E+00         0.00000E+00         0.00000E+00
 
   -0.10676E+06         0.33432E+07         0.00000E+00
    0.33432E+07         0.56769E+07         0.00000E+00
    0.00000E+00         0.00000E+00         0.00000E+00
 
   -0.90039E+05         0.34164E+07         0.00000E+00
    0.34164E+07         0.56705E+07         0.00000E+00
    0.00000E+00         0.00000E+00         0.00000E+00
 
   -0.73465E+05         0.34897E+07         0.00000E+00
    0.34897E+07         0.56639E+07         0.00000E+00
    0.00000E+00         0.00000E+00         0.00000E+00
 
   -0.57014E+05         0.35632E+07         0.00000E+00
    0.35632E+07         0.56570E+07         0.00000E+00
    0.00000E+00         0.00000E+00         0.00000E+00
 
   -0.40659E+05         0.36369E+07         0.00000E+00
    0.36369E+07         0.56498E+07         0.00000E+00
    0.00000E+00         0.00000E+00         0.00000E+00
 
   -0.24372E+05         0.37108E+07         0.00000E+00
    0.37108E+07         0.56424E+07         0.00000E+00
    0.00000E+00         0.00000E+00         0.00000E+00
 
   -0.81204E+04         0.37849E+07         0.00000E+00
    0.37849E+07         0.56346E+07         0.00000E+00
    0.00000E+00         0.00000E+00         0.00000E+00
 
   -0.97449E+06         0.42124E+05         0.00000E+00
    0.42124E+05         0.54716E+07         0.00000E+00
    0.00000E+00         0.00000E+00         0.00000E+00
 
   -0.95484E+06         0.12535E+06         0.00000E+00
    0.12535E+06         0.54713E+07         0.00000E+00
    0.00000E+00         0.00000E+00         0.00000E+00
 
   -0.93488E+06         0.20818E+06         0.00000E+00
    0.20818E+06         0.54707E+07         0.00000E+00
    0.00000E+00         0.00000E+00         0.00000E+00
 
   -0.91463E+06         0.29062E+06         0.00000E+00
    0.29062E+06         0.54698E+07         0.00000E+00
    0.00000E+00         0.00000E+00         0.00000E+00
 
   -0.89412E+06         0.37265E+06         0.00000E+00
    0.37265E+06         0.54687E+07         0.00000E+00
    0.00000E+00         0.00000E+00         0.00000E+00
 
   -0.87337E+06         0.45427E+06         0.00000E+00
    0.45427E+06         0.54673E+07         0.00000E+00
    0.00000E+00         0.00000E+00         0.00000E+00
 
   -0.85243E+06         0.53548E+06         0.00000E+00
    0.53548E+06         0.54657E+07         0.00000E+00
    0.00000E+00         0.00000E+00         0.00000E+00
 
   -0.83130E+06         0.61626E+06         0.00000E+00
    0.61626E+06         0.54638E+07         0.00000E+00
    0.00000E+00         0.00000E+00         0.00000E+00
 
   -0.81003E+06         0.69662E+06         0.00000E+00
    0.69662E+06         0.54617E+07         0.00000E+00
    0.00000E+00         0.00000E+00         0.00000E+00
 
   -0.78863E+06         0.77656E+06         0.00000E+00
    0.77656E+06         0.54595E+07         0.00000E+00
    0.00000E+00         0.00000E+00         0.00000E+00
 
   -0.76713E+06         0.85608E+06         0.00000E+00
    0.85608E+06         0.54570E+07         0.00000E+00
    0.00000E+00         0.00000E+00         0.00000E+00
 
   -0.74555E+06         0.93518E+06         0.00000E+00
    0.93518E+06         0.54543E+07         0.00000E+00
    0.00000E+00         0.00000E+00         0.00000E+00
 
   -0.72393E+06         0.10139E+07         0.00000E+00
    0.10139E+07         0.54515E+07         0.00000E+00
    0.00000E+00         0.00000E+00         0.00000E+00
 
   -0.70228E+06         0.10921E+07         0.00000E+00
    0.10921E+07         0.54485E+07         0.00000E+00
    0.00000E+00         0.00000E+00         0.00000E+00
 
   -0.68063E+06         0.11700E+07         0.00000E+00
    0.11700E+07         0.54454E+07         0.00000E+00
    0.00000E+00         0.00000E+00         0.00000E+00
 
   -0.65900E+06         0.12475E+07         0.00000E+00
    0.12475E+07         0.54421E+07         0.00000E+00
    0.00000E+00         0.00000E+00         0.00000E+00
 
   -0.63740E+06         0.13246E+07         0.00000E+00
    0.13246E+07         0.54387E+07         0.00000E+00
    0.00000E+00         0.00000E+00         0.00000E+00
 
   -0.61587E+06         0.14013E+07         0.00000E+00
    0.14013E+07         0.54352E+07         0.00000E+00
    0.00000E+00         0.00000E+00         0.00000E+00
 
   -0.59441E+06         0.14776E+07         0.00000E+00
    0.14776E+07         0.54315E+07         0.00000E+00
    0.00000E+00         0.00000E+00         0.00000E+00
 
   -0.57304E+06         0.15536E+07         0.00000E+00
    0.15536E+07         0.54277E+07         0.00000E+00
    0.00000E+00         0.00000E+00         0.00000E+00
 
   -0.55179E+06         0.16293E+07         0.00000E+00
    0.16293E+07         0.54238E+07         0.00000E+00
    0.00000E+00         0.00000E+00         0.00000E+00
 
   -0.53066E+06         0.17046E+07         0.00000E+00
    0.17046E+07         0.54199E+07         0.00000E+00
    0.00000E+00         0.00000E+00         0.00000E+00
 
   -0.50967E+06         0.17796E+07         0.00000E+00
    0.17796E+07         0.54158E+07         0.00000E+00
    0.00000E+00         0.00000E+00         0.00000E+00
 
   -0.48884E+06         0.18543E+07         0.00000E+00
    0.18543E+07         0.54116E+07         0.00000E+00
    0.00000E+00         0.00000E+00         0.00000E+00
 
   -0.46817E+06         0.19287E+07         0.00000E+00
    0.19287E+07         0.54073E+07         0.00000E+00
    0.00000E+00         0.00000E+00         0.00000E+00
 
   -0.44767E+06         0.20028E+07         0.00000E+00
    0.20028E+07         0.54030E+07         0.00000E+00
    0.00000E+00         0.00000E+00         0.00000E+00
 
   -0.42735E+06         0.20767E+07         0.00000E+00
    0.20767E+07         0.53985E+07         0.00000E+00
    0.00000E+00         0.00000E+00         0.00000E+00
 
   -0.40723E+06         0.21503E+07         0.00000E+00
    0.21503E+07         0.53940E+07         0.00000E+00
    0.00000E+00         0.00000E+00         0.00000E+00
 
   -0.38730E+06         0.22237E+07         0.00000E+00
    0.22237E+07         0.53894E+07         0.00000E+00
    0.00000E+00         0.00000E+00         0.00000E+00
 
   -0.36757E+06         0.22969E+07         0.00000E+00
    0.22969E+07         0.53846E+07         0.00000E+00
    0.00000E+00         0.00000E+00         0.00000E+00
 
   -0.34804E+06         0.23699E+07         0.00000E+00
    0.23699E+07         0.53798E+07         0.00000E+00
    0.00000E+00         0.00000E+00         0.00000E+00
 
   -0.32872E+06         0.24427E+07         0.00000E+00
    0.24427E+07         0.53749E+07         0.00000E+00
    0.00000E+00         0.00000E+00         0.00000E+00
 
   -0.30961E+06         0.25154E+07         0.00000E+00
    0.25154E+07         0.53699E+07         0.00000E+00
    0.00000E+00         0.00000E+00         0.00000E+00
 
   -0.29070E+06         0.25879E+07         0.00000E+00
    0.25879E+07         0.53648E+07         0.00000E+00
    0.00000E+00         0.00000E+00         0.00000E+00
 
   -0.27198E+06         0.26603E+07         0.00000E+00
    0.26603E+07         0.53595E+07         0.00000E+00
    0.00000E+00         0.00000E+00         0.00000E+00
 
   -0.25347E+06         0.27326E+07         0.00000E+00
    0.27326E+07         0.53542E+07         0.00000E+00
    0.00000E+00         0.00000E+00         0.00000E+00
 
   -0.23514E+06         0.28049E+07         0.00000E+00
    0.28049E+07         0.53487E+07         0.00000E+00
    0.00000E+00         0.00000E+00         0.00000E+00
 
   -0.21700E+06         0.28770E+07         0.00000E+00
    0.28770E+07         0.53431E+07         0.00000E+00
    0.00000E+00         0.00000E+00         0.00000E+00
 
   -0.19903E+06         0.29491E+07         0.00000E+00
    0.29491E+07         0.53373E+07         0.00000E+00
    0.00000E+00         0.00000E+00         0.00000E+00
 
   -0.18122E+06         0.30212E+07         0.00000E+00
    0.30212E+07         0.53314E+07         0.00000E+00
    0.00000E+00         0.00000E+00         0.00000E+00
 
   -0.16356E+06         0.30933E+07         0.00000E+00
    0.30933E+07         0.53253E+07         0.00000E+00
    0.00000E+00         0.00000E+00         0.00000E+00
 
   -0.14603E+06         0.31653E+07         0.00000E+00
    0.31653E+07         0.53191E+07         0.00000E+00
    0.00000E+00         0.00000E+00         0.00000E+00
 
   -0.12863E+06         0.32374E+07         0.00000E+00
    0.32374E+07         0.53126E+07         0.00000E+00
    0.00000E+00         0.00000E+00         0.00000E+00
 
   -0.11133E+06         0.33096E+07         0.00000E+00
    0.33096E+07         0.53060E+07         0.00000E+00
    0.00000E+00         0.00000E+00         0.00000E+00
 
   -0.94119E+05         0.33817E+07         0.00000E+00
    0.33817E+07         0.52991E+07         0.00000E+00
    0.00000E+00         0.00000E+00         0.00000E+00
 
   -0.76970E+05         0.34540E+07         0.00000E+00
    0.34540E+07         0.52920E+07         0.00000E+00
    0.00000E+00         0.00000E+00         0.00000E+00
 
   -0.59865E+05         0.35263E+07         0.00000E+00
    0.35263E+07         0.52846E+07         0.00000E+00
    0.00000E+00         0.00000E+00         0.00000E+00
 
   -0.42780E+05         0.35987E+07         0.00000E+00
    0.35987E+07         0.52770E+07         0.00000E+00
    0.00000E+00         0.00000E+00         0.00000E+00
 
   -0.25690E+05         0.36712E+07         0.00000E+00
    0.36712E+07         0.52690E+07         0.00000E+00
    0.00000E+00         0.00000E+00         0.00000E+00
 
   -0.85707E+04         0.37439E+07         0.00000E+00
    0.37439E+07         0.52608E+07         0.00000E+00
    0.00000E+00         0.00000E+00         0.00000E+00
 
   -0.92188E+06         0.41272E+05         0.00000E+00
    0.41272E+05         0.51112E+07         0.00000E+00
    0.00000E+00         0.00000E+00         0.00000E+00
 
   -0.90399E+06         0.12296E+06         0.00000E+00
    0.12296E+06         0.51109E+07         0.00000E+00
    0.00000E+00         0.00000E+00         0.00000E+00
 
   -0.88583E+06         0.20431E+06         0.00000E+00
    0.20431E+06         0.51104E+07         0.00000E+00
    0.00000E+00         0.00000E+00         0.00000E+00
 
   -0.86743E+06         0.28533E+06         0.00000E+00
    0.28533E+06         0.51096E+07         0.00000E+00
    0.00000E+00         0.00000E+00         0.00000E+00
 
   -0.84880E+06         0.36600E+06         0.00000E+00
    0.36600E+06         0.51086E+07         0.00000E+00
    0.00000E+00         0.00000E+00         0.00000E+00
 
   -0.82997E+06         0.44632E+06         0.00000E+00
    0.44632E+06         0.51073E+07         0.00000E+00
    0.00000E+00         0.00000E+00         0.00000E+00
 
   -0.81096E+06         0.52628E+06         0.00000E+00
    0.52628E+06         0.51059E+07         0.00000E+00
    0.00000E+00         0.00000E+00         0.00000E+00
 
   -0.79178E+06         0.60589E+06         0.00000E+00
    0.60589E+06         0.51042E+07         0.00000E+00
    0.00000E+00         0.00000E+00         0.00000E+00
 
   -0.77245E+06         0.68513E+06         0.00000E+00
    0.68513E+06         0.51023E+07         0.00000E+00
    0.00000E+00         0.00000E+00         0.00000E+00
 
   -0.75301E+06         0.76400E+06         0.00000E+00
    0.76400E+06         0.51002E+07         0.00000E+00
    0.00000E+00         0.00000E+00         0.00000E+00
 
   -0.73345E+06         0.84251E+06         0.00000E+00
    0.84251E+06         0.50980E+07         0.00000E+00
    0.00000E+00         0.00000E+00         0.00000E+00
 
   -0.71382E+06         0.92065E+06         0.00000E+00
    0.92065E+06         0.50955E+07         0.00000E+00
    0.00000E+00         0.00000E+00         0.00000E+00
 
   -0.69411E+06         0.99844E+06         0.00000E+00
    0.99844E+06         0.50929E+07         0.00000E+00
    0.00000E+00         0.00000E+00         0.00000E+00
 
   -0.67436E+06         0.10759E+07         0.00000E+00
    0.10759E+07         0.50901E+07         0.00000E+00
    0.00000E+00         0.00000E+00         0.00000E+00
 
   -0.65458E+06         0.11529E+07         0.00000E+00
    0.11529E+07         0.50872E+07         0.00000E+00
    0.00000E+00         0.00000E+00         0.00000E+00
 
   -0.63478E+06         0.12296E+07         0.00000E+00
    0.12296E+07         0.50841E+07         0.00000E+00
    0.00000E+00         0.00000E+00         0.00000E+00
 
   -0.61499E+06         0.13060E+07         0.00000E+00
    0.13060E+07         0.50809E+07         0.00000E+00
    0.00000E+00         0.00000E+00         0.00000E+00
 
   -0.59521E+06         0.13820E+07         0.00000E+00
    0.13820E+07         0.50776E+07         0.00000E+00
    0.00000E+00         0.00000E+00         0.00000E+00
 
   -0.57546E+06         0.14577E+07         0.00000E+00
    0.14577E+07         0.50741E+07         0.00000E+00
    0.00000E+00         0.00000E+00         0.00000E+00
 
   -0.55576E+06         0.15331E+07         0.00000E+00
    0.15331E+07         0.50705E+07         0.00000E+00
    0.00000E+00         0.00000E+00         0.00000E+00
 
   -0.53611E+06         0.16081E+07         0.00000E+00
    0.16081E+07         0.50667E+07         0.00000E+00
    0.00000E+00         0.00000E+00         0.00000E+00
 
   -0.51654E+06         0.16829E+07         0.00000E+00
    0.16829E+07         0.50629E+07         0.00000E+00
    0.00000E+00         0.00000E+00         0.00000E+00
 
   -0.49704E+06         0.17573E+07         0.00000E+00
    0.17573E+07         0.50589E+07         0.00000E+00
    0.00000E+00         0.00000E+00         0.00000E+00
 
   -0.47763E+06         0.18315E+07         0.00000E+00
    0.18315E+07         0.50548E+07         0.00000E+00
    0.00000E+00         0.00000E+00         0.00000E+00
 
   -0.45832E+06         0.19054E+07         0.00000E+00
    0.19054E+07         0.50507E+07         0.00000E+00
    0.00000E+00         0.00000E+00         0.00000E+00
 
   -0.43912E+06         0.19790E+07         0.00000E+00
    0.19790E+07         0.50464E+07         0.00000E+00
    0.00000E+00         0.00000E+00         0.00000E+00
 
   -0.42003E+06         0.20524E+07         0.00000E+00
    0.20524E+07         0.50419E+07         0.00000E+00
    0.00000E+00         0.00000E+00         0.00000E+00
 
   -0.40106E+06         0.21255E+07         0.00000E+00
    0.21255E+07         0.50374E+07         0.00000E+00
    0.00000E+00         0.00000E+00         0.00000E+00
 
   -0.38221E+06         0.21984E+07         0.00000E+00
    0.21984E+07         0.50328E+07         0.00000E+00
    0.00000E+00         0.00000E+00         0.00000E+00
 
   -0.36348E+06         0.22711E+07         0.00000E+00
    0.22711E+07         0.50281E+07         0.00000E+00
    0.00000E+00         0.00000E+00         0.00000E+00
 
   -0.34489E+06         0.23436E+07         0.00000E+00
    0.23436E+07         0.50232E+07         0.00000E+00
    0.00000E+00         0.00000E+00         0.00000E+00
 
   -0.32641E+06         0.24159E+07         0.00000E+00
    0.24159E+07         0.50182E+07         0.00000E+00
    0.00000E+00         0.00000E+00         0.00000E+00
 
   -0.30807E+06         0.24881E+07         0.00000E+00
    0.24881E+07         0.50131E+07         0.00000E+00
    0.00000E+00         0.00000E+00         0.00000E+00
 
   -0.28985E+06         0.25601E+07         0.00000E+00
    0.25601E+07         0.50079E+07         0.00000E+00
    0.00000E+00         0.00000E+00         0.00000E+00
 
   -0.27175E+06         0.26319E+07         0.00000E+00
    0.26319E+07         0.50026E+07         0.00000E+00
    0.00000E+00         0.00000E+00         0.00000E+00
 
   -0.25377E+06         0.27036E+07         0.00000E+00
    0.27036E+07         0.49971E+07         0.00000E+00
    0.00000E+00         0.00000E+00         0.00000E+00
 
   -0.23590E+06         0.27752E+07         0.00000E+00
    0.27752E+07         0.49914E+07         0.00000E+00
    0.00000E+00         0.00000E+00         0.00000E+00
 
   -0.21813E+06         0.28467E+07         0.00000E+00
    0.28467E+07         0.49856E+07         0.00000E+00
    0.00000E+00         0.00000E+00         0.00000E+00
 
   -0.20046E+06         0.29181E+07         0.00000E+00
    0.29181E+07         0.49797E+07         0.00000E+00
    0.00000E+00         0.00000E+00         0.00000E+00
 
   -0.18288E+06         0.29894E+07         0.00000E+00
    0.29894E+07         0.49736E+07         0.00000E+00
    0.00000E+00         0.00000E+00         0.00000E+00
 
   -0.16537E+06         0.30606E+07         0.00000E+00
    0.30606E+07         0.49673E+07         0.00000E+00
    0.00000E+00         0.00000E+00         0.00000E+00
 
   -0.14793E+06         0.31319E+07         0.00000E+00
    0.31319E+07         0.49608E+07         0.00000E+00
    0.00000E+00         0.00000E+00         0.00000E+00
 
   -0.13053E+06         0.32030E+07         0.00000E+00
    0.32030E+07         0.49541E+07         0.00000E+00
    0.00000E+00         0.00000E+00         0.00000E+00
 
   -0.11318E+06         0.32742E+07         0.00000E+00
    0.32742E+07         0.49472E+07         0.00000E+00
    0.00000E+00         0.00000E+00         0.00000E+00
 
   -0.95836E+05         0.33453E+07         0.00000E+00
    0.33453E+07         0.49401E+07         0.00000E+00
    0.00000E+00         0.00000E+00         0.00000E+00
 
   -0.78498E+05         0.34164E+07         0.00000E+00
    0.34164E+07         0.49327E+07         0.00000E+00
    0.00000E+00         0.00000E+00         0.00000E+00
 
   -0.61145E+05         0.34876E+07         0.00000E+00
    0.34876E+07         0.49251E+07         0.00000E+00
    0.00000E+00         0.00000E+00         0.00000E+00
 
   -0.43755E+05         0.35587E+07         0.00000E+00
    0.35587E+07         0.49172E+07         0.00000E+00
    0.00000E+00         0.00000E+00         0.00000E+00
 
   -0.26309E+05         0.36299E+07         0.00000E+00
    0.36299E+07         0.49090E+07         0.00000E+00
    0.00000E+00         0.00000E+00         0.00000E+00
 
   -0.87847E+04         0.37011E+07         0.00000E+00
    0.37011E+07         0.49006E+07         0.00000E+00
    0.00000E+00         0.00000E+00         0.00000E+00
 
   -0.86902E+06         0.40527E+05         0.00000E+00
    0.40527E+05         0.47584E+07         0.00000E+00
    0.00000E+00         0.00000E+00         0.00000E+00
 
   -0.85263E+06         0.12083E+06         0.00000E+00
    0.12083E+06         0.47581E+07         0.00000E+00
    0.00000E+00         0.00000E+00         0.00000E+00
 
   -0.83603E+06         0.20086E+06         0.00000E+00
    0.20086E+06         0.47577E+07         0.00000E+00
    0.00000E+00         0.00000E+00         0.00000E+00
 
   -0.81921E+06         0.28059E+06         0.00000E+00
    0.28059E+06         0.47570E+07         0.00000E+00
    0.00000E+00         0.00000E+00         0.00000E+00
 
   -0.80221E+06         0.36001E+06         0.00000E+00
    0.36001E+06         0.47561E+07         0.00000E+00
    0.00000E+00         0.00000E+00         0.00000E+00
 
   -0.78503E+06         0.43914E+06         0.00000E+00
    0.43914E+06         0.47550E+07         0.00000E+00
    0.00000E+00         0.00000E+00         0.00000E+00
 
   -0.76769E+06         0.51795E+06         0.00000E+00
    0.51795E+06         0.47537E+07         0.00000E+00
    0.00000E+00         0.00000E+00         0.00000E+00
 
   -0.75021E+06         0.59644E+06         0.00000E+00
    0.59644E+06         0.47522E+07         0.00000E+00
    0.00000E+00         0.00000E+00         0.00000E+00
 
   -0.73259E+06         0.67462E+06         0.00000E+00
    0.67462E+06         0.47505E+07         0.00000E+00
    0.00000E+00         0.00000E+00         0.00000E+00
 
   -0.71486E+06         0.75247E+06         0.00000E+00
    0.75247E+06         0.47486E+07         0.00000E+00
    0.00000E+00         0.00000E+00         0.00000E+00
 
   -0.69702E+06         0.83000E+06         0.00000E+00
    0.83000E+06         0.47466E+07         0.00000E+00
    0.00000E+00         0.00000E+00         0.00000E+00
 
   -0.67909E+06         0.90720E+06         0.00000E+00
    0.90720E+06         0.47444E+07         0.00000E+00
    0.00000E+00         0.00000E+00         0.00000E+00
 
   -0.66109E+06         0.98409E+06         0.00000E+00
    0.98409E+06         0.47420E+07         0.00000E+00
    0.00000E+00         0.00000E+00         0.00000E+00
 
   -0.64303E+06         0.10606E+07         0.00000E+00
    0.10606E+07         0.47394E+07         0.00000E+00
    0.00000E+00         0.00000E+00         0.00000E+00
 
   -0.62493E+06         0.11369E+07         0.00000E+00
    0.11369E+07         0.47367E+07         0.00000E+00
    0.00000E+00         0.00000E+00         0.00000E+00
 
   -0.60678E+06         0.12128E+07         0.00000E+00
    0.12128E+07         0.47339E+07         0.00000E+00
    0.00000E+00         0.00000E+00         0.00000E+00
 
   -0.58862E+06         0.12884E+07         0.00000E+00
    0.12884E+07         0.47309E+07         0.00000E+00
    0.00000E+00         0.00000E+00         0.00000E+00
 
   -0.57044E+06         0.13637E+07         0.00000E+00
    0.13637E+07         0.47278E+07         0.00000E+00
    0.00000E+00         0.00000E+00         0.00000E+00
 
   -0.55226E+06         0.14387E+07         0.00000E+00
    0.14387E+07         0.47245E+07         0.00000E+00
    0.00000E+00         0.00000E+00         0.00000E+00
 
   -0.53410E+06         0.15134E+07         0.00000E+00
    0.15134E+07         0.47211E+07         0.00000E+00
    0.00000E+00         0.00000E+00         0.00000E+00
 
   -0.51595E+06         0.15878E+07         0.00000E+00
    0.15878E+07         0.47176E+07         0.00000E+00
    0.00000E+00         0.00000E+00         0.00000E+00
 
   -0.49782E+06         0.16619E+07         0.00000E+00
    0.16619E+07         0.47139E+07         0.00000E+00
    0.00000E+00         0.00000E+00         0.00000E+00
 
   -0.47974E+06         0.17357E+07         0.00000E+00
    0.17357E+07         0.47101E+07         0.00000E+00
    0.00000E+00         0.00000E+00         0.00000E+00
 
   -0.46170E+06         0.18093E+07         0.00000E+00
    0.18093E+07         0.47062E+07         0.00000E+00
    0.00000E+00         0.00000E+00         0.00000E+00
 
   -0.44370E+06         0.18826E+07         0.00000E+00
    0.18826E+07         0.47022E+07         0.00000E+00
    0.00000E+00         0.00000E+00         0.00000E+00
 
   -0.42576E+06         0.19557E+07         0.00000E+00
    0.19557E+07         0.46980E+07         0.00000E+00
    0.00000E+00         0.00000E+00         0.00000E+00
 
   -0.40788E+06         0.20285E+07         0.00000E+00
    0.20285E+07         0.46937E+07         0.00000E+00
    0.00000E+00         0.00000E+00         0.00000E+00
 
   -0.39007E+06         0.21010E+07         0.00000E+00
    0.21010E+07         0.46893E+07         0.00000E+00
    0.00000E+00         0.00000E+00         0.00000E+00
 
   -0.37232E+06         0.21733E+07         0.00000E+00
    0.21733E+07         0.46848E+07         0.00000E+00
    0.00000E+00         0.00000E+00         0.00000E+00
 
   -0.35463E+06         0.22455E+07         0.00000E+00
    0.22455E+07         0.46802E+07         0.00000E+00
    0.00000E+00         0.00000E+00         0.00000E+00
 
   -0.33702E+06         0.23174E+07         0.00000E+00
    0.23174E+07         0.46754E+07         0.00000E+00
    0.00000E+00         0.00000E+00         0.00000E+00
 
   -0.31947E+06         0.23891E+07         0.00000E+00
    0.23891E+07         0.46705E+07         0.00000E+00
    0.00000E+00         0.00000E+00         0.00000E+00
 
   -0.30199E+06         0.24606E+07         0.00000E+00
    0.24606E+07         0.46654E+07         0.00000E+00
    0.00000E+00         0.00000E+00         0.00000E+00
 
   -0.28457E+06         0.25320E+07         0.00000E+00
    0.25320E+07         0.46602E+07         0.00000E+00
    0.00000E+00         0.00000E+00         0.00000E+00
 
   -0.26721E+06         0.26031E+07         0.00000E+00
    0.26031E+07         0.46549E+07         0.00000E+00
    0.00000E+00         0.00000E+00         0.00000E+00
 
   -0.24992E+06         0.26742E+07         0.00000E+00
    0.26742E+07         0.46494E+07         0.00000E+00
    0.00000E+00         0.00000E+00         0.00000E+00
 
   -0.23267E+06         0.27451E+07         0.00000E+00
    0.27451E+07         0.46438E+07         0.00000E+00
    0.00000E+00         0.00000E+00         0.00000E+00
 
   -0.21547E+06         0.28158E+07         0.00000E+00
    0.28158E+07         0.46380E+07         0.00000E+00
    0.00000E+00         0.00000E+00         0.00000E+00
 
   -0.19830E+06         0.28864E+07         0.00000E+00
    0.28864E+07         0.46320E+07         0.00000E+00
    0.00000E+00         0.00000E+00         0.00000E+00
 
   -0.18117E+06         0.29569E+07         0.00000E+00
    0.29569E+07         0.46258E+07         0.00000E+00
    0.00000E+00         0.00000E+00         0.00000E+00
 
   -0.16405E+06         0.30273E+07         0.00000E+00
    0.30273E+07         0.46195E+07         0.00000E+00
    0.00000E+00         0.00000E+00         0.00000E+00
 
   -0.14694E+06         0.30977E+07         0.00000E+00
    0.30977E+07         0.46130E+07         0.00000E+00
    0.00000E+00         0.00000E+00         0.00000E+00
 
   -0.12983E+06         0.31679E+07         0.00000E+00
    0.31679E+07         0.46062E+07         0.00000E+00
    0.00000E+00         0.00000E+00         0.00000E+00
 
   -0.11271E+06         0.32380E+07         0.00000E+00
    0.32380E+07         0.45993E+07         0.00000E+00
    0.00000E+00         0.00000E+00         0.00000E+00
 
   -0.95555E+05         0.33081E+07         0.00000E+00
    0.33081E+07         0.45921E+07         0.00000E+00
    0.00000E+00         0.00000E+00         0.00000E+00
 
   -0.78357E+05         0.33781E+07         0.00000E+00
    0.33781E+07         0.45846E+07         0.00000E+00
    0.00000E+00         0.00000E+00         0.00000E+00
 
   -0.61099E+05         0.34481E+07         0.00000E+00
    0.34481E+07         0.45770E+07         0.00000E+00
    0.00000E+00         0.00000E+00         0.00000E+00
 
   -0.43766E+05         0.35180E+07         0.00000E+00
    0.35180E+07         0.45690E+07         0.00000E+00
    0.00000E+00         0.00000E+00         0.00000E+00
 
   -0.26339E+05         0.35879E+07         0.00000E+00
    0.35879E+07         0.45608E+07         0.00000E+00
    0.00000E+00         0.00000E+00         0.00000E+00
 
   -0.87999E+04         0.36577E+07         0.00000E+00
    0.36577E+07         0.45523E+07         0.00000E+00
    0.00000E+00         0.00000E+00         0.00000E+00
 
   -0.81546E+06         0.39878E+05         0.00000E+00
    0.39878E+05         0.44128E+07         0.00000E+00
    0.00000E+00         0.00000E+00         0.00000E+00
 
   -0.80039E+06         0.11896E+06         0.00000E+00
    0.11896E+06         0.44126E+07         0.00000E+00
    0.00000E+00         0.00000E+00         0.00000E+00
 
   -0.78515E+06         0.19780E+06         0.00000E+00
    0.19780E+06         0.44122E+07         0.00000E+00
    0.00000E+00         0.00000E+00         0.00000E+00
 
   -0.76974E+06         0.27637E+06         0.00000E+00
    0.27637E+06         0.44116E+07         0.00000E+00
    0.00000E+00         0.00000E+00         0.00000E+00
 
   -0.75417E+06         0.35467E+06         0.00000E+00
    0.35467E+06         0.44109E+07         0.00000E+00
    0.00000E+00         0.00000E+00         0.00000E+00
 
   -0.73846E+06         0.43270E+06         0.00000E+00
    0.43270E+06         0.44099E+07         0.00000E+00
    0.00000E+00         0.00000E+00         0.00000E+00
 
   -0.72260E+06         0.51044E+06         0.00000E+00
    0.51044E+06         0.44087E+07         0.00000E+00
    0.00000E+00         0.00000E+00         0.00000E+00
 
   -0.70662E+06         0.58791E+06         0.00000E+00
    0.58791E+06         0.44074E+07         0.00000E+00
    0.00000E+00         0.00000E+00         0.00000E+00
 
   -0.69052E+06         0.66509E+06         0.00000E+00
    0.66509E+06         0.44059E+07         0.00000E+00
    0.00000E+00         0.00000E+00         0.00000E+00
 
   -0.67432E+06         0.74198E+06         0.00000E+00
    0.74198E+06         0.44042E+07         0.00000E+00
    0.00000E+00         0.00000E+00         0.00000E+00
 
   -0.65802E+06         0.81857E+06         0.00000E+00
    0.81857E+06         0.44024E+07         0.00000E+00
    0.00000E+00         0.00000E+00         0.00000E+00
 
   -0.64164E+06         0.89488E+06         0.00000E+00
    0.89488E+06         0.44004E+07         0.00000E+00
    0.00000E+00         0.00000E+00         0.00000E+00
 
   -0.62518E+06         0.97089E+06         0.00000E+00
    0.97089E+06         0.43983E+07         0.00000E+00
    0.00000E+00         0.00000E+00         0.00000E+00
 
   -0.60865E+06         0.10466E+07         0.00000E+00
    0.10466E+07         0.43959E+07         0.00000E+00
    0.00000E+00         0.00000E+00         0.00000E+00
 
   -0.59207E+06         0.11220E+07         0.00000E+00
    0.11220E+07         0.43935E+07         0.00000E+00
    0.00000E+00         0.00000E+00         0.00000E+00
 
   -0.57544E+06         0.11972E+07         0.00000E+00
    0.11972E+07         0.43909E+07         0.00000E+00
    0.00000E+00         0.00000E+00         0.00000E+00
 
   -0.55878E+06         0.12720E+07         0.00000E+00
    0.12720E+07         0.43881E+07         0.00000E+00
    0.00000E+00         0.00000E+00         0.00000E+00
 
   -0.54208E+06         0.13466E+07         0.00000E+00
    0.13466E+07         0.43852E+07         0.00000E+00
    0.00000E+00         0.00000E+00         0.00000E+00
 
   -0.52536E+06         0.14208E+07         0.00000E+00
    0.14208E+07         0.43822E+07         0.00000E+00
    0.00000E+00         0.00000E+00         0.00000E+00
 
   -0.50863E+06         0.14948E+07         0.00000E+00
    0.14948E+07         0.43791E+07         0.00000E+00
    0.00000E+00         0.00000E+00         0.00000E+00
 
   -0.49189E+06         0.15685E+07         0.00000E+00
    0.15685E+07         0.43758E+07         0.00000E+00
    0.00000E+00         0.00000E+00         0.00000E+00
 
   -0.47515E+06         0.16420E+07         0.00000E+00
    0.16420E+07         0.43723E+07         0.00000E+00
    0.00000E+00         0.00000E+00         0.00000E+00
 
   -0.45841E+06         0.17152E+07         0.00000E+00
    0.17152E+07         0.43688E+07         0.00000E+00
    0.00000E+00         0.00000E+00         0.00000E+00
 
   -0.44169E+06         0.17881E+07         0.00000E+00
    0.17881E+07         0.43651E+07         0.00000E+00
    0.00000E+00         0.00000E+00         0.00000E+00
 
   -0.42497E+06         0.18607E+07         0.00000E+00
    0.18607E+07         0.43613E+07         0.00000E+00
    0.00000E+00         0.00000E+00         0.00000E+00
 
   -0.40827E+06         0.19331E+07         0.00000E+00
    0.19331E+07         0.43573E+07         0.00000E+00
    0.00000E+00         0.00000E+00         0.00000E+00
 
   -0.39160E+06         0.20053E+07         0.00000E+00
    0.20053E+07         0.43532E+07         0.00000E+00
    0.00000E+00         0.00000E+00         0.00000E+00
 
   -0.37494E+06         0.20772E+07         0.00000E+00
    0.20772E+07         0.43490E+07         0.00000E+00
    0.00000E+00         0.00000E+00         0.00000E+00
 
   -0.35831E+06         0.21489E+07         0.00000E+00
    0.21489E+07         0.43447E+07         0.00000E+00
    0.00000E+00         0.00000E+00         0.00000E+00
 
   -0.34171E+06         0.22204E+07         0.00000E+00
    0.22204E+07         0.43402E+07         0.00000E+00
    0.00000E+00         0.00000E+00         0.00000E+00
 
   -0.32513E+06         0.22917E+07         0.00000E+00
    0.22917E+07         0.43356E+07         0.00000E+00
    0.00000E+00         0.00000E+00         0.00000E+00
 
   -0.30857E+06         0.23627E+07         0.00000E+00
    0.23627E+07         0.43308E+07         0.00000E+00
    0.00000E+00         0.00000E+00         0.00000E+00
 
   -0.29204E+06         0.24336E+07         0.00000E+00
    0.24336E+07         0.43259E+07         0.00000E+00
    0.00000E+00         0.00000E+00         0.00000E+00
 
   -0.27552E+06         0.25043E+07         0.00000E+00
    0.25043E+07         0.43208E+07         0.00000E+00
    0.00000E+00         0.00000E+00         0.00000E+00
 
   -0.25902E+06         0.25748E+07         0.00000E+00
    0.25748E+07         0.43156E+07         0.00000E+00
    0.00000E+00         0.00000E+00         0.00000E+00
 
   -0.24254E+06         0.26451E+07         0.00000E+00
    0.26451E+07         0.43103E+07         0.00000E+00
    0.00000E+00         0.00000E+00         0.00000E+00
 
   -0.22606E+06         0.27152E+07         0.00000E+00
    0.27152E+07         0.43047E+07         0.00000E+00
    0.00000E+00         0.00000E+00         0.00000E+00
 
   -0.20958E+06         0.27852E+07         0.00000E+00
    0.27852E+07         0.42990E+07         0.00000E+00
    0.00000E+00         0.00000E+00         0.00000E+00
 
   -0.19309E+06         0.28550E+07         0.00000E+00
    0.28550E+07         0.42932E+07         0.00000E+00
    0.00000E+00         0.00000E+00         0.00000E+00
 
   -0.17660E+06         0.29246E+07         0.00000E+00
    0.29246E+07         0.42871E+07         0.00000E+00
    0.00000E+00         0.00000E+00         0.00000E+00
 
   -0.16008E+06         0.29942E+07         0.00000E+00
    0.29942E+07         0.42809E+07         0.00000E+00
    0.00000E+00         0.00000E+00         0.00000E+00
 
   -0.14353E+06         0.30636E+07         0.00000E+00
    0.30636E+07         0.42744E+07         0.00000E+00
    0.00000E+00         0.00000E+00         0.00000E+00
 
   -0.12694E+06         0.31328E+07         0.00000E+00
    0.31328E+07         0.42678E+07         0.00000E+00
    0.00000E+00         0.00000E+00         0.00000E+00
 
   -0.11030E+06         0.32020E+07         0.00000E+00
    0.32020E+07         0.42609E+07         0.00000E+00
    0.00000E+00         0.00000E+00         0.00000E+00
 
   -0.93592E+05         0.32710E+07         0.00000E+00
    0.32710E+07         0.42538E+07         0.00000E+00
    0.00000E+00         0.00000E+00         0.00000E+00
 
   -0.76811E+05         0.33399E+07         0.00000E+00
    0.33399E+07         0.42465E+07         0.00000E+00
    0.00000E+00         0.00000E+00         0.00000E+00
 
   -0.59940E+05         0.34087E+07         0.00000E+00
    0.34087E+07         0.42389E+07         0.00000E+00
    0.00000E+00         0.00000E+00         0.00000E+00
 
   -0.42966E+05         0.34775E+07         0.00000E+00
    0.34775E+07         0.42311E+07         0.00000E+00
    0.00000E+00         0.00000E+00         0.00000E+00
 
   -0.25874E+05         0.35461E+07         0.00000E+00
    0.35461E+07         0.42230E+07         0.00000E+00
    0.00000E+00         0.00000E+00         0.00000E+00
 
   -0.86483E+04         0.36146E+07         0.00000E+00
    0.36146E+07         0.42146E+07         0.00000E+00
    0.00000E+00         0.00000E+00         0.00000E+00
 
   -0.76081E+06         0.39314E+05         0.00000E+00
    0.39314E+05         0.40742E+07         0.00000E+00
    0.00000E+00         0.00000E+00         0.00000E+00
 
   -0.74695E+06         0.11732E+06         0.00000E+00
    0.11732E+06         0.40740E+07         0.00000E+00
    0.00000E+00         0.00000E+00         0.00000E+00
 
   -0.73294E+06         0.19510E+06         0.00000E+00
    0.19510E+06         0.40737E+07         0.00000E+00
    0.00000E+00         0.00000E+00         0.00000E+00
 
   -0.71880E+06         0.27264E+06         0.00000E+00
    0.27264E+06         0.40732E+07         0.00000E+00
    0.00000E+00         0.00000E+00         0.00000E+00
 
   -0.70453E+06         0.34993E+06         0.00000E+00
    0.34993E+06         0.40725E+07         0.00000E+00
    0.00000E+00         0.00000E+00         0.00000E+00
 
   -0.69014E+06         0.42696E+06         0.00000E+00
    0.42696E+06         0.40716E+07         0.00000E+00
    0.00000E+00         0.00000E+00         0.00000E+00
 
   -0.67564E+06         0.50374E+06         0.00000E+00
    0.50374E+06         0.40706E+07         0.00000E+00
    0.00000E+00         0.00000E+00         0.00000E+00
 
   -0.66103E+06         0.58026E+06         0.00000E+00
    0.58026E+06         0.40695E+07         0.00000E+00
    0.00000E+00         0.00000E+00         0.00000E+00
 
   -0.64632E+06         0.65652E+06         0.00000E+00
    0.65652E+06         0.40681E+07         0.00000E+00
    0.00000E+00         0.00000E+00         0.00000E+00
 
   -0.63151E+06         0.73251E+06         0.00000E+00
    0.73251E+06         0.40667E+07         0.00000E+00
    0.00000E+00         0.00000E+00         0.00000E+00
 
   -0.61662E+06         0.80823E+06         0.00000E+00
    0.80823E+06         0.40650E+07         0.00000E+00
    0.00000E+00         0.00000E+00         0.00000E+00
 
   -0.60165E+06         0.88369E+06         0.00000E+00
    0.88369E+06         0.40632E+07         0.00000E+00
    0.00000E+00         0.00000E+00         0.00000E+00
 
   -0.58661E+06         0.95886E+06         0.00000E+00
    0.95886E+06         0.40613E+07         0.00000E+00
    0.00000E+00         0.00000E+00         0.00000E+00
 
   -0.57150E+06         0.10338E+07         0.00000E+00
    0.10338E+07         0.40592E+07         0.00000E+00
    0.00000E+00         0.00000E+00         0.00000E+00
 
   -0.55633E+06         0.11084E+07         0.00000E+00
    0.11084E+07         0.40570E+07         0.00000E+00
    0.00000E+00         0.00000E+00         0.00000E+00
 
   -0.54112E+06         0.11828E+07         0.00000E+00
    0.11828E+07         0.40547E+07         0.00000E+00
    0.00000E+00         0.00000E+00         0.00000E+00
 
   -0.52585E+06         0.12569E+07         0.00000E+00
    0.12569E+07         0.40522E+07         0.00000E+00
    0.00000E+00         0.00000E+00         0.00000E+00
 
   -0.51055E+06         0.13307E+07         0.00000E+00
    0.13307E+07         0.40495E+07         0.00000E+00
    0.00000E+00         0.00000E+00         0.00000E+00
 
   -0.49521E+06         0.14042E+07         0.00000E+00
    0.14042E+07         0.40468E+07         0.00000E+00
    0.00000E+00         0.00000E+00         0.00000E+00
 
   -0.47984E+06         0.14775E+07         0.00000E+00
    0.14775E+07         0.40439E+07         0.00000E+00
    0.00000E+00         0.00000E+00         0.00000E+00
 
   -0.46445E+06         0.15505E+07         0.00000E+00
    0.15505E+07         0.40408E+07         0.00000E+00
    0.00000E+00         0.00000E+00         0.00000E+00
 
   -0.44903E+06         0.16233E+07         0.00000E+00
    0.16233E+07         0.40376E+07         0.00000E+00
    0.00000E+00         0.00000E+00         0.00000E+00
 
   -0.43360E+06         0.16958E+07         0.00000E+00
    0.16958E+07         0.40343E+07         0.00000E+00
    0.00000E+00         0.00000E+00         0.00000E+00
 
   -0.41816E+06         0.17680E+07         0.00000E+00
    0.17680E+07         0.40309E+07         0.00000E+00
    0.00000E+00         0.00000E+00         0.00000E+00
 
   -0.40270E+06         0.18400E+07         0.00000E+00
    0.18400E+07         0.40273E+07         0.00000E+00
    0.00000E+00         0.00000E+00         0.00000E+00
 
   -0.38723E+06         0.19118E+07         0.00000E+00
    0.19118E+07         0.40236E+07         0.00000E+00
    0.00000E+00         0.00000E+00         0.00000E+00
 
   -0.37176E+06         0.19833E+07         0.00000E+00
    0.19833E+07         0.40198E+07         0.00000E+00
    0.00000E+00         0.00000E+00         0.00000E+00
 
   -0.35628E+06         0.20546E+07         0.00000E+00
    0.20546E+07         0.40158E+07         0.00000E+00
    0.00000E+00         0.00000E+00         0.00000E+00
 
   -0.34080E+06         0.21256E+07         0.00000E+00
    0.21256E+07         0.40117E+07         0.00000E+00
    0.00000E+00         0.00000E+00         0.00000E+00
 
   -0.32531E+06         0.21964E+07         0.00000E+00
    0.21964E+07         0.40075E+07         0.00000E+00
    0.00000E+00         0.00000E+00         0.00000E+00
 
   -0.30981E+06         0.22670E+07         0.00000E+00
    0.22670E+07         0.40031E+07         0.00000E+00
    0.00000E+00         0.00000E+00         0.00000E+00
 
   -0.29431E+06         0.23374E+07         0.00000E+00
    0.23374E+07         0.39985E+07         0.00000E+00
    0.00000E+00         0.00000E+00         0.00000E+00
 
   -0.27880E+06         0.24075E+07         0.00000E+00
    0.24075E+07         0.39939E+07         0.00000E+00
    0.00000E+00         0.00000E+00         0.00000E+00
 
   -0.26327E+06         0.24775E+07         0.00000E+00
    0.24775E+07         0.39890E+07         0.00000E+00
    0.00000E+00         0.00000E+00         0.00000E+00
 
   -0.24773E+06         0.25472E+07         0.00000E+00
    0.25472E+07         0.39840E+07         0.00000E+00
    0.00000E+00         0.00000E+00         0.00000E+00
 
   -0.23217E+06         0.26168E+07         0.00000E+00
    0.26168E+07         0.39789E+07         0.00000E+00
    0.00000E+00         0.00000E+00         0.00000E+00
 
   -0.21658E+06         0.26861E+07         0.00000E+00
    0.26861E+07         0.39736E+07         0.00000E+00
    0.00000E+00         0.00000E+00         0.00000E+00
 
   -0.20096E+06         0.27553E+07         0.00000E+00
    0.27553E+07         0.39681E+07         0.00000E+00
    0.00000E+00         0.00000E+00         0.00000E+00
 
   -0.18531E+06         0.28243E+07         0.00000E+00
    0.28243E+07         0.39624E+07         0.00000E+00
    0.00000E+00         0.00000E+00         0.00000E+00
 
   -0.16962E+06         0.28931E+07         0.00000E+00
    0.28931E+07         0.39565E+07         0.00000E+00
    0.00000E+00         0.00000E+00         0.00000E+00
 
   -0.15387E+06         0.29618E+07         0.00000E+00
    0.29618E+07         0.39505E+07         0.00000E+00
    0.00000E+00         0.00000E+00         0.00000E+00
 
   -0.13807E+06         0.30303E+07         0.00000E+00
    0.30303E+07         0.39443E+07         0.00000E+00
    0.00000E+00         0.00000E+00         0.00000E+00
 
   -0.12220E+06         0.30986E+07         0.00000E+00
    0.30986E+07         0.39378E+07         0.00000E+00
    0.00000E+00         0.00000E+00         0.00000E+00
 
   -0.10625E+06         0.31667E+07         0.00000E+00
    0.31667E+07         0.39312E+07         0.00000E+00
    0.00000E+00         0.00000E+00         0.00000E+00
 
   -0.90216E+05         0.32347E+07         0.00000E+00
    0.32347E+07         0.39243E+07         0.00000E+00
    0.00000E+00         0.00000E+00         0.00000E+00
 
   -0.74086E+05         0.33026E+07         0.00000E+00
    0.33026E+07         0.39172E+07         0.00000E+00
    0.00000E+00         0.00000E+00         0.00000E+00
 
   -0.57847E+05         0.33703E+07         0.00000E+00
    0.33703E+07         0.39099E+07         0.00000E+00
    0.00000E+00         0.00000E+00         0.00000E+00
 
   -0.41487E+05         0.34379E+07         0.00000E+00
    0.34379E+07         0.39023E+07         0.00000E+00
    0.00000E+00         0.00000E+00         0.00000E+00
 
   -0.24995E+05         0.35053E+07         0.00000E+00
    0.35053E+07         0.38944E+07         0.00000E+00
    0.00000E+00         0.00000E+00         0.00000E+00
 
   -0.83571E+04         0.35725E+07         0.00000E+00
    0.35725E+07         0.38863E+07         0.00000E+00
    0.00000E+00         0.00000E+00         0.00000E+00
 
   -0.70478E+06         0.38827E+05         0.00000E+00
    0.38827E+05         0.37420E+07         0.00000E+00
    0.00000E+00         0.00000E+00         0.00000E+00
 
   -0.69204E+06         0.11589E+06         0.00000E+00
    0.11589E+06         0.37419E+07         0.00000E+00
    0.00000E+00         0.00000E+00         0.00000E+00
 
   -0.67919E+06         0.19274E+06         0.00000E+00
    0.19274E+06         0.37416E+07         0.00000E+00
    0.00000E+00         0.00000E+00         0.00000E+00
 
   -0.66624E+06         0.26936E+06         0.00000E+00
    0.26936E+06         0.37411E+07         0.00000E+00
    0.00000E+00         0.00000E+00         0.00000E+00
 
   -0.65318E+06         0.34574E+06         0.00000E+00
    0.34574E+06         0.37405E+07         0.00000E+00
    0.00000E+00         0.00000E+00         0.00000E+00
 
   -0.64002E+06         0.42189E+06         0.00000E+00
    0.42189E+06         0.37398E+07         0.00000E+00
    0.00000E+00         0.00000E+00         0.00000E+00
 
   -0.62677E+06         0.49780E+06         0.00000E+00
    0.49780E+06         0.37389E+07         0.00000E+00
    0.00000E+00         0.00000E+00         0.00000E+00
 
   -0.61344E+06         0.57346E+06         0.00000E+00
    0.57346E+06         0.37379E+07         0.00000E+00
    0.00000E+00         0.00000E+00         0.00000E+00
 
   -0.60002E+06         0.64888E+06         0.00000E+00
    0.64888E+06         0.37367E+07         0.00000E+00
    0.00000E+00         0.00000E+00         0.00000E+00
 
   -0.58651E+06         0.72404E+06         0.00000E+00
    0.72404E+06         0.37355E+07         0.00000E+00
    0.00000E+00         0.00000E+00         0.00000E+00
 
   -0.57294E+06         0.79895E+06         0.00000E+00
    0.79895E+06         0.37340E+07         0.00000E+00
    0.00000E+00         0.00000E+00         0.00000E+00
 
   -0.55929E+06         0.87361E+06         0.00000E+00
    0.87361E+06         0.37324E+07         0.00000E+00
    0.00000E+00         0.00000E+00         0.00000E+00
 
   -0.54558E+06         0.94801E+06         0.00000E+00
    0.94801E+06         0.37307E+07         0.00000E+00
    0.00000E+00         0.00000E+00         0.00000E+00
 
   -0.53181E+06         0.10222E+07         0.00000E+00
    0.10222E+07         0.37289E+07         0.00000E+00
    0.00000E+00         0.00000E+00         0.00000E+00
 
   -0.51798E+06         0.10960E+07         0.00000E+00
    0.10960E+07         0.37269E+07         0.00000E+00
    0.00000E+00         0.00000E+00         0.00000E+00
 
   -0.50410E+06         0.11697E+07         0.00000E+00
    0.11697E+07         0.37248E+07         0.00000E+00
    0.00000E+00         0.00000E+00         0.00000E+00
 
   -0.49017E+06         0.12430E+07         0.00000E+00
    0.12430E+07         0.37225E+07         0.00000E+00
    0.00000E+00         0.00000E+00         0.00000E+00
 
   -0.47619E+06         0.13161E+07         0.00000E+00
    0.13161E+07         0.37202E+07         0.00000E+00
    0.00000E+00         0.00000E+00         0.00000E+00
 
   -0.46217E+06         0.13890E+07         0.00000E+00
    0.13890E+07         0.37177E+07         0.00000E+00
    0.00000E+00         0.00000E+00         0.00000E+00
 
   -0.44812E+06         0.14616E+07         0.00000E+00
    0.14616E+07         0.37150E+07         0.00000E+00
    0.00000E+00         0.00000E+00         0.00000E+00
 
   -0.43403E+06         0.15339E+07         0.00000E+00
    0.15339E+07         0.37123E+07         0.00000E+00
    0.00000E+00         0.00000E+00         0.00000E+00
 
   -0.41991E+06         0.16060E+07         0.00000E+00
    0.16060E+07         0.37094E+07         0.00000E+00
    0.00000E+00         0.00000E+00         0.00000E+00
 
   -0.40575E+06         0.16778E+07         0.00000E+00
    0.16778E+07         0.37063E+07         0.00000E+00
    0.00000E+00         0.00000E+00         0.00000E+00
 
   -0.39157E+06         0.17494E+07         0.00000E+00
    0.17494E+07         0.37032E+07         0.00000E+00
    0.00000E+00         0.00000E+00         0.00000E+00
 
   -0.37736E+06         0.18207E+07         0.00000E+00
    0.18207E+07         0.36999E+07         0.00000E+00
    0.00000E+00         0.00000E+00         0.00000E+00
 
   -0.36313E+06         0.18918E+07         0.00000E+00
    0.18918E+07         0.36965E+07         0.00000E+00
    0.00000E+00         0.00000E+00         0.00000E+00
 
   -0.34887E+06         0.19626E+07         0.00000E+00
    0.19626E+07         0.36929E+07         0.00000E+00
    0.00000E+00         0.00000E+00         0.00000E+00
 
   -0.33458E+06         0.20332E+07         0.00000E+00
    0.20332E+07         0.36892E+07         0.00000E+00
    0.00000E+00         0.00000E+00         0.00000E+00
 
   -0.32027E+06         0.21036E+07         0.00000E+00
    0.21036E+07         0.36854E+07         0.00000E+00
    0.00000E+00         0.00000E+00         0.00000E+00
 
   -0.30594E+06         0.21737E+07         0.00000E+00
    0.21737E+07         0.36814E+07         0.00000E+00
    0.00000E+00         0.00000E+00         0.00000E+00
 
   -0.29157E+06         0.22436E+07         0.00000E+00
    0.22436E+07         0.36773E+07         0.00000E+00
    0.00000E+00         0.00000E+00         0.00000E+00
 
   -0.27718E+06         0.23133E+07         0.00000E+00
    0.23133E+07         0.36731E+07         0.00000E+00
    0.00000E+00         0.00000E+00         0.00000E+00
 
   -0.26276E+06         0.23828E+07         0.00000E+00
    0.23828E+07         0.36687E+07         0.00000E+00
    0.00000E+00         0.00000E+00         0.00000E+00
 
   -0.24830E+06         0.24520E+07         0.00000E+00
    0.24520E+07         0.36641E+07         0.00000E+00
    0.00000E+00         0.00000E+00         0.00000E+00
 
   -0.23380E+06         0.25210E+07         0.00000E+00
    0.25210E+07         0.36594E+07         0.00000E+00
    0.00000E+00         0.00000E+00         0.00000E+00
 
   -0.21926E+06         0.25898E+07         0.00000E+00
    0.25898E+07         0.36546E+07         0.00000E+00
    0.00000E+00         0.00000E+00         0.00000E+00
 
   -0.20468E+06         0.26584E+07         0.00000E+00
    0.26584E+07         0.36495E+07         0.00000E+00
    0.00000E+00         0.00000E+00         0.00000E+00
 
   -0.19005E+06         0.27268E+07         0.00000E+00
    0.27268E+07         0.36443E+07         0.00000E+00
    0.00000E+00         0.00000E+00         0.00000E+00
 
   -0.17535E+06         0.27950E+07         0.00000E+00
    0.27950E+07         0.36389E+07         0.00000E+00
    0.00000E+00         0.00000E+00         0.00000E+00
 
   -0.16060E+06         0.28629E+07         0.00000E+00
    0.28629E+07         0.36334E+07         0.00000E+00
    0.00000E+00         0.00000E+00         0.00000E+00
 
   -0.14578E+06         0.29307E+07         0.00000E+00
    0.29307E+07         0.36277E+07         0.00000E+00
    0.00000E+00         0.00000E+00         0.00000E+00
 
   -0.13088E+06         0.29983E+07         0.00000E+00
    0.29983E+07         0.36217E+07         0.00000E+00
    0.00000E+00         0.00000E+00         0.00000E+00
 
   -0.11590E+06         0.30657E+07         0.00000E+00
    0.30657E+07         0.36156E+07         0.00000E+00
    0.00000E+00         0.00000E+00         0.00000E+00
 
   -0.10083E+06         0.31329E+07         0.00000E+00
    0.31329E+07         0.36093E+07         0.00000E+00
    0.00000E+00         0.00000E+00         0.00000E+00
 
   -0.85654E+05         0.31999E+07         0.00000E+00
    0.31999E+07         0.36027E+07         0.00000E+00
    0.00000E+00         0.00000E+00         0.00000E+00
 
   -0.70371E+05         0.32667E+07         0.00000E+00
    0.32667E+07         0.35960E+07         0.00000E+00
    0.00000E+00         0.00000E+00         0.00000E+00
 
   -0.54970E+05         0.33334E+07         0.00000E+00
    0.33334E+07         0.35890E+07         0.00000E+00
    0.00000E+00         0.00000E+00         0.00000E+00
 
   -0.39440E+05         0.33998E+07         0.00000E+00
    0.33998E+07         0.35817E+07         0.00000E+00
    0.00000E+00         0.00000E+00         0.00000E+00
 
   -0.23770E+05         0.34661E+07         0.00000E+00
    0.34661E+07         0.35743E+07         0.00000E+00
    0.00000E+00         0.00000E+00         0.00000E+00
 
   -0.79492E+04         0.35322E+07         0.00000E+00
    0.35322E+07         0.35666E+07         0.00000E+00
    0.00000E+00         0.00000E+00         0.00000E+00
 
   -0.64717E+06         0.38408E+05         0.00000E+00
    0.38408E+05         0.34158E+07         0.00000E+00
    0.00000E+00         0.00000E+00         0.00000E+00
 
   -0.63550E+06         0.11465E+06         0.00000E+00
    0.11465E+06         0.34157E+07         0.00000E+00
    0.00000E+00         0.00000E+00         0.00000E+00
 
   -0.62376E+06         0.19068E+06         0.00000E+00
    0.19068E+06         0.34155E+07         0.00000E+00
    0.00000E+00         0.00000E+00         0.00000E+00
 
   -0.61193E+06         0.26649E+06         0.00000E+00
    0.26649E+06         0.34151E+07         0.00000E+00
    0.00000E+00         0.00000E+00         0.00000E+00
 
   -0.60003E+06         0.34208E+06         0.00000E+00
    0.34208E+06         0.34146E+07         0.00000E+00
    0.00000E+00         0.00000E+00         0.00000E+00
 
   -0.58805E+06         0.41744E+06         0.00000E+00
    0.41744E+06         0.34140E+07         0.00000E+00
    0.00000E+00         0.00000E+00         0.00000E+00
 
   -0.57599E+06         0.49256E+06         0.00000E+00
    0.49256E+06         0.34132E+07         0.00000E+00
    0.00000E+00         0.00000E+00         0.00000E+00
 
   -0.56387E+06         0.56746E+06         0.00000E+00
    0.56746E+06         0.34123E+07         0.00000E+00
    0.00000E+00         0.00000E+00         0.00000E+00
 
   -0.55167E+06         0.64211E+06         0.00000E+00
    0.64211E+06         0.34113E+07         0.00000E+00
    0.00000E+00         0.00000E+00         0.00000E+00
 
   -0.53941E+06         0.71653E+06         0.00000E+00
    0.71653E+06         0.34102E+07         0.00000E+00
    0.00000E+00         0.00000E+00         0.00000E+00
 
   -0.52709E+06         0.79070E+06         0.00000E+00
    0.79070E+06         0.34089E+07         0.00000E+00
    0.00000E+00         0.00000E+00         0.00000E+00
 
   -0.51471E+06         0.86463E+06         0.00000E+00
    0.86463E+06         0.34076E+07         0.00000E+00
    0.00000E+00         0.00000E+00         0.00000E+00
 
   -0.50227E+06         0.93830E+06         0.00000E+00
    0.93830E+06         0.34061E+07         0.00000E+00
    0.00000E+00         0.00000E+00         0.00000E+00
 
   -0.48978E+06         0.10117E+07         0.00000E+00
    0.10117E+07         0.34044E+07         0.00000E+00
    0.00000E+00         0.00000E+00         0.00000E+00
 
   -0.47723E+06         0.10849E+07         0.00000E+00
    0.10849E+07         0.34027E+07         0.00000E+00
    0.00000E+00         0.00000E+00         0.00000E+00
 
   -0.46463E+06         0.11578E+07         0.00000E+00
    0.11578E+07         0.34008E+07         0.00000E+00
    0.00000E+00         0.00000E+00         0.00000E+00
 
   -0.45199E+06         0.12305E+07         0.00000E+00
    0.12305E+07         0.33988E+07         0.00000E+00
    0.00000E+00         0.00000E+00         0.00000E+00
 
   -0.43930E+06         0.13030E+07         0.00000E+00
    0.13030E+07         0.33967E+07         0.00000E+00
    0.00000E+00         0.00000E+00         0.00000E+00
 
   -0.42657E+06         0.13751E+07         0.00000E+00
    0.13751E+07         0.33945E+07         0.00000E+00
    0.00000E+00         0.00000E+00         0.00000E+00
 
   -0.41380E+06         0.14471E+07         0.00000E+00
    0.14471E+07         0.33921E+07         0.00000E+00
    0.00000E+00         0.00000E+00         0.00000E+00
 
   -0.40098E+06         0.15187E+07         0.00000E+00
    0.15187E+07         0.33896E+07         0.00000E+00
    0.00000E+00         0.00000E+00         0.00000E+00
 
   -0.38813E+06         0.15902E+07         0.00000E+00
    0.15902E+07         0.33870E+07         0.00000E+00
    0.00000E+00         0.00000E+00         0.00000E+00
 
   -0.37525E+06         0.16613E+07         0.00000E+00
    0.16613E+07         0.33843E+07         0.00000E+00
    0.00000E+00         0.00000E+00         0.00000E+00
 
   -0.36232E+06         0.17323E+07         0.00000E+00
    0.17323E+07         0.33814E+07         0.00000E+00
    0.00000E+00         0.00000E+00         0.00000E+00
 
   -0.34936E+06         0.18029E+07         0.00000E+00
    0.18029E+07         0.33784E+07         0.00000E+00
    0.00000E+00         0.00000E+00         0.00000E+00
 
   -0.33636E+06         0.18734E+07         0.00000E+00
    0.18734E+07         0.33753E+07         0.00000E+00
    0.00000E+00         0.00000E+00         0.00000E+00
 
   -0.32333E+06         0.19435E+07         0.00000E+00
    0.19435E+07         0.33721E+07         0.00000E+00
    0.00000E+00         0.00000E+00         0.00000E+00
 
   -0.31026E+06         0.20135E+07         0.00000E+00
    0.20135E+07         0.33687E+07         0.00000E+00
    0.00000E+00         0.00000E+00         0.00000E+00
 
   -0.29716E+06         0.20832E+07         0.00000E+00
    0.20832E+07         0.33652E+07         0.00000E+00
    0.00000E+00         0.00000E+00         0.00000E+00
 
   -0.28401E+06         0.21526E+07         0.00000E+00
    0.21526E+07         0.33616E+07         0.00000E+00
    0.00000E+00         0.00000E+00         0.00000E+00
 
   -0.27083E+06         0.22219E+07         0.00000E+00
    0.22219E+07         0.33578E+07         0.00000E+00
    0.00000E+00         0.00000E+00         0.00000E+00
 
   -0.25760E+06         0.22909E+07         0.00000E+00
    0.22909E+07         0.33539E+07         0.00000E+00
    0.00000E+00         0.00000E+00         0.00000E+00
 
   -0.24433E+06         0.23596E+07         0.00000E+00
    0.23596E+07         0.33498E+07         0.00000E+00
    0.00000E+00         0.00000E+00         0.00000E+00
 
   -0.23101E+06         0.24281E+07         0.00000E+00
    0.24281E+07         0.33456E+07         0.00000E+00
    0.00000E+00         0.00000E+00         0.00000E+00
 
   -0.21763E+06         0.24964E+07         0.00000E+00
    0.24964E+07         0.33412E+07         0.00000E+00
    0.00000E+00         0.00000E+00         0.00000E+00
 
   -0.20421E+06         0.25645E+07         0.00000E+00
    0.25645E+07         0.33367E+07         0.00000E+00
    0.00000E+00         0.00000E+00         0.00000E+00
 
   -0.19072E+06         0.26323E+07         0.00000E+00
    0.26323E+07         0.33320E+07         0.00000E+00
    0.00000E+00         0.00000E+00         0.00000E+00
 
   -0.17717E+06         0.26999E+07         0.00000E+00
    0.26999E+07         0.33272E+07         0.00000E+00
    0.00000E+00         0.00000E+00         0.00000E+00
 
   -0.16356E+06         0.27673E+07         0.00000E+00
    0.27673E+07         0.33222E+07         0.00000E+00
    0.00000E+00         0.00000E+00         0.00000E+00
 
   -0.14987E+06         0.28345E+07         0.00000E+00
    0.28345E+07         0.33170E+07         0.00000E+00
    0.00000E+00         0.00000E+00         0.00000E+00
 
   -0.13610E+06         0.29014E+07         0.00000E+00
    0.29014E+07         0.33116E+07         0.00000E+00
    0.00000E+00         0.00000E+00         0.00000E+00
 
   -0.12224E+06         0.29681E+07         0.00000E+00
    0.29681E+07         0.33061E+07         0.00000E+00
    0.00000E+00         0.00000E+00         0.00000E+00
 
   -0.10829E+06         0.30346E+07         0.00000E+00
    0.30346E+07         0.33004E+07         0.00000E+00
    0.00000E+00         0.00000E+00         0.00000E+00
 
   -0.94248E+05         0.31009E+07         0.00000E+00
    0.31009E+07         0.32944E+07         0.00000E+00
    0.00000E+00         0.00000E+00         0.00000E+00
 
   -0.80095E+05         0.31670E+07         0.00000E+00
    0.31670E+07         0.32883E+07         0.00000E+00
    0.00000E+00         0.00000E+00         0.00000E+00
 
   -0.65827E+05         0.32328E+07         0.00000E+00
    0.32328E+07         0.32820E+07         0.00000E+00
    0.00000E+00         0.00000E+00         0.00000E+00
 
   -0.51437E+05         0.32985E+07         0.00000E+00
    0.32985E+07         0.32754E+07         0.00000E+00
    0.00000E+00         0.00000E+00         0.00000E+00
 
   -0.36916E+05         0.33639E+07         0.00000E+00
    0.33639E+07         0.32686E+07         0.00000E+00
    0.00000E+00         0.00000E+00         0.00000E+00
 
   -0.22254E+05         0.34291E+07         0.00000E+00
    0.34291E+07         0.32616E+07         0.00000E+00
    0.00000E+00         0.00000E+00         0.00000E+00
 
   -0.74437E+04         0.34940E+07         0.00000E+00
    0.34940E+07         0.32544E+07         0.00000E+00
    0.00000E+00         0.00000E+00         0.00000E+00
 
   -0.58783E+06         0.38050E+05         0.00000E+00
    0.38050E+05         0.30952E+07         0.00000E+00
    0.00000E+00         0.00000E+00         0.00000E+00
 
   -0.57722E+06         0.11358E+06         0.00000E+00
    0.11358E+06         0.30951E+07         0.00000E+00
    0.00000E+00         0.00000E+00         0.00000E+00
 
   -0.56655E+06         0.18890E+06         0.00000E+00
    0.18890E+06         0.30949E+07         0.00000E+00
    0.00000E+00         0.00000E+00         0.00000E+00
 
   -0.55583E+06         0.26401E+06         0.00000E+00
    0.26401E+06         0.30946E+07         0.00000E+00
    0.00000E+00         0.00000E+00         0.00000E+00
 
   -0.54504E+06         0.33890E+06         0.00000E+00
    0.33890E+06         0.30942E+07         0.00000E+00
    0.00000E+00         0.00000E+00         0.00000E+00
 
   -0.53420E+06         0.41356E+06         0.00000E+00
    0.41356E+06         0.30937E+07         0.00000E+00
    0.00000E+00         0.00000E+00         0.00000E+00
 
   -0.52330E+06         0.48800E+06         0.00000E+00
    0.48800E+06         0.30930E+07         0.00000E+00
    0.00000E+00         0.00000E+00         0.00000E+00
 
   -0.51235E+06         0.56221E+06         0.00000E+00
    0.56221E+06         0.30923E+07         0.00000E+00
    0.00000E+00         0.00000E+00         0.00000E+00
 
   -0.50135E+06         0.63618E+06         0.00000E+00
    0.63618E+06         0.30914E+07         0.00000E+00
    0.00000E+00         0.00000E+00         0.00000E+00
 
   -0.49029E+06         0.70993E+06         0.00000E+00
    0.70993E+06         0.30904E+07         0.00000E+00
    0.00000E+00         0.00000E+00         0.00000E+00
 
   -0.47919E+06         0.78343E+06         0.00000E+00
    0.78343E+06         0.30894E+07         0.00000E+00
    0.00000E+00         0.00000E+00         0.00000E+00
 
   -0.46803E+06         0.85670E+06         0.00000E+00
    0.85670E+06         0.30882E+07         0.00000E+00
    0.00000E+00         0.00000E+00         0.00000E+00
 
   -0.45683E+06         0.92972E+06         0.00000E+00
    0.92972E+06         0.30869E+07         0.00000E+00
    0.00000E+00         0.00000E+00         0.00000E+00
 
   -0.44558E+06         0.10025E+07         0.00000E+00
    0.10025E+07         0.30855E+07         0.00000E+00
    0.00000E+00         0.00000E+00         0.00000E+00
 
   -0.43428E+06         0.10750E+07         0.00000E+00
    0.10750E+07         0.30840E+07         0.00000E+00
    0.00000E+00         0.00000E+00         0.00000E+00
 
   -0.42294E+06         0.11473E+07         0.00000E+00
    0.11473E+07         0.30823E+07         0.00000E+00
    0.00000E+00         0.00000E+00         0.00000E+00
 
   -0.41156E+06         0.12194E+07         0.00000E+00
    0.12194E+07         0.30806E+07         0.00000E+00
    0.00000E+00         0.00000E+00         0.00000E+00
 
   -0.40013E+06         0.12912E+07         0.00000E+00
    0.12912E+07         0.30787E+07         0.00000E+00
    0.00000E+00         0.00000E+00         0.00000E+00
 
   -0.38866E+06         0.13627E+07         0.00000E+00
    0.13627E+07         0.30768E+07         0.00000E+00
    0.00000E+00         0.00000E+00         0.00000E+00
 
   -0.37716E+06         0.14340E+07         0.00000E+00
    0.14340E+07         0.30747E+07         0.00000E+00
    0.00000E+00         0.00000E+00         0.00000E+00
 
   -0.36561E+06         0.15051E+07         0.00000E+00
    0.15051E+07         0.30725E+07         0.00000E+00
    0.00000E+00         0.00000E+00         0.00000E+00
 
   -0.35403E+06         0.15759E+07         0.00000E+00
    0.15759E+07         0.30702E+07         0.00000E+00
    0.00000E+00         0.00000E+00         0.00000E+00
 
   -0.34240E+06         0.16464E+07         0.00000E+00
    0.16464E+07         0.30677E+07         0.00000E+00
    0.00000E+00         0.00000E+00         0.00000E+00
 
   -0.33074E+06         0.17167E+07         0.00000E+00
    0.17167E+07         0.30652E+07         0.00000E+00
    0.00000E+00         0.00000E+00         0.00000E+00
 
   -0.31903E+06         0.17868E+07         0.00000E+00
    0.17868E+07         0.30625E+07         0.00000E+00
    0.00000E+00         0.00000E+00         0.00000E+00
 
   -0.30729E+06         0.18566E+07         0.00000E+00
    0.18566E+07         0.30597E+07         0.00000E+00
    0.00000E+00         0.00000E+00         0.00000E+00
 
   -0.29550E+06         0.19262E+07         0.00000E+00
    0.19262E+07         0.30568E+07         0.00000E+00
    0.00000E+00         0.00000E+00         0.00000E+00
 
   -0.28367E+06         0.19955E+07         0.00000E+00
    0.19955E+07         0.30538E+07         0.00000E+00
    0.00000E+00         0.00000E+00         0.00000E+00
 
   -0.27180E+06         0.20645E+07         0.00000E+00
    0.20645E+07         0.30506E+07         0.00000E+00
    0.00000E+00         0.00000E+00         0.00000E+00
 
   -0.25989E+06         0.21333E+07         0.00000E+00
    0.21333E+07         0.30473E+07         0.00000E+00
    0.00000E+00         0.00000E+00         0.00000E+00
 
   -0.24792E+06         0.22019E+07         0.00000E+00
    0.22019E+07         0.30439E+07         0.00000E+00
    0.00000E+00         0.00000E+00         0.00000E+00
 
   -0.23591E+06         0.22702E+07         0.00000E+00
    0.22702E+07         0.30404E+07         0.00000E+00
    0.00000E+00         0.00000E+00         0.00000E+00
 
   -0.22385E+06         0.23383E+07         0.00000E+00
    0.23383E+07         0.30367E+07         0.00000E+00
    0.00000E+00         0.00000E+00         0.00000E+00
 
   -0.21173E+06         0.24061E+07         0.00000E+00
    0.24061E+07         0.30328E+07         0.00000E+00
    0.00000E+00         0.00000E+00         0.00000E+00
 
   -0.19955E+06         0.24737E+07         0.00000E+00
    0.24737E+07         0.30289E+07         0.00000E+00
    0.00000E+00         0.00000E+00         0.00000E+00
 
   -0.18732E+06         0.25411E+07         0.00000E+00
    0.25411E+07         0.30247E+07         0.00000E+00
    0.00000E+00         0.00000E+00         0.00000E+00
 
   -0.17502E+06         0.26082E+07         0.00000E+00
    0.26082E+07         0.30205E+07         0.00000E+00
    0.00000E+00         0.00000E+00         0.00000E+00
 
   -0.16265E+06         0.26751E+07         0.00000E+00
    0.26751E+07         0.30160E+07         0.00000E+00
    0.00000E+00         0.00000E+00         0.00000E+00
 
   -0.15020E+06         0.27417E+07         0.00000E+00
    0.27417E+07         0.30115E+07         0.00000E+00
    0.00000E+00         0.00000E+00         0.00000E+00
 
   -0.13768E+06         0.28081E+07         0.00000E+00
    0.28081E+07         0.30067E+07         0.00000E+00
    0.00000E+00         0.00000E+00         0.00000E+00
 
   -0.12507E+06         0.28742E+07         0.00000E+00
    0.28742E+07         0.30018E+07         0.00000E+00
    0.00000E+00         0.00000E+00         0.00000E+00
 
   -0.11238E+06         0.29401E+07         0.00000E+00
    0.29401E+07         0.29967E+07         0.00000E+00
    0.00000E+00         0.00000E+00         0.00000E+00
 
   -0.99587E+05         0.30058E+07         0.00000E+00
    0.30058E+07         0.29914E+07         0.00000E+00
    0.00000E+00         0.00000E+00         0.00000E+00
 
   -0.86696E+05         0.30712E+07         0.00000E+00
    0.30712E+07         0.29860E+07         0.00000E+00
    0.00000E+00         0.00000E+00         0.00000E+00
 
   -0.73698E+05         0.31364E+07         0.00000E+00
    0.31364E+07         0.29803E+07         0.00000E+00
    0.00000E+00         0.00000E+00         0.00000E+00
 
   -0.60586E+05         0.32013E+07         0.00000E+00
    0.32013E+07         0.29745E+07         0.00000E+00
    0.00000E+00         0.00000E+00         0.00000E+00
 
   -0.47353E+05         0.32660E+07         0.00000E+00
    0.32660E+07         0.29685E+07         0.00000E+00
    0.00000E+00         0.00000E+00         0.00000E+00
 
   -0.33993E+05         0.33305E+07         0.00000E+00
    0.33305E+07         0.29622E+07         0.00000E+00
    0.00000E+00         0.00000E+00         0.00000E+00
 
   -0.20496E+05         0.33947E+07         0.00000E+00
    0.33947E+07         0.29558E+07         0.00000E+00
    0.00000E+00         0.00000E+00         0.00000E+00
 
   -0.68567E+04         0.34586E+07         0.00000E+00
    0.34586E+07         0.29491E+07         0.00000E+00
    0.00000E+00         0.00000E+00         0.00000E+00
 
   -0.52670E+06         0.37747E+05         0.00000E+00
    0.37747E+05         0.27797E+07         0.00000E+00
    0.00000E+00         0.00000E+00         0.00000E+00
 
   -0.51713E+06         0.11267E+06         0.00000E+00
    0.11267E+06         0.27797E+07         0.00000E+00
    0.00000E+00         0.00000E+00         0.00000E+00
 
   -0.50754E+06         0.18739E+06         0.00000E+00
    0.18739E+06         0.27795E+07         0.00000E+00
    0.00000E+00         0.00000E+00         0.00000E+00
 
   -0.49790E+06         0.26189E+06         0.00000E+00
    0.26189E+06         0.27792E+07         0.00000E+00
    0.00000E+00         0.00000E+00         0.00000E+00
 
   -0.48822E+06         0.33617E+06         0.00000E+00
    0.33617E+06         0.27789E+07         0.00000E+00
    0.00000E+00         0.00000E+00         0.00000E+00
 
   -0.47850E+06         0.41023E+06         0.00000E+00
    0.41023E+06         0.27784E+07         0.00000E+00
    0.00000E+00         0.00000E+00         0.00000E+00
 
   -0.46874E+06         0.48407E+06         0.00000E+00
    0.48407E+06         0.27779E+07         0.00000E+00
    0.00000E+00         0.00000E+00         0.00000E+00
 
   -0.45895E+06         0.55768E+06         0.00000E+00
    0.55768E+06         0.27773E+07         0.00000E+00
    0.00000E+00         0.00000E+00         0.00000E+00
 
   -0.44911E+06         0.63106E+06         0.00000E+00
    0.63106E+06         0.27765E+07         0.00000E+00
    0.00000E+00         0.00000E+00         0.00000E+00
 
   -0.43924E+06         0.70421E+06         0.00000E+00
    0.70421E+06         0.27757E+07         0.00000E+00
    0.00000E+00         0.00000E+00         0.00000E+00
 
   -0.42933E+06         0.77712E+06         0.00000E+00
    0.77712E+06         0.27748E+07         0.00000E+00
    0.00000E+00         0.00000E+00         0.00000E+00
 
   -0.41938E+06         0.84980E+06         0.00000E+00
    0.84980E+06         0.27738E+07         0.00000E+00
    0.00000E+00         0.00000E+00         0.00000E+00
 
   -0.40939E+06         0.92224E+06         0.00000E+00
    0.92224E+06         0.27727E+07         0.00000E+00
    0.00000E+00         0.00000E+00         0.00000E+00
 
   -0.39936E+06         0.99444E+06         0.00000E+00
    0.99444E+06         0.27715E+07         0.00000E+00
    0.00000E+00         0.00000E+00         0.00000E+00
 
   -0.38930E+06         0.10664E+07         0.00000E+00
    0.10664E+07         0.27702E+07         0.00000E+00
    0.00000E+00         0.00000E+00         0.00000E+00
 
   -0.37920E+06         0.11381E+07         0.00000E+00
    0.11381E+07         0.27688E+07         0.00000E+00
    0.00000E+00         0.00000E+00         0.00000E+00
 
   -0.36907E+06         0.12096E+07         0.00000E+00
    0.12096E+07         0.27673E+07         0.00000E+00
    0.00000E+00         0.00000E+00         0.00000E+00
 
   -0.35890E+06         0.12808E+07         0.00000E+00
    0.12808E+07         0.27657E+07         0.00000E+00
    0.00000E+00         0.00000E+00         0.00000E+00
 
   -0.34869E+06         0.13518E+07         0.00000E+00
    0.13518E+07         0.27640E+07         0.00000E+00
    0.00000E+00         0.00000E+00         0.00000E+00
 
   -0.33844E+06         0.14225E+07         0.00000E+00
    0.14225E+07         0.27622E+07         0.00000E+00
    0.00000E+00         0.00000E+00         0.00000E+00
 
   -0.32816E+06         0.14930E+07         0.00000E+00
    0.14930E+07         0.27603E+07         0.00000E+00
    0.00000E+00         0.00000E+00         0.00000E+00
 
   -0.31784E+06         0.15632E+07         0.00000E+00
    0.15632E+07         0.27583E+07         0.00000E+00
    0.00000E+00         0.00000E+00         0.00000E+00
 
   -0.30748E+06         0.16332E+07         0.00000E+00
    0.16332E+07         0.27562E+07         0.00000E+00
    0.00000E+00         0.00000E+00         0.00000E+00
 
   -0.29709E+06         0.17029E+07         0.00000E+00
    0.17029E+07         0.27540E+07         0.00000E+00
    0.00000E+00         0.00000E+00         0.00000E+00
 
   -0.28666E+06         0.17724E+07         0.00000E+00
    0.17724E+07         0.27516E+07         0.00000E+00
    0.00000E+00         0.00000E+00         0.00000E+00
 
   -0.27618E+06         0.18416E+07         0.00000E+00
    0.18416E+07         0.27492E+07         0.00000E+00
    0.00000E+00         0.00000E+00         0.00000E+00
 
   -0.26567E+06         0.19106E+07         0.00000E+00
    0.19106E+07         0.27466E+07         0.00000E+00
    0.00000E+00         0.00000E+00         0.00000E+00
 
   -0.25511E+06         0.19793E+07         0.00000E+00
    0.19793E+07         0.27440E+07         0.00000E+00
    0.00000E+00         0.00000E+00         0.00000E+00
 
   -0.24451E+06         0.20478E+07         0.00000E+00
    0.20478E+07         0.27412E+07         0.00000E+00
    0.00000E+00         0.00000E+00         0.00000E+00
 
   -0.23386E+06         0.21160E+07         0.00000E+00
    0.21160E+07         0.27383E+07         0.00000E+00
    0.00000E+00         0.00000E+00         0.00000E+00
 
   -0.22316E+06         0.21839E+07         0.00000E+00
    0.21839E+07         0.27352E+07         0.00000E+00
    0.00000E+00         0.00000E+00         0.00000E+00
 
   -0.21241E+06         0.22516E+07         0.00000E+00
    0.22516E+07         0.27321E+07         0.00000E+00
    0.00000E+00         0.00000E+00         0.00000E+00
 
   -0.20161E+06         0.23191E+07         0.00000E+00
    0.23191E+07         0.27288E+07         0.00000E+00
    0.00000E+00         0.00000E+00         0.00000E+00
 
   -0.19076E+06         0.23863E+07         0.00000E+00
    0.23863E+07         0.27254E+07         0.00000E+00
    0.00000E+00         0.00000E+00         0.00000E+00
 
   -0.17984E+06         0.24532E+07         0.00000E+00
    0.24532E+07         0.27218E+07         0.00000E+00
    0.00000E+00         0.00000E+00         0.00000E+00
 
   -0.16886E+06         0.25199E+07         0.00000E+00
    0.25199E+07         0.27182E+07         0.00000E+00
    0.00000E+00         0.00000E+00         0.00000E+00
 
   -0.15782E+06         0.25863E+07         0.00000E+00
    0.25863E+07         0.27143E+07         0.00000E+00
    0.00000E+00         0.00000E+00         0.00000E+00
 
   -0.14671E+06         0.26525E+07         0.00000E+00
    0.26525E+07         0.27104E+07         0.00000E+00
    0.00000E+00         0.00000E+00         0.00000E+00
 
   -0.13552E+06         0.27184E+07         0.00000E+00
    0.27184E+07         0.27062E+07         0.00000E+00
    0.00000E+00         0.00000E+00         0.00000E+00
 
   -0.12426E+06         0.27841E+07         0.00000E+00
    0.27841E+07         0.27020E+07         0.00000E+00
    0.00000E+00         0.00000E+00         0.00000E+00
 
   -0.11291E+06         0.28495E+07         0.00000E+00
    0.28495E+07         0.26976E+07         0.00000E+00
    0.00000E+00         0.00000E+00         0.00000E+00
 
   -0.10147E+06         0.29146E+07         0.00000E+00
    0.29146E+07         0.26930E+07         0.00000E+00
    0.00000E+00         0.00000E+00         0.00000E+00
 
   -0.89947E+05         0.29795E+07         0.00000E+00
    0.29795E+07         0.26882E+07         0.00000E+00
    0.00000E+00         0.00000E+00         0.00000E+00
 
   -0.78323E+05         0.30441E+07         0.00000E+00
    0.30441E+07         0.26833E+07         0.00000E+00
    0.00000E+00         0.00000E+00         0.00000E+00
 
   -0.66595E+05         0.31085E+07         0.00000E+00
    0.31085E+07         0.26782E+07         0.00000E+00
    0.00000E+00         0.00000E+00         0.00000E+00
 
   -0.54758E+05         0.31726E+07         0.00000E+00
    0.31726E+07         0.26730E+07         0.00000E+00
    0.00000E+00         0.00000E+00         0.00000E+00
 
   -0.42807E+05         0.32364E+07         0.00000E+00
    0.32364E+07         0.26675E+07         0.00000E+00
    0.00000E+00         0.00000E+00         0.00000E+00
 
   -0.30735E+05         0.33000E+07         0.00000E+00
    0.33000E+07         0.26619E+07         0.00000E+00
    0.00000E+00         0.00000E+00         0.00000E+00
 
   -0.18535E+05         0.33632E+07         0.00000E+00
    0.33632E+07         0.26560E+07         0.00000E+00
    0.00000E+00         0.00000E+00         0.00000E+00
 
   -0.62012E+04         0.34263E+07         0.00000E+00
    0.34263E+07         0.26500E+07         0.00000E+00
    0.00000E+00         0.00000E+00         0.00000E+00
 
   -0.46375E+06         0.37495E+05         0.00000E+00
    0.37495E+05         0.24688E+07         0.00000E+00
    0.00000E+00         0.00000E+00         0.00000E+00
 
   -0.45524E+06         0.11191E+06         0.00000E+00
    0.11191E+06         0.24688E+07         0.00000E+00
    0.00000E+00         0.00000E+00         0.00000E+00
 
   -0.44671E+06         0.18612E+06         0.00000E+00
    0.18612E+06         0.24686E+07         0.00000E+00
    0.00000E+00         0.00000E+00         0.00000E+00
 
   -0.43816E+06         0.26010E+06         0.00000E+00
    0.26010E+06         0.24684E+07         0.00000E+00
    0.00000E+00         0.00000E+00         0.00000E+00
 
   -0.42959E+06         0.33387E+06         0.00000E+00
    0.33387E+06         0.24681E+07         0.00000E+00
    0.00000E+00         0.00000E+00         0.00000E+00
 
   -0.42099E+06         0.40742E+06         0.00000E+00
    0.40742E+06         0.24678E+07         0.00000E+00
    0.00000E+00         0.00000E+00         0.00000E+00
 
   -0.41237E+06         0.48074E+06         0.00000E+00
    0.48074E+06         0.24673E+07         0.00000E+00
    0.00000E+00         0.00000E+00         0.00000E+00
 
   -0.40372E+06         0.55384E+06         0.00000E+00
    0.55384E+06         0.24668E+07         0.00000E+00
    0.00000E+00         0.00000E+00         0.00000E+00
 
   -0.39505E+06         0.62671E+06         0.00000E+00
    0.62671E+06         0.24662E+07         0.00000E+00
    0.00000E+00         0.00000E+00         0.00000E+00
 
   -0.38635E+06         0.69934E+06         0.00000E+00
    0.69934E+06         0.24656E+07         0.00000E+00
    0.00000E+00         0.00000E+00         0.00000E+00
 
   -0.37763E+06         0.77175E+06         0.00000E+00
    0.77175E+06         0.24648E+07         0.00000E+00
    0.00000E+00         0.00000E+00         0.00000E+00
 
   -0.36888E+06         0.84391E+06         0.00000E+00
    0.84391E+06         0.24640E+07         0.00000E+00
    0.00000E+00         0.00000E+00         0.00000E+00
 
   -0.36010E+06         0.91584E+06         0.00000E+00
    0.91584E+06         0.24631E+07         0.00000E+00
    0.00000E+00         0.00000E+00         0.00000E+00
 
   -0.35129E+06         0.98753E+06         0.00000E+00
    0.98753E+06         0.24621E+07         0.00000E+00
    0.00000E+00         0.00000E+00         0.00000E+00
 
   -0.34246E+06         0.10590E+07         0.00000E+00
    0.10590E+07         0.24610E+07         0.00000E+00
    0.00000E+00         0.00000E+00         0.00000E+00
 
   -0.33360E+06         0.11302E+07         0.00000E+00
    0.11302E+07         0.24599E+07         0.00000E+00
    0.00000E+00         0.00000E+00         0.00000E+00
 
   -0.32471E+06         0.12011E+07         0.00000E+00
    0.12011E+07         0.24586E+07         0.00000E+00
    0.00000E+00         0.00000E+00         0.00000E+00
 
   -0.31579E+06         0.12719E+07         0.00000E+00
    0.12719E+07         0.24573E+07         0.00000E+00
    0.00000E+00         0.00000E+00         0.00000E+00
 
   -0.30684E+06         0.13423E+07         0.00000E+00
    0.13423E+07         0.24559E+07         0.00000E+00
    0.00000E+00         0.00000E+00         0.00000E+00
 
   -0.29786E+06         0.14125E+07         0.00000E+00
    0.14125E+07         0.24543E+07         0.00000E+00
    0.00000E+00         0.00000E+00         0.00000E+00
 
   -0.28885E+06         0.14825E+07         0.00000E+00
    0.14825E+07         0.24527E+07         0.00000E+00
    0.00000E+00         0.00000E+00         0.00000E+00
 
   -0.27981E+06         0.15522E+07         0.00000E+00
    0.15522E+07         0.24510E+07         0.00000E+00
    0.00000E+00         0.00000E+00         0.00000E+00
 
   -0.27073E+06         0.16217E+07         0.00000E+00
    0.16217E+07         0.24492E+07         0.00000E+00
    0.00000E+00         0.00000E+00         0.00000E+00
 
   -0.26163E+06         0.16909E+07         0.00000E+00
    0.16909E+07         0.24473E+07         0.00000E+00
    0.00000E+00         0.00000E+00         0.00000E+00
 
   -0.25248E+06         0.17598E+07         0.00000E+00
    0.17598E+07         0.24454E+07         0.00000E+00
    0.00000E+00         0.00000E+00         0.00000E+00
 
   -0.24330E+06         0.18285E+07         0.00000E+00
    0.18285E+07         0.24433E+07         0.00000E+00
    0.00000E+00         0.00000E+00         0.00000E+00
 
   -0.23408E+06         0.18969E+07         0.00000E+00
    0.18969E+07         0.24411E+07         0.00000E+00
    0.00000E+00         0.00000E+00         0.00000E+00
 
   -0.22482E+06         0.19651E+07         0.00000E+00
    0.19651E+07         0.24388E+07         0.00000E+00
    0.00000E+00         0.00000E+00         0.00000E+00
 
   -0.21552E+06         0.20330E+07         0.00000E+00
    0.20330E+07         0.24364E+07         0.00000E+00
    0.00000E+00         0.00000E+00         0.00000E+00
 
   -0.20618E+06         0.21007E+07         0.00000E+00
    0.21007E+07         0.24339E+07         0.00000E+00
    0.00000E+00         0.00000E+00         0.00000E+00
 
   -0.19679E+06         0.21681E+07         0.00000E+00
    0.21681E+07         0.24312E+07         0.00000E+00
    0.00000E+00         0.00000E+00         0.00000E+00
 
   -0.18735E+06         0.22352E+07         0.00000E+00
    0.22352E+07         0.24285E+07         0.00000E+00
    0.00000E+00         0.00000E+00         0.00000E+00
 
   -0.17787E+06         0.23021E+07         0.00000E+00
    0.23021E+07         0.24257E+07         0.00000E+00
    0.00000E+00         0.00000E+00         0.00000E+00
 
   -0.16832E+06         0.23687E+07         0.00000E+00
    0.23687E+07         0.24227E+07         0.00000E+00
    0.00000E+00         0.00000E+00         0.00000E+00
 
   -0.15873E+06         0.24350E+07         0.00000E+00
    0.24350E+07         0.24196E+07         0.00000E+00
    0.00000E+00         0.00000E+00         0.00000E+00
 
   -0.14907E+06         0.25011E+07         0.00000E+00
    0.25011E+07         0.24164E+07         0.00000E+00
    0.00000E+00         0.00000E+00         0.00000E+00
 
   -0.13935E+06         0.25669E+07         0.00000E+00
    0.25669E+07         0.24131E+07         0.00000E+00
    0.00000E+00         0.00000E+00         0.00000E+00
 
   -0.12957E+06         0.26324E+07         0.00000E+00
    0.26324E+07         0.24096E+07         0.00000E+00
    0.00000E+00         0.00000E+00         0.00000E+00
 
   -0.11971E+06         0.26977E+07         0.00000E+00
    0.26977E+07         0.24060E+07         0.00000E+00
    0.00000E+00         0.00000E+00         0.00000E+00
 
   -0.10978E+06         0.27627E+07         0.00000E+00
    0.27627E+07         0.24022E+07         0.00000E+00
    0.00000E+00         0.00000E+00         0.00000E+00
 
   -0.99779E+05         0.28274E+07         0.00000E+00
    0.28274E+07         0.23984E+07         0.00000E+00
    0.00000E+00         0.00000E+00         0.00000E+00
 
   -0.89692E+05         0.28918E+07         0.00000E+00
    0.28918E+07         0.23943E+07         0.00000E+00
    0.00000E+00         0.00000E+00         0.00000E+00
 
   -0.79519E+05         0.29560E+07         0.00000E+00
    0.29560E+07         0.23902E+07         0.00000E+00
    0.00000E+00         0.00000E+00         0.00000E+00
 
   -0.69255E+05         0.30199E+07         0.00000E+00
    0.30199E+07         0.23858E+07         0.00000E+00
    0.00000E+00         0.00000E+00         0.00000E+00
 
   -0.58896E+05         0.30835E+07         0.00000E+00
    0.30835E+07         0.23813E+07         0.00000E+00
    0.00000E+00         0.00000E+00         0.00000E+00
 
   -0.48436E+05         0.31468E+07         0.00000E+00
    0.31468E+07         0.23767E+07         0.00000E+00
    0.00000E+00         0.00000E+00         0.00000E+00
 
   -0.37871E+05         0.32099E+07         0.00000E+00
    0.32099E+07         0.23719E+07         0.00000E+00
    0.00000E+00         0.00000E+00         0.00000E+00
 
   -0.27195E+05         0.32727E+07         0.00000E+00
    0.32727E+07         0.23669E+07         0.00000E+00
    0.00000E+00         0.00000E+00         0.00000E+00
 
   -0.16402E+05         0.33351E+07         0.00000E+00
    0.33351E+07         0.23617E+07         0.00000E+00
    0.00000E+00         0.00000E+00         0.00000E+00
 
   -0.54882E+04         0.33973E+07         0.00000E+00
    0.33973E+07         0.23564E+07         0.00000E+00
    0.00000E+00         0.00000E+00         0.00000E+00
 
   -0.39901E+06         0.37292E+05         0.00000E+00
    0.37292E+05         0.21620E+07         0.00000E+00
    0.00000E+00         0.00000E+00         0.00000E+00
 
   -0.39157E+06         0.11129E+06         0.00000E+00
    0.11129E+06         0.21620E+07         0.00000E+00
    0.00000E+00         0.00000E+00         0.00000E+00
 
   -0.38412E+06         0.18508E+06         0.00000E+00
    0.18508E+06         0.21619E+07         0.00000E+00
    0.00000E+00         0.00000E+00         0.00000E+00
 
   -0.37667E+06         0.25864E+06         0.00000E+00
    0.25864E+06         0.21617E+07         0.00000E+00
    0.00000E+00         0.00000E+00         0.00000E+00
 
   -0.36921E+06         0.33199E+06         0.00000E+00
    0.33199E+06         0.21615E+07         0.00000E+00
    0.00000E+00         0.00000E+00         0.00000E+00
 
   -0.36173E+06         0.40511E+06         0.00000E+00
    0.40511E+06         0.21612E+07         0.00000E+00
    0.00000E+00         0.00000E+00         0.00000E+00
 
   -0.35425E+06         0.47800E+06         0.00000E+00
    0.47800E+06         0.21609E+07         0.00000E+00
    0.00000E+00         0.00000E+00         0.00000E+00
 
   -0.34676E+06         0.55067E+06         0.00000E+00
    0.55067E+06         0.21605E+07         0.00000E+00
    0.00000E+00         0.00000E+00         0.00000E+00
 
   -0.33925E+06         0.62311E+06         0.00000E+00
    0.62311E+06         0.21600E+07         0.00000E+00
    0.00000E+00         0.00000E+00         0.00000E+00
 
   -0.33173E+06         0.69531E+06         0.00000E+00
    0.69531E+06         0.21595E+07         0.00000E+00
    0.00000E+00         0.00000E+00         0.00000E+00
 
   -0.32420E+06         0.76728E+06         0.00000E+00
    0.76728E+06         0.21589E+07         0.00000E+00
    0.00000E+00         0.00000E+00         0.00000E+00
 
   -0.31665E+06         0.83901E+06         0.00000E+00
    0.83901E+06         0.21583E+07         0.00000E+00
    0.00000E+00         0.00000E+00         0.00000E+00
 
   -0.30908E+06         0.91051E+06         0.00000E+00
    0.91051E+06         0.21575E+07         0.00000E+00
    0.00000E+00         0.00000E+00         0.00000E+00
 
   -0.30150E+06         0.98176E+06         0.00000E+00
    0.98176E+06         0.21567E+07         0.00000E+00
    0.00000E+00         0.00000E+00         0.00000E+00
 
   -0.29390E+06         0.10528E+07         0.00000E+00
    0.10528E+07         0.21559E+07         0.00000E+00
    0.00000E+00         0.00000E+00         0.00000E+00
 
   -0.28628E+06         0.11235E+07         0.00000E+00
    0.11235E+07         0.21550E+07         0.00000E+00
    0.00000E+00         0.00000E+00         0.00000E+00
 
   -0.27864E+06         0.11940E+07         0.00000E+00
    0.11940E+07         0.21540E+07         0.00000E+00
    0.00000E+00         0.00000E+00         0.00000E+00
 
   -0.27099E+06         0.12643E+07         0.00000E+00
    0.12643E+07         0.21529E+07         0.00000E+00
    0.00000E+00         0.00000E+00         0.00000E+00
 
   -0.26331E+06         0.13343E+07         0.00000E+00
    0.13343E+07         0.21517E+07         0.00000E+00
    0.00000E+00         0.00000E+00         0.00000E+00
 
   -0.25560E+06         0.14041E+07         0.00000E+00
    0.14041E+07         0.21505E+07         0.00000E+00
    0.00000E+00         0.00000E+00         0.00000E+00
 
   -0.24788E+06         0.14736E+07         0.00000E+00
    0.14736E+07         0.21492E+07         0.00000E+00
    0.00000E+00         0.00000E+00         0.00000E+00
 
   -0.24013E+06         0.15429E+07         0.00000E+00
    0.15429E+07         0.21478E+07         0.00000E+00
    0.00000E+00         0.00000E+00         0.00000E+00
 
   -0.23235E+06         0.16119E+07         0.00000E+00
    0.16119E+07         0.21463E+07         0.00000E+00
    0.00000E+00         0.00000E+00         0.00000E+00
 
   -0.22455E+06         0.16806E+07         0.00000E+00
    0.16806E+07         0.21448E+07         0.00000E+00
    0.00000E+00         0.00000E+00         0.00000E+00
 
   -0.21672E+06         0.17491E+07         0.00000E+00
    0.17491E+07         0.21431E+07         0.00000E+00
    0.00000E+00         0.00000E+00         0.00000E+00
 
   -0.20885E+06         0.18173E+07         0.00000E+00
    0.18173E+07         0.21414E+07         0.00000E+00
    0.00000E+00         0.00000E+00         0.00000E+00
 
   -0.20096E+06         0.18853E+07         0.00000E+00
    0.18853E+07         0.21396E+07         0.00000E+00
    0.00000E+00         0.00000E+00         0.00000E+00
 
   -0.19303E+06         0.19530E+07         0.00000E+00
    0.19530E+07         0.21377E+07         0.00000E+00
    0.00000E+00         0.00000E+00         0.00000E+00
 
   -0.18507E+06         0.20204E+07         0.00000E+00
    0.20204E+07         0.21357E+07         0.00000E+00
    0.00000E+00         0.00000E+00         0.00000E+00
 
   -0.17706E+06         0.20875E+07         0.00000E+00
    0.20875E+07         0.21336E+07         0.00000E+00
    0.00000E+00         0.00000E+00         0.00000E+00
 
   -0.16902E+06         0.21544E+07         0.00000E+00
    0.21544E+07         0.21314E+07         0.00000E+00
    0.00000E+00         0.00000E+00         0.00000E+00
 
   -0.16094E+06         0.22211E+07         0.00000E+00
    0.22211E+07         0.21291E+07         0.00000E+00
    0.00000E+00         0.00000E+00         0.00000E+00
 
   -0.15281E+06         0.22874E+07         0.00000E+00
    0.22874E+07         0.21267E+07         0.00000E+00
    0.00000E+00         0.00000E+00         0.00000E+00
 
   -0.14463E+06         0.23535E+07         0.00000E+00
    0.23535E+07         0.21243E+07         0.00000E+00
    0.00000E+00         0.00000E+00         0.00000E+00
 
   -0.13640E+06         0.24193E+07         0.00000E+00
    0.24193E+07         0.21216E+07         0.00000E+00
    0.00000E+00         0.00000E+00         0.00000E+00
 
   -0.12813E+06         0.24848E+07         0.00000E+00
    0.24848E+07         0.21189E+07         0.00000E+00
    0.00000E+00         0.00000E+00         0.00000E+00
 
   -0.11979E+06         0.25500E+07         0.00000E+00
    0.25500E+07         0.21161E+07         0.00000E+00
    0.00000E+00         0.00000E+00         0.00000E+00
 
   -0.11140E+06         0.26150E+07         0.00000E+00
    0.26150E+07         0.21132E+07         0.00000E+00
    0.00000E+00         0.00000E+00         0.00000E+00
 
   -0.10294E+06         0.26797E+07         0.00000E+00
    0.26797E+07         0.21101E+07         0.00000E+00
    0.00000E+00         0.00000E+00         0.00000E+00
 
   -0.94418E+05         0.27441E+07         0.00000E+00
    0.27441E+07         0.21069E+07         0.00000E+00
    0.00000E+00         0.00000E+00         0.00000E+00
 
   -0.85827E+05         0.28082E+07         0.00000E+00
    0.28082E+07         0.21036E+07         0.00000E+00
    0.00000E+00         0.00000E+00         0.00000E+00
 
   -0.77162E+05         0.28720E+07         0.00000E+00
    0.28720E+07         0.21002E+07         0.00000E+00
    0.00000E+00         0.00000E+00         0.00000E+00
 
   -0.68421E+05         0.29356E+07         0.00000E+00
    0.29356E+07         0.20966E+07         0.00000E+00
    0.00000E+00         0.00000E+00         0.00000E+00
 
   -0.59599E+05         0.29988E+07         0.00000E+00
    0.29988E+07         0.20929E+07         0.00000E+00
    0.00000E+00         0.00000E+00         0.00000E+00
 
   -0.50692E+05         0.30618E+07         0.00000E+00
    0.30618E+07         0.20891E+07         0.00000E+00
    0.00000E+00         0.00000E+00         0.00000E+00
 
   -0.41695E+05         0.31244E+07         0.00000E+00
    0.31244E+07         0.20851E+07         0.00000E+00
    0.00000E+00         0.00000E+00         0.00000E+00
 
   -0.32605E+05         0.31868E+07         0.00000E+00
    0.31868E+07         0.20810E+07         0.00000E+00
    0.00000E+00         0.00000E+00         0.00000E+00
 
   -0.23417E+05         0.32488E+07         0.00000E+00
    0.32488E+07         0.20767E+07         0.00000E+00
    0.00000E+00         0.00000E+00         0.00000E+00
 
   -0.14126E+05         0.33106E+07         0.00000E+00
    0.33106E+07         0.20723E+07         0.00000E+00
    0.00000E+00         0.00000E+00         0.00000E+00
 
   -0.47268E+04         0.33720E+07         0.00000E+00
    0.33720E+07         0.20677E+07         0.00000E+00
    0.00000E+00         0.00000E+00         0.00000E+00
 
   -0.33254E+06         0.37133E+05         0.00000E+00
    0.37133E+05         0.18588E+07         0.00000E+00
    0.00000E+00         0.00000E+00         0.00000E+00
 
   -0.32618E+06         0.11081E+06         0.00000E+00
    0.11081E+06         0.18587E+07         0.00000E+00
    0.00000E+00         0.00000E+00         0.00000E+00
 
   -0.31983E+06         0.18426E+06         0.00000E+00
    0.18426E+06         0.18587E+07         0.00000E+00
    0.00000E+00         0.00000E+00         0.00000E+00
 
   -0.31349E+06         0.25749E+06         0.00000E+00
    0.25749E+06         0.18586E+07         0.00000E+00
    0.00000E+00         0.00000E+00         0.00000E+00
 
   -0.30715E+06         0.33050E+06         0.00000E+00
    0.33050E+06         0.18584E+07         0.00000E+00
    0.00000E+00         0.00000E+00         0.00000E+00
 
   -0.30081E+06         0.40328E+06         0.00000E+00
    0.40328E+06         0.18582E+07         0.00000E+00
    0.00000E+00         0.00000E+00         0.00000E+00
 
   -0.29448E+06         0.47583E+06         0.00000E+00
    0.47583E+06         0.18580E+07         0.00000E+00
    0.00000E+00         0.00000E+00         0.00000E+00
 
   -0.28815E+06         0.54815E+06         0.00000E+00
    0.54815E+06         0.18577E+07         0.00000E+00
    0.00000E+00         0.00000E+00         0.00000E+00
 
   -0.28182E+06         0.62024E+06         0.00000E+00
    0.62024E+06         0.18574E+07         0.00000E+00
    0.00000E+00         0.00000E+00         0.00000E+00
 
   -0.27549E+06         0.69210E+06         0.00000E+00
    0.69210E+06         0.18570E+07         0.00000E+00
    0.00000E+00         0.00000E+00         0.00000E+00
 
   -0.26915E+06         0.76371E+06         0.00000E+00
    0.76371E+06         0.18565E+07         0.00000E+00
    0.00000E+00         0.00000E+00         0.00000E+00
 
   -0.26281E+06         0.83509E+06         0.00000E+00
    0.83509E+06         0.18561E+07         0.00000E+00
    0.00000E+00         0.00000E+00         0.00000E+00
 
   -0.25647E+06         0.90623E+06         0.00000E+00
    0.90623E+06         0.18555E+07         0.00000E+00
    0.00000E+00         0.00000E+00         0.00000E+00
 
   -0.25012E+06         0.97712E+06         0.00000E+00
    0.97712E+06         0.18549E+07         0.00000E+00
    0.00000E+00         0.00000E+00         0.00000E+00
 
   -0.24377E+06         0.10478E+07         0.00000E+00
    0.10478E+07         0.18543E+07         0.00000E+00
    0.00000E+00         0.00000E+00         0.00000E+00
 
   -0.23740E+06         0.11182E+07         0.00000E+00
    0.11182E+07         0.18536E+07         0.00000E+00
    0.00000E+00         0.00000E+00         0.00000E+00
 
   -0.23103E+06         0.11883E+07         0.00000E+00
    0.11883E+07         0.18529E+07         0.00000E+00
    0.00000E+00         0.00000E+00         0.00000E+00
 
   -0.22464E+06         0.12582E+07         0.00000E+00
    0.12582E+07         0.18520E+07         0.00000E+00
    0.00000E+00         0.00000E+00         0.00000E+00
 
   -0.21825E+06         0.13279E+07         0.00000E+00
    0.13279E+07         0.18512E+07         0.00000E+00
    0.00000E+00         0.00000E+00         0.00000E+00
 
   -0.21184E+06         0.13972E+07         0.00000E+00
    0.13972E+07         0.18502E+07         0.00000E+00
    0.00000E+00         0.00000E+00         0.00000E+00
 
   -0.20541E+06         0.14664E+07         0.00000E+00
    0.14664E+07         0.18492E+07         0.00000E+00
    0.00000E+00         0.00000E+00         0.00000E+00
 
   -0.19897E+06         0.15352E+07         0.00000E+00
    0.15352E+07         0.18481E+07         0.00000E+00
    0.00000E+00         0.00000E+00         0.00000E+00
 
   -0.19252E+06         0.16039E+07         0.00000E+00
    0.16039E+07         0.18470E+07         0.00000E+00
    0.00000E+00         0.00000E+00         0.00000E+00
 
   -0.18604E+06         0.16722E+07         0.00000E+00
    0.16722E+07         0.18458E+07         0.00000E+00
    0.00000E+00         0.00000E+00         0.00000E+00
 
   -0.17954E+06         0.17403E+07         0.00000E+00
    0.17403E+07         0.18445E+07         0.00000E+00
    0.00000E+00         0.00000E+00         0.00000E+00
 
   -0.17303E+06         0.18081E+07         0.00000E+00
    0.18081E+07         0.18432E+07         0.00000E+00
    0.00000E+00         0.00000E+00         0.00000E+00
 
   -0.16648E+06         0.18757E+07         0.00000E+00
    0.18757E+07         0.18418E+07         0.00000E+00
    0.00000E+00         0.00000E+00         0.00000E+00
 
   -0.15991E+06         0.19429E+07         0.00000E+00
    0.19429E+07         0.18403E+07         0.00000E+00
    0.00000E+00         0.00000E+00         0.00000E+00
 
   -0.15332E+06         0.20099E+07         0.00000E+00
    0.20099E+07         0.18387E+07         0.00000E+00
    0.00000E+00         0.00000E+00         0.00000E+00
 
   -0.14669E+06         0.20767E+07         0.00000E+00
    0.20767E+07         0.18370E+07         0.00000E+00
    0.00000E+00         0.00000E+00         0.00000E+00
 
   -0.14004E+06         0.21431E+07         0.00000E+00
    0.21431E+07         0.18353E+07         0.00000E+00
    0.00000E+00         0.00000E+00         0.00000E+00
 
   -0.13334E+06         0.22093E+07         0.00000E+00
    0.22093E+07         0.18335E+07         0.00000E+00
    0.00000E+00         0.00000E+00         0.00000E+00
 
   -0.12662E+06         0.22752E+07         0.00000E+00
    0.22752E+07         0.18315E+07         0.00000E+00
    0.00000E+00         0.00000E+00         0.00000E+00
 
   -0.11985E+06         0.23408E+07         0.00000E+00
    0.23408E+07         0.18295E+07         0.00000E+00
    0.00000E+00         0.00000E+00         0.00000E+00
 
   -0.11304E+06         0.24062E+07         0.00000E+00
    0.24062E+07         0.18274E+07         0.00000E+00
    0.00000E+00         0.00000E+00         0.00000E+00
 
   -0.10619E+06         0.24712E+07         0.00000E+00
    0.24712E+07         0.18253E+07         0.00000E+00
    0.00000E+00         0.00000E+00         0.00000E+00
 
   -0.99291E+05         0.25360E+07         0.00000E+00
    0.25360E+07         0.18230E+07         0.00000E+00
    0.00000E+00         0.00000E+00         0.00000E+00
 
   -0.92343E+05         0.26005E+07         0.00000E+00
    0.26005E+07         0.18206E+07         0.00000E+00
    0.00000E+00         0.00000E+00         0.00000E+00
 
   -0.85343E+05         0.26646E+07         0.00000E+00
    0.26646E+07         0.18181E+07         0.00000E+00
    0.00000E+00         0.00000E+00         0.00000E+00
 
   -0.78287E+05         0.27285E+07         0.00000E+00
    0.27285E+07         0.18155E+07         0.00000E+00
    0.00000E+00         0.00000E+00         0.00000E+00
 
   -0.71172E+05         0.27921E+07         0.00000E+00
    0.27921E+07         0.18128E+07         0.00000E+00
    0.00000E+00         0.00000E+00         0.00000E+00
 
   -0.63995E+05         0.28554E+07         0.00000E+00
    0.28554E+07         0.18100E+07         0.00000E+00
    0.00000E+00         0.00000E+00         0.00000E+00
 
   -0.56753E+05         0.29184E+07         0.00000E+00
    0.29184E+07         0.18071E+07         0.00000E+00
    0.00000E+00         0.00000E+00         0.00000E+00
 
   -0.49443E+05         0.29811E+07         0.00000E+00
    0.29811E+07         0.18041E+07         0.00000E+00
    0.00000E+00         0.00000E+00         0.00000E+00
 
   -0.42059E+05         0.30434E+07         0.00000E+00
    0.30434E+07         0.18009E+07         0.00000E+00
    0.00000E+00         0.00000E+00         0.00000E+00
 
   -0.34600E+05         0.31055E+07         0.00000E+00
    0.31055E+07         0.17976E+07         0.00000E+00
    0.00000E+00         0.00000E+00         0.00000E+00
 
   -0.27061E+05         0.31672E+07         0.00000E+00
    0.31672E+07         0.17942E+07         0.00000E+00
    0.00000E+00         0.00000E+00         0.00000E+00
 
   -0.19438E+05         0.32287E+07         0.00000E+00
    0.32287E+07         0.17907E+07         0.00000E+00
    0.00000E+00         0.00000E+00         0.00000E+00
 
   -0.11727E+05         0.32898E+07         0.00000E+00
    0.32898E+07         0.17870E+07         0.00000E+00
    0.00000E+00         0.00000E+00         0.00000E+00
 
   -0.39246E+04         0.33506E+07         0.00000E+00
    0.33506E+07         0.17832E+07         0.00000E+00
    0.00000E+00         0.00000E+00         0.00000E+00
 
   -0.26442E+06         0.37019E+05         0.00000E+00
    0.37019E+05         0.15586E+07         0.00000E+00
    0.00000E+00         0.00000E+00         0.00000E+00
 
   -0.25917E+06         0.11045E+06         0.00000E+00
    0.11045E+06         0.15586E+07         0.00000E+00
    0.00000E+00         0.00000E+00         0.00000E+00
 
   -0.25393E+06         0.18366E+06         0.00000E+00
    0.18366E+06         0.15585E+07         0.00000E+00
    0.00000E+00         0.00000E+00         0.00000E+00
 
   -0.24872E+06         0.25664E+06         0.00000E+00
    0.25664E+06         0.15585E+07         0.00000E+00
    0.00000E+00         0.00000E+00         0.00000E+00
 
   -0.24352E+06         0.32940E+06         0.00000E+00
    0.32940E+06         0.15584E+07         0.00000E+00
    0.00000E+00         0.00000E+00         0.00000E+00
 
   -0.23833E+06         0.40192E+06         0.00000E+00
    0.40192E+06         0.15583E+07         0.00000E+00
    0.00000E+00         0.00000E+00         0.00000E+00
 
   -0.23317E+06         0.47422E+06         0.00000E+00
    0.47422E+06         0.15581E+07         0.00000E+00
    0.00000E+00         0.00000E+00         0.00000E+00
 
   -0.22801E+06         0.54628E+06         0.00000E+00
    0.54628E+06         0.15579E+07         0.00000E+00
    0.00000E+00         0.00000E+00         0.00000E+00
 
   -0.22287E+06         0.61810E+06         0.00000E+00
    0.61810E+06         0.15577E+07         0.00000E+00
    0.00000E+00         0.00000E+00         0.00000E+00
 
   -0.21774E+06         0.68969E+06         0.00000E+00
    0.68969E+06         0.15575E+07         0.00000E+00
    0.00000E+00         0.00000E+00         0.00000E+00
 
   -0.21262E+06         0.76103E+06         0.00000E+00
    0.76103E+06         0.15572E+07         0.00000E+00
    0.00000E+00         0.00000E+00         0.00000E+00
 
   -0.20751E+06         0.83214E+06         0.00000E+00
    0.83214E+06         0.15569E+07         0.00000E+00
    0.00000E+00         0.00000E+00         0.00000E+00
 
   -0.20240E+06         0.90300E+06         0.00000E+00
    0.90300E+06         0.15566E+07         0.00000E+00
    0.00000E+00         0.00000E+00         0.00000E+00
 
   -0.19730E+06         0.97361E+06         0.00000E+00
    0.97361E+06         0.15562E+07         0.00000E+00
    0.00000E+00         0.00000E+00         0.00000E+00
 
   -0.19220E+06         0.10440E+07         0.00000E+00
    0.10440E+07         0.15558E+07         0.00000E+00
    0.00000E+00         0.00000E+00         0.00000E+00
 
   -0.18710E+06         0.11141E+07         0.00000E+00
    0.11141E+07         0.15553E+07         0.00000E+00
    0.00000E+00         0.00000E+00         0.00000E+00
 
   -0.18201E+06         0.11839E+07         0.00000E+00
    0.11839E+07         0.15548E+07         0.00000E+00
    0.00000E+00         0.00000E+00         0.00000E+00
 
   -0.17692E+06         0.12535E+07         0.00000E+00
    0.12535E+07         0.15542E+07         0.00000E+00
    0.00000E+00         0.00000E+00         0.00000E+00
 
   -0.17182E+06         0.13229E+07         0.00000E+00
    0.13229E+07         0.15536E+07         0.00000E+00
    0.00000E+00         0.00000E+00         0.00000E+00
 
   -0.16672E+06         0.13920E+07         0.00000E+00
    0.13920E+07         0.15530E+07         0.00000E+00
    0.00000E+00         0.00000E+00         0.00000E+00
 
   -0.16162E+06         0.14608E+07         0.00000E+00
    0.14608E+07         0.15523E+07         0.00000E+00
    0.00000E+00         0.00000E+00         0.00000E+00
 
   -0.15651E+06         0.15294E+07         0.00000E+00
    0.15294E+07         0.15515E+07         0.00000E+00
    0.00000E+00         0.00000E+00         0.00000E+00
 
   -0.15139E+06         0.15977E+07         0.00000E+00
    0.15977E+07         0.15507E+07         0.00000E+00
    0.00000E+00         0.00000E+00         0.00000E+00
 
   -0.14627E+06         0.16657E+07         0.00000E+00
    0.16657E+07         0.15499E+07         0.00000E+00
    0.00000E+00         0.00000E+00         0.00000E+00
 
   -0.14113E+06         0.17335E+07         0.00000E+00
    0.17335E+07         0.15490E+07         0.00000E+00
    0.00000E+00         0.00000E+00         0.00000E+00
 
   -0.13598E+06         0.18009E+07         0.00000E+00
    0.18009E+07         0.15480E+07         0.00000E+00
    0.00000E+00         0.00000E+00         0.00000E+00
 
   -0.13082E+06         0.18682E+07         0.00000E+00
    0.18682E+07         0.15470E+07         0.00000E+00
    0.00000E+00         0.00000E+00         0.00000E+00
 
   -0.12564E+06         0.19351E+07         0.00000E+00
    0.19351E+07         0.15459E+07         0.00000E+00
    0.00000E+00         0.00000E+00         0.00000E+00
 
   -0.12045E+06         0.20018E+07         0.00000E+00
    0.20018E+07         0.15448E+07         0.00000E+00
    0.00000E+00         0.00000E+00         0.00000E+00
 
   -0.11523E+06         0.20682E+07         0.00000E+00
    0.20682E+07         0.15436E+07         0.00000E+00
    0.00000E+00         0.00000E+00         0.00000E+00
 
   -0.10999E+06         0.21343E+07         0.00000E+00
    0.21343E+07         0.15423E+07         0.00000E+00
    0.00000E+00         0.00000E+00         0.00000E+00
 
   -0.10473E+06         0.22001E+07         0.00000E+00
    0.22001E+07         0.15409E+07         0.00000E+00
    0.00000E+00         0.00000E+00         0.00000E+00
 
   -0.99443E+05         0.22656E+07         0.00000E+00
    0.22656E+07         0.15395E+07         0.00000E+00
    0.00000E+00         0.00000E+00         0.00000E+00
 
   -0.94127E+05         0.23308E+07         0.00000E+00
    0.23308E+07         0.15380E+07         0.00000E+00
    0.00000E+00         0.00000E+00         0.00000E+00
 
   -0.88781E+05         0.23958E+07         0.00000E+00
    0.23958E+07         0.15365E+07         0.00000E+00
    0.00000E+00         0.00000E+00         0.00000E+00
 
   -0.83401E+05         0.24604E+07         0.00000E+00
    0.24604E+07         0.15348E+07         0.00000E+00
    0.00000E+00         0.00000E+00         0.00000E+00
 
   -0.77986E+05         0.25248E+07         0.00000E+00
    0.25248E+07         0.15331E+07         0.00000E+00
    0.00000E+00         0.00000E+00         0.00000E+00
 
   -0.72533E+05         0.25889E+07         0.00000E+00
    0.25889E+07         0.15313E+07         0.00000E+00
    0.00000E+00         0.00000E+00         0.00000E+00
 
   -0.67039E+05         0.26526E+07         0.00000E+00
    0.26526E+07         0.15294E+07         0.00000E+00
    0.00000E+00         0.00000E+00         0.00000E+00
 
   -0.61502E+05         0.27161E+07         0.00000E+00
    0.27161E+07         0.15274E+07         0.00000E+00
    0.00000E+00         0.00000E+00         0.00000E+00
 
   -0.55918E+05         0.27792E+07         0.00000E+00
    0.27792E+07         0.15254E+07         0.00000E+00
    0.00000E+00         0.00000E+00         0.00000E+00
 
   -0.50285E+05         0.28421E+07         0.00000E+00
    0.28421E+07         0.15232E+07         0.00000E+00
    0.00000E+00         0.00000E+00         0.00000E+00
 
   -0.44601E+05         0.29046E+07         0.00000E+00
    0.29046E+07         0.15210E+07         0.00000E+00
    0.00000E+00         0.00000E+00         0.00000E+00
 
   -0.38861E+05         0.29668E+07         0.00000E+00
    0.29668E+07         0.15186E+07         0.00000E+00
    0.00000E+00         0.00000E+00         0.00000E+00
 
   -0.33063E+05         0.30287E+07         0.00000E+00
    0.30287E+07         0.15162E+07         0.00000E+00
    0.00000E+00         0.00000E+00         0.00000E+00
 
   -0.27204E+05         0.30902E+07         0.00000E+00
    0.30902E+07         0.15136E+07         0.00000E+00
    0.00000E+00         0.00000E+00         0.00000E+00
 
   -0.21280E+05         0.31515E+07         0.00000E+00
    0.31515E+07         0.15110E+07         0.00000E+00
    0.00000E+00         0.00000E+00         0.00000E+00
 
   -0.15288E+05         0.32124E+07         0.00000E+00
    0.32124E+07         0.15082E+07         0.00000E+00
    0.00000E+00         0.00000E+00         0.00000E+00
 
   -0.92253E+04         0.32730E+07         0.00000E+00
    0.32730E+07         0.15053E+07         0.00000E+00
    0.00000E+00         0.00000E+00         0.00000E+00
 
   -0.30878E+04         0.33332E+07         0.00000E+00
    0.33332E+07         0.15024E+07         0.00000E+00
    0.00000E+00         0.00000E+00         0.00000E+00
 
   -0.19477E+06         0.36947E+05         0.00000E+00
    0.36947E+05         0.12610E+07         0.00000E+00
    0.00000E+00         0.00000E+00         0.00000E+00
 
   -0.19063E+06         0.11022E+06         0.00000E+00
    0.11022E+06         0.12609E+07         0.00000E+00
    0.00000E+00         0.00000E+00         0.00000E+00
 
   -0.18653E+06         0.18327E+06         0.00000E+00
    0.18327E+06         0.12609E+07         0.00000E+00
    0.00000E+00         0.00000E+00         0.00000E+00
 
   -0.18246E+06         0.25609E+06         0.00000E+00
    0.25609E+06         0.12609E+07         0.00000E+00
    0.00000E+00         0.00000E+00         0.00000E+00
 
   -0.17842E+06         0.32868E+06         0.00000E+00
    0.32868E+06         0.12609E+07         0.00000E+00
    0.00000E+00         0.00000E+00         0.00000E+00
 
   -0.17441E+06         0.40104E+06         0.00000E+00
    0.40104E+06         0.12608E+07         0.00000E+00
    0.00000E+00         0.00000E+00         0.00000E+00
 
   -0.17042E+06         0.47316E+06         0.00000E+00
    0.47316E+06         0.12608E+07         0.00000E+00
    0.00000E+00         0.00000E+00         0.00000E+00
 
   -0.16646E+06         0.54504E+06         0.00000E+00
    0.54504E+06         0.12607E+07         0.00000E+00
    0.00000E+00         0.00000E+00         0.00000E+00
 
   -0.16253E+06         0.61668E+06         0.00000E+00
    0.61668E+06         0.12606E+07         0.00000E+00
    0.00000E+00         0.00000E+00         0.00000E+00
 
   -0.15861E+06         0.68808E+06         0.00000E+00
    0.68808E+06         0.12605E+07         0.00000E+00
    0.00000E+00         0.00000E+00         0.00000E+00
 
   -0.15472E+06         0.75924E+06         0.00000E+00
    0.75924E+06         0.12604E+07         0.00000E+00
    0.00000E+00         0.00000E+00         0.00000E+00
 
   -0.15085E+06         0.83015E+06         0.00000E+00
    0.83015E+06         0.12603E+07         0.00000E+00
    0.00000E+00         0.00000E+00         0.00000E+00
 
   -0.14699E+06         0.90081E+06         0.00000E+00
    0.90081E+06         0.12601E+07         0.00000E+00
    0.00000E+00         0.00000E+00         0.00000E+00
 
   -0.14316E+06         0.97123E+06         0.00000E+00
    0.97123E+06         0.12599E+07         0.00000E+00
    0.00000E+00         0.00000E+00         0.00000E+00
 
   -0.13933E+06         0.10414E+07         0.00000E+00
    0.10414E+07         0.12597E+07         0.00000E+00
    0.00000E+00         0.00000E+00         0.00000E+00
 
   -0.13553E+06         0.11113E+07         0.00000E+00
    0.11113E+07         0.12595E+07         0.00000E+00
    0.00000E+00         0.00000E+00         0.00000E+00
 
   -0.13173E+06         0.11809E+07         0.00000E+00
    0.11809E+07         0.12592E+07         0.00000E+00
    0.00000E+00         0.00000E+00         0.00000E+00
 
   -0.12794E+06         0.12503E+07         0.00000E+00
    0.12503E+07         0.12589E+07         0.00000E+00
    0.00000E+00         0.00000E+00         0.00000E+00
 
   -0.12417E+06         0.13195E+07         0.00000E+00
    0.13195E+07         0.12586E+07         0.00000E+00
    0.00000E+00         0.00000E+00         0.00000E+00
 
   -0.12040E+06         0.13883E+07         0.00000E+00
    0.13883E+07         0.12583E+07         0.00000E+00
    0.00000E+00         0.00000E+00         0.00000E+00
 
   -0.11664E+06         0.14569E+07         0.00000E+00
    0.14569E+07         0.12579E+07         0.00000E+00
    0.00000E+00         0.00000E+00         0.00000E+00
 
   -0.11288E+06         0.15253E+07         0.00000E+00
    0.15253E+07         0.12575E+07         0.00000E+00
    0.00000E+00         0.00000E+00         0.00000E+00
 
   -0.10913E+06         0.15933E+07         0.00000E+00
    0.15933E+07         0.12570E+07         0.00000E+00
    0.00000E+00         0.00000E+00         0.00000E+00
 
   -0.10538E+06         0.16611E+07         0.00000E+00
    0.16611E+07         0.12565E+07         0.00000E+00
    0.00000E+00         0.00000E+00         0.00000E+00
 
   -0.10163E+06         0.17286E+07         0.00000E+00
    0.17286E+07         0.12560E+07         0.00000E+00
    0.00000E+00         0.00000E+00         0.00000E+00
 
   -0.97875E+05         0.17959E+07         0.00000E+00
    0.17959E+07         0.12554E+07         0.00000E+00
    0.00000E+00         0.00000E+00         0.00000E+00
 
   -0.94120E+05         0.18628E+07         0.00000E+00
    0.18628E+07         0.12548E+07         0.00000E+00
    0.00000E+00         0.00000E+00         0.00000E+00
 
   -0.90360E+05         0.19295E+07         0.00000E+00
    0.19295E+07         0.12542E+07         0.00000E+00
    0.00000E+00         0.00000E+00         0.00000E+00
 
   -0.86593E+05         0.19959E+07         0.00000E+00
    0.19959E+07         0.12535E+07         0.00000E+00
    0.00000E+00         0.00000E+00         0.00000E+00
 
   -0.82818E+05         0.20620E+07         0.00000E+00
    0.20620E+07         0.12527E+07         0.00000E+00
    0.00000E+00         0.00000E+00         0.00000E+00
 
   -0.79032E+05         0.21279E+07         0.00000E+00
    0.21279E+07         0.12519E+07         0.00000E+00
    0.00000E+00         0.00000E+00         0.00000E+00
 
   -0.75235E+05         0.21934E+07         0.00000E+00
    0.21934E+07         0.12510E+07         0.00000E+00
    0.00000E+00         0.00000E+00         0.00000E+00
 
   -0.71422E+05         0.22586E+07         0.00000E+00
    0.22586E+07         0.12501E+07         0.00000E+00
    0.00000E+00         0.00000E+00         0.00000E+00
 
   -0.67594E+05         0.23236E+07         0.00000E+00
    0.23236E+07         0.12492E+07         0.00000E+00
    0.00000E+00         0.00000E+00         0.00000E+00
 
   -0.63747E+05         0.23882E+07         0.00000E+00
    0.23882E+07         0.12482E+07         0.00000E+00
    0.00000E+00         0.00000E+00         0.00000E+00
 
   -0.59879E+05         0.24526E+07         0.00000E+00
    0.24526E+07         0.12471E+07         0.00000E+00
    0.00000E+00         0.00000E+00         0.00000E+00
 
   -0.55989E+05         0.25166E+07         0.00000E+00
    0.25166E+07         0.12459E+07         0.00000E+00
    0.00000E+00         0.00000E+00         0.00000E+00
 
   -0.52073E+05         0.25803E+07         0.00000E+00
    0.25803E+07         0.12447E+07         0.00000E+00
    0.00000E+00         0.00000E+00         0.00000E+00
 
   -0.48130E+05         0.26438E+07         0.00000E+00
    0.26438E+07         0.12435E+07         0.00000E+00
    0.00000E+00         0.00000E+00         0.00000E+00
 
   -0.44157E+05         0.27069E+07         0.00000E+00
    0.27069E+07         0.12421E+07         0.00000E+00
    0.00000E+00         0.00000E+00         0.00000E+00
 
   -0.40152E+05         0.27697E+07         0.00000E+00
    0.27697E+07         0.12407E+07         0.00000E+00
    0.00000E+00         0.00000E+00         0.00000E+00
 
   -0.36112E+05         0.28321E+07         0.00000E+00
    0.28321E+07         0.12393E+07         0.00000E+00
    0.00000E+00         0.00000E+00         0.00000E+00
 
   -0.32035E+05         0.28943E+07         0.00000E+00
    0.28943E+07         0.12377E+07         0.00000E+00
    0.00000E+00         0.00000E+00         0.00000E+00
 
   -0.27918E+05         0.29561E+07         0.00000E+00
    0.29561E+07         0.12361E+07         0.00000E+00
    0.00000E+00         0.00000E+00         0.00000E+00
 
   -0.23758E+05         0.30176E+07         0.00000E+00
    0.30176E+07         0.12344E+07         0.00000E+00
    0.00000E+00         0.00000E+00         0.00000E+00
 
   -0.19552E+05         0.30788E+07         0.00000E+00
    0.30788E+07         0.12326E+07         0.00000E+00
    0.00000E+00         0.00000E+00         0.00000E+00
 
   -0.15299E+05         0.31396E+07         0.00000E+00
    0.31396E+07         0.12307E+07         0.00000E+00
    0.00000E+00         0.00000E+00         0.00000E+00
 
   -0.10995E+05         0.32001E+07         0.00000E+00
    0.32001E+07         0.12287E+07         0.00000E+00
    0.00000E+00         0.00000E+00         0.00000E+00
 
   -0.66366E+04         0.32603E+07         0.00000E+00
    0.32603E+07         0.12267E+07         0.00000E+00
    0.00000E+00         0.00000E+00         0.00000E+00
 
   -0.22219E+04         0.33201E+07         0.00000E+00
    0.33201E+07         0.12246E+07         0.00000E+00
    0.00000E+00         0.00000E+00         0.00000E+00
 
   -0.12369E+06         0.36917E+05         0.00000E+00
    0.36917E+05         0.96527E+06         0.00000E+00
    0.00000E+00         0.00000E+00         0.00000E+00
 
   -0.12069E+06         0.11012E+06         0.00000E+00
    0.11012E+06         0.96528E+06         0.00000E+00
    0.00000E+00         0.00000E+00         0.00000E+00
 
   -0.11775E+06         0.18310E+06         0.00000E+00
    0.18310E+06         0.96530E+06         0.00000E+00
    0.00000E+00         0.00000E+00         0.00000E+00
 
   -0.11484E+06         0.25584E+06         0.00000E+00
    0.25584E+06         0.96533E+06         0.00000E+00
    0.00000E+00         0.00000E+00         0.00000E+00
 
   -0.11198E+06         0.32834E+06         0.00000E+00
    0.32834E+06         0.96536E+06         0.00000E+00
    0.00000E+00         0.00000E+00         0.00000E+00
 
   -0.10916E+06         0.40061E+06         0.00000E+00
    0.40061E+06         0.96540E+06         0.00000E+00
    0.00000E+00         0.00000E+00         0.00000E+00
 
   -0.10637E+06         0.47264E+06         0.00000E+00
    0.47264E+06         0.96543E+06         0.00000E+00
    0.00000E+00         0.00000E+00         0.00000E+00
 
   -0.10363E+06         0.54443E+06         0.00000E+00
    0.54443E+06         0.96547E+06         0.00000E+00
    0.00000E+00         0.00000E+00         0.00000E+00
 
   -0.10091E+06         0.61598E+06         0.00000E+00
    0.61598E+06         0.96551E+06         0.00000E+00
    0.00000E+00         0.00000E+00         0.00000E+00
 
   -0.98237E+05         0.68728E+06         0.00000E+00
    0.68728E+06         0.96555E+06         0.00000E+00
    0.00000E+00         0.00000E+00         0.00000E+00
 
   -0.95591E+05         0.75833E+06         0.00000E+00
    0.75833E+06         0.96559E+06         0.00000E+00
    0.00000E+00         0.00000E+00         0.00000E+00
 
   -0.92977E+05         0.82913E+06         0.00000E+00
    0.82913E+06         0.96562E+06         0.00000E+00
    0.00000E+00         0.00000E+00         0.00000E+00
 
   -0.90393E+05         0.89968E+06         0.00000E+00
    0.89968E+06         0.96565E+06         0.00000E+00
    0.00000E+00         0.00000E+00         0.00000E+00
 
   -0.87836E+05         0.96998E+06         0.00000E+00
    0.96998E+06         0.96567E+06         0.00000E+00
    0.00000E+00         0.00000E+00         0.00000E+00
 
   -0.85307E+05         0.10400E+07         0.00000E+00
    0.10400E+07         0.96568E+06         0.00000E+00
    0.00000E+00         0.00000E+00         0.00000E+00
 
   -0.82803E+05         0.11098E+07         0.00000E+00
    0.11098E+07         0.96568E+06         0.00000E+00
    0.00000E+00         0.00000E+00         0.00000E+00
 
   -0.80323E+05         0.11793E+07         0.00000E+00
    0.11793E+07         0.96567E+06         0.00000E+00
    0.00000E+00         0.00000E+00         0.00000E+00
 
   -0.77865E+05         0.12486E+07         0.00000E+00
    0.12486E+07         0.96565E+06         0.00000E+00
    0.00000E+00         0.00000E+00         0.00000E+00
 
   -0.75428E+05         0.13176E+07         0.00000E+00
    0.13176E+07         0.96561E+06         0.00000E+00
    0.00000E+00         0.00000E+00         0.00000E+00
 
   -0.73011E+05         0.13863E+07         0.00000E+00
    0.13863E+07         0.96556E+06         0.00000E+00
    0.00000E+00         0.00000E+00         0.00000E+00
 
   -0.70612E+05         0.14548E+07         0.00000E+00
    0.14548E+07         0.96549E+06         0.00000E+00
    0.00000E+00         0.00000E+00         0.00000E+00
 
   -0.68230E+05         0.15230E+07         0.00000E+00
    0.15230E+07         0.96541E+06         0.00000E+00
    0.00000E+00         0.00000E+00         0.00000E+00
 
   -0.65862E+05         0.15909E+07         0.00000E+00
    0.15909E+07         0.96530E+06         0.00000E+00
    0.00000E+00         0.00000E+00         0.00000E+00
 
   -0.63509E+05         0.16585E+07         0.00000E+00
    0.16585E+07         0.96518E+06         0.00000E+00
    0.00000E+00         0.00000E+00         0.00000E+00
 
   -0.61167E+05         0.17259E+07         0.00000E+00
    0.17259E+07         0.96503E+06         0.00000E+00
    0.00000E+00         0.00000E+00         0.00000E+00
 
   -0.58836E+05         0.17929E+07         0.00000E+00
    0.17929E+07         0.96486E+06         0.00000E+00
    0.00000E+00         0.00000E+00         0.00000E+00
 
   -0.56513E+05         0.18597E+07         0.00000E+00
    0.18597E+07         0.96466E+06         0.00000E+00
    0.00000E+00         0.00000E+00         0.00000E+00
 
   -0.54198E+05         0.19262E+07         0.00000E+00
    0.19262E+07         0.96444E+06         0.00000E+00
    0.00000E+00         0.00000E+00         0.00000E+00
 
   -0.51889E+05         0.19925E+07         0.00000E+00
    0.19925E+07         0.96418E+06         0.00000E+00
    0.00000E+00         0.00000E+00         0.00000E+00
 
   -0.49583E+05         0.20584E+07         0.00000E+00
    0.20584E+07         0.96390E+06         0.00000E+00
    0.00000E+00         0.00000E+00         0.00000E+00
 
   -0.47279E+05         0.21240E+07         0.00000E+00
    0.21240E+07         0.96358E+06         0.00000E+00
    0.00000E+00         0.00000E+00         0.00000E+00
 
   -0.44976E+05         0.21893E+07         0.00000E+00
    0.21893E+07         0.96324E+06         0.00000E+00
    0.00000E+00         0.00000E+00         0.00000E+00
 
   -0.42671E+05         0.22544E+07         0.00000E+00
    0.22544E+07         0.96285E+06         0.00000E+00
    0.00000E+00         0.00000E+00         0.00000E+00
 
   -0.40363E+05         0.23191E+07         0.00000E+00
    0.23191E+07         0.96243E+06         0.00000E+00
    0.00000E+00         0.00000E+00         0.00000E+00
 
   -0.38050E+05         0.23835E+07         0.00000E+00
    0.23835E+07         0.96197E+06         0.00000E+00
    0.00000E+00         0.00000E+00         0.00000E+00
 
   -0.35730E+05         0.24477E+07         0.00000E+00
    0.24477E+07         0.96147E+06         0.00000E+00
    0.00000E+00         0.00000E+00         0.00000E+00
 
   -0.33401E+05         0.25115E+07         0.00000E+00
    0.25115E+07         0.96093E+06         0.00000E+00
    0.00000E+00         0.00000E+00         0.00000E+00
 
   -0.31060E+05         0.25750E+07         0.00000E+00
    0.25750E+07         0.96034E+06         0.00000E+00
    0.00000E+00         0.00000E+00         0.00000E+00
 
   -0.28707E+05         0.26382E+07         0.00000E+00
    0.26382E+07         0.95971E+06         0.00000E+00
    0.00000E+00         0.00000E+00         0.00000E+00
 
   -0.26338E+05         0.27010E+07         0.00000E+00
    0.27010E+07         0.95903E+06         0.00000E+00
    0.00000E+00         0.00000E+00         0.00000E+00
 
   -0.23952E+05         0.27636E+07         0.00000E+00
    0.27636E+07         0.95830E+06         0.00000E+00
    0.00000E+00         0.00000E+00         0.00000E+00
 
   -0.21547E+05         0.28258E+07         0.00000E+00
    0.28258E+07         0.95752E+06         0.00000E+00
    0.00000E+00         0.00000E+00         0.00000E+00
 
   -0.19120E+05         0.28877E+07         0.00000E+00
    0.28877E+07         0.95669E+06         0.00000E+00
    0.00000E+00         0.00000E+00         0.00000E+00
 
   -0.16669E+05         0.29492E+07         0.00000E+00
    0.29492E+07         0.95579E+06         0.00000E+00
    0.00000E+00         0.00000E+00         0.00000E+00
 
   -0.14191E+05         0.30104E+07         0.00000E+00
    0.30104E+07         0.95485E+06         0.00000E+00
    0.00000E+00         0.00000E+00         0.00000E+00
 
   -0.11686E+05         0.30713E+07         0.00000E+00
    0.30713E+07         0.95384E+06         0.00000E+00
    0.00000E+00         0.00000E+00         0.00000E+00
 
   -0.91493E+04         0.31318E+07         0.00000E+00
    0.31318E+07         0.95277E+06         0.00000E+00
    0.00000E+00         0.00000E+00         0.00000E+00
 
   -0.65797E+04         0.31920E+07         0.00000E+00
    0.31920E+07         0.95163E+06         0.00000E+00
    0.00000E+00         0.00000E+00         0.00000E+00
 
   -0.39745E+04         0.32518E+07         0.00000E+00
    0.32518E+07         0.95043E+06         0.00000E+00
    0.00000E+00         0.00000E+00         0.00000E+00
 
   -0.13314E+04         0.33113E+07         0.00000E+00
    0.33113E+07         0.94916E+06         0.00000E+00
    0.00000E+00         0.00000E+00         0.00000E+00
 
   -0.51317E+05         0.36930E+05         0.00000E+00
    0.36930E+05         0.67101E+06         0.00000E+00
    0.00000E+00         0.00000E+00         0.00000E+00
 
   -0.49488E+05         0.11015E+06         0.00000E+00
    0.11015E+06         0.67104E+06         0.00000E+00
    0.00000E+00         0.00000E+00         0.00000E+00
 
   -0.47715E+05         0.18313E+06         0.00000E+00
    0.18313E+06         0.67109E+06         0.00000E+00
    0.00000E+00         0.00000E+00         0.00000E+00
 
   -0.45996E+05         0.25588E+06         0.00000E+00
    0.25588E+06         0.67116E+06         0.00000E+00
    0.00000E+00         0.00000E+00         0.00000E+00
 
   -0.44330E+05         0.32839E+06         0.00000E+00
    0.32839E+06         0.67125E+06         0.00000E+00
    0.00000E+00         0.00000E+00         0.00000E+00
 
   -0.42716E+05         0.40065E+06         0.00000E+00
    0.40065E+06         0.67137E+06         0.00000E+00
    0.00000E+00         0.00000E+00         0.00000E+00
 
   -0.41151E+05         0.47268E+06         0.00000E+00
    0.47268E+06         0.67150E+06         0.00000E+00
    0.00000E+00         0.00000E+00         0.00000E+00
 
   -0.39634E+05         0.54446E+06         0.00000E+00
    0.54446E+06         0.67165E+06         0.00000E+00
    0.00000E+00         0.00000E+00         0.00000E+00
 
   -0.38165E+05         0.61599E+06         0.00000E+00
    0.61599E+06         0.67181E+06         0.00000E+00
    0.00000E+00         0.00000E+00         0.00000E+00
 
   -0.36741E+05         0.68727E+06         0.00000E+00
    0.68727E+06         0.67199E+06         0.00000E+00
    0.00000E+00         0.00000E+00         0.00000E+00
 
   -0.35360E+05         0.75830E+06         0.00000E+00
    0.75830E+06         0.67218E+06         0.00000E+00
    0.00000E+00         0.00000E+00         0.00000E+00
 
   -0.34023E+05         0.82908E+06         0.00000E+00
    0.82908E+06         0.67238E+06         0.00000E+00
    0.00000E+00         0.00000E+00         0.00000E+00
 
   -0.32727E+05         0.89960E+06         0.00000E+00
    0.89960E+06         0.67260E+06         0.00000E+00
    0.00000E+00         0.00000E+00         0.00000E+00
 
   -0.31471E+05         0.96987E+06         0.00000E+00
    0.96987E+06         0.67282E+06         0.00000E+00
    0.00000E+00         0.00000E+00         0.00000E+00
 
   -0.30253E+05         0.10399E+07         0.00000E+00
    0.10399E+07         0.67305E+06         0.00000E+00
    0.00000E+00         0.00000E+00         0.00000E+00
 
   -0.29072E+05         0.11096E+07         0.00000E+00
    0.11096E+07         0.67329E+06         0.00000E+00
    0.00000E+00         0.00000E+00         0.00000E+00
 
   -0.27926E+05         0.11791E+07         0.00000E+00
    0.11791E+07         0.67353E+06         0.00000E+00
    0.00000E+00         0.00000E+00         0.00000E+00
 
   -0.26815E+05         0.12483E+07         0.00000E+00
    0.12483E+07         0.67378E+06         0.00000E+00
    0.00000E+00         0.00000E+00         0.00000E+00
 
   -0.25737E+05         0.13173E+07         0.00000E+00
    0.13173E+07         0.67403E+06         0.00000E+00
    0.00000E+00         0.00000E+00         0.00000E+00
 
   -0.24691E+05         0.13859E+07         0.00000E+00
    0.13859E+07         0.67428E+06         0.00000E+00
    0.00000E+00         0.00000E+00         0.00000E+00
 
   -0.23674E+05         0.14543E+07         0.00000E+00
    0.14543E+07         0.67453E+06         0.00000E+00
    0.00000E+00         0.00000E+00         0.00000E+00
 
   -0.22687E+05         0.15225E+07         0.00000E+00
    0.15225E+07         0.67479E+06         0.00000E+00
    0.00000E+00         0.00000E+00         0.00000E+00
 
   -0.21726E+05         0.15903E+07         0.00000E+00
    0.15903E+07         0.67503E+06         0.00000E+00
    0.00000E+00         0.00000E+00         0.00000E+00
 
   -0.20791E+05         0.16579E+07         0.00000E+00
    0.16579E+07         0.67528E+06         0.00000E+00
    0.00000E+00         0.00000E+00         0.00000E+00
 
   -0.19881E+05         0.17252E+07         0.00000E+00
    0.17252E+07         0.67552E+06         0.00000E+00
    0.00000E+00         0.00000E+00         0.00000E+00
 
   -0.18994E+05         0.17921E+07         0.00000E+00
    0.17921E+07         0.67575E+06         0.00000E+00
    0.00000E+00         0.00000E+00         0.00000E+00
 
   -0.18128E+05         0.18589E+07         0.00000E+00
    0.18589E+07         0.67598E+06         0.00000E+00
    0.00000E+00         0.00000E+00         0.00000E+00
 
   -0.17282E+05         0.19253E+07         0.00000E+00
    0.19253E+07         0.67619E+06         0.00000E+00
    0.00000E+00         0.00000E+00         0.00000E+00
 
   -0.16455E+05         0.19914E+07         0.00000E+00
    0.19914E+07         0.67640E+06         0.00000E+00
    0.00000E+00         0.00000E+00         0.00000E+00
 
   -0.15644E+05         0.20572E+07         0.00000E+00
    0.20572E+07         0.67659E+06         0.00000E+00
    0.00000E+00         0.00000E+00         0.00000E+00
 
   -0.14849E+05         0.21228E+07         0.00000E+00
    0.21228E+07         0.67677E+06         0.00000E+00
    0.00000E+00         0.00000E+00         0.00000E+00
 
   -0.14068E+05         0.21880E+07         0.00000E+00
    0.21880E+07         0.67694E+06         0.00000E+00
    0.00000E+00         0.00000E+00         0.00000E+00
 
   -0.13299E+05         0.22529E+07         0.00000E+00
    0.22529E+07         0.67709E+06         0.00000E+00
    0.00000E+00         0.00000E+00         0.00000E+00
 
   -0.12540E+05         0.23175E+07         0.00000E+00
    0.23175E+07         0.67722E+06         0.00000E+00
    0.00000E+00         0.00000E+00         0.00000E+00
 
   -0.11791E+05         0.23818E+07         0.00000E+00
    0.23818E+07         0.67733E+06         0.00000E+00
    0.00000E+00         0.00000E+00         0.00000E+00
 
   -0.11048E+05         0.24458E+07         0.00000E+00
    0.24458E+07         0.67742E+06         0.00000E+00
    0.00000E+00         0.00000E+00         0.00000E+00
 
   -0.10312E+05         0.25095E+07         0.00000E+00
    0.25095E+07         0.67749E+06         0.00000E+00
    0.00000E+00         0.00000E+00         0.00000E+00
 
   -0.95789E+04         0.25729E+07         0.00000E+00
    0.25729E+07         0.67753E+06         0.00000E+00
    0.00000E+00         0.00000E+00         0.00000E+00
 
   -0.88481E+04         0.26359E+07         0.00000E+00
    0.26359E+07         0.67755E+06         0.00000E+00
    0.00000E+00         0.00000E+00         0.00000E+00
 
   -0.81176E+04         0.26986E+07         0.00000E+00
    0.26986E+07         0.67754E+06         0.00000E+00
    0.00000E+00         0.00000E+00         0.00000E+00
 
   -0.73857E+04         0.27610E+07         0.00000E+00
    0.27610E+07         0.67750E+06         0.00000E+00
    0.00000E+00         0.00000E+00         0.00000E+00
 
   -0.66504E+04         0.28230E+07         0.00000E+00
    0.28230E+07         0.67743E+06         0.00000E+00
    0.00000E+00         0.00000E+00         0.00000E+00
 
   -0.59099E+04         0.28847E+07         0.00000E+00
    0.28847E+07         0.67733E+06         0.00000E+00
    0.00000E+00         0.00000E+00         0.00000E+00
 
   -0.51623E+04         0.29461E+07         0.00000E+00
    0.29461E+07         0.67720E+06         0.00000E+00
    0.00000E+00         0.00000E+00         0.00000E+00
 
   -0.44058E+04         0.30071E+07         0.00000E+00
    0.30071E+07         0.67703E+06         0.00000E+00
    0.00000E+00         0.00000E+00         0.00000E+00
 
   -0.36384E+04         0.30678E+07         0.00000E+00
    0.30678E+07         0.67682E+06         0.00000E+00
    0.00000E+00         0.00000E+00         0.00000E+00
 
   -0.28581E+04         0.31281E+07         0.00000E+00
    0.31281E+07         0.67657E+06         0.00000E+00
    0.00000E+00         0.00000E+00         0.00000E+00
 
   -0.20630E+04         0.31881E+07         0.00000E+00
    0.31881E+07         0.67628E+06         0.00000E+00
    0.00000E+00         0.00000E+00         0.00000E+00
 
   -0.12511E+04         0.32477E+07         0.00000E+00
    0.32477E+07         0.67594E+06         0.00000E+00
    0.00000E+00         0.00000E+00         0.00000E+00
 
   -0.42032E+03         0.33070E+07         0.00000E+00
    0.33070E+07         0.67557E+06         0.00000E+00
    0.00000E+00         0.00000E+00         0.00000E+00
 
    0.22200E+05         0.36984E+05         0.00000E+00
    0.36984E+05         0.37762E+06         0.00000E+00
    0.00000E+00         0.00000E+00         0.00000E+00
 
    0.22846E+05         0.11030E+06         0.00000E+00
    0.11030E+06         0.37766E+06         0.00000E+00
    0.00000E+00         0.00000E+00         0.00000E+00
 
    0.23426E+05         0.18338E+06         0.00000E+00
    0.18338E+06         0.37774E+06         0.00000E+00
    0.00000E+00         0.00000E+00         0.00000E+00
 
    0.23941E+05         0.25621E+06         0.00000E+00
    0.25621E+06         0.37786E+06         0.00000E+00
    0.00000E+00         0.00000E+00         0.00000E+00
 
    0.24391E+05         0.32881E+06         0.00000E+00
    0.32881E+06         0.37801E+06         0.00000E+00
    0.00000E+00         0.00000E+00         0.00000E+00
 
    0.24780E+05         0.40116E+06         0.00000E+00
    0.40116E+06         0.37820E+06         0.00000E+00
    0.00000E+00         0.00000E+00         0.00000E+00
 
    0.25107E+05         0.47326E+06         0.00000E+00
    0.47326E+06         0.37842E+06         0.00000E+00
    0.00000E+00         0.00000E+00         0.00000E+00
 
    0.25374E+05         0.54511E+06         0.00000E+00
    0.54511E+06         0.37868E+06         0.00000E+00
    0.00000E+00         0.00000E+00         0.00000E+00
 
    0.25584E+05         0.61672E+06         0.00000E+00
    0.61672E+06         0.37897E+06         0.00000E+00
    0.00000E+00         0.00000E+00         0.00000E+00
 
    0.25736E+05         0.68807E+06         0.00000E+00
    0.68807E+06         0.37928E+06         0.00000E+00
    0.00000E+00         0.00000E+00         0.00000E+00
 
    0.25833E+05         0.75916E+06         0.00000E+00
    0.75916E+06         0.37963E+06         0.00000E+00
    0.00000E+00         0.00000E+00         0.00000E+00
 
    0.25876E+05         0.83000E+06         0.00000E+00
    0.83000E+06         0.38001E+06         0.00000E+00
    0.00000E+00         0.00000E+00         0.00000E+00
 
    0.25867E+05         0.90058E+06         0.00000E+00
    0.90058E+06         0.38041E+06         0.00000E+00
    0.00000E+00         0.00000E+00         0.00000E+00
 
    0.25805E+05         0.97090E+06         0.00000E+00
    0.97090E+06         0.38084E+06         0.00000E+00
    0.00000E+00         0.00000E+00         0.00000E+00
 
    0.25694E+05         0.10410E+07         0.00000E+00
    0.10410E+07         0.38129E+06         0.00000E+00
    0.00000E+00         0.00000E+00         0.00000E+00
 
    0.25534E+05         0.11108E+07         0.00000E+00
    0.11108E+07         0.38177E+06         0.00000E+00
    0.00000E+00         0.00000E+00         0.00000E+00
 
    0.25326E+05         0.11803E+07         0.00000E+00
    0.11803E+07         0.38226E+06         0.00000E+00
    0.00000E+00         0.00000E+00         0.00000E+00
 
    0.25072E+05         0.12495E+07         0.00000E+00
    0.12495E+07         0.38278E+06         0.00000E+00
    0.00000E+00         0.00000E+00         0.00000E+00
 
    0.24773E+05         0.13185E+07         0.00000E+00
    0.13185E+07         0.38332E+06         0.00000E+00
    0.00000E+00         0.00000E+00         0.00000E+00
 
    0.24430E+05         0.13872E+07         0.00000E+00
    0.13872E+07         0.38388E+06         0.00000E+00
    0.00000E+00         0.00000E+00         0.00000E+00
 
    0.24045E+05         0.14556E+07         0.00000E+00
    0.14556E+07         0.38445E+06         0.00000E+00
    0.00000E+00         0.00000E+00         0.00000E+00
 
    0.23619E+05         0.15238E+07         0.00000E+00
    0.15238E+07         0.38505E+06         0.00000E+00
    0.00000E+00         0.00000E+00         0.00000E+00
 
    0.23153E+05         0.15917E+07         0.00000E+00
    0.15917E+07         0.38565E+06         0.00000E+00
    0.00000E+00         0.00000E+00         0.00000E+00
 
    0.22649E+05         0.16592E+07         0.00000E+00
    0.16592E+07         0.38627E+06         0.00000E+00
    0.00000E+00         0.00000E+00         0.00000E+00
 
    0.22108E+05         0.17265E+07         0.00000E+00
    0.17265E+07         0.38690E+06         0.00000E+00
    0.00000E+00         0.00000E+00         0.00000E+00
 
    0.21530E+05         0.17936E+07         0.00000E+00
    0.17936E+07         0.38755E+06         0.00000E+00
    0.00000E+00         0.00000E+00         0.00000E+00
 
    0.20918E+05         0.18603E+07         0.00000E+00
    0.18603E+07         0.38820E+06         0.00000E+00
    0.00000E+00         0.00000E+00         0.00000E+00
 
    0.20273E+05         0.19267E+07         0.00000E+00
    0.19267E+07         0.38887E+06         0.00000E+00
    0.00000E+00         0.00000E+00         0.00000E+00
 
    0.19596E+05         0.19928E+07         0.00000E+00
    0.19928E+07         0.38954E+06         0.00000E+00
    0.00000E+00         0.00000E+00         0.00000E+00
 
    0.18888E+05         0.20586E+07         0.00000E+00
    0.20586E+07         0.39021E+06         0.00000E+00
    0.00000E+00         0.00000E+00         0.00000E+00
 
    0.18152E+05         0.21242E+07         0.00000E+00
    0.21242E+07         0.39090E+06         0.00000E+00
    0.00000E+00         0.00000E+00         0.00000E+00
 
    0.17387E+05         0.21894E+07         0.00000E+00
    0.21894E+07         0.39159E+06         0.00000E+00
    0.00000E+00         0.00000E+00         0.00000E+00
 
    0.16596E+05         0.22543E+07         0.00000E+00
    0.22543E+07         0.39228E+06         0.00000E+00
    0.00000E+00         0.00000E+00         0.00000E+00
 
    0.15780E+05         0.23189E+07         0.00000E+00
    0.23189E+07         0.39297E+06         0.00000E+00
    0.00000E+00         0.00000E+00         0.00000E+00
 
    0.14940E+05         0.23832E+07         0.00000E+00
    0.23832E+07         0.39366E+06         0.00000E+00
    0.00000E+00         0.00000E+00         0.00000E+00
 
    0.14078E+05         0.24471E+07         0.00000E+00
    0.24471E+07         0.39435E+06         0.00000E+00
    0.00000E+00         0.00000E+00         0.00000E+00
 
    0.13195E+05         0.25108E+07         0.00000E+00
    0.25108E+07         0.39504E+06         0.00000E+00
    0.00000E+00         0.00000E+00         0.00000E+00
 
    0.12293E+05         0.25741E+07         0.00000E+00
    0.25741E+07         0.39572E+06         0.00000E+00
    0.00000E+00         0.00000E+00         0.00000E+00
 
    0.11373E+05         0.26371E+07         0.00000E+00
    0.26371E+07         0.39640E+06         0.00000E+00
    0.00000E+00         0.00000E+00         0.00000E+00
 
    0.10436E+05         0.26997E+07         0.00000E+00
    0.26997E+07         0.39708E+06         0.00000E+00
    0.00000E+00         0.00000E+00         0.00000E+00
 
    0.94847E+04         0.27620E+07         0.00000E+00
    0.27620E+07         0.39774E+06         0.00000E+00
    0.00000E+00         0.00000E+00         0.00000E+00
 
    0.85200E+04         0.28240E+07         0.00000E+00
    0.28240E+07         0.39840E+06         0.00000E+00
    0.00000E+00         0.00000E+00         0.00000E+00
 
    0.75434E+04         0.28857E+07         0.00000E+00
    0.28857E+07         0.39904E+06         0.00000E+00
    0.00000E+00         0.00000E+00         0.00000E+00
 
    0.65566E+04         0.29469E+07         0.00000E+00
    0.29469E+07         0.39968E+06         0.00000E+00
    0.00000E+00         0.00000E+00         0.00000E+00
 
    0.55610E+04         0.30079E+07         0.00000E+00
    0.30079E+07         0.40030E+06         0.00000E+00
    0.00000E+00         0.00000E+00         0.00000E+00
 
    0.45583E+04         0.30685E+07         0.00000E+00
    0.30685E+07         0.40090E+06         0.00000E+00
    0.00000E+00         0.00000E+00         0.00000E+00
 
    0.35499E+04         0.31287E+07         0.00000E+00
    0.31287E+07         0.40149E+06         0.00000E+00
    0.00000E+00         0.00000E+00         0.00000E+00
 
    0.25377E+04         0.31886E+07         0.00000E+00
    0.31886E+07         0.40206E+06         0.00000E+00
    0.00000E+00         0.00000E+00         0.00000E+00
 
    0.15230E+04         0.32481E+07         0.00000E+00
    0.32481E+07         0.40261E+06         0.00000E+00
    0.00000E+00         0.00000E+00         0.00000E+00
 
    0.50767E+03         0.33072E+07         0.00000E+00
    0.33072E+07         0.40314E+06         0.00000E+00
    0.00000E+00         0.00000E+00         0.00000E+00
 
    0.96716E+05         0.37079E+05         0.00000E+00
    0.37079E+05         0.84512E+05         0.00000E+00
    0.00000E+00         0.00000E+00         0.00000E+00
 
    0.96162E+05         0.11058E+06         0.00000E+00
    0.11058E+06         0.84569E+05         0.00000E+00
    0.00000E+00         0.00000E+00         0.00000E+00
 
    0.95530E+05         0.18383E+06         0.00000E+00
    0.18383E+06         0.84679E+05         0.00000E+00
    0.00000E+00         0.00000E+00         0.00000E+00
 
    0.94822E+05         0.25684E+06         0.00000E+00
    0.25684E+06         0.84842E+05         0.00000E+00
    0.00000E+00         0.00000E+00         0.00000E+00
 
    0.94039E+05         0.32961E+06         0.00000E+00
    0.32961E+06         0.85058E+05         0.00000E+00
    0.00000E+00         0.00000E+00         0.00000E+00
 
    0.93183E+05         0.40212E+06         0.00000E+00
    0.40212E+06         0.85325E+05         0.00000E+00
    0.00000E+00         0.00000E+00         0.00000E+00
 
    0.92255E+05         0.47439E+06         0.00000E+00
    0.47439E+06         0.85641E+05         0.00000E+00
    0.00000E+00         0.00000E+00         0.00000E+00
 
    0.91256E+05         0.54640E+06         0.00000E+00
    0.54640E+06         0.86006E+05         0.00000E+00
    0.00000E+00         0.00000E+00         0.00000E+00
 
    0.90188E+05         0.61817E+06         0.00000E+00
    0.61817E+06         0.86418E+05         0.00000E+00
    0.00000E+00         0.00000E+00         0.00000E+00
 
    0.89052E+05         0.68967E+06         0.00000E+00
    0.68967E+06         0.86877E+05         0.00000E+00
    0.00000E+00         0.00000E+00         0.00000E+00
 
    0.87850E+05         0.76092E+06         0.00000E+00
    0.76092E+06         0.87381E+05         0.00000E+00
    0.00000E+00         0.00000E+00         0.00000E+00
 
    0.86581E+05         0.83190E+06         0.00000E+00
    0.83190E+06         0.87930E+05         0.00000E+00
    0.00000E+00         0.00000E+00         0.00000E+00
 
    0.85249E+05         0.90263E+06         0.00000E+00
    0.90263E+06         0.88521E+05         0.00000E+00
    0.00000E+00         0.00000E+00         0.00000E+00
 
    0.83853E+05         0.97309E+06         0.00000E+00
    0.97309E+06         0.89155E+05         0.00000E+00
    0.00000E+00         0.00000E+00         0.00000E+00
 
    0.82395E+05         0.10433E+07         0.00000E+00
    0.10433E+07         0.89830E+05         0.00000E+00
    0.00000E+00         0.00000E+00         0.00000E+00
 
    0.80877E+05         0.11132E+07         0.00000E+00
    0.11132E+07         0.90545E+05         0.00000E+00
    0.00000E+00         0.00000E+00         0.00000E+00
 
    0.79300E+05         0.11829E+07         0.00000E+00
    0.11829E+07         0.91299E+05         0.00000E+00
    0.00000E+00         0.00000E+00         0.00000E+00
 
    0.77664E+05         0.12522E+07         0.00000E+00
    0.12522E+07         0.92090E+05         0.00000E+00
    0.00000E+00         0.00000E+00         0.00000E+00
 
    0.75971E+05         0.13213E+07         0.00000E+00
    0.13213E+07         0.92919E+05         0.00000E+00
    0.00000E+00         0.00000E+00         0.00000E+00
 
    0.74222E+05         0.13902E+07         0.00000E+00
    0.13902E+07         0.93784E+05         0.00000E+00
    0.00000E+00         0.00000E+00         0.00000E+00
 
    0.72418E+05         0.14587E+07         0.00000E+00
    0.14587E+07         0.94683E+05         0.00000E+00
    0.00000E+00         0.00000E+00         0.00000E+00
 
    0.70561E+05         0.15270E+07         0.00000E+00
    0.15270E+07         0.95617E+05         0.00000E+00
    0.00000E+00         0.00000E+00         0.00000E+00
 
    0.68651E+05         0.15950E+07         0.00000E+00
    0.15950E+07         0.96583E+05         0.00000E+00
    0.00000E+00         0.00000E+00         0.00000E+00
 
    0.66690E+05         0.16627E+07         0.00000E+00
    0.16627E+07         0.97581E+05         0.00000E+00
    0.00000E+00         0.00000E+00         0.00000E+00
 
    0.64679E+05         0.17301E+07         0.00000E+00
    0.17301E+07         0.98609E+05         0.00000E+00
    0.00000E+00         0.00000E+00         0.00000E+00
 
    0.62618E+05         0.17972E+07         0.00000E+00
    0.17972E+07         0.99668E+05         0.00000E+00
    0.00000E+00         0.00000E+00         0.00000E+00
 
    0.60510E+05         0.18640E+07         0.00000E+00
    0.18640E+07         0.10076E+06         0.00000E+00
    0.00000E+00         0.00000E+00         0.00000E+00
 
    0.58355E+05         0.19305E+07         0.00000E+00
    0.19305E+07         0.10187E+06         0.00000E+00
    0.00000E+00         0.00000E+00         0.00000E+00
 
    0.56154E+05         0.19967E+07         0.00000E+00
    0.19967E+07         0.10301E+06         0.00000E+00
    0.00000E+00         0.00000E+00         0.00000E+00
 
    0.53909E+05         0.20626E+07         0.00000E+00
    0.20626E+07         0.10418E+06         0.00000E+00
    0.00000E+00         0.00000E+00         0.00000E+00
 
    0.51620E+05         0.21282E+07         0.00000E+00
    0.21282E+07         0.10537E+06         0.00000E+00
    0.00000E+00         0.00000E+00         0.00000E+00
 
    0.49289E+05         0.21935E+07         0.00000E+00
    0.21935E+07         0.10659E+06         0.00000E+00
    0.00000E+00         0.00000E+00         0.00000E+00
 
    0.46917E+05         0.22585E+07         0.00000E+00
    0.22585E+07         0.10782E+06         0.00000E+00
    0.00000E+00         0.00000E+00         0.00000E+00
 
    0.44505E+05         0.23232E+07         0.00000E+00
    0.23232E+07         0.10908E+06         0.00000E+00
    0.00000E+00         0.00000E+00         0.00000E+00
 
    0.42054E+05         0.23875E+07         0.00000E+00
    0.23875E+07         0.11036E+06         0.00000E+00
    0.00000E+00         0.00000E+00         0.00000E+00
 
    0.39566E+05         0.24516E+07         0.00000E+00
    0.24516E+07         0.11166E+06         0.00000E+00
    0.00000E+00         0.00000E+00         0.00000E+00
 
    0.37041E+05         0.25153E+07         0.00000E+00
    0.25153E+07         0.11298E+06         0.00000E+00
    0.00000E+00         0.00000E+00         0.00000E+00
 
    0.34481E+05         0.25786E+07         0.00000E+00
    0.25786E+07         0.11431E+06         0.00000E+00
    0.00000E+00         0.00000E+00         0.00000E+00
 
    0.31887E+05         0.26417E+07         0.00000E+00
    0.26417E+07         0.11566E+06         0.00000E+00
    0.00000E+00         0.00000E+00         0.00000E+00
 
    0.29260E+05         0.27044E+07         0.00000E+00
    0.27044E+07         0.11703E+06         0.00000E+00
    0.00000E+00         0.00000E+00         0.00000E+00
 
    0.26601E+05         0.27667E+07         0.00000E+00
    0.27667E+07         0.11841E+06         0.00000E+00
    0.00000E+00         0.00000E+00         0.00000E+00
 
    0.23912E+05         0.28288E+07         0.00000E+00
    0.28288E+07         0.11980E+06         0.00000E+00
    0.00000E+00         0.00000E+00         0.00000E+00
 
    0.21194E+05         0.28904E+07         0.00000E+00
    0.28904E+07         0.12120E+06         0.00000E+00
    0.00000E+00         0.00000E+00         0.00000E+00
 
    0.18447E+05         0.29518E+07         0.00000E+00
    0.29518E+07         0.12262E+06         0.00000E+00
    0.00000E+00         0.00000E+00         0.00000E+00
 
    0.15674E+05         0.30127E+07         0.00000E+00
    0.30127E+07         0.12404E+06         0.00000E+00
    0.00000E+00         0.00000E+00         0.00000E+00
 
    0.12875E+05         0.30733E+07         0.00000E+00
    0.30733E+07         0.12547E+06         0.00000E+00
    0.00000E+00         0.00000E+00         0.00000E+00
 
    0.10052E+05         0.31336E+07         0.00000E+00
    0.31336E+07         0.12691E+06         0.00000E+00
    0.00000E+00         0.00000E+00         0.00000E+00
 
    0.72060E+04         0.31935E+07         0.00000E+00
    0.31935E+07         0.12835E+06         0.00000E+00
    0.00000E+00         0.00000E+00         0.00000E+00
 
    0.43379E+04         0.32530E+07         0.00000E+00
    0.32530E+07         0.12980E+06         0.00000E+00
    0.00000E+00         0.00000E+00         0.00000E+00
 
    0.14493E+04         0.33121E+07         0.00000E+00
    0.33121E+07         0.13126E+06         0.00000E+00
    0.00000E+00         0.00000E+00         0.00000E+00
 
    0.17208E+06         0.37217E+05         0.00000E+00
    0.37217E+05        -0.20887E+06         0.00000E+00
    0.00000E+00         0.00000E+00         0.00000E+00
 
    0.17030E+06         0.11098E+06         0.00000E+00
    0.11098E+06        -0.20880E+06         0.00000E+00
    0.00000E+00         0.00000E+00         0.00000E+00
 
    0.16844E+06         0.18450E+06         0.00000E+00
    0.18450E+06        -0.20866E+06         0.00000E+00
    0.00000E+00         0.00000E+00         0.00000E+00
 
    0.16649E+06         0.25777E+06         0.00000E+00
    0.25777E+06        -0.20845E+06         0.00000E+00
    0.00000E+00         0.00000E+00         0.00000E+00
 
    0.16446E+06         0.33079E+06         0.00000E+00
    0.33079E+06        -0.20817E+06         0.00000E+00
    0.00000E+00         0.00000E+00         0.00000E+00
 
    0.16234E+06         0.40356E+06         0.00000E+00
    0.40356E+06        -0.20783E+06         0.00000E+00
    0.00000E+00         0.00000E+00         0.00000E+00
 
    0.16015E+06         0.47607E+06         0.00000E+00
    0.47607E+06        -0.20742E+06         0.00000E+00
    0.00000E+00         0.00000E+00         0.00000E+00
 
    0.15786E+06         0.54833E+06         0.00000E+00
    0.54833E+06        -0.20695E+06         0.00000E+00
    0.00000E+00         0.00000E+00         0.00000E+00
 
    0.15550E+06         0.62033E+06         0.00000E+00
    0.62033E+06        -0.20641E+06         0.00000E+00
    0.00000E+00         0.00000E+00         0.00000E+00
 
    0.15306E+06         0.69208E+06         0.00000E+00
    0.69208E+06        -0.20581E+06         0.00000E+00
    0.00000E+00         0.00000E+00         0.00000E+00
 
    0.15054E+06         0.76356E+06         0.00000E+00
    0.76356E+06        -0.20515E+06         0.00000E+00
    0.00000E+00         0.00000E+00         0.00000E+00
 
    0.14795E+06         0.83478E+06         0.00000E+00
    0.83478E+06        -0.20443E+06         0.00000E+00
    0.00000E+00         0.00000E+00         0.00000E+00
 
    0.14528E+06         0.90573E+06         0.00000E+00
    0.90573E+06        -0.20365E+06         0.00000E+00
    0.00000E+00         0.00000E+00         0.00000E+00
 
    0.14253E+06         0.97642E+06         0.00000E+00
    0.97642E+06        -0.20281E+06         0.00000E+00
    0.00000E+00         0.00000E+00         0.00000E+00
 
    0.13971E+06         0.10468E+07         0.00000E+00
    0.10468E+07        -0.20191E+06         0.00000E+00
    0.00000E+00         0.00000E+00         0.00000E+00
 
    0.13682E+06         0.11170E+07         0.00000E+00
    0.11170E+07        -0.20096E+06         0.00000E+00
    0.00000E+00         0.00000E+00         0.00000E+00
 
    0.13386E+06         0.11869E+07         0.00000E+00
    0.11869E+07        -0.19995E+06         0.00000E+00
    0.00000E+00         0.00000E+00         0.00000E+00
 
    0.13083E+06         0.12565E+07         0.00000E+00
    0.12565E+07        -0.19888E+06         0.00000E+00
    0.00000E+00         0.00000E+00         0.00000E+00
 
    0.12772E+06         0.13258E+07         0.00000E+00
    0.13258E+07        -0.19776E+06         0.00000E+00
    0.00000E+00         0.00000E+00         0.00000E+00
 
    0.12455E+06         0.13948E+07         0.00000E+00
    0.13948E+07        -0.19659E+06         0.00000E+00
    0.00000E+00         0.00000E+00         0.00000E+00
 
    0.12132E+06         0.14636E+07         0.00000E+00
    0.14636E+07        -0.19536E+06         0.00000E+00
    0.00000E+00         0.00000E+00         0.00000E+00
 
    0.11801E+06         0.15320E+07         0.00000E+00
    0.15320E+07        -0.19408E+06         0.00000E+00
    0.00000E+00         0.00000E+00         0.00000E+00
 
    0.11464E+06         0.16002E+07         0.00000E+00
    0.16002E+07        -0.19276E+06         0.00000E+00
    0.00000E+00         0.00000E+00         0.00000E+00
 
    0.11121E+06         0.16681E+07         0.00000E+00
    0.16681E+07        -0.19138E+06         0.00000E+00
    0.00000E+00         0.00000E+00         0.00000E+00
 
    0.10771E+06         0.17357E+07         0.00000E+00
    0.17357E+07        -0.18995E+06         0.00000E+00
    0.00000E+00         0.00000E+00         0.00000E+00
 
    0.10415E+06         0.18030E+07         0.00000E+00
    0.18030E+07        -0.18848E+06         0.00000E+00
    0.00000E+00         0.00000E+00         0.00000E+00
 
    0.10053E+06         0.18700E+07         0.00000E+00
    0.18700E+07        -0.18695E+06         0.00000E+00
    0.00000E+00         0.00000E+00         0.00000E+00
 
    0.96853E+05         0.19367E+07         0.00000E+00
    0.19367E+07        -0.18538E+06         0.00000E+00
    0.00000E+00         0.00000E+00         0.00000E+00
 
    0.93113E+05         0.20031E+07         0.00000E+00
    0.20031E+07        -0.18377E+06         0.00000E+00
    0.00000E+00         0.00000E+00         0.00000E+00
 
    0.89313E+05         0.20692E+07         0.00000E+00
    0.20692E+07        -0.18211E+06         0.00000E+00
    0.00000E+00         0.00000E+00         0.00000E+00
 
    0.85456E+05         0.21350E+07         0.00000E+00
    0.21350E+07        -0.18040E+06         0.00000E+00
    0.00000E+00         0.00000E+00         0.00000E+00
 
    0.81543E+05         0.22005E+07         0.00000E+00
    0.22005E+07        -0.17866E+06         0.00000E+00
    0.00000E+00         0.00000E+00         0.00000E+00
 
    0.77573E+05         0.22656E+07         0.00000E+00
    0.22656E+07        -0.17687E+06         0.00000E+00
    0.00000E+00         0.00000E+00         0.00000E+00
 
    0.73548E+05         0.23305E+07         0.00000E+00
    0.23305E+07        -0.17503E+06         0.00000E+00
    0.00000E+00         0.00000E+00         0.00000E+00
 
    0.69469E+05         0.23950E+07         0.00000E+00
    0.23950E+07        -0.17316E+06         0.00000E+00
    0.00000E+00         0.00000E+00         0.00000E+00
 
    0.65337E+05         0.24592E+07         0.00000E+00
    0.24592E+07        -0.17125E+06         0.00000E+00
    0.00000E+00         0.00000E+00         0.00000E+00
 
    0.61152E+05         0.25230E+07         0.00000E+00
    0.25230E+07        -0.16930E+06         0.00000E+00
    0.00000E+00         0.00000E+00         0.00000E+00
 
    0.56917E+05         0.25866E+07         0.00000E+00
    0.25866E+07        -0.16731E+06         0.00000E+00
    0.00000E+00         0.00000E+00         0.00000E+00
 
    0.52630E+05         0.26498E+07         0.00000E+00
    0.26498E+07        -0.16528E+06         0.00000E+00
    0.00000E+00         0.00000E+00         0.00000E+00
 
    0.48294E+05         0.27126E+07         0.00000E+00
    0.27126E+07        -0.16322E+06         0.00000E+00
    0.00000E+00         0.00000E+00         0.00000E+00
 
    0.43909E+05         0.27751E+07         0.00000E+00
    0.27751E+07        -0.16111E+06         0.00000E+00
    0.00000E+00         0.00000E+00         0.00000E+00
 
    0.39477E+05         0.28373E+07         0.00000E+00
    0.28373E+07        -0.15898E+06         0.00000E+00
    0.00000E+00         0.00000E+00         0.00000E+00
 
    0.34997E+05         0.28991E+07         0.00000E+00
    0.28991E+07        -0.15681E+06         0.00000E+00
    0.00000E+00         0.00000E+00         0.00000E+00
 
    0.30471E+05         0.29606E+07         0.00000E+00
    0.29606E+07        -0.15461E+06         0.00000E+00
    0.00000E+00         0.00000E+00         0.00000E+00
 
    0.25901E+05         0.30217E+07         0.00000E+00
    0.30217E+07        -0.15237E+06         0.00000E+00
    0.00000E+00         0.00000E+00         0.00000E+00
 
    0.21286E+05         0.30825E+07         0.00000E+00
    0.30825E+07        -0.15011E+06         0.00000E+00
    0.00000E+00         0.00000E+00         0.00000E+00
 
    0.16627E+05         0.31428E+07         0.00000E+00
    0.31428E+07        -0.14781E+06         0.00000E+00
    0.00000E+00         0.00000E+00         0.00000E+00
 
    0.11927E+05         0.32028E+07         0.00000E+00
    0.32028E+07        -0.14548E+06         0.00000E+00
    0.00000E+00         0.00000E+00         0.00000E+00
 
    0.71843E+04         0.32625E+07         0.00000E+00
    0.32625E+07        -0.14312E+06         0.00000E+00
    0.00000E+00         0.00000E+00         0.00000E+00
 
    0.24015E+04         0.33217E+07         0.00000E+00
    0.33217E+07        -0.14074E+06         0.00000E+00
    0.00000E+00         0.00000E+00         0.00000E+00
 
    0.24812E+06         0.37396E+05         0.00000E+00
    0.37396E+05        -0.50312E+06         0.00000E+00
    0.00000E+00         0.00000E+00         0.00000E+00
 
    0.24511E+06         0.11151E+06         0.00000E+00
    0.11151E+06        -0.50304E+06         0.00000E+00
    0.00000E+00         0.00000E+00         0.00000E+00
 
    0.24201E+06         0.18537E+06         0.00000E+00
    0.18537E+06        -0.50286E+06         0.00000E+00
    0.00000E+00         0.00000E+00         0.00000E+00
 
    0.23880E+06         0.25898E+06         0.00000E+00
    0.25898E+06        -0.50261E+06         0.00000E+00
    0.00000E+00         0.00000E+00         0.00000E+00
 
    0.23550E+06         0.33234E+06         0.00000E+00
    0.33234E+06        -0.50227E+06         0.00000E+00
    0.00000E+00         0.00000E+00         0.00000E+00
 
    0.23211E+06         0.40545E+06         0.00000E+00
    0.40545E+06        -0.50185E+06         0.00000E+00
    0.00000E+00         0.00000E+00         0.00000E+00
 
    0.22862E+06         0.47830E+06         0.00000E+00
    0.47830E+06        -0.50135E+06         0.00000E+00
    0.00000E+00         0.00000E+00         0.00000E+00
 
    0.22504E+06         0.55089E+06         0.00000E+00
    0.55089E+06        -0.50077E+06         0.00000E+00
    0.00000E+00         0.00000E+00         0.00000E+00
 
    0.22137E+06         0.62322E+06         0.00000E+00
    0.62322E+06        -0.50011E+06         0.00000E+00
    0.00000E+00         0.00000E+00         0.00000E+00
 
    0.21761E+06         0.69529E+06         0.00000E+00
    0.69529E+06        -0.49937E+06         0.00000E+00
    0.00000E+00         0.00000E+00         0.00000E+00
 
    0.21377E+06         0.76710E+06         0.00000E+00
    0.76710E+06        -0.49855E+06         0.00000E+00
    0.00000E+00         0.00000E+00         0.00000E+00
 
    0.20983E+06         0.83864E+06         0.00000E+00
    0.83864E+06        -0.49765E+06         0.00000E+00
    0.00000E+00         0.00000E+00         0.00000E+00
 
    0.20581E+06         0.90991E+06         0.00000E+00
    0.90991E+06        -0.49668E+06         0.00000E+00
    0.00000E+00         0.00000E+00         0.00000E+00
 
    0.20170E+06         0.98091E+06         0.00000E+00
    0.98091E+06        -0.49564E+06         0.00000E+00
    0.00000E+00         0.00000E+00         0.00000E+00
 
    0.19750E+06         0.10516E+07         0.00000E+00
    0.10516E+07        -0.49452E+06         0.00000E+00
    0.00000E+00         0.00000E+00         0.00000E+00
 
    0.19323E+06         0.11221E+07         0.00000E+00
    0.11221E+07        -0.49332E+06         0.00000E+00
    0.00000E+00         0.00000E+00         0.00000E+00
 
    0.18886E+06         0.11923E+07         0.00000E+00
    0.11923E+07        -0.49205E+06         0.00000E+00
    0.00000E+00         0.00000E+00         0.00000E+00
 
    0.18442E+06         0.12622E+07         0.00000E+00
    0.12622E+07        -0.49071E+06         0.00000E+00
    0.00000E+00         0.00000E+00         0.00000E+00
 
    0.17990E+06         0.13318E+07         0.00000E+00
    0.13318E+07        -0.48930E+06         0.00000E+00
    0.00000E+00         0.00000E+00         0.00000E+00
 
    0.17529E+06         0.14011E+07         0.00000E+00
    0.14011E+07        -0.48782E+06         0.00000E+00
    0.00000E+00         0.00000E+00         0.00000E+00
 
    0.17061E+06         0.14702E+07         0.00000E+00
    0.14702E+07        -0.48627E+06         0.00000E+00
    0.00000E+00         0.00000E+00         0.00000E+00
 
    0.16585E+06         0.15390E+07         0.00000E+00
    0.15390E+07        -0.48465E+06         0.00000E+00
    0.00000E+00         0.00000E+00         0.00000E+00
 
    0.16101E+06         0.16074E+07         0.00000E+00
    0.16074E+07        -0.48296E+06         0.00000E+00
    0.00000E+00         0.00000E+00         0.00000E+00
 
    0.15609E+06         0.16756E+07         0.00000E+00
    0.16756E+07        -0.48120E+06         0.00000E+00
    0.00000E+00         0.00000E+00         0.00000E+00
 
    0.15109E+06         0.17435E+07         0.00000E+00
    0.17435E+07        -0.47937E+06         0.00000E+00
    0.00000E+00         0.00000E+00         0.00000E+00
 
    0.14602E+06         0.18111E+07         0.00000E+00
    0.18111E+07        -0.47748E+06         0.00000E+00
    0.00000E+00         0.00000E+00         0.00000E+00
 
    0.14088E+06         0.18784E+07         0.00000E+00
    0.18784E+07        -0.47552E+06         0.00000E+00
    0.00000E+00         0.00000E+00         0.00000E+00
 
    0.13566E+06         0.19454E+07         0.00000E+00
    0.19454E+07        -0.47349E+06         0.00000E+00
    0.00000E+00         0.00000E+00         0.00000E+00
 
    0.13037E+06         0.20121E+07         0.00000E+00
    0.20121E+07        -0.47140E+06         0.00000E+00
    0.00000E+00         0.00000E+00         0.00000E+00
 
    0.12500E+06         0.20784E+07         0.00000E+00
    0.20784E+07        -0.46925E+06         0.00000E+00
    0.00000E+00         0.00000E+00         0.00000E+00
 
    0.11956E+06         0.21445E+07         0.00000E+00
    0.21445E+07        -0.46703E+06         0.00000E+00
    0.00000E+00         0.00000E+00         0.00000E+00
 
    0.11405E+06         0.22102E+07         0.00000E+00
    0.22102E+07        -0.46475E+06         0.00000E+00
    0.00000E+00         0.00000E+00         0.00000E+00
 
    0.10847E+06         0.22757E+07         0.00000E+00
    0.22757E+07        -0.46240E+06         0.00000E+00
    0.00000E+00         0.00000E+00         0.00000E+00
 
    0.10282E+06         0.23408E+07         0.00000E+00
    0.23408E+07        -0.46000E+06         0.00000E+00
    0.00000E+00         0.00000E+00         0.00000E+00
 
    0.97103E+05         0.24056E+07         0.00000E+00
    0.24056E+07        -0.45753E+06         0.00000E+00
    0.00000E+00         0.00000E+00         0.00000E+00
 
    0.91313E+05         0.24700E+07         0.00000E+00
    0.24700E+07        -0.45500E+06         0.00000E+00
    0.00000E+00         0.00000E+00         0.00000E+00
 
    0.85456E+05         0.25342E+07         0.00000E+00
    0.25342E+07        -0.45241E+06         0.00000E+00
    0.00000E+00         0.00000E+00         0.00000E+00
 
    0.79531E+05         0.25980E+07         0.00000E+00
    0.25980E+07        -0.44976E+06         0.00000E+00
    0.00000E+00         0.00000E+00         0.00000E+00
 
    0.73539E+05         0.26614E+07         0.00000E+00
    0.26614E+07        -0.44705E+06         0.00000E+00
    0.00000E+00         0.00000E+00         0.00000E+00
 
    0.67480E+05         0.27245E+07         0.00000E+00
    0.27245E+07        -0.44428E+06         0.00000E+00
    0.00000E+00         0.00000E+00         0.00000E+00
 
    0.61355E+05         0.27873E+07         0.00000E+00
    0.27873E+07        -0.44146E+06         0.00000E+00
    0.00000E+00         0.00000E+00         0.00000E+00
 
    0.55165E+05         0.28497E+07         0.00000E+00
    0.28497E+07        -0.43857E+06         0.00000E+00
    0.00000E+00         0.00000E+00         0.00000E+00
 
    0.48910E+05         0.29118E+07         0.00000E+00
    0.29118E+07        -0.43563E+06         0.00000E+00
    0.00000E+00         0.00000E+00         0.00000E+00
 
    0.42591E+05         0.29735E+07         0.00000E+00
    0.29735E+07        -0.43263E+06         0.00000E+00
    0.00000E+00         0.00000E+00         0.00000E+00
 
    0.36208E+05         0.30349E+07         0.00000E+00
    0.30349E+07        -0.42958E+06         0.00000E+00
    0.00000E+00         0.00000E+00         0.00000E+00
 
    0.29763E+05         0.30959E+07         0.00000E+00
    0.30959E+07        -0.42647E+06         0.00000E+00
    0.00000E+00         0.00000E+00         0.00000E+00
 
    0.23255E+05         0.31565E+07         0.00000E+00
    0.31565E+07        -0.42331E+06         0.00000E+00
    0.00000E+00         0.00000E+00         0.00000E+00
 
    0.16685E+05         0.32167E+07         0.00000E+00
    0.32167E+07        -0.42009E+06         0.00000E+00
    0.00000E+00         0.00000E+00         0.00000E+00
 
    0.10053E+05         0.32766E+07         0.00000E+00
    0.32766E+07        -0.41682E+06         0.00000E+00
    0.00000E+00         0.00000E+00         0.00000E+00
 
    0.33612E+04         0.33361E+07         0.00000E+00
    0.33361E+07        -0.41350E+06         0.00000E+00
    0.00000E+00         0.00000E+00         0.00000E+00
 
    0.32468E+06         0.37617E+05         0.00000E+00
    0.37617E+05        -0.79882E+06         0.00000E+00
    0.00000E+00         0.00000E+00         0.00000E+00
 
    0.32042E+06         0.11216E+06         0.00000E+00
    0.11216E+06        -0.79872E+06         0.00000E+00
    0.00000E+00         0.00000E+00         0.00000E+00
 
    0.31605E+06         0.18646E+06         0.00000E+00
    0.18646E+06        -0.79852E+06         0.00000E+00
    0.00000E+00         0.00000E+00         0.00000E+00
 
    0.31158E+06         0.26050E+06         0.00000E+00
    0.26050E+06        -0.79822E+06         0.00000E+00
    0.00000E+00         0.00000E+00         0.00000E+00
 
    0.30700E+06         0.33428E+06         0.00000E+00
    0.33428E+06        -0.79782E+06         0.00000E+00
    0.00000E+00         0.00000E+00         0.00000E+00
 
    0.30231E+06         0.40781E+06         0.00000E+00
    0.40781E+06        -0.79732E+06         0.00000E+00
    0.00000E+00         0.00000E+00         0.00000E+00
 
    0.29752E+06         0.48108E+06         0.00000E+00
    0.48108E+06        -0.79673E+06         0.00000E+00
    0.00000E+00         0.00000E+00         0.00000E+00
 
    0.29263E+06         0.55408E+06         0.00000E+00
    0.55408E+06        -0.79604E+06         0.00000E+00
    0.00000E+00         0.00000E+00         0.00000E+00
 
    0.28764E+06         0.62683E+06         0.00000E+00
    0.62683E+06        -0.79525E+06         0.00000E+00
    0.00000E+00         0.00000E+00         0.00000E+00
 
    0.28255E+06         0.69931E+06         0.00000E+00
    0.69931E+06        -0.79437E+06         0.00000E+00
    0.00000E+00         0.00000E+00         0.00000E+00
 
    0.27736E+06         0.77152E+06         0.00000E+00
    0.77152E+06        -0.79340E+06         0.00000E+00
    0.00000E+00         0.00000E+00         0.00000E+00
 
    0.27207E+06         0.84347E+06         0.00000E+00
    0.84347E+06        -0.79233E+06         0.00000E+00
    0.00000E+00         0.00000E+00         0.00000E+00
 
    0.26668E+06         0.91515E+06         0.00000E+00
    0.91515E+06        -0.79117E+06         0.00000E+00
    0.00000E+00         0.00000E+00         0.00000E+00
 
    0.26120E+06         0.98655E+06         0.00000E+00
    0.98655E+06        -0.78992E+06         0.00000E+00
    0.00000E+00         0.00000E+00         0.00000E+00
 
    0.25562E+06         0.10577E+07         0.00000E+00
    0.10577E+07        -0.78858E+06         0.00000E+00
    0.00000E+00         0.00000E+00         0.00000E+00
 
    0.24994E+06         0.11285E+07         0.00000E+00
    0.11285E+07        -0.78715E+06         0.00000E+00
    0.00000E+00         0.00000E+00         0.00000E+00
 
    0.24417E+06         0.11991E+07         0.00000E+00
    0.11991E+07        -0.78562E+06         0.00000E+00
    0.00000E+00         0.00000E+00         0.00000E+00
 
    0.23831E+06         0.12694E+07         0.00000E+00
    0.12694E+07        -0.78401E+06         0.00000E+00
    0.00000E+00         0.00000E+00         0.00000E+00
 
    0.23235E+06         0.13394E+07         0.00000E+00
    0.13394E+07        -0.78231E+06         0.00000E+00
    0.00000E+00         0.00000E+00         0.00000E+00
 
    0.22631E+06         0.14092E+07         0.00000E+00
    0.14092E+07        -0.78052E+06         0.00000E+00
    0.00000E+00         0.00000E+00         0.00000E+00
 
    0.22017E+06         0.14786E+07         0.00000E+00
    0.14786E+07        -0.77864E+06         0.00000E+00
    0.00000E+00         0.00000E+00         0.00000E+00
 
    0.21393E+06         0.15478E+07         0.00000E+00
    0.15478E+07        -0.77668E+06         0.00000E+00
    0.00000E+00         0.00000E+00         0.00000E+00
 
    0.20761E+06         0.16166E+07         0.00000E+00
    0.16166E+07        -0.77462E+06         0.00000E+00
    0.00000E+00         0.00000E+00         0.00000E+00
 
    0.20120E+06         0.16852E+07         0.00000E+00
    0.16852E+07        -0.77248E+06         0.00000E+00
    0.00000E+00         0.00000E+00         0.00000E+00
 
    0.19470E+06         0.17535E+07         0.00000E+00
    0.17535E+07        -0.77026E+06         0.00000E+00
    0.00000E+00         0.00000E+00         0.00000E+00
 
    0.18811E+06         0.18214E+07         0.00000E+00
    0.18214E+07        -0.76795E+06         0.00000E+00
    0.00000E+00         0.00000E+00         0.00000E+00
 
    0.18143E+06         0.18891E+07         0.00000E+00
    0.18891E+07        -0.76555E+06         0.00000E+00
    0.00000E+00         0.00000E+00         0.00000E+00
 
    0.17466E+06         0.19565E+07         0.00000E+00
    0.19565E+07        -0.76307E+06         0.00000E+00
    0.00000E+00         0.00000E+00         0.00000E+00
 
    0.16781E+06         0.20235E+07         0.00000E+00
    0.20235E+07        -0.76051E+06         0.00000E+00
    0.00000E+00         0.00000E+00         0.00000E+00
 
    0.16087E+06         0.20903E+07         0.00000E+00
    0.20903E+07        -0.75786E+06         0.00000E+00
    0.00000E+00         0.00000E+00         0.00000E+00
 
    0.15384E+06         0.21567E+07         0.00000E+00
    0.21567E+07        -0.75512E+06         0.00000E+00
    0.00000E+00         0.00000E+00         0.00000E+00
 
    0.14673E+06         0.22228E+07         0.00000E+00
    0.22228E+07        -0.75231E+06         0.00000E+00
    0.00000E+00         0.00000E+00         0.00000E+00
 
    0.13953E+06         0.22886E+07         0.00000E+00
    0.22886E+07        -0.74941E+06         0.00000E+00
    0.00000E+00         0.00000E+00         0.00000E+00
 
    0.13224E+06         0.23541E+07         0.00000E+00
    0.23541E+07        -0.74642E+06         0.00000E+00
    0.00000E+00         0.00000E+00         0.00000E+00
 
    0.12487E+06         0.24193E+07         0.00000E+00
    0.24193E+07        -0.74336E+06         0.00000E+00
    0.00000E+00         0.00000E+00         0.00000E+00
 
    0.11742E+06         0.24841E+07         0.00000E+00
    0.24841E+07        -0.74021E+06         0.00000E+00
    0.00000E+00         0.00000E+00         0.00000E+00
 
    0.10988E+06         0.25486E+07         0.00000E+00
    0.25486E+07        -0.73698E+06         0.00000E+00
    0.00000E+00         0.00000E+00         0.00000E+00
 
    0.10226E+06         0.26128E+07         0.00000E+00
    0.26128E+07        -0.73367E+06         0.00000E+00
    0.00000E+00         0.00000E+00         0.00000E+00
 
    0.94549E+05         0.26766E+07         0.00000E+00
    0.26766E+07        -0.73028E+06         0.00000E+00
    0.00000E+00         0.00000E+00         0.00000E+00
 
    0.86759E+05         0.27401E+07         0.00000E+00
    0.27401E+07        -0.72681E+06         0.00000E+00
    0.00000E+00         0.00000E+00         0.00000E+00
 
    0.78886E+05         0.28032E+07         0.00000E+00
    0.28032E+07        -0.72325E+06         0.00000E+00
    0.00000E+00         0.00000E+00         0.00000E+00
 
    0.70930E+05         0.28660E+07         0.00000E+00
    0.28660E+07        -0.71962E+06         0.00000E+00
    0.00000E+00         0.00000E+00         0.00000E+00
 
    0.62891E+05         0.29284E+07         0.00000E+00
    0.29284E+07        -0.71590E+06         0.00000E+00
    0.00000E+00         0.00000E+00         0.00000E+00
 
    0.54770E+05         0.29905E+07         0.00000E+00
    0.29905E+07        -0.71211E+06         0.00000E+00
    0.00000E+00         0.00000E+00         0.00000E+00
 
    0.46566E+05         0.30522E+07         0.00000E+00
    0.30522E+07        -0.70823E+06         0.00000E+00
    0.00000E+00         0.00000E+00         0.00000E+00
 
    0.38281E+05         0.31136E+07         0.00000E+00
    0.31136E+07        -0.70428E+06         0.00000E+00
    0.00000E+00         0.00000E+00         0.00000E+00
 
    0.29914E+05         0.31745E+07         0.00000E+00
    0.31745E+07        -0.70025E+06         0.00000E+00
    0.00000E+00         0.00000E+00         0.00000E+00
 
    0.21466E+05         0.32351E+07         0.00000E+00
    0.32351E+07        -0.69614E+06         0.00000E+00
    0.00000E+00         0.00000E+00         0.00000E+00
 
    0.12936E+05         0.32954E+07         0.00000E+00
    0.32954E+07        -0.69195E+06         0.00000E+00
    0.00000E+00         0.00000E+00         0.00000E+00
 
    0.43255E+04         0.33552E+07         0.00000E+00
    0.33552E+07        -0.68768E+06         0.00000E+00
    0.00000E+00         0.00000E+00         0.00000E+00
 
    0.40158E+06         0.37879E+05         0.00000E+00
    0.37879E+05        -0.10966E+07         0.00000E+00
    0.00000E+00         0.00000E+00         0.00000E+00
 
    0.39605E+06         0.11294E+06         0.00000E+00
    0.11294E+06        -0.10964E+07         0.00000E+00
    0.00000E+00         0.00000E+00         0.00000E+00
 
    0.39041E+06         0.18775E+06         0.00000E+00
    0.18775E+06        -0.10962E+07         0.00000E+00
    0.00000E+00         0.00000E+00         0.00000E+00
 
    0.38465E+06         0.26230E+06         0.00000E+00
    0.26230E+06        -0.10959E+07         0.00000E+00
    0.00000E+00         0.00000E+00         0.00000E+00
 
    0.37877E+06         0.33659E+06         0.00000E+00
    0.33659E+06        -0.10954E+07         0.00000E+00
    0.00000E+00         0.00000E+00         0.00000E+00
 
    0.37279E+06         0.41062E+06         0.00000E+00
    0.41062E+06        -0.10948E+07         0.00000E+00
    0.00000E+00         0.00000E+00         0.00000E+00
 
    0.36668E+06         0.48440E+06         0.00000E+00
    0.48440E+06        -0.10941E+07         0.00000E+00
    0.00000E+00         0.00000E+00         0.00000E+00
 
    0.36047E+06         0.55790E+06         0.00000E+00
    0.55790E+06        -0.10934E+07         0.00000E+00
    0.00000E+00         0.00000E+00         0.00000E+00
 
    0.35415E+06         0.63115E+06         0.00000E+00
    0.63115E+06        -0.10924E+07         0.00000E+00
    0.00000E+00         0.00000E+00         0.00000E+00
 
    0.34771E+06         0.70413E+06         0.00000E+00
    0.70413E+06        -0.10914E+07         0.00000E+00
    0.00000E+00         0.00000E+00         0.00000E+00
 
    0.34117E+06         0.77684E+06         0.00000E+00
    0.77684E+06        -0.10903E+07         0.00000E+00
    0.00000E+00         0.00000E+00         0.00000E+00
 
    0.33451E+06         0.84928E+06         0.00000E+00
    0.84928E+06        -0.10891E+07         0.00000E+00
    0.00000E+00         0.00000E+00         0.00000E+00
 
    0.32775E+06         0.92144E+06         0.00000E+00
    0.92144E+06        -0.10877E+07         0.00000E+00
    0.00000E+00         0.00000E+00         0.00000E+00
 
    0.32088E+06         0.99334E+06         0.00000E+00
    0.99334E+06        -0.10863E+07         0.00000E+00
    0.00000E+00         0.00000E+00         0.00000E+00
 
    0.31391E+06         0.10650E+07         0.00000E+00
    0.10650E+07        -0.10847E+07         0.00000E+00
    0.00000E+00         0.00000E+00         0.00000E+00
 
    0.30683E+06         0.11363E+07         0.00000E+00
    0.11363E+07        -0.10830E+07         0.00000E+00
    0.00000E+00         0.00000E+00         0.00000E+00
 
    0.29964E+06         0.12074E+07         0.00000E+00
    0.12074E+07        -0.10813E+07         0.00000E+00
    0.00000E+00         0.00000E+00         0.00000E+00
 
    0.29235E+06         0.12781E+07         0.00000E+00
    0.12781E+07        -0.10794E+07         0.00000E+00
    0.00000E+00         0.00000E+00         0.00000E+00
 
    0.28495E+06         0.13486E+07         0.00000E+00
    0.13486E+07        -0.10774E+07         0.00000E+00
    0.00000E+00         0.00000E+00         0.00000E+00
 
    0.27745E+06         0.14189E+07         0.00000E+00
    0.14189E+07        -0.10753E+07         0.00000E+00
    0.00000E+00         0.00000E+00         0.00000E+00
 
    0.26985E+06         0.14888E+07         0.00000E+00
    0.14888E+07        -0.10731E+07         0.00000E+00
    0.00000E+00         0.00000E+00         0.00000E+00
 
    0.26214E+06         0.15584E+07         0.00000E+00
    0.15584E+07        -0.10708E+07         0.00000E+00
    0.00000E+00         0.00000E+00         0.00000E+00
 
    0.25433E+06         0.16278E+07         0.00000E+00
    0.16278E+07        -0.10684E+07         0.00000E+00
    0.00000E+00         0.00000E+00         0.00000E+00
 
    0.24642E+06         0.16968E+07         0.00000E+00
    0.16968E+07        -0.10658E+07         0.00000E+00
    0.00000E+00         0.00000E+00         0.00000E+00
 
    0.23840E+06         0.17656E+07         0.00000E+00
    0.17656E+07        -0.10632E+07         0.00000E+00
    0.00000E+00         0.00000E+00         0.00000E+00
 
    0.23029E+06         0.18340E+07         0.00000E+00
    0.18340E+07        -0.10605E+07         0.00000E+00
    0.00000E+00         0.00000E+00         0.00000E+00
 
    0.22207E+06         0.19022E+07         0.00000E+00
    0.19022E+07        -0.10577E+07         0.00000E+00
    0.00000E+00         0.00000E+00         0.00000E+00
 
    0.21375E+06         0.19700E+07         0.00000E+00
    0.19700E+07        -0.10547E+07         0.00000E+00
    0.00000E+00         0.00000E+00         0.00000E+00
 
    0.20533E+06         0.20375E+07         0.00000E+00
    0.20375E+07        -0.10517E+07         0.00000E+00
    0.00000E+00         0.00000E+00         0.00000E+00
 
    0.19681E+06         0.21048E+07         0.00000E+00
    0.21048E+07        -0.10486E+07         0.00000E+00
    0.00000E+00         0.00000E+00         0.00000E+00
 
    0.18819E+06         0.21717E+07         0.00000E+00
    0.21717E+07        -0.10453E+07         0.00000E+00
    0.00000E+00         0.00000E+00         0.00000E+00
 
    0.17946E+06         0.22383E+07         0.00000E+00
    0.22383E+07        -0.10420E+07         0.00000E+00
    0.00000E+00         0.00000E+00         0.00000E+00
 
    0.17064E+06         0.23045E+07         0.00000E+00
    0.23045E+07        -0.10385E+07         0.00000E+00
    0.00000E+00         0.00000E+00         0.00000E+00
 
    0.16172E+06         0.23705E+07         0.00000E+00
    0.23705E+07        -0.10349E+07         0.00000E+00
    0.00000E+00         0.00000E+00         0.00000E+00
 
    0.15269E+06         0.24361E+07         0.00000E+00
    0.24361E+07        -0.10313E+07         0.00000E+00
    0.00000E+00         0.00000E+00         0.00000E+00
 
    0.14357E+06         0.25014E+07         0.00000E+00
    0.25014E+07        -0.10275E+07         0.00000E+00
    0.00000E+00         0.00000E+00         0.00000E+00
 
    0.13435E+06         0.25664E+07         0.00000E+00
    0.25664E+07        -0.10237E+07         0.00000E+00
    0.00000E+00         0.00000E+00         0.00000E+00
 
    0.12502E+06         0.26310E+07         0.00000E+00
    0.26310E+07        -0.10197E+07         0.00000E+00
    0.00000E+00         0.00000E+00         0.00000E+00
 
    0.11560E+06         0.26953E+07         0.00000E+00
    0.26953E+07        -0.10156E+07         0.00000E+00
    0.00000E+00         0.00000E+00         0.00000E+00
 
    0.10607E+06         0.27593E+07         0.00000E+00
    0.27593E+07        -0.10114E+07         0.00000E+00
    0.00000E+00         0.00000E+00         0.00000E+00
 
    0.96448E+05         0.28229E+07         0.00000E+00
    0.28229E+07        -0.10072E+07         0.00000E+00
    0.00000E+00         0.00000E+00         0.00000E+00
 
    0.86722E+05         0.28861E+07         0.00000E+00
    0.28861E+07        -0.10028E+07         0.00000E+00
    0.00000E+00         0.00000E+00         0.00000E+00
 
    0.76896E+05         0.29490E+07         0.00000E+00
    0.29490E+07        -0.99828E+06         0.00000E+00
    0.00000E+00         0.00000E+00         0.00000E+00
 
    0.66969E+05         0.30116E+07         0.00000E+00
    0.30116E+07        -0.99369E+06         0.00000E+00
    0.00000E+00         0.00000E+00         0.00000E+00
 
    0.56942E+05         0.30738E+07         0.00000E+00
    0.30738E+07        -0.98899E+06         0.00000E+00
    0.00000E+00         0.00000E+00         0.00000E+00
 
    0.46814E+05         0.31356E+07         0.00000E+00
    0.31356E+07        -0.98420E+06         0.00000E+00
    0.00000E+00         0.00000E+00         0.00000E+00
 
    0.36585E+05         0.31970E+07         0.00000E+00
    0.31970E+07        -0.97929E+06         0.00000E+00
    0.00000E+00         0.00000E+00         0.00000E+00
 
    0.26255E+05         0.32581E+07         0.00000E+00
    0.32581E+07        -0.97429E+06         0.00000E+00
    0.00000E+00         0.00000E+00         0.00000E+00
 
    0.15824E+05         0.33188E+07         0.00000E+00
    0.33188E+07        -0.96918E+06         0.00000E+00
    0.00000E+00         0.00000E+00         0.00000E+00
 
    0.52916E+04         0.33791E+07         0.00000E+00
    0.33791E+07        -0.96397E+06         0.00000E+00
    0.00000E+00         0.00000E+00         0.00000E+00
 
    0.47863E+06         0.38183E+05         0.00000E+00
    0.38183E+05        -0.13969E+07         0.00000E+00
    0.00000E+00         0.00000E+00         0.00000E+00
 
    0.47183E+06         0.11384E+06         0.00000E+00
    0.11384E+06        -0.13968E+07         0.00000E+00
    0.00000E+00         0.00000E+00         0.00000E+00
 
    0.46489E+06         0.18925E+06         0.00000E+00
    0.18925E+06        -0.13965E+07         0.00000E+00
    0.00000E+00         0.00000E+00         0.00000E+00
 
    0.45784E+06         0.26439E+06         0.00000E+00
    0.26439E+06        -0.13962E+07         0.00000E+00
    0.00000E+00         0.00000E+00         0.00000E+00
 
    0.45066E+06         0.33928E+06         0.00000E+00
    0.33928E+06        -0.13956E+07         0.00000E+00
    0.00000E+00         0.00000E+00         0.00000E+00
 
    0.44335E+06         0.41390E+06         0.00000E+00
    0.41390E+06        -0.13950E+07         0.00000E+00
    0.00000E+00         0.00000E+00         0.00000E+00
 
    0.43593E+06         0.48826E+06         0.00000E+00
    0.48826E+06        -0.13942E+07         0.00000E+00
    0.00000E+00         0.00000E+00         0.00000E+00
 
    0.42838E+06         0.56235E+06         0.00000E+00
    0.56235E+06        -0.13933E+07         0.00000E+00
    0.00000E+00         0.00000E+00         0.00000E+00
 
    0.42071E+06         0.63618E+06         0.00000E+00
    0.63618E+06        -0.13923E+07         0.00000E+00
    0.00000E+00         0.00000E+00         0.00000E+00
 
    0.41292E+06         0.70974E+06         0.00000E+00
    0.70974E+06        -0.13911E+07         0.00000E+00
    0.00000E+00         0.00000E+00         0.00000E+00
 
    0.40502E+06         0.78303E+06         0.00000E+00
    0.78303E+06        -0.13899E+07         0.00000E+00
    0.00000E+00         0.00000E+00         0.00000E+00
 
    0.39699E+06         0.85605E+06         0.00000E+00
    0.85605E+06        -0.13884E+07         0.00000E+00
    0.00000E+00         0.00000E+00         0.00000E+00
 
    0.38885E+06         0.92879E+06         0.00000E+00
    0.92879E+06        -0.13869E+07         0.00000E+00
    0.00000E+00         0.00000E+00         0.00000E+00
 
    0.38059E+06         0.10013E+07         0.00000E+00
    0.10013E+07        -0.13853E+07         0.00000E+00
    0.00000E+00         0.00000E+00         0.00000E+00
 
    0.37221E+06         0.10735E+07         0.00000E+00
    0.10735E+07        -0.13835E+07         0.00000E+00
    0.00000E+00         0.00000E+00         0.00000E+00
 
    0.36371E+06         0.11454E+07         0.00000E+00
    0.11454E+07        -0.13816E+07         0.00000E+00
    0.00000E+00         0.00000E+00         0.00000E+00
 
    0.35510E+06         0.12170E+07         0.00000E+00
    0.12170E+07        -0.13796E+07         0.00000E+00
    0.00000E+00         0.00000E+00         0.00000E+00
 
    0.34638E+06         0.12884E+07         0.00000E+00
    0.12884E+07        -0.13774E+07         0.00000E+00
    0.00000E+00         0.00000E+00         0.00000E+00
 
    0.33754E+06         0.13594E+07         0.00000E+00
    0.13594E+07        -0.13751E+07         0.00000E+00
    0.00000E+00         0.00000E+00         0.00000E+00
 
    0.32858E+06         0.14302E+07         0.00000E+00
    0.14302E+07        -0.13727E+07         0.00000E+00
    0.00000E+00         0.00000E+00         0.00000E+00
 
    0.31951E+06         0.15007E+07         0.00000E+00
    0.15007E+07        -0.13702E+07         0.00000E+00
    0.00000E+00         0.00000E+00         0.00000E+00
 
    0.31032E+06         0.15709E+07         0.00000E+00
    0.15709E+07        -0.13676E+07         0.00000E+00
    0.00000E+00         0.00000E+00         0.00000E+00
 
    0.30102E+06         0.16408E+07         0.00000E+00
    0.16408E+07        -0.13648E+07         0.00000E+00
    0.00000E+00         0.00000E+00         0.00000E+00
 
    0.29161E+06         0.17105E+07         0.00000E+00
    0.17105E+07        -0.13619E+07         0.00000E+00
    0.00000E+00         0.00000E+00         0.00000E+00
 
    0.28208E+06         0.17798E+07         0.00000E+00
    0.17798E+07        -0.13589E+07         0.00000E+00
    0.00000E+00         0.00000E+00         0.00000E+00
 
    0.27243E+06         0.18488E+07         0.00000E+00
    0.18488E+07        -0.13558E+07         0.00000E+00
    0.00000E+00         0.00000E+00         0.00000E+00
 
    0.26267E+06         0.19175E+07         0.00000E+00
    0.19175E+07        -0.13525E+07         0.00000E+00
    0.00000E+00         0.00000E+00         0.00000E+00
 
    0.25280E+06         0.19859E+07         0.00000E+00
    0.19859E+07        -0.13491E+07         0.00000E+00
    0.00000E+00         0.00000E+00         0.00000E+00
 
    0.24281E+06         0.20540E+07         0.00000E+00
    0.20540E+07        -0.13456E+07         0.00000E+00
    0.00000E+00         0.00000E+00         0.00000E+00
 
    0.23271E+06         0.21218E+07         0.00000E+00
    0.21218E+07        -0.13420E+07         0.00000E+00
    0.00000E+00         0.00000E+00         0.00000E+00
 
    0.22250E+06         0.21893E+07         0.00000E+00
    0.21893E+07        -0.13382E+07         0.00000E+00
    0.00000E+00         0.00000E+00         0.00000E+00
 
    0.21217E+06         0.22565E+07         0.00000E+00
    0.22565E+07        -0.13343E+07         0.00000E+00
    0.00000E+00         0.00000E+00         0.00000E+00
 
    0.20172E+06         0.23233E+07         0.00000E+00
    0.23233E+07        -0.13303E+07         0.00000E+00
    0.00000E+00         0.00000E+00         0.00000E+00
 
    0.19116E+06         0.23899E+07         0.00000E+00
    0.23899E+07        -0.13262E+07         0.00000E+00
    0.00000E+00         0.00000E+00         0.00000E+00
 
    0.18048E+06         0.24561E+07         0.00000E+00
    0.24561E+07        -0.13220E+07         0.00000E+00
    0.00000E+00         0.00000E+00         0.00000E+00
 
    0.16969E+06         0.25220E+07         0.00000E+00
    0.25220E+07        -0.13176E+07         0.00000E+00
    0.00000E+00         0.00000E+00         0.00000E+00
 
    0.15878E+06         0.25875E+07         0.00000E+00
    0.25875E+07        -0.13131E+07         0.00000E+00
    0.00000E+00         0.00000E+00         0.00000E+00
 
    0.14776E+06         0.26527E+07         0.00000E+00
    0.26527E+07        -0.13085E+07         0.00000E+00
    0.00000E+00         0.00000E+00         0.00000E+00
 
    0.13662E+06         0.27176E+07         0.00000E+00
    0.27176E+07        -0.13037E+07         0.00000E+00
    0.00000E+00         0.00000E+00         0.00000E+00
 
    0.12536E+06         0.27821E+07         0.00000E+00
    0.27821E+07        -0.12988E+07         0.00000E+00
    0.00000E+00         0.00000E+00         0.00000E+00
 
    0.11399E+06         0.28463E+07         0.00000E+00
    0.28463E+07        -0.12938E+07         0.00000E+00
    0.00000E+00         0.00000E+00         0.00000E+00
 
    0.10249E+06         0.29101E+07         0.00000E+00
    0.29101E+07        -0.12887E+07         0.00000E+00
    0.00000E+00         0.00000E+00         0.00000E+00
 
    0.90882E+05         0.29736E+07         0.00000E+00
    0.29736E+07        -0.12834E+07         0.00000E+00
    0.00000E+00         0.00000E+00         0.00000E+00
 
    0.79152E+05         0.30368E+07         0.00000E+00
    0.30368E+07        -0.12780E+07         0.00000E+00
    0.00000E+00         0.00000E+00         0.00000E+00
 
    0.67303E+05         0.30995E+07         0.00000E+00
    0.30995E+07        -0.12725E+07         0.00000E+00
    0.00000E+00         0.00000E+00         0.00000E+00
 
    0.55335E+05         0.31619E+07         0.00000E+00
    0.31619E+07        -0.12669E+07         0.00000E+00
    0.00000E+00         0.00000E+00         0.00000E+00
 
    0.43247E+05         0.32240E+07         0.00000E+00
    0.32240E+07        -0.12611E+07         0.00000E+00
    0.00000E+00         0.00000E+00         0.00000E+00
 
    0.31038E+05         0.32857E+07         0.00000E+00
    0.32857E+07        -0.12552E+07         0.00000E+00
    0.00000E+00         0.00000E+00         0.00000E+00
 
    0.18708E+05         0.33470E+07         0.00000E+00
    0.33470E+07        -0.12492E+07         0.00000E+00
    0.00000E+00         0.00000E+00         0.00000E+00
 
    0.62562E+04         0.34079E+07         0.00000E+00
    0.34079E+07        -0.12430E+07         0.00000E+00
    0.00000E+00         0.00000E+00         0.00000E+00
 
    0.55565E+06         0.38526E+05         0.00000E+00
    0.38526E+05        -0.17006E+07         0.00000E+00
    0.00000E+00         0.00000E+00         0.00000E+00
 
    0.54755E+06         0.11487E+06         0.00000E+00
    0.11487E+06        -0.17004E+07         0.00000E+00
    0.00000E+00         0.00000E+00         0.00000E+00
 
    0.53932E+06         0.19095E+06         0.00000E+00
    0.19095E+06        -0.17001E+07         0.00000E+00
    0.00000E+00         0.00000E+00         0.00000E+00
 
    0.53095E+06         0.26677E+06         0.00000E+00
    0.26677E+06        -0.16997E+07         0.00000E+00
    0.00000E+00         0.00000E+00         0.00000E+00
 
    0.52245E+06         0.34233E+06         0.00000E+00
    0.34233E+06        -0.16991E+07         0.00000E+00
    0.00000E+00         0.00000E+00         0.00000E+00
 
    0.51382E+06         0.41762E+06         0.00000E+00
    0.41762E+06        -0.16984E+07         0.00000E+00
    0.00000E+00         0.00000E+00         0.00000E+00
 
    0.50506E+06         0.49265E+06         0.00000E+00
    0.49265E+06        -0.16975E+07         0.00000E+00
    0.00000E+00         0.00000E+00         0.00000E+00
 
    0.49617E+06         0.56741E+06         0.00000E+00
    0.56741E+06        -0.16965E+07         0.00000E+00
    0.00000E+00         0.00000E+00         0.00000E+00
 
    0.48715E+06         0.64191E+06         0.00000E+00
    0.64191E+06        -0.16954E+07         0.00000E+00
    0.00000E+00         0.00000E+00         0.00000E+00
 
    0.47800E+06         0.71613E+06         0.00000E+00
    0.71613E+06        -0.16941E+07         0.00000E+00
    0.00000E+00         0.00000E+00         0.00000E+00
 
    0.46873E+06         0.79009E+06         0.00000E+00
    0.79009E+06        -0.16927E+07         0.00000E+00
    0.00000E+00         0.00000E+00         0.00000E+00
 
    0.45932E+06         0.86377E+06         0.00000E+00
    0.86377E+06        -0.16911E+07         0.00000E+00
    0.00000E+00         0.00000E+00         0.00000E+00
 
    0.44979E+06         0.93718E+06         0.00000E+00
    0.93718E+06        -0.16894E+07         0.00000E+00
    0.00000E+00         0.00000E+00         0.00000E+00
 
    0.44014E+06         0.10103E+07         0.00000E+00
    0.10103E+07        -0.16875E+07         0.00000E+00
    0.00000E+00         0.00000E+00         0.00000E+00
 
    0.43035E+06         0.10832E+07         0.00000E+00
    0.10832E+07        -0.16855E+07         0.00000E+00
    0.00000E+00         0.00000E+00         0.00000E+00
 
    0.42044E+06         0.11557E+07         0.00000E+00
    0.11557E+07        -0.16834E+07         0.00000E+00
    0.00000E+00         0.00000E+00         0.00000E+00
 
    0.41041E+06         0.12280E+07         0.00000E+00
    0.12280E+07        -0.16811E+07         0.00000E+00
    0.00000E+00         0.00000E+00         0.00000E+00
 
    0.40024E+06         0.13001E+07         0.00000E+00
    0.13001E+07        -0.16787E+07         0.00000E+00
    0.00000E+00         0.00000E+00         0.00000E+00
 
    0.38996E+06         0.13718E+07         0.00000E+00
    0.13718E+07        -0.16762E+07         0.00000E+00
    0.00000E+00         0.00000E+00         0.00000E+00
 
    0.37954E+06         0.14432E+07         0.00000E+00
    0.14432E+07        -0.16735E+07         0.00000E+00
    0.00000E+00         0.00000E+00         0.00000E+00
 
    0.36900E+06         0.15144E+07         0.00000E+00
    0.15144E+07        -0.16706E+07         0.00000E+00
    0.00000E+00         0.00000E+00         0.00000E+00
 
    0.35834E+06         0.15853E+07         0.00000E+00
    0.15853E+07        -0.16677E+07         0.00000E+00
    0.00000E+00         0.00000E+00         0.00000E+00
 
    0.34755E+06         0.16558E+07         0.00000E+00
    0.16558E+07        -0.16645E+07         0.00000E+00
    0.00000E+00         0.00000E+00         0.00000E+00
 
    0.33663E+06         0.17261E+07         0.00000E+00
    0.17261E+07        -0.16613E+07         0.00000E+00
    0.00000E+00         0.00000E+00         0.00000E+00
 
    0.32558E+06         0.17961E+07         0.00000E+00
    0.17961E+07        -0.16579E+07         0.00000E+00
    0.00000E+00         0.00000E+00         0.00000E+00
 
    0.31442E+06         0.18658E+07         0.00000E+00
    0.18658E+07        -0.16543E+07         0.00000E+00
    0.00000E+00         0.00000E+00         0.00000E+00
 
    0.30312E+06         0.19352E+07         0.00000E+00
    0.19352E+07        -0.16507E+07         0.00000E+00
    0.00000E+00         0.00000E+00         0.00000E+00
 
    0.29170E+06         0.20043E+07         0.00000E+00
    0.20043E+07        -0.16468E+07         0.00000E+00
    0.00000E+00         0.00000E+00         0.00000E+00
 
    0.28015E+06         0.20730E+07         0.00000E+00
    0.20730E+07        -0.16429E+07         0.00000E+00
    0.00000E+00         0.00000E+00         0.00000E+00
 
    0.26847E+06         0.21415E+07         0.00000E+00
    0.21415E+07        -0.16387E+07         0.00000E+00
    0.00000E+00         0.00000E+00         0.00000E+00
 
    0.25666E+06         0.22097E+07         0.00000E+00
    0.22097E+07        -0.16345E+07         0.00000E+00
    0.00000E+00         0.00000E+00         0.00000E+00
 
    0.24473E+06         0.22775E+07         0.00000E+00
    0.22775E+07        -0.16301E+07         0.00000E+00
    0.00000E+00         0.00000E+00         0.00000E+00
 
    0.23266E+06         0.23450E+07         0.00000E+00
    0.23450E+07        -0.16255E+07         0.00000E+00
    0.00000E+00         0.00000E+00         0.00000E+00
 
    0.22047E+06         0.24122E+07         0.00000E+00
    0.24122E+07        -0.16209E+07         0.00000E+00
    0.00000E+00         0.00000E+00         0.00000E+00
 
    0.20815E+06         0.24791E+07         0.00000E+00
    0.24791E+07        -0.16160E+07         0.00000E+00
    0.00000E+00         0.00000E+00         0.00000E+00
 
    0.19569E+06         0.25457E+07         0.00000E+00
    0.25457E+07        -0.16110E+07         0.00000E+00
    0.00000E+00         0.00000E+00         0.00000E+00
 
    0.18311E+06         0.26119E+07         0.00000E+00
    0.26119E+07        -0.16059E+07         0.00000E+00
    0.00000E+00         0.00000E+00         0.00000E+00
 
    0.17039E+06         0.26778E+07         0.00000E+00
    0.26778E+07        -0.16006E+07         0.00000E+00
    0.00000E+00         0.00000E+00         0.00000E+00
 
    0.15754E+06         0.27434E+07         0.00000E+00
    0.27434E+07        -0.15952E+07         0.00000E+00
    0.00000E+00         0.00000E+00         0.00000E+00
 
    0.14456E+06         0.28086E+07         0.00000E+00
    0.28086E+07        -0.15896E+07         0.00000E+00
    0.00000E+00         0.00000E+00         0.00000E+00
 
    0.13144E+06         0.28735E+07         0.00000E+00
    0.28735E+07        -0.15839E+07         0.00000E+00
    0.00000E+00         0.00000E+00         0.00000E+00
 
    0.11819E+06         0.29380E+07         0.00000E+00
    0.29380E+07        -0.15780E+07         0.00000E+00
    0.00000E+00         0.00000E+00         0.00000E+00
 
    0.10480E+06         0.30022E+07         0.00000E+00
    0.30022E+07        -0.15720E+07         0.00000E+00
    0.00000E+00         0.00000E+00         0.00000E+00
 
    0.91277E+05         0.30660E+07         0.00000E+00
    0.30660E+07        -0.15658E+07         0.00000E+00
    0.00000E+00         0.00000E+00         0.00000E+00
 
    0.77616E+05         0.31295E+07         0.00000E+00
    0.31295E+07        -0.15595E+07         0.00000E+00
    0.00000E+00         0.00000E+00         0.00000E+00
 
    0.63816E+05         0.31926E+07         0.00000E+00
    0.31926E+07        -0.15530E+07         0.00000E+00
    0.00000E+00         0.00000E+00         0.00000E+00
 
    0.49877E+05         0.32553E+07         0.00000E+00
    0.32553E+07        -0.15464E+07         0.00000E+00
    0.00000E+00         0.00000E+00         0.00000E+00
 
    0.35798E+05         0.33177E+07         0.00000E+00
    0.33177E+07        -0.15396E+07         0.00000E+00
    0.00000E+00         0.00000E+00         0.00000E+00
 
    0.21578E+05         0.33797E+07         0.00000E+00
    0.33797E+07        -0.15327E+07         0.00000E+00
    0.00000E+00         0.00000E+00         0.00000E+00
 
    0.72164E+04         0.34414E+07         0.00000E+00
    0.34414E+07        -0.15256E+07         0.00000E+00
    0.00000E+00         0.00000E+00         0.00000E+00
 
    0.63243E+06         0.38910E+05         0.00000E+00
    0.38910E+05        -0.20080E+07         0.00000E+00
    0.00000E+00         0.00000E+00         0.00000E+00
 
    0.62302E+06         0.11601E+06         0.00000E+00
    0.11601E+06        -0.20079E+07         0.00000E+00
    0.00000E+00         0.00000E+00         0.00000E+00
 
    0.61347E+06         0.19285E+06         0.00000E+00
    0.19285E+06        -0.20076E+07         0.00000E+00
    0.00000E+00         0.00000E+00         0.00000E+00
 
    0.60379E+06         0.26943E+06         0.00000E+00
    0.26943E+06        -0.20071E+07         0.00000E+00
    0.00000E+00         0.00000E+00         0.00000E+00
 
    0.59396E+06         0.34574E+06         0.00000E+00
    0.34574E+06        -0.20065E+07         0.00000E+00
    0.00000E+00         0.00000E+00         0.00000E+00
 
    0.58400E+06         0.42179E+06         0.00000E+00
    0.42179E+06        -0.20057E+07         0.00000E+00
    0.00000E+00         0.00000E+00         0.00000E+00
 
    0.57390E+06         0.49757E+06         0.00000E+00
    0.49757E+06        -0.20047E+07         0.00000E+00
    0.00000E+00         0.00000E+00         0.00000E+00
 
    0.56366E+06         0.57308E+06         0.00000E+00
    0.57308E+06        -0.20036E+07         0.00000E+00
    0.00000E+00         0.00000E+00         0.00000E+00
 
    0.55328E+06         0.64832E+06         0.00000E+00
    0.64832E+06        -0.20023E+07         0.00000E+00
    0.00000E+00         0.00000E+00         0.00000E+00
 
    0.54277E+06         0.72330E+06         0.00000E+00
    0.72330E+06        -0.20009E+07         0.00000E+00
    0.00000E+00         0.00000E+00         0.00000E+00
 
    0.53212E+06         0.79800E+06         0.00000E+00
    0.79800E+06        -0.19994E+07         0.00000E+00
    0.00000E+00         0.00000E+00         0.00000E+00
 
    0.52133E+06         0.87243E+06         0.00000E+00
    0.87243E+06        -0.19976E+07         0.00000E+00
    0.00000E+00         0.00000E+00         0.00000E+00
 
    0.51041E+06         0.94658E+06         0.00000E+00
    0.94658E+06        -0.19957E+07         0.00000E+00
    0.00000E+00         0.00000E+00         0.00000E+00
 
    0.49935E+06         0.10205E+07         0.00000E+00
    0.10205E+07        -0.19937E+07         0.00000E+00
    0.00000E+00         0.00000E+00         0.00000E+00
 
    0.48816E+06         0.10941E+07         0.00000E+00
    0.10941E+07        -0.19915E+07         0.00000E+00
    0.00000E+00         0.00000E+00         0.00000E+00
 
    0.47683E+06         0.11674E+07         0.00000E+00
    0.11674E+07        -0.19891E+07         0.00000E+00
    0.00000E+00         0.00000E+00         0.00000E+00
 
    0.46537E+06         0.12404E+07         0.00000E+00
    0.12404E+07        -0.19866E+07         0.00000E+00
    0.00000E+00         0.00000E+00         0.00000E+00
 
    0.45377E+06         0.13132E+07         0.00000E+00
    0.13132E+07        -0.19840E+07         0.00000E+00
    0.00000E+00         0.00000E+00         0.00000E+00
 
    0.44204E+06         0.13857E+07         0.00000E+00
    0.13857E+07        -0.19811E+07         0.00000E+00
    0.00000E+00         0.00000E+00         0.00000E+00
 
    0.43017E+06         0.14579E+07         0.00000E+00
    0.14579E+07        -0.19781E+07         0.00000E+00
    0.00000E+00         0.00000E+00         0.00000E+00
 
    0.41817E+06         0.15298E+07         0.00000E+00
    0.15298E+07        -0.19750E+07         0.00000E+00
    0.00000E+00         0.00000E+00         0.00000E+00
 
    0.40603E+06         0.16014E+07         0.00000E+00
    0.16014E+07        -0.19717E+07         0.00000E+00
    0.00000E+00         0.00000E+00         0.00000E+00
 
    0.39375E+06         0.16727E+07         0.00000E+00
    0.16727E+07        -0.19682E+07         0.00000E+00
    0.00000E+00         0.00000E+00         0.00000E+00
 
    0.38134E+06         0.17438E+07         0.00000E+00
    0.17438E+07        -0.19646E+07         0.00000E+00
    0.00000E+00         0.00000E+00         0.00000E+00
 
    0.36878E+06         0.18145E+07         0.00000E+00
    0.18145E+07        -0.19608E+07         0.00000E+00
    0.00000E+00         0.00000E+00         0.00000E+00
 
    0.35610E+06         0.18850E+07         0.00000E+00
    0.18850E+07        -0.19569E+07         0.00000E+00
    0.00000E+00         0.00000E+00         0.00000E+00
 
    0.34327E+06         0.19551E+07         0.00000E+00
    0.19551E+07        -0.19528E+07         0.00000E+00
    0.00000E+00         0.00000E+00         0.00000E+00
 
    0.33030E+06         0.20250E+07         0.00000E+00
    0.20250E+07        -0.19485E+07         0.00000E+00
    0.00000E+00         0.00000E+00         0.00000E+00
 
    0.31720E+06         0.20945E+07         0.00000E+00
    0.20945E+07        -0.19441E+07         0.00000E+00
    0.00000E+00         0.00000E+00         0.00000E+00
 
    0.30395E+06         0.21637E+07         0.00000E+00
    0.21637E+07        -0.19395E+07         0.00000E+00
    0.00000E+00         0.00000E+00         0.00000E+00
 
    0.29056E+06         0.22327E+07         0.00000E+00
    0.22327E+07        -0.19348E+07         0.00000E+00
    0.00000E+00         0.00000E+00         0.00000E+00
 
    0.27704E+06         0.23013E+07         0.00000E+00
    0.23013E+07        -0.19299E+07         0.00000E+00
    0.00000E+00         0.00000E+00         0.00000E+00
 
    0.26337E+06         0.23696E+07         0.00000E+00
    0.23696E+07        -0.19248E+07         0.00000E+00
    0.00000E+00         0.00000E+00         0.00000E+00
 
    0.24955E+06         0.24376E+07         0.00000E+00
    0.24376E+07        -0.19195E+07         0.00000E+00
    0.00000E+00         0.00000E+00         0.00000E+00
 
    0.23559E+06         0.25052E+07         0.00000E+00
    0.25052E+07        -0.19141E+07         0.00000E+00
    0.00000E+00         0.00000E+00         0.00000E+00
 
    0.22149E+06         0.25726E+07         0.00000E+00
    0.25726E+07        -0.19085E+07         0.00000E+00
    0.00000E+00         0.00000E+00         0.00000E+00
 
    0.20724E+06         0.26396E+07         0.00000E+00
    0.26396E+07        -0.19028E+07         0.00000E+00
    0.00000E+00         0.00000E+00         0.00000E+00
 
    0.19284E+06         0.27063E+07         0.00000E+00
    0.27063E+07        -0.18969E+07         0.00000E+00
    0.00000E+00         0.00000E+00         0.00000E+00
 
    0.17830E+06         0.27726E+07         0.00000E+00
    0.27726E+07        -0.18908E+07         0.00000E+00
    0.00000E+00         0.00000E+00         0.00000E+00
 
    0.16360E+06         0.28386E+07         0.00000E+00
    0.28386E+07        -0.18845E+07         0.00000E+00
    0.00000E+00         0.00000E+00         0.00000E+00
 
    0.14875E+06         0.29043E+07         0.00000E+00
    0.29043E+07        -0.18781E+07         0.00000E+00
    0.00000E+00         0.00000E+00         0.00000E+00
 
    0.13376E+06         0.29697E+07         0.00000E+00
    0.29697E+07        -0.18715E+07         0.00000E+00
    0.00000E+00         0.00000E+00         0.00000E+00
 
    0.11861E+06         0.30347E+07         0.00000E+00
    0.30347E+07        -0.18647E+07         0.00000E+00
    0.00000E+00         0.00000E+00         0.00000E+00
 
    0.10330E+06         0.30993E+07         0.00000E+00
    0.30993E+07        -0.18578E+07         0.00000E+00
    0.00000E+00         0.00000E+00         0.00000E+00
 
    0.87843E+05         0.31636E+07         0.00000E+00
    0.31636E+07        -0.18506E+07         0.00000E+00
    0.00000E+00         0.00000E+00         0.00000E+00
 
    0.72226E+05         0.32275E+07         0.00000E+00
    0.32275E+07        -0.18433E+07         0.00000E+00
    0.00000E+00         0.00000E+00         0.00000E+00
 
    0.56452E+05         0.32911E+07         0.00000E+00
    0.32911E+07        -0.18358E+07         0.00000E+00
    0.00000E+00         0.00000E+00         0.00000E+00
 
    0.40519E+05         0.33543E+07         0.00000E+00
    0.33543E+07        -0.18282E+07         0.00000E+00
    0.00000E+00         0.00000E+00         0.00000E+00
 
    0.24425E+05         0.34171E+07         0.00000E+00
    0.34171E+07        -0.18203E+07         0.00000E+00
    0.00000E+00         0.00000E+00         0.00000E+00
 
    0.81686E+04         0.34796E+07         0.00000E+00
    0.34796E+07        -0.18123E+07         0.00000E+00
    0.00000E+00         0.00000E+00         0.00000E+00
 
    0.70874E+06         0.39332E+05         0.00000E+00
    0.39332E+05        -0.23200E+07         0.00000E+00
    0.00000E+00         0.00000E+00         0.00000E+00
 
    0.69802E+06         0.11727E+06         0.00000E+00
    0.11727E+06        -0.23198E+07         0.00000E+00
    0.00000E+00         0.00000E+00         0.00000E+00
 
    0.68715E+06         0.19495E+06         0.00000E+00
    0.19495E+06        -0.23195E+07         0.00000E+00
    0.00000E+00         0.00000E+00         0.00000E+00
 
    0.67613E+06         0.27236E+06         0.00000E+00
    0.27236E+06        -0.23189E+07         0.00000E+00
    0.00000E+00         0.00000E+00         0.00000E+00
 
    0.66497E+06         0.34950E+06         0.00000E+00
    0.34950E+06        -0.23183E+07         0.00000E+00
    0.00000E+00         0.00000E+00         0.00000E+00
 
    0.65367E+06         0.42638E+06         0.00000E+00
    0.42638E+06        -0.23174E+07         0.00000E+00
    0.00000E+00         0.00000E+00         0.00000E+00
 
    0.64222E+06         0.50299E+06         0.00000E+00
    0.50299E+06        -0.23164E+07         0.00000E+00
    0.00000E+00         0.00000E+00         0.00000E+00
 
    0.63062E+06         0.57934E+06         0.00000E+00
    0.57934E+06        -0.23152E+07         0.00000E+00
    0.00000E+00         0.00000E+00         0.00000E+00
 
    0.61888E+06         0.65541E+06         0.00000E+00
    0.65541E+06        -0.23138E+07         0.00000E+00
    0.00000E+00         0.00000E+00         0.00000E+00
 
    0.60700E+06         0.73121E+06         0.00000E+00
    0.73121E+06        -0.23122E+07         0.00000E+00
    0.00000E+00         0.00000E+00         0.00000E+00
 
    0.59498E+06         0.80674E+06         0.00000E+00
    0.80674E+06        -0.23105E+07         0.00000E+00
    0.00000E+00         0.00000E+00         0.00000E+00
 
    0.58281E+06         0.88200E+06         0.00000E+00
    0.88200E+06        -0.23086E+07         0.00000E+00
    0.00000E+00         0.00000E+00         0.00000E+00
 
    0.57050E+06         0.95699E+06         0.00000E+00
    0.95699E+06        -0.23066E+07         0.00000E+00
    0.00000E+00         0.00000E+00         0.00000E+00
 
    0.55804E+06         0.10317E+07         0.00000E+00
    0.10317E+07        -0.23044E+07         0.00000E+00
    0.00000E+00         0.00000E+00         0.00000E+00
 
    0.54544E+06         0.11061E+07         0.00000E+00
    0.11061E+07        -0.23020E+07         0.00000E+00
    0.00000E+00         0.00000E+00         0.00000E+00
 
    0.53270E+06         0.11803E+07         0.00000E+00
    0.11803E+07        -0.22994E+07         0.00000E+00
    0.00000E+00         0.00000E+00         0.00000E+00
 
    0.51982E+06         0.12542E+07         0.00000E+00
    0.12542E+07        -0.22966E+07         0.00000E+00
    0.00000E+00         0.00000E+00         0.00000E+00
 
    0.50679E+06         0.13278E+07         0.00000E+00
    0.13278E+07        -0.22937E+07         0.00000E+00
    0.00000E+00         0.00000E+00         0.00000E+00
 
    0.49361E+06         0.14011E+07         0.00000E+00
    0.14011E+07        -0.22906E+07         0.00000E+00
    0.00000E+00         0.00000E+00         0.00000E+00
 
    0.48030E+06         0.14741E+07         0.00000E+00
    0.14741E+07        -0.22874E+07         0.00000E+00
    0.00000E+00         0.00000E+00         0.00000E+00
 
    0.46683E+06         0.15469E+07         0.00000E+00
    0.15469E+07        -0.22839E+07         0.00000E+00
    0.00000E+00         0.00000E+00         0.00000E+00
 
    0.45323E+06         0.16193E+07         0.00000E+00
    0.16193E+07        -0.22803E+07         0.00000E+00
    0.00000E+00         0.00000E+00         0.00000E+00
 
    0.43947E+06         0.16915E+07         0.00000E+00
    0.16915E+07        -0.22765E+07         0.00000E+00
    0.00000E+00         0.00000E+00         0.00000E+00
 
    0.42557E+06         0.17634E+07         0.00000E+00
    0.17634E+07        -0.22725E+07         0.00000E+00
    0.00000E+00         0.00000E+00         0.00000E+00
 
    0.41152E+06         0.18350E+07         0.00000E+00
    0.18350E+07        -0.22684E+07         0.00000E+00
    0.00000E+00         0.00000E+00         0.00000E+00
 
    0.39732E+06         0.19063E+07         0.00000E+00
    0.19063E+07        -0.22641E+07         0.00000E+00
    0.00000E+00         0.00000E+00         0.00000E+00
 
    0.38298E+06         0.19773E+07         0.00000E+00
    0.19773E+07        -0.22596E+07         0.00000E+00
    0.00000E+00         0.00000E+00         0.00000E+00
 
    0.36848E+06         0.20480E+07         0.00000E+00
    0.20480E+07        -0.22549E+07         0.00000E+00
    0.00000E+00         0.00000E+00         0.00000E+00
 
    0.35383E+06         0.21184E+07         0.00000E+00
    0.21184E+07        -0.22500E+07         0.00000E+00
    0.00000E+00         0.00000E+00         0.00000E+00
 
    0.33903E+06         0.21885E+07         0.00000E+00
    0.21885E+07        -0.22450E+07         0.00000E+00
    0.00000E+00         0.00000E+00         0.00000E+00
 
    0.32408E+06         0.22583E+07         0.00000E+00
    0.22583E+07        -0.22397E+07         0.00000E+00
    0.00000E+00         0.00000E+00         0.00000E+00
 
    0.30897E+06         0.23278E+07         0.00000E+00
    0.23278E+07        -0.22343E+07         0.00000E+00
    0.00000E+00         0.00000E+00         0.00000E+00
 
    0.29371E+06         0.23969E+07         0.00000E+00
    0.23969E+07        -0.22287E+07         0.00000E+00
    0.00000E+00         0.00000E+00         0.00000E+00
 
    0.27829E+06         0.24658E+07         0.00000E+00
    0.24658E+07        -0.22229E+07         0.00000E+00
    0.00000E+00         0.00000E+00         0.00000E+00
 
    0.26271E+06         0.25343E+07         0.00000E+00
    0.25343E+07        -0.22169E+07         0.00000E+00
    0.00000E+00         0.00000E+00         0.00000E+00
 
    0.24698E+06         0.26026E+07         0.00000E+00
    0.26026E+07        -0.22108E+07         0.00000E+00
    0.00000E+00         0.00000E+00         0.00000E+00
 
    0.23108E+06         0.26705E+07         0.00000E+00
    0.26705E+07        -0.22044E+07         0.00000E+00
    0.00000E+00         0.00000E+00         0.00000E+00
 
    0.21502E+06         0.27381E+07         0.00000E+00
    0.27381E+07        -0.21979E+07         0.00000E+00
    0.00000E+00         0.00000E+00         0.00000E+00
 
    0.19880E+06         0.28053E+07         0.00000E+00
    0.28053E+07        -0.21911E+07         0.00000E+00
    0.00000E+00         0.00000E+00         0.00000E+00
 
    0.18241E+06         0.28722E+07         0.00000E+00
    0.28722E+07        -0.21842E+07         0.00000E+00
    0.00000E+00         0.00000E+00         0.00000E+00
 
    0.16586E+06         0.29388E+07         0.00000E+00
    0.29388E+07        -0.21771E+07         0.00000E+00
    0.00000E+00         0.00000E+00         0.00000E+00
 
    0.14914E+06         0.30051E+07         0.00000E+00
    0.30051E+07        -0.21698E+07         0.00000E+00
    0.00000E+00         0.00000E+00         0.00000E+00
 
    0.13224E+06         0.30710E+07         0.00000E+00
    0.30710E+07        -0.21622E+07         0.00000E+00
    0.00000E+00         0.00000E+00         0.00000E+00
 
    0.11518E+06         0.31366E+07         0.00000E+00
    0.31366E+07        -0.21545E+07         0.00000E+00
    0.00000E+00         0.00000E+00         0.00000E+00
 
    0.97946E+05         0.32018E+07         0.00000E+00
    0.32018E+07        -0.21466E+07         0.00000E+00
    0.00000E+00         0.00000E+00         0.00000E+00
 
    0.80535E+05         0.32667E+07         0.00000E+00
    0.32667E+07        -0.21385E+07         0.00000E+00
    0.00000E+00         0.00000E+00         0.00000E+00
 
    0.62948E+05         0.33312E+07         0.00000E+00
    0.33312E+07        -0.21302E+07         0.00000E+00
    0.00000E+00         0.00000E+00         0.00000E+00
 
    0.45182E+05         0.33953E+07         0.00000E+00
    0.33953E+07        -0.21216E+07         0.00000E+00
    0.00000E+00         0.00000E+00         0.00000E+00
 
    0.27237E+05         0.34591E+07         0.00000E+00
    0.34591E+07        -0.21129E+07         0.00000E+00
    0.00000E+00         0.00000E+00         0.00000E+00
 
    0.91094E+04         0.35225E+07         0.00000E+00
    0.35225E+07        -0.21039E+07         0.00000E+00
    0.00000E+00         0.00000E+00         0.00000E+00
 
    0.78436E+06         0.39792E+05         0.00000E+00
    0.39792E+05        -0.26370E+07         0.00000E+00
    0.00000E+00         0.00000E+00         0.00000E+00
 
    0.77231E+06         0.11865E+06         0.00000E+00
    0.11865E+06        -0.26368E+07         0.00000E+00
    0.00000E+00         0.00000E+00         0.00000E+00
 
    0.76011E+06         0.19723E+06         0.00000E+00
    0.19723E+06        -0.26364E+07         0.00000E+00
    0.00000E+00         0.00000E+00         0.00000E+00
 
    0.74776E+06         0.27556E+06         0.00000E+00
    0.27556E+06        -0.26359E+07         0.00000E+00
    0.00000E+00         0.00000E+00         0.00000E+00
 
    0.73526E+06         0.35361E+06         0.00000E+00
    0.35361E+06        -0.26351E+07         0.00000E+00
    0.00000E+00         0.00000E+00         0.00000E+00
 
    0.72260E+06         0.43140E+06         0.00000E+00
    0.43140E+06        -0.26342E+07         0.00000E+00
    0.00000E+00         0.00000E+00         0.00000E+00
 
    0.70980E+06         0.50892E+06         0.00000E+00
    0.50892E+06        -0.26331E+07         0.00000E+00
    0.00000E+00         0.00000E+00         0.00000E+00
 
    0.69685E+06         0.58617E+06         0.00000E+00
    0.58617E+06        -0.26318E+07         0.00000E+00
    0.00000E+00         0.00000E+00         0.00000E+00
 
    0.68375E+06         0.66315E+06         0.00000E+00
    0.66315E+06        -0.26303E+07         0.00000E+00
    0.00000E+00         0.00000E+00         0.00000E+00
 
    0.67050E+06         0.73986E+06         0.00000E+00
    0.73986E+06        -0.26287E+07         0.00000E+00
    0.00000E+00         0.00000E+00         0.00000E+00
 
    0.65710E+06         0.81630E+06         0.00000E+00
    0.81630E+06        -0.26268E+07         0.00000E+00
    0.00000E+00         0.00000E+00         0.00000E+00
 
    0.64354E+06         0.89247E+06         0.00000E+00
    0.89247E+06        -0.26248E+07         0.00000E+00
    0.00000E+00         0.00000E+00         0.00000E+00
 
    0.62984E+06         0.96836E+06         0.00000E+00
    0.96836E+06        -0.26226E+07         0.00000E+00
    0.00000E+00         0.00000E+00         0.00000E+00
 
    0.61600E+06         0.10440E+07         0.00000E+00
    0.10440E+07        -0.26202E+07         0.00000E+00
    0.00000E+00         0.00000E+00         0.00000E+00
 
    0.60200E+06         0.11193E+07         0.00000E+00
    0.11193E+07        -0.26176E+07         0.00000E+00
    0.00000E+00         0.00000E+00         0.00000E+00
 
    0.58785E+06         0.11944E+07         0.00000E+00
    0.11944E+07        -0.26148E+07         0.00000E+00
    0.00000E+00         0.00000E+00         0.00000E+00
 
    0.57354E+06         0.12692E+07         0.00000E+00
    0.12692E+07        -0.26118E+07         0.00000E+00
    0.00000E+00         0.00000E+00         0.00000E+00
 
    0.55909E+06         0.13437E+07         0.00000E+00
    0.13437E+07        -0.26087E+07         0.00000E+00
    0.00000E+00         0.00000E+00         0.00000E+00
 
    0.54449E+06         0.14179E+07         0.00000E+00
    0.14179E+07        -0.26053E+07         0.00000E+00
    0.00000E+00         0.00000E+00         0.00000E+00
 
    0.52973E+06         0.14919E+07         0.00000E+00
    0.14919E+07        -0.26018E+07         0.00000E+00
    0.00000E+00         0.00000E+00         0.00000E+00
 
    0.51482E+06         0.15656E+07         0.00000E+00
    0.15656E+07        -0.25980E+07         0.00000E+00
    0.00000E+00         0.00000E+00         0.00000E+00
 
    0.49976E+06         0.16390E+07         0.00000E+00
    0.16390E+07        -0.25941E+07         0.00000E+00
    0.00000E+00         0.00000E+00         0.00000E+00
 
    0.48454E+06         0.17121E+07         0.00000E+00
    0.17121E+07        -0.25900E+07         0.00000E+00
    0.00000E+00         0.00000E+00         0.00000E+00
 
    0.46916E+06         0.17849E+07         0.00000E+00
    0.17849E+07        -0.25857E+07         0.00000E+00
    0.00000E+00         0.00000E+00         0.00000E+00
 
    0.45363E+06         0.18574E+07         0.00000E+00
    0.18574E+07        -0.25812E+07         0.00000E+00
    0.00000E+00         0.00000E+00         0.00000E+00
 
    0.43794E+06         0.19297E+07         0.00000E+00
    0.19297E+07        -0.25765E+07         0.00000E+00
    0.00000E+00         0.00000E+00         0.00000E+00
 
    0.42209E+06         0.20016E+07         0.00000E+00
    0.20016E+07        -0.25716E+07         0.00000E+00
    0.00000E+00         0.00000E+00         0.00000E+00
 
    0.40608E+06         0.20733E+07         0.00000E+00
    0.20733E+07        -0.25665E+07         0.00000E+00
    0.00000E+00         0.00000E+00         0.00000E+00
 
    0.38991E+06         0.21446E+07         0.00000E+00
    0.21446E+07        -0.25612E+07         0.00000E+00
    0.00000E+00         0.00000E+00         0.00000E+00
 
    0.37357E+06         0.22157E+07         0.00000E+00
    0.22157E+07        -0.25557E+07         0.00000E+00
    0.00000E+00         0.00000E+00         0.00000E+00
 
    0.35707E+06         0.22864E+07         0.00000E+00
    0.22864E+07        -0.25500E+07         0.00000E+00
    0.00000E+00         0.00000E+00         0.00000E+00
 
    0.34041E+06         0.23569E+07         0.00000E+00
    0.23569E+07        -0.25441E+07         0.00000E+00
    0.00000E+00         0.00000E+00         0.00000E+00
 
    0.32358E+06         0.24270E+07         0.00000E+00
    0.24270E+07        -0.25380E+07         0.00000E+00
    0.00000E+00         0.00000E+00         0.00000E+00
 
    0.30658E+06         0.24969E+07         0.00000E+00
    0.24969E+07        -0.25317E+07         0.00000E+00
    0.00000E+00         0.00000E+00         0.00000E+00
 
    0.28940E+06         0.25664E+07         0.00000E+00
    0.25664E+07        -0.25252E+07         0.00000E+00
    0.00000E+00         0.00000E+00         0.00000E+00
 
    0.27206E+06         0.26356E+07         0.00000E+00
    0.26356E+07        -0.25184E+07         0.00000E+00
    0.00000E+00         0.00000E+00         0.00000E+00
 
    0.25454E+06         0.27045E+07         0.00000E+00
    0.27045E+07        -0.25115E+07         0.00000E+00
    0.00000E+00         0.00000E+00         0.00000E+00
 
    0.23684E+06         0.27731E+07         0.00000E+00
    0.27731E+07        -0.25043E+07         0.00000E+00
    0.00000E+00         0.00000E+00         0.00000E+00
 
    0.21897E+06         0.28414E+07         0.00000E+00
    0.28414E+07        -0.24969E+07         0.00000E+00
    0.00000E+00         0.00000E+00         0.00000E+00
 
    0.20092E+06         0.29093E+07         0.00000E+00
    0.29093E+07        -0.24894E+07         0.00000E+00
    0.00000E+00         0.00000E+00         0.00000E+00
 
    0.18268E+06         0.29769E+07         0.00000E+00
    0.29769E+07        -0.24816E+07         0.00000E+00
    0.00000E+00         0.00000E+00         0.00000E+00
 
    0.16426E+06         0.30442E+07         0.00000E+00
    0.30442E+07        -0.24735E+07         0.00000E+00
    0.00000E+00         0.00000E+00         0.00000E+00
 
    0.14566E+06         0.31111E+07         0.00000E+00
    0.31111E+07        -0.24653E+07         0.00000E+00
    0.00000E+00         0.00000E+00         0.00000E+00
 
    0.12687E+06         0.31778E+07         0.00000E+00
    0.31778E+07        -0.24568E+07         0.00000E+00
    0.00000E+00         0.00000E+00         0.00000E+00
 
    0.10788E+06         0.32440E+07         0.00000E+00
    0.32440E+07        -0.24481E+07         0.00000E+00
    0.00000E+00         0.00000E+00         0.00000E+00
 
    0.88707E+05         0.33099E+07         0.00000E+00
    0.33099E+07        -0.24392E+07         0.00000E+00
    0.00000E+00         0.00000E+00         0.00000E+00
 
    0.69337E+05         0.33755E+07         0.00000E+00
    0.33755E+07        -0.24300E+07         0.00000E+00
    0.00000E+00         0.00000E+00         0.00000E+00
 
    0.49769E+05         0.34407E+07         0.00000E+00
    0.34407E+07        -0.24207E+07         0.00000E+00
    0.00000E+00         0.00000E+00         0.00000E+00
 
    0.30003E+05         0.35056E+07         0.00000E+00
    0.35056E+07        -0.24110E+07         0.00000E+00
    0.00000E+00         0.00000E+00         0.00000E+00
 
    0.10035E+05         0.35701E+07         0.00000E+00
    0.35701E+07        -0.24012E+07         0.00000E+00
    0.00000E+00         0.00000E+00         0.00000E+00
 
    0.85903E+06         0.40288E+05         0.00000E+00
    0.40288E+05        -0.29597E+07         0.00000E+00
    0.00000E+00         0.00000E+00         0.00000E+00
 
    0.84565E+06         0.12013E+06         0.00000E+00
    0.12013E+06        -0.29595E+07         0.00000E+00
    0.00000E+00         0.00000E+00         0.00000E+00
 
    0.83211E+06         0.19970E+06         0.00000E+00
    0.19970E+06        -0.29591E+07         0.00000E+00
    0.00000E+00         0.00000E+00         0.00000E+00
 
    0.81842E+06         0.27901E+06         0.00000E+00
    0.27901E+06        -0.29585E+07         0.00000E+00
    0.00000E+00         0.00000E+00         0.00000E+00
 
    0.80457E+06         0.35805E+06         0.00000E+00
    0.35805E+06        -0.29577E+07         0.00000E+00
    0.00000E+00         0.00000E+00         0.00000E+00
 
    0.79057E+06         0.43682E+06         0.00000E+00
    0.43682E+06        -0.29568E+07         0.00000E+00
    0.00000E+00         0.00000E+00         0.00000E+00
 
    0.77641E+06         0.51532E+06         0.00000E+00
    0.51532E+06        -0.29556E+07         0.00000E+00
    0.00000E+00         0.00000E+00         0.00000E+00
 
    0.76210E+06         0.59355E+06         0.00000E+00
    0.59355E+06        -0.29542E+07         0.00000E+00
    0.00000E+00         0.00000E+00         0.00000E+00
 
    0.74763E+06         0.67152E+06         0.00000E+00
    0.67152E+06        -0.29526E+07         0.00000E+00
    0.00000E+00         0.00000E+00         0.00000E+00
 
    0.73302E+06         0.74921E+06         0.00000E+00
    0.74921E+06        -0.29508E+07         0.00000E+00
    0.00000E+00         0.00000E+00         0.00000E+00
 
    0.71824E+06         0.82664E+06         0.00000E+00
    0.82664E+06        -0.29489E+07         0.00000E+00
    0.00000E+00         0.00000E+00         0.00000E+00
 
    0.70331E+06         0.90379E+06         0.00000E+00
    0.90379E+06        -0.29467E+07         0.00000E+00
    0.00000E+00         0.00000E+00         0.00000E+00
 
    0.68823E+06         0.98067E+06         0.00000E+00
    0.98067E+06        -0.29443E+07         0.00000E+00
    0.00000E+00         0.00000E+00         0.00000E+00
 
    0.67299E+06         0.10573E+07         0.00000E+00
    0.10573E+07        -0.29417E+07         0.00000E+00
    0.00000E+00         0.00000E+00         0.00000E+00
 
    0.65760E+06         0.11336E+07         0.00000E+00
    0.11336E+07        -0.29389E+07         0.00000E+00
    0.00000E+00         0.00000E+00         0.00000E+00
 
    0.64205E+06         0.12097E+07         0.00000E+00
    0.12097E+07        -0.29360E+07         0.00000E+00
    0.00000E+00         0.00000E+00         0.00000E+00
 
    0.62634E+06         0.12855E+07         0.00000E+00
    0.12855E+07        -0.29328E+07         0.00000E+00
    0.00000E+00         0.00000E+00         0.00000E+00
 
    0.61048E+06         0.13610E+07         0.00000E+00
    0.13610E+07        -0.29294E+07         0.00000E+00
    0.00000E+00         0.00000E+00         0.00000E+00
 
    0.59445E+06         0.14362E+07         0.00000E+00
    0.14362E+07        -0.29258E+07         0.00000E+00
    0.00000E+00         0.00000E+00         0.00000E+00
 
    0.57827E+06         0.15112E+07         0.00000E+00
    0.15112E+07        -0.29220E+07         0.00000E+00
    0.00000E+00         0.00000E+00         0.00000E+00
 
    0.56193E+06         0.15859E+07         0.00000E+00
    0.15859E+07        -0.29180E+07         0.00000E+00
    0.00000E+00         0.00000E+00         0.00000E+00
 
    0.54543E+06         0.16603E+07         0.00000E+00
    0.16603E+07        -0.29138E+07         0.00000E+00
    0.00000E+00         0.00000E+00         0.00000E+00
 
    0.52876E+06         0.17344E+07         0.00000E+00
    0.17344E+07        -0.29094E+07         0.00000E+00
    0.00000E+00         0.00000E+00         0.00000E+00
 
    0.51193E+06         0.18082E+07         0.00000E+00
    0.18082E+07        -0.29047E+07         0.00000E+00
    0.00000E+00         0.00000E+00         0.00000E+00
 
    0.49493E+06         0.18818E+07         0.00000E+00
    0.18818E+07        -0.28999E+07         0.00000E+00
    0.00000E+00         0.00000E+00         0.00000E+00
 
    0.47777E+06         0.19551E+07         0.00000E+00
    0.19551E+07        -0.28948E+07         0.00000E+00
    0.00000E+00         0.00000E+00         0.00000E+00
 
    0.46044E+06         0.20280E+07         0.00000E+00
    0.20280E+07        -0.28895E+07         0.00000E+00
    0.00000E+00         0.00000E+00         0.00000E+00
 
    0.44294E+06         0.21007E+07         0.00000E+00
    0.21007E+07        -0.28841E+07         0.00000E+00
    0.00000E+00         0.00000E+00         0.00000E+00
 
    0.42527E+06         0.21731E+07         0.00000E+00
    0.21731E+07        -0.28783E+07         0.00000E+00
    0.00000E+00         0.00000E+00         0.00000E+00
 
    0.40742E+06         0.22452E+07         0.00000E+00
    0.22452E+07        -0.28724E+07         0.00000E+00
    0.00000E+00         0.00000E+00         0.00000E+00
 
    0.38940E+06         0.23171E+07         0.00000E+00
    0.23171E+07        -0.28663E+07         0.00000E+00
    0.00000E+00         0.00000E+00         0.00000E+00
 
    0.37121E+06         0.23886E+07         0.00000E+00
    0.23886E+07        -0.28599E+07         0.00000E+00
    0.00000E+00         0.00000E+00         0.00000E+00
 
    0.35283E+06         0.24598E+07         0.00000E+00
    0.24598E+07        -0.28533E+07         0.00000E+00
    0.00000E+00         0.00000E+00         0.00000E+00
 
    0.33428E+06         0.25307E+07         0.00000E+00
    0.25307E+07        -0.28465E+07         0.00000E+00
    0.00000E+00         0.00000E+00         0.00000E+00
 
    0.31554E+06         0.26013E+07         0.00000E+00
    0.26013E+07        -0.28394E+07         0.00000E+00
    0.00000E+00         0.00000E+00         0.00000E+00
 
    0.29662E+06         0.26716E+07         0.00000E+00
    0.26716E+07        -0.28321E+07         0.00000E+00
    0.00000E+00         0.00000E+00         0.00000E+00
 
    0.27751E+06         0.27416E+07         0.00000E+00
    0.27416E+07        -0.28246E+07         0.00000E+00
    0.00000E+00         0.00000E+00         0.00000E+00
 
    0.25821E+06         0.28113E+07         0.00000E+00
    0.28113E+07        -0.28169E+07         0.00000E+00
    0.00000E+00         0.00000E+00         0.00000E+00
 
    0.23872E+06         0.28807E+07         0.00000E+00
    0.28807E+07        -0.28089E+07         0.00000E+00
    0.00000E+00         0.00000E+00         0.00000E+00
 
    0.21903E+06         0.29498E+07         0.00000E+00
    0.29498E+07        -0.28007E+07         0.00000E+00
    0.00000E+00         0.00000E+00         0.00000E+00
 
    0.19915E+06         0.30185E+07         0.00000E+00
    0.30185E+07        -0.27922E+07         0.00000E+00
    0.00000E+00         0.00000E+00         0.00000E+00
 
    0.17907E+06         0.30869E+07         0.00000E+00
    0.30869E+07        -0.27835E+07         0.00000E+00
    0.00000E+00         0.00000E+00         0.00000E+00
 
    0.15879E+06         0.31550E+07         0.00000E+00
    0.31550E+07        -0.27745E+07         0.00000E+00
    0.00000E+00         0.00000E+00         0.00000E+00
 
    0.13830E+06         0.32228E+07         0.00000E+00
    0.32228E+07        -0.27653E+07         0.00000E+00
    0.00000E+00         0.00000E+00         0.00000E+00
 
    0.11761E+06         0.32902E+07         0.00000E+00
    0.32902E+07        -0.27559E+07         0.00000E+00
    0.00000E+00         0.00000E+00         0.00000E+00
 
    0.96705E+05         0.33573E+07         0.00000E+00
    0.33573E+07        -0.27462E+07         0.00000E+00
    0.00000E+00         0.00000E+00         0.00000E+00
 
    0.75590E+05         0.34240E+07         0.00000E+00
    0.34240E+07        -0.27362E+07         0.00000E+00
    0.00000E+00         0.00000E+00         0.00000E+00
 
    0.54259E+05         0.34904E+07         0.00000E+00
    0.34904E+07        -0.27260E+07         0.00000E+00
    0.00000E+00         0.00000E+00         0.00000E+00
 
    0.32710E+05         0.35565E+07         0.00000E+00
    0.35565E+07        -0.27156E+07         0.00000E+00
    0.00000E+00         0.00000E+00         0.00000E+00
 
    0.10940E+05         0.36222E+07         0.00000E+00
    0.36222E+07        -0.27048E+07         0.00000E+00
    0.00000E+00         0.00000E+00         0.00000E+00
 
    0.93249E+06         0.40818E+05         0.00000E+00
    0.40818E+05        -0.32888E+07         0.00000E+00
    0.00000E+00         0.00000E+00         0.00000E+00
 
    0.91777E+06         0.12172E+06         0.00000E+00
    0.12172E+06        -0.32886E+07         0.00000E+00
    0.00000E+00         0.00000E+00         0.00000E+00
 
    0.90289E+06         0.20235E+06         0.00000E+00
    0.20235E+06        -0.32881E+07         0.00000E+00
    0.00000E+00         0.00000E+00         0.00000E+00
 
    0.88785E+06         0.28271E+06         0.00000E+00
    0.28271E+06        -0.32875E+07         0.00000E+00
    0.00000E+00         0.00000E+00         0.00000E+00
 
    0.87265E+06         0.36280E+06         0.00000E+00
    0.36280E+06        -0.32867E+07         0.00000E+00
    0.00000E+00         0.00000E+00         0.00000E+00
 
    0.85730E+06         0.44262E+06         0.00000E+00
    0.44262E+06        -0.32856E+07         0.00000E+00
    0.00000E+00         0.00000E+00         0.00000E+00
 
    0.84179E+06         0.52218E+06         0.00000E+00
    0.52218E+06        -0.32844E+07         0.00000E+00
    0.00000E+00         0.00000E+00         0.00000E+00
 
    0.82612E+06         0.60147E+06         0.00000E+00
    0.60147E+06        -0.32829E+07         0.00000E+00
    0.00000E+00         0.00000E+00         0.00000E+00
 
    0.81029E+06         0.68049E+06         0.00000E+00
    0.68049E+06        -0.32812E+07         0.00000E+00
    0.00000E+00         0.00000E+00         0.00000E+00
 
    0.79431E+06         0.75924E+06         0.00000E+00
    0.75924E+06        -0.32794E+07         0.00000E+00
    0.00000E+00         0.00000E+00         0.00000E+00
 
    0.77817E+06         0.83772E+06         0.00000E+00
    0.83772E+06        -0.32773E+07         0.00000E+00
    0.00000E+00         0.00000E+00         0.00000E+00
 
    0.76187E+06         0.91594E+06         0.00000E+00
    0.91594E+06        -0.32749E+07         0.00000E+00
    0.00000E+00         0.00000E+00         0.00000E+00
 
    0.74541E+06         0.99388E+06         0.00000E+00
    0.99388E+06        -0.32724E+07         0.00000E+00
    0.00000E+00         0.00000E+00         0.00000E+00
 
    0.72880E+06         0.10716E+07         0.00000E+00
    0.10716E+07        -0.32697E+07         0.00000E+00
    0.00000E+00         0.00000E+00         0.00000E+00
 
    0.71202E+06         0.11490E+07         0.00000E+00
    0.11490E+07        -0.32667E+07         0.00000E+00
    0.00000E+00         0.00000E+00         0.00000E+00
 
    0.69508E+06         0.12261E+07         0.00000E+00
    0.12261E+07        -0.32636E+07         0.00000E+00
    0.00000E+00         0.00000E+00         0.00000E+00
 
    0.67798E+06         0.13030E+07         0.00000E+00
    0.13030E+07        -0.32602E+07         0.00000E+00
    0.00000E+00         0.00000E+00         0.00000E+00
 
    0.66072E+06         0.13795E+07         0.00000E+00
    0.13795E+07        -0.32566E+07         0.00000E+00
    0.00000E+00         0.00000E+00         0.00000E+00
 
    0.64330E+06         0.14559E+07         0.00000E+00
    0.14559E+07        -0.32528E+07         0.00000E+00
    0.00000E+00         0.00000E+00         0.00000E+00
 
    0.62571E+06         0.15319E+07         0.00000E+00
    0.15319E+07        -0.32487E+07         0.00000E+00
    0.00000E+00         0.00000E+00         0.00000E+00
 
    0.60795E+06         0.16077E+07         0.00000E+00
    0.16077E+07        -0.32444E+07         0.00000E+00
    0.00000E+00         0.00000E+00         0.00000E+00
 
    0.59003E+06         0.16832E+07         0.00000E+00
    0.16832E+07        -0.32399E+07         0.00000E+00
    0.00000E+00         0.00000E+00         0.00000E+00
 
    0.57193E+06         0.17584E+07         0.00000E+00
    0.17584E+07        -0.32352E+07         0.00000E+00
    0.00000E+00         0.00000E+00         0.00000E+00
 
    0.55367E+06         0.18333E+07         0.00000E+00
    0.18333E+07        -0.32303E+07         0.00000E+00
    0.00000E+00         0.00000E+00         0.00000E+00
 
    0.53524E+06         0.19080E+07         0.00000E+00
    0.19080E+07        -0.32251E+07         0.00000E+00
    0.00000E+00         0.00000E+00         0.00000E+00
 
    0.51663E+06         0.19824E+07         0.00000E+00
    0.19824E+07        -0.32197E+07         0.00000E+00
    0.00000E+00         0.00000E+00         0.00000E+00
 
    0.49784E+06         0.20565E+07         0.00000E+00
    0.20565E+07        -0.32141E+07         0.00000E+00
    0.00000E+00         0.00000E+00         0.00000E+00
 
    0.47888E+06         0.21303E+07         0.00000E+00
    0.21303E+07        -0.32082E+07         0.00000E+00
    0.00000E+00         0.00000E+00         0.00000E+00
 
    0.45974E+06         0.22039E+07         0.00000E+00
    0.22039E+07        -0.32021E+07         0.00000E+00
    0.00000E+00         0.00000E+00         0.00000E+00
 
    0.44042E+06         0.22771E+07         0.00000E+00
    0.22771E+07        -0.31958E+07         0.00000E+00
    0.00000E+00         0.00000E+00         0.00000E+00
 
    0.42091E+06         0.23501E+07         0.00000E+00
    0.23501E+07        -0.31892E+07         0.00000E+00
    0.00000E+00         0.00000E+00         0.00000E+00
 
    0.40122E+06         0.24227E+07         0.00000E+00
    0.24227E+07        -0.31824E+07         0.00000E+00
    0.00000E+00         0.00000E+00         0.00000E+00
 
    0.38133E+06         0.24951E+07         0.00000E+00
    0.24951E+07        -0.31753E+07         0.00000E+00
    0.00000E+00         0.00000E+00         0.00000E+00
 
    0.36126E+06         0.25672E+07         0.00000E+00
    0.25672E+07        -0.31680E+07         0.00000E+00
    0.00000E+00         0.00000E+00         0.00000E+00
 
    0.34099E+06         0.26390E+07         0.00000E+00
    0.26390E+07        -0.31604E+07         0.00000E+00
    0.00000E+00         0.00000E+00         0.00000E+00
 
    0.32053E+06         0.27105E+07         0.00000E+00
    0.27105E+07        -0.31526E+07         0.00000E+00
    0.00000E+00         0.00000E+00         0.00000E+00
 
    0.29987E+06         0.27817E+07         0.00000E+00
    0.27817E+07        -0.31446E+07         0.00000E+00
    0.00000E+00         0.00000E+00         0.00000E+00
 
    0.27901E+06         0.28526E+07         0.00000E+00
    0.28526E+07        -0.31362E+07         0.00000E+00
    0.00000E+00         0.00000E+00         0.00000E+00
 
    0.25794E+06         0.29232E+07         0.00000E+00
    0.29232E+07        -0.31277E+07         0.00000E+00
    0.00000E+00         0.00000E+00         0.00000E+00
 
    0.23666E+06         0.29935E+07         0.00000E+00
    0.29935E+07        -0.31188E+07         0.00000E+00
    0.00000E+00         0.00000E+00         0.00000E+00
 
    0.21518E+06         0.30635E+07         0.00000E+00
    0.30635E+07        -0.31097E+07         0.00000E+00
    0.00000E+00         0.00000E+00         0.00000E+00
 
    0.19348E+06         0.31331E+07         0.00000E+00
    0.31331E+07        -0.31004E+07         0.00000E+00
    0.00000E+00         0.00000E+00         0.00000E+00
 
    0.17156E+06         0.32025E+07         0.00000E+00
    0.32025E+07        -0.30907E+07         0.00000E+00
    0.00000E+00         0.00000E+00         0.00000E+00
 
    0.14943E+06         0.32715E+07         0.00000E+00
    0.32715E+07        -0.30808E+07         0.00000E+00
    0.00000E+00         0.00000E+00         0.00000E+00
 
    0.12707E+06         0.33402E+07         0.00000E+00
    0.33402E+07        -0.30706E+07         0.00000E+00
    0.00000E+00         0.00000E+00         0.00000E+00
 
    0.10449E+06         0.34086E+07         0.00000E+00
    0.34086E+07        -0.30602E+07         0.00000E+00
    0.00000E+00         0.00000E+00         0.00000E+00
 
    0.81674E+05         0.34766E+07         0.00000E+00
    0.34766E+07        -0.30495E+07         0.00000E+00
    0.00000E+00         0.00000E+00         0.00000E+00
 
    0.58627E+05         0.35443E+07         0.00000E+00
    0.35443E+07        -0.30384E+07         0.00000E+00
    0.00000E+00         0.00000E+00         0.00000E+00
 
    0.35345E+05         0.36117E+07         0.00000E+00
    0.36117E+07        -0.30271E+07         0.00000E+00
    0.00000E+00         0.00000E+00         0.00000E+00
 
    0.11822E+05         0.36787E+07         0.00000E+00
    0.36787E+07        -0.30155E+07         0.00000E+00
    0.00000E+00         0.00000E+00         0.00000E+00
 
    0.10045E+07         0.41382E+05         0.00000E+00
    0.41382E+05        -0.36248E+07         0.00000E+00
    0.00000E+00         0.00000E+00         0.00000E+00
 
    0.98839E+06         0.12340E+06         0.00000E+00
    0.12340E+06        -0.36246E+07         0.00000E+00
    0.00000E+00         0.00000E+00         0.00000E+00
 
    0.97216E+06         0.20515E+06         0.00000E+00
    0.20515E+06        -0.36241E+07         0.00000E+00
    0.00000E+00         0.00000E+00         0.00000E+00
 
    0.95577E+06         0.28664E+06         0.00000E+00
    0.28664E+06        -0.36235E+07         0.00000E+00
    0.00000E+00         0.00000E+00         0.00000E+00
 
    0.93922E+06         0.36785E+06         0.00000E+00
    0.36785E+06        -0.36226E+07         0.00000E+00
    0.00000E+00         0.00000E+00         0.00000E+00
 
    0.92252E+06         0.44880E+06         0.00000E+00
    0.44880E+06        -0.36215E+07         0.00000E+00
    0.00000E+00         0.00000E+00         0.00000E+00
 
    0.90565E+06         0.52948E+06         0.00000E+00
    0.52948E+06        -0.36202E+07         0.00000E+00
    0.00000E+00         0.00000E+00         0.00000E+00
 
    0.88863E+06         0.60989E+06         0.00000E+00
    0.60989E+06        -0.36186E+07         0.00000E+00
    0.00000E+00         0.00000E+00         0.00000E+00
 
    0.87145E+06         0.69003E+06         0.00000E+00
    0.69003E+06        -0.36169E+07         0.00000E+00
    0.00000E+00         0.00000E+00         0.00000E+00
 
    0.85411E+06         0.76991E+06         0.00000E+00
    0.76991E+06        -0.36149E+07         0.00000E+00
    0.00000E+00         0.00000E+00         0.00000E+00
 
    0.83661E+06         0.84952E+06         0.00000E+00
    0.84952E+06        -0.36127E+07         0.00000E+00
    0.00000E+00         0.00000E+00         0.00000E+00
 
    0.81895E+06         0.92887E+06         0.00000E+00
    0.92887E+06        -0.36102E+07         0.00000E+00
    0.00000E+00         0.00000E+00         0.00000E+00
 
    0.80113E+06         0.10079E+07         0.00000E+00
    0.10079E+07        -0.36076E+07         0.00000E+00
    0.00000E+00         0.00000E+00         0.00000E+00
 
    0.78315E+06         0.10868E+07         0.00000E+00
    0.10868E+07        -0.36047E+07         0.00000E+00
    0.00000E+00         0.00000E+00         0.00000E+00
 
    0.76500E+06         0.11653E+07         0.00000E+00
    0.11653E+07        -0.36016E+07         0.00000E+00
    0.00000E+00         0.00000E+00         0.00000E+00
 
    0.74669E+06         0.12436E+07         0.00000E+00
    0.12436E+07        -0.35982E+07         0.00000E+00
    0.00000E+00         0.00000E+00         0.00000E+00
 
    0.72822E+06         0.13216E+07         0.00000E+00
    0.13216E+07        -0.35946E+07         0.00000E+00
    0.00000E+00         0.00000E+00         0.00000E+00
 
    0.70958E+06         0.13993E+07         0.00000E+00
    0.13993E+07        -0.35908E+07         0.00000E+00
    0.00000E+00         0.00000E+00         0.00000E+00
 
    0.69077E+06         0.14768E+07         0.00000E+00
    0.14768E+07        -0.35868E+07         0.00000E+00
    0.00000E+00         0.00000E+00         0.00000E+00
 
    0.67180E+06         0.15540E+07         0.00000E+00
    0.15540E+07        -0.35825E+07         0.00000E+00
    0.00000E+00         0.00000E+00         0.00000E+00
 
    0.65265E+06         0.16310E+07         0.00000E+00
    0.16310E+07        -0.35780E+07         0.00000E+00
    0.00000E+00         0.00000E+00         0.00000E+00
 
    0.63333E+06         0.17076E+07         0.00000E+00
    0.17076E+07        -0.35733E+07         0.00000E+00
    0.00000E+00         0.00000E+00         0.00000E+00
 
    0.61384E+06         0.17840E+07         0.00000E+00
    0.17840E+07        -0.35683E+07         0.00000E+00
    0.00000E+00         0.00000E+00         0.00000E+00
 
    0.59418E+06         0.18601E+07         0.00000E+00
    0.18601E+07        -0.35630E+07         0.00000E+00
    0.00000E+00         0.00000E+00         0.00000E+00
 
    0.57433E+06         0.19360E+07         0.00000E+00
    0.19360E+07        -0.35576E+07         0.00000E+00
    0.00000E+00         0.00000E+00         0.00000E+00
 
    0.55431E+06         0.20116E+07         0.00000E+00
    0.20116E+07        -0.35518E+07         0.00000E+00
    0.00000E+00         0.00000E+00         0.00000E+00
 
    0.53410E+06         0.20869E+07         0.00000E+00
    0.20869E+07        -0.35459E+07         0.00000E+00
    0.00000E+00         0.00000E+00         0.00000E+00
 
    0.51371E+06         0.21619E+07         0.00000E+00
    0.21619E+07        -0.35396E+07         0.00000E+00
    0.00000E+00         0.00000E+00         0.00000E+00
 
    0.49314E+06         0.22367E+07         0.00000E+00
    0.22367E+07        -0.35332E+07         0.00000E+00
    0.00000E+00         0.00000E+00         0.00000E+00
 
    0.47237E+06         0.23112E+07         0.00000E+00
    0.23112E+07        -0.35264E+07         0.00000E+00
    0.00000E+00         0.00000E+00         0.00000E+00
 
    0.45142E+06         0.23854E+07         0.00000E+00
    0.23854E+07        -0.35195E+07         0.00000E+00
    0.00000E+00         0.00000E+00         0.00000E+00
 
    0.43027E+06         0.24593E+07         0.00000E+00
    0.24593E+07        -0.35122E+07         0.00000E+00
    0.00000E+00         0.00000E+00         0.00000E+00
 
    0.40892E+06         0.25329E+07         0.00000E+00
    0.25329E+07        -0.35047E+07         0.00000E+00
    0.00000E+00         0.00000E+00         0.00000E+00
 
    0.38737E+06         0.26063E+07         0.00000E+00
    0.26063E+07        -0.34969E+07         0.00000E+00
    0.00000E+00         0.00000E+00         0.00000E+00
 
    0.36562E+06         0.26794E+07         0.00000E+00
    0.26794E+07        -0.34889E+07         0.00000E+00
    0.00000E+00         0.00000E+00         0.00000E+00
 
    0.34366E+06         0.27522E+07         0.00000E+00
    0.27522E+07        -0.34806E+07         0.00000E+00
    0.00000E+00         0.00000E+00         0.00000E+00
 
    0.32150E+06         0.28246E+07         0.00000E+00
    0.28246E+07        -0.34720E+07         0.00000E+00
    0.00000E+00         0.00000E+00         0.00000E+00
 
    0.29912E+06         0.28969E+07         0.00000E+00
    0.28969E+07        -0.34631E+07         0.00000E+00
    0.00000E+00         0.00000E+00         0.00000E+00
 
    0.27652E+06         0.29688E+07         0.00000E+00
    0.29688E+07        -0.34540E+07         0.00000E+00
    0.00000E+00         0.00000E+00         0.00000E+00
 
    0.25371E+06         0.30404E+07         0.00000E+00
    0.30404E+07        -0.34446E+07         0.00000E+00
    0.00000E+00         0.00000E+00         0.00000E+00
 
    0.23067E+06         0.31117E+07         0.00000E+00
    0.31117E+07        -0.34349E+07         0.00000E+00
    0.00000E+00         0.00000E+00         0.00000E+00
 
    0.20741E+06         0.31827E+07         0.00000E+00
    0.31827E+07        -0.34249E+07         0.00000E+00
    0.00000E+00         0.00000E+00         0.00000E+00
 
    0.18391E+06         0.32534E+07         0.00000E+00
    0.32534E+07        -0.34146E+07         0.00000E+00
    0.00000E+00         0.00000E+00         0.00000E+00
 
    0.16018E+06         0.33238E+07         0.00000E+00
    0.33238E+07        -0.34040E+07         0.00000E+00
    0.00000E+00         0.00000E+00         0.00000E+00
 
    0.13622E+06         0.33939E+07         0.00000E+00
    0.33939E+07        -0.33931E+07         0.00000E+00
    0.00000E+00         0.00000E+00         0.00000E+00
 
    0.11201E+06         0.34637E+07         0.00000E+00
    0.34637E+07        -0.33819E+07         0.00000E+00
    0.00000E+00         0.00000E+00         0.00000E+00
 
    0.87554E+05         0.35331E+07         0.00000E+00
    0.35331E+07        -0.33705E+07         0.00000E+00
    0.00000E+00         0.00000E+00         0.00000E+00
 
    0.62849E+05         0.36023E+07         0.00000E+00
    0.36023E+07        -0.33587E+07         0.00000E+00
    0.00000E+00         0.00000E+00         0.00000E+00
 
    0.37890E+05         0.36711E+07         0.00000E+00
    0.36711E+07        -0.33466E+07         0.00000E+00
    0.00000E+00         0.00000E+00         0.00000E+00
 
    0.12674E+05         0.37395E+07         0.00000E+00
    0.37395E+07        -0.33341E+07         0.00000E+00
    0.00000E+00         0.00000E+00         0.00000E+00
 
    0.10746E+07         0.41976E+05         0.00000E+00
    0.41976E+05        -0.39684E+07         0.00000E+00
    0.00000E+00         0.00000E+00         0.00000E+00
 
    0.10572E+07         0.12518E+06         0.00000E+00
    0.12518E+06        -0.39681E+07         0.00000E+00
    0.00000E+00         0.00000E+00         0.00000E+00
 
    0.10396E+07         0.20812E+06         0.00000E+00
    0.20812E+06        -0.39677E+07         0.00000E+00
    0.00000E+00         0.00000E+00         0.00000E+00
 
    0.10219E+07         0.29079E+06         0.00000E+00
    0.29079E+06        -0.39670E+07         0.00000E+00
    0.00000E+00         0.00000E+00         0.00000E+00
 
    0.10040E+07         0.37319E+06         0.00000E+00
    0.37319E+06        -0.39661E+07         0.00000E+00
    0.00000E+00         0.00000E+00         0.00000E+00
 
    0.98593E+06         0.45532E+06         0.00000E+00
    0.45532E+06        -0.39649E+07         0.00000E+00
    0.00000E+00         0.00000E+00         0.00000E+00
 
    0.96772E+06         0.53719E+06         0.00000E+00
    0.53719E+06        -0.39635E+07         0.00000E+00
    0.00000E+00         0.00000E+00         0.00000E+00
 
    0.94935E+06         0.61879E+06         0.00000E+00
    0.61879E+06        -0.39619E+07         0.00000E+00
    0.00000E+00         0.00000E+00         0.00000E+00
 
    0.93082E+06         0.70012E+06         0.00000E+00
    0.70012E+06        -0.39601E+07         0.00000E+00
    0.00000E+00         0.00000E+00         0.00000E+00
 
    0.91213E+06         0.78119E+06         0.00000E+00
    0.78119E+06        -0.39580E+07         0.00000E+00
    0.00000E+00         0.00000E+00         0.00000E+00
 
    0.89328E+06         0.86200E+06         0.00000E+00
    0.86200E+06        -0.39557E+07         0.00000E+00
    0.00000E+00         0.00000E+00         0.00000E+00
 
    0.87427E+06         0.94254E+06         0.00000E+00
    0.94254E+06        -0.39531E+07         0.00000E+00
    0.00000E+00         0.00000E+00         0.00000E+00
 
    0.85510E+06         0.10228E+07         0.00000E+00
    0.10228E+07        -0.39504E+07         0.00000E+00
    0.00000E+00         0.00000E+00         0.00000E+00
 
    0.83577E+06         0.11028E+07         0.00000E+00
    0.11028E+07        -0.39473E+07         0.00000E+00
    0.00000E+00         0.00000E+00         0.00000E+00
 
    0.81627E+06         0.11826E+07         0.00000E+00
    0.11826E+07        -0.39441E+07         0.00000E+00
    0.00000E+00         0.00000E+00         0.00000E+00
 
    0.79661E+06         0.12621E+07         0.00000E+00
    0.12621E+07        -0.39406E+07         0.00000E+00
    0.00000E+00         0.00000E+00         0.00000E+00
 
    0.77678E+06         0.13413E+07         0.00000E+00
    0.13413E+07        -0.39368E+07         0.00000E+00
    0.00000E+00         0.00000E+00         0.00000E+00
 
    0.75679E+06         0.14203E+07         0.00000E+00
    0.14203E+07        -0.39328E+07         0.00000E+00
    0.00000E+00         0.00000E+00         0.00000E+00
 
    0.73663E+06         0.14990E+07         0.00000E+00
    0.14990E+07        -0.39286E+07         0.00000E+00
    0.00000E+00         0.00000E+00         0.00000E+00
 
    0.71629E+06         0.15774E+07         0.00000E+00
    0.15774E+07        -0.39241E+07         0.00000E+00
    0.00000E+00         0.00000E+00         0.00000E+00
 
    0.69579E+06         0.16556E+07         0.00000E+00
    0.16556E+07        -0.39194E+07         0.00000E+00
    0.00000E+00         0.00000E+00         0.00000E+00
 
    0.67510E+06         0.17335E+07         0.00000E+00
    0.17335E+07        -0.39144E+07         0.00000E+00
    0.00000E+00         0.00000E+00         0.00000E+00
 
    0.65425E+06         0.18112E+07         0.00000E+00
    0.18112E+07        -0.39091E+07         0.00000E+00
    0.00000E+00         0.00000E+00         0.00000E+00
 
    0.63321E+06         0.18885E+07         0.00000E+00
    0.18885E+07        -0.39036E+07         0.00000E+00
    0.00000E+00         0.00000E+00         0.00000E+00
 
    0.61199E+06         0.19657E+07         0.00000E+00
    0.19657E+07        -0.38979E+07         0.00000E+00
    0.00000E+00         0.00000E+00         0.00000E+00
 
    0.59059E+06         0.20425E+07         0.00000E+00
    0.20425E+07        -0.38918E+07         0.00000E+00
    0.00000E+00         0.00000E+00         0.00000E+00
 
    0.56900E+06         0.21191E+07         0.00000E+00
    0.21191E+07        -0.38856E+07         0.00000E+00
    0.00000E+00         0.00000E+00         0.00000E+00
 
    0.54723E+06         0.21954E+07         0.00000E+00
    0.21954E+07        -0.38790E+07         0.00000E+00
    0.00000E+00         0.00000E+00         0.00000E+00
 
    0.52526E+06         0.22715E+07         0.00000E+00
    0.22715E+07        -0.38722E+07         0.00000E+00
    0.00000E+00         0.00000E+00         0.00000E+00
 
    0.50310E+06         0.23473E+07         0.00000E+00
    0.23473E+07        -0.38651E+07         0.00000E+00
    0.00000E+00         0.00000E+00         0.00000E+00
 
    0.48074E+06         0.24228E+07         0.00000E+00
    0.24228E+07        -0.38577E+07         0.00000E+00
    0.00000E+00         0.00000E+00         0.00000E+00
 
    0.45818E+06         0.24981E+07         0.00000E+00
    0.24981E+07        -0.38501E+07         0.00000E+00
    0.00000E+00         0.00000E+00         0.00000E+00
 
    0.43542E+06         0.25731E+07         0.00000E+00
    0.25731E+07        -0.38422E+07         0.00000E+00
    0.00000E+00         0.00000E+00         0.00000E+00
 
    0.41244E+06         0.26478E+07         0.00000E+00
    0.26478E+07        -0.38340E+07         0.00000E+00
    0.00000E+00         0.00000E+00         0.00000E+00
 
    0.38926E+06         0.27222E+07         0.00000E+00
    0.27222E+07        -0.38255E+07         0.00000E+00
    0.00000E+00         0.00000E+00         0.00000E+00
 
    0.36587E+06         0.27964E+07         0.00000E+00
    0.27964E+07        -0.38167E+07         0.00000E+00
    0.00000E+00         0.00000E+00         0.00000E+00
 
    0.34225E+06         0.28703E+07         0.00000E+00
    0.28703E+07        -0.38076E+07         0.00000E+00
    0.00000E+00         0.00000E+00         0.00000E+00
 
    0.31841E+06         0.29439E+07         0.00000E+00
    0.29439E+07        -0.37982E+07         0.00000E+00
    0.00000E+00         0.00000E+00         0.00000E+00
 
    0.29435E+06         0.30172E+07         0.00000E+00
    0.30172E+07        -0.37886E+07         0.00000E+00
    0.00000E+00         0.00000E+00         0.00000E+00
 
    0.27006E+06         0.30903E+07         0.00000E+00
    0.30903E+07        -0.37786E+07         0.00000E+00
    0.00000E+00         0.00000E+00         0.00000E+00
 
    0.24553E+06         0.31630E+07         0.00000E+00
    0.31630E+07        -0.37683E+07         0.00000E+00
    0.00000E+00         0.00000E+00         0.00000E+00
 
    0.22076E+06         0.32355E+07         0.00000E+00
    0.32355E+07        -0.37577E+07         0.00000E+00
    0.00000E+00         0.00000E+00         0.00000E+00
 
    0.19575E+06         0.33077E+07         0.00000E+00
    0.33077E+07        -0.37468E+07         0.00000E+00
    0.00000E+00         0.00000E+00         0.00000E+00
 
    0.17049E+06         0.33795E+07         0.00000E+00
    0.33795E+07        -0.37356E+07         0.00000E+00
    0.00000E+00         0.00000E+00         0.00000E+00
 
    0.14498E+06         0.34511E+07         0.00000E+00
    0.34511E+07        -0.37240E+07         0.00000E+00
    0.00000E+00         0.00000E+00         0.00000E+00
 
    0.11922E+06         0.35224E+07         0.00000E+00
    0.35224E+07        -0.37122E+07         0.00000E+00
    0.00000E+00         0.00000E+00         0.00000E+00
 
    0.93189E+05         0.35934E+07         0.00000E+00
    0.35934E+07        -0.37000E+07         0.00000E+00
    0.00000E+00         0.00000E+00         0.00000E+00
 
    0.66895E+05         0.36641E+07         0.00000E+00
    0.36641E+07        -0.36874E+07         0.00000E+00
    0.00000E+00         0.00000E+00         0.00000E+00
 
    0.40331E+05         0.37344E+07         0.00000E+00
    0.37344E+07        -0.36746E+07         0.00000E+00
    0.00000E+00         0.00000E+00         0.00000E+00
 
    0.13490E+05         0.38045E+07         0.00000E+00
    0.38045E+07        -0.36614E+07         0.00000E+00
    0.00000E+00         0.00000E+00         0.00000E+00
 
    0.11427E+07         0.42599E+05         0.00000E+00
    0.42599E+05        -0.43201E+07         0.00000E+00
    0.00000E+00         0.00000E+00         0.00000E+00
 
    0.11239E+07         0.12705E+06         0.00000E+00
    0.12705E+06        -0.43199E+07         0.00000E+00
    0.00000E+00         0.00000E+00         0.00000E+00
 
    0.11049E+07         0.21123E+06         0.00000E+00
    0.21123E+06        -0.43194E+07         0.00000E+00
    0.00000E+00         0.00000E+00         0.00000E+00
 
    0.10859E+07         0.29514E+06         0.00000E+00
    0.29514E+06        -0.43187E+07         0.00000E+00
    0.00000E+00         0.00000E+00         0.00000E+00
 
    0.10666E+07         0.37879E+06         0.00000E+00
    0.37879E+06        -0.43178E+07         0.00000E+00
    0.00000E+00         0.00000E+00         0.00000E+00
 
    0.10472E+07         0.46217E+06         0.00000E+00
    0.46217E+06        -0.43166E+07         0.00000E+00
    0.00000E+00         0.00000E+00         0.00000E+00
 
    0.10277E+07         0.54528E+06         0.00000E+00
    0.54528E+06        -0.43151E+07         0.00000E+00
    0.00000E+00         0.00000E+00         0.00000E+00
 
    0.10079E+07         0.62813E+06         0.00000E+00
    0.62813E+06        -0.43135E+07         0.00000E+00
    0.00000E+00         0.00000E+00         0.00000E+00
 
    0.98808E+06         0.71071E+06         0.00000E+00
    0.71071E+06        -0.43116E+07         0.00000E+00
    0.00000E+00         0.00000E+00         0.00000E+00
 
    0.96805E+06         0.79304E+06         0.00000E+00
    0.79304E+06        -0.43094E+07         0.00000E+00
    0.00000E+00         0.00000E+00         0.00000E+00
 
    0.94787E+06         0.87510E+06         0.00000E+00
    0.87510E+06        -0.43070E+07         0.00000E+00
    0.00000E+00         0.00000E+00         0.00000E+00
 
    0.92753E+06         0.95690E+06         0.00000E+00
    0.95690E+06        -0.43043E+07         0.00000E+00
    0.00000E+00         0.00000E+00         0.00000E+00
 
    0.90702E+06         0.10384E+07         0.00000E+00
    0.10384E+07        -0.43014E+07         0.00000E+00
    0.00000E+00         0.00000E+00         0.00000E+00
 
    0.88636E+06         0.11197E+07         0.00000E+00
    0.11197E+07        -0.42983E+07         0.00000E+00
    0.00000E+00         0.00000E+00         0.00000E+00
 
    0.86553E+06         0.12007E+07         0.00000E+00
    0.12007E+07        -0.42949E+07         0.00000E+00
    0.00000E+00         0.00000E+00         0.00000E+00
 
    0.84454E+06         0.12815E+07         0.00000E+00
    0.12815E+07        -0.42912E+07         0.00000E+00
    0.00000E+00         0.00000E+00         0.00000E+00
 
    0.82339E+06         0.13620E+07         0.00000E+00
    0.13620E+07        -0.42873E+07         0.00000E+00
    0.00000E+00         0.00000E+00         0.00000E+00
 
    0.80207E+06         0.14423E+07         0.00000E+00
    0.14423E+07        -0.42832E+07         0.00000E+00
    0.00000E+00         0.00000E+00         0.00000E+00
 
    0.78057E+06         0.15223E+07         0.00000E+00
    0.15223E+07        -0.42788E+07         0.00000E+00
    0.00000E+00         0.00000E+00         0.00000E+00
 
    0.75891E+06         0.16020E+07         0.00000E+00
    0.16020E+07        -0.42741E+07         0.00000E+00
    0.00000E+00         0.00000E+00         0.00000E+00
 
    0.73708E+06         0.16815E+07         0.00000E+00
    0.16815E+07        -0.42691E+07         0.00000E+00
    0.00000E+00         0.00000E+00         0.00000E+00
 
    0.71507E+06         0.17607E+07         0.00000E+00
    0.17607E+07        -0.42639E+07         0.00000E+00
    0.00000E+00         0.00000E+00         0.00000E+00
 
    0.69288E+06         0.18397E+07         0.00000E+00
    0.18397E+07        -0.42584E+07         0.00000E+00
    0.00000E+00         0.00000E+00         0.00000E+00
 
    0.67051E+06         0.19184E+07         0.00000E+00
    0.19184E+07        -0.42527E+07         0.00000E+00
    0.00000E+00         0.00000E+00         0.00000E+00
 
    0.64797E+06         0.19969E+07         0.00000E+00
    0.19969E+07        -0.42467E+07         0.00000E+00
    0.00000E+00         0.00000E+00         0.00000E+00
 
    0.62523E+06         0.20751E+07         0.00000E+00
    0.20751E+07        -0.42404E+07         0.00000E+00
    0.00000E+00         0.00000E+00         0.00000E+00
 
    0.60231E+06         0.21531E+07         0.00000E+00
    0.21531E+07        -0.42338E+07         0.00000E+00
    0.00000E+00         0.00000E+00         0.00000E+00
 
    0.57919E+06         0.22308E+07         0.00000E+00
    0.22308E+07        -0.42270E+07         0.00000E+00
    0.00000E+00         0.00000E+00         0.00000E+00
 
    0.55588E+06         0.23082E+07         0.00000E+00
    0.23082E+07        -0.42198E+07         0.00000E+00
    0.00000E+00         0.00000E+00         0.00000E+00
 
    0.53238E+06         0.23854E+07         0.00000E+00
    0.23854E+07        -0.42124E+07         0.00000E+00
    0.00000E+00         0.00000E+00         0.00000E+00
 
    0.50867E+06         0.24623E+07         0.00000E+00
    0.24623E+07        -0.42047E+07         0.00000E+00
    0.00000E+00         0.00000E+00         0.00000E+00
 
    0.48475E+06         0.25390E+07         0.00000E+00
    0.25390E+07        -0.41967E+07         0.00000E+00
    0.00000E+00         0.00000E+00         0.00000E+00
 
    0.46063E+06         0.26154E+07         0.00000E+00
    0.26154E+07        -0.41884E+07         0.00000E+00
    0.00000E+00         0.00000E+00         0.00000E+00
 
    0.43630E+06         0.26916E+07         0.00000E+00
    0.26916E+07        -0.41798E+07         0.00000E+00
    0.00000E+00         0.00000E+00         0.00000E+00
 
    0.41174E+06         0.27675E+07         0.00000E+00
    0.27675E+07        -0.41709E+07         0.00000E+00
    0.00000E+00         0.00000E+00         0.00000E+00
 
    0.38697E+06         0.28431E+07         0.00000E+00
    0.28431E+07        -0.41617E+07         0.00000E+00
    0.00000E+00         0.00000E+00         0.00000E+00
 
    0.36197E+06         0.29185E+07         0.00000E+00
    0.29185E+07        -0.41521E+07         0.00000E+00
    0.00000E+00         0.00000E+00         0.00000E+00
 
    0.33674E+06         0.29936E+07         0.00000E+00
    0.29936E+07        -0.41423E+07         0.00000E+00
    0.00000E+00         0.00000E+00         0.00000E+00
 
    0.31128E+06         0.30684E+07         0.00000E+00
    0.30684E+07        -0.41321E+07         0.00000E+00
    0.00000E+00         0.00000E+00         0.00000E+00
 
    0.28558E+06         0.31430E+07         0.00000E+00
    0.31430E+07        -0.41216E+07         0.00000E+00
    0.00000E+00         0.00000E+00         0.00000E+00
 
    0.25963E+06         0.32173E+07         0.00000E+00
    0.32173E+07        -0.41108E+07         0.00000E+00
    0.00000E+00         0.00000E+00         0.00000E+00
 
    0.23343E+06         0.32913E+07         0.00000E+00
    0.32913E+07        -0.40997E+07         0.00000E+00
    0.00000E+00         0.00000E+00         0.00000E+00
 
    0.20698E+06         0.33651E+07         0.00000E+00
    0.33651E+07        -0.40882E+07         0.00000E+00
    0.00000E+00         0.00000E+00         0.00000E+00
 
    0.18027E+06         0.34385E+07         0.00000E+00
    0.34385E+07        -0.40764E+07         0.00000E+00
    0.00000E+00         0.00000E+00         0.00000E+00
 
    0.15330E+06         0.35117E+07         0.00000E+00
    0.35117E+07        -0.40642E+07         0.00000E+00
    0.00000E+00         0.00000E+00         0.00000E+00
 
    0.12606E+06         0.35846E+07         0.00000E+00
    0.35846E+07        -0.40517E+07         0.00000E+00
    0.00000E+00         0.00000E+00         0.00000E+00
 
    0.98535E+05         0.36573E+07         0.00000E+00
    0.36573E+07        -0.40388E+07         0.00000E+00
    0.00000E+00         0.00000E+00         0.00000E+00
 
    0.70734E+05         0.37296E+07         0.00000E+00
    0.37296E+07        -0.40256E+07         0.00000E+00
    0.00000E+00         0.00000E+00         0.00000E+00
 
    0.42645E+05         0.38016E+07         0.00000E+00
    0.38016E+07        -0.40120E+07         0.00000E+00
    0.00000E+00         0.00000E+00         0.00000E+00
 
    0.14264E+05         0.38734E+07         0.00000E+00
    0.38734E+07        -0.39980E+07         0.00000E+00
    0.00000E+00         0.00000E+00         0.00000E+00
 
    0.12082E+07         0.43249E+05         0.00000E+00
    0.43249E+05        -0.46808E+07         0.00000E+00
    0.00000E+00         0.00000E+00         0.00000E+00
 
    0.11881E+07         0.12900E+06         0.00000E+00
    0.12900E+06        -0.46805E+07         0.00000E+00
    0.00000E+00         0.00000E+00         0.00000E+00
 
    0.11678E+07         0.21448E+06         0.00000E+00
    0.21448E+06        -0.46800E+07         0.00000E+00
    0.00000E+00         0.00000E+00         0.00000E+00
 
    0.11474E+07         0.29969E+06         0.00000E+00
    0.29969E+06        -0.46793E+07         0.00000E+00
    0.00000E+00         0.00000E+00         0.00000E+00
 
    0.11268E+07         0.38463E+06         0.00000E+00
    0.38463E+06        -0.46783E+07         0.00000E+00
    0.00000E+00         0.00000E+00         0.00000E+00
 
    0.11060E+07         0.46931E+06         0.00000E+00
    0.46931E+06        -0.46771E+07         0.00000E+00
    0.00000E+00         0.00000E+00         0.00000E+00
 
    0.10851E+07         0.55373E+06         0.00000E+00
    0.55373E+06        -0.46756E+07         0.00000E+00
    0.00000E+00         0.00000E+00         0.00000E+00
 
    0.10641E+07         0.63788E+06         0.00000E+00
    0.63788E+06        -0.46739E+07         0.00000E+00
    0.00000E+00         0.00000E+00         0.00000E+00
 
    0.10429E+07         0.72177E+06         0.00000E+00
    0.72177E+06        -0.46719E+07         0.00000E+00
    0.00000E+00         0.00000E+00         0.00000E+00
 
    0.10216E+07         0.80540E+06         0.00000E+00
    0.80540E+06        -0.46697E+07         0.00000E+00
    0.00000E+00         0.00000E+00         0.00000E+00
 
    0.10000E+07         0.88878E+06         0.00000E+00
    0.88878E+06        -0.46672E+07         0.00000E+00
    0.00000E+00         0.00000E+00         0.00000E+00
 
    0.97839E+06         0.97189E+06         0.00000E+00
    0.97189E+06        -0.46644E+07         0.00000E+00
    0.00000E+00         0.00000E+00         0.00000E+00
 
    0.95657E+06         0.10548E+07         0.00000E+00
    0.10548E+07        -0.46614E+07         0.00000E+00
    0.00000E+00         0.00000E+00         0.00000E+00
 
    0.93460E+06         0.11374E+07         0.00000E+00
    0.11374E+07        -0.46582E+07         0.00000E+00
    0.00000E+00         0.00000E+00         0.00000E+00
 
    0.91247E+06         0.12197E+07         0.00000E+00
    0.12197E+07        -0.46547E+07         0.00000E+00
    0.00000E+00         0.00000E+00         0.00000E+00
 
    0.89017E+06         0.13018E+07         0.00000E+00
    0.13018E+07        -0.46509E+07         0.00000E+00
    0.00000E+00         0.00000E+00         0.00000E+00
 
    0.86772E+06         0.13837E+07         0.00000E+00
    0.13837E+07        -0.46468E+07         0.00000E+00
    0.00000E+00         0.00000E+00         0.00000E+00
 
    0.84510E+06         0.14653E+07         0.00000E+00
    0.14653E+07        -0.46425E+07         0.00000E+00
    0.00000E+00         0.00000E+00         0.00000E+00
 
    0.82231E+06         0.15466E+07         0.00000E+00
    0.15466E+07        -0.46380E+07         0.00000E+00
    0.00000E+00         0.00000E+00         0.00000E+00
 
    0.79936E+06         0.16277E+07         0.00000E+00
    0.16277E+07        -0.46331E+07         0.00000E+00
    0.00000E+00         0.00000E+00         0.00000E+00
 
    0.77623E+06         0.17086E+07         0.00000E+00
    0.17086E+07        -0.46280E+07         0.00000E+00
    0.00000E+00         0.00000E+00         0.00000E+00
 
    0.75293E+06         0.17892E+07         0.00000E+00
    0.17892E+07        -0.46226E+07         0.00000E+00
    0.00000E+00         0.00000E+00         0.00000E+00
 
    0.72946E+06         0.18695E+07         0.00000E+00
    0.18695E+07        -0.46169E+07         0.00000E+00
    0.00000E+00         0.00000E+00         0.00000E+00
 
    0.70581E+06         0.19497E+07         0.00000E+00
    0.19497E+07        -0.46109E+07         0.00000E+00
    0.00000E+00         0.00000E+00         0.00000E+00
 
    0.68197E+06         0.20295E+07         0.00000E+00
    0.20295E+07        -0.46047E+07         0.00000E+00
    0.00000E+00         0.00000E+00         0.00000E+00
 
    0.65796E+06         0.21092E+07         0.00000E+00
    0.21092E+07        -0.45981E+07         0.00000E+00
    0.00000E+00         0.00000E+00         0.00000E+00
 
    0.63375E+06         0.21886E+07         0.00000E+00
    0.21886E+07        -0.45913E+07         0.00000E+00
    0.00000E+00         0.00000E+00         0.00000E+00
 
    0.60935E+06         0.22677E+07         0.00000E+00
    0.22677E+07        -0.45842E+07         0.00000E+00
    0.00000E+00         0.00000E+00         0.00000E+00
 
    0.58476E+06         0.23466E+07         0.00000E+00
    0.23466E+07        -0.45768E+07         0.00000E+00
    0.00000E+00         0.00000E+00         0.00000E+00
 
    0.55996E+06         0.24252E+07         0.00000E+00
    0.24252E+07        -0.45691E+07         0.00000E+00
    0.00000E+00         0.00000E+00         0.00000E+00
 
    0.53497E+06         0.25037E+07         0.00000E+00
    0.25037E+07        -0.45610E+07         0.00000E+00
    0.00000E+00         0.00000E+00         0.00000E+00
 
    0.50977E+06         0.25818E+07         0.00000E+00
    0.25818E+07        -0.45527E+07         0.00000E+00
    0.00000E+00         0.00000E+00         0.00000E+00
 
    0.48435E+06         0.26597E+07         0.00000E+00
    0.26597E+07        -0.45441E+07         0.00000E+00
    0.00000E+00         0.00000E+00         0.00000E+00
 
    0.45872E+06         0.27374E+07         0.00000E+00
    0.27374E+07        -0.45351E+07         0.00000E+00
    0.00000E+00         0.00000E+00         0.00000E+00
 
    0.43287E+06         0.28149E+07         0.00000E+00
    0.28149E+07        -0.45258E+07         0.00000E+00
    0.00000E+00         0.00000E+00         0.00000E+00
 
    0.40680E+06         0.28920E+07         0.00000E+00
    0.28920E+07        -0.45162E+07         0.00000E+00
    0.00000E+00         0.00000E+00         0.00000E+00
 
    0.38049E+06         0.29690E+07         0.00000E+00
    0.29690E+07        -0.45062E+07         0.00000E+00
    0.00000E+00         0.00000E+00         0.00000E+00
 
    0.35395E+06         0.30457E+07         0.00000E+00
    0.30457E+07        -0.44960E+07         0.00000E+00
    0.00000E+00         0.00000E+00         0.00000E+00
 
    0.32716E+06         0.31221E+07         0.00000E+00
    0.31221E+07        -0.44854E+07         0.00000E+00
    0.00000E+00         0.00000E+00         0.00000E+00
 
    0.30013E+06         0.31983E+07         0.00000E+00
    0.31983E+07        -0.44744E+07         0.00000E+00
    0.00000E+00         0.00000E+00         0.00000E+00
 
    0.27285E+06         0.32743E+07         0.00000E+00
    0.32743E+07        -0.44631E+07         0.00000E+00
    0.00000E+00         0.00000E+00         0.00000E+00
 
    0.24531E+06         0.33499E+07         0.00000E+00
    0.33499E+07        -0.44514E+07         0.00000E+00
    0.00000E+00         0.00000E+00         0.00000E+00
 
    0.21751E+06         0.34254E+07         0.00000E+00
    0.34254E+07        -0.44394E+07         0.00000E+00
    0.00000E+00         0.00000E+00         0.00000E+00
 
    0.18944E+06         0.35005E+07         0.00000E+00
    0.35005E+07        -0.44270E+07         0.00000E+00
    0.00000E+00         0.00000E+00         0.00000E+00
 
    0.16109E+06         0.35754E+07         0.00000E+00
    0.35754E+07        -0.44143E+07         0.00000E+00
    0.00000E+00         0.00000E+00         0.00000E+00
 
    0.13246E+06         0.36501E+07         0.00000E+00
    0.36501E+07        -0.44012E+07         0.00000E+00
    0.00000E+00         0.00000E+00         0.00000E+00
 
    0.10354E+06         0.37245E+07         0.00000E+00
    0.37245E+07        -0.43877E+07         0.00000E+00
    0.00000E+00         0.00000E+00         0.00000E+00
 
    0.74328E+05         0.37986E+07         0.00000E+00
    0.37986E+07        -0.43738E+07         0.00000E+00
    0.00000E+00         0.00000E+00         0.00000E+00
 
    0.44813E+05         0.38724E+07         0.00000E+00
    0.38724E+07        -0.43595E+07         0.00000E+00
    0.00000E+00         0.00000E+00         0.00000E+00
 
    0.14990E+05         0.39460E+07         0.00000E+00
    0.39460E+07        -0.43449E+07         0.00000E+00
    0.00000E+00         0.00000E+00         0.00000E+00
 
    0.12709E+07         0.43923E+05         0.00000E+00
    0.43923E+05        -0.50509E+07         0.00000E+00
    0.00000E+00         0.00000E+00         0.00000E+00
 
    0.12494E+07         0.13102E+06         0.00000E+00
    0.13102E+06        -0.50506E+07         0.00000E+00
    0.00000E+00         0.00000E+00         0.00000E+00
 
    0.12278E+07         0.21785E+06         0.00000E+00
    0.21785E+06        -0.50501E+07         0.00000E+00
    0.00000E+00         0.00000E+00         0.00000E+00
 
    0.12060E+07         0.30441E+06         0.00000E+00
    0.30441E+06        -0.50493E+07         0.00000E+00
    0.00000E+00         0.00000E+00         0.00000E+00
 
    0.11841E+07         0.39070E+06         0.00000E+00
    0.39070E+06        -0.50483E+07         0.00000E+00
    0.00000E+00         0.00000E+00         0.00000E+00
 
    0.11620E+07         0.47673E+06         0.00000E+00
    0.47673E+06        -0.50471E+07         0.00000E+00
    0.00000E+00         0.00000E+00         0.00000E+00
 
    0.11398E+07         0.56250E+06         0.00000E+00
    0.56250E+06        -0.50456E+07         0.00000E+00
    0.00000E+00         0.00000E+00         0.00000E+00
 
    0.11174E+07         0.64800E+06         0.00000E+00
    0.64800E+06        -0.50438E+07         0.00000E+00
    0.00000E+00         0.00000E+00         0.00000E+00
 
    0.10949E+07         0.73325E+06         0.00000E+00
    0.73325E+06        -0.50417E+07         0.00000E+00
    0.00000E+00         0.00000E+00         0.00000E+00
 
    0.10723E+07         0.81824E+06         0.00000E+00
    0.81824E+06        -0.50395E+07         0.00000E+00
    0.00000E+00         0.00000E+00         0.00000E+00
 
    0.10495E+07         0.90298E+06         0.00000E+00
    0.90298E+06        -0.50369E+07         0.00000E+00
    0.00000E+00         0.00000E+00         0.00000E+00
 
    0.10265E+07         0.98746E+06         0.00000E+00
    0.98746E+06        -0.50341E+07         0.00000E+00
    0.00000E+00         0.00000E+00         0.00000E+00
 
    0.10034E+07         0.10717E+07         0.00000E+00
    0.10717E+07        -0.50310E+07         0.00000E+00
    0.00000E+00         0.00000E+00         0.00000E+00
 
    0.98013E+06         0.11557E+07         0.00000E+00
    0.11557E+07        -0.50276E+07         0.00000E+00
    0.00000E+00         0.00000E+00         0.00000E+00
 
    0.95672E+06         0.12394E+07         0.00000E+00
    0.12394E+07        -0.50240E+07         0.00000E+00
    0.00000E+00         0.00000E+00         0.00000E+00
 
    0.93315E+06         0.13229E+07         0.00000E+00
    0.13229E+07        -0.50201E+07         0.00000E+00
    0.00000E+00         0.00000E+00         0.00000E+00
 
    0.90943E+06         0.14061E+07         0.00000E+00
    0.14061E+07        -0.50160E+07         0.00000E+00
    0.00000E+00         0.00000E+00         0.00000E+00
 
    0.88555E+06         0.14891E+07         0.00000E+00
    0.14891E+07        -0.50115E+07         0.00000E+00
    0.00000E+00         0.00000E+00         0.00000E+00
 
    0.86150E+06         0.15719E+07         0.00000E+00
    0.15719E+07        -0.50068E+07         0.00000E+00
    0.00000E+00         0.00000E+00         0.00000E+00
 
    0.83730E+06         0.16544E+07         0.00000E+00
    0.16544E+07        -0.50018E+07         0.00000E+00
    0.00000E+00         0.00000E+00         0.00000E+00
 
    0.81292E+06         0.17367E+07         0.00000E+00
    0.17367E+07        -0.49965E+07         0.00000E+00
    0.00000E+00         0.00000E+00         0.00000E+00
 
    0.78838E+06         0.18188E+07         0.00000E+00
    0.18188E+07        -0.49910E+07         0.00000E+00
    0.00000E+00         0.00000E+00         0.00000E+00
 
    0.76367E+06         0.19006E+07         0.00000E+00
    0.19006E+07        -0.49851E+07         0.00000E+00
    0.00000E+00         0.00000E+00         0.00000E+00
 
    0.73878E+06         0.19821E+07         0.00000E+00
    0.19821E+07        -0.49790E+07         0.00000E+00
    0.00000E+00         0.00000E+00         0.00000E+00
 
    0.71372E+06         0.20635E+07         0.00000E+00
    0.20635E+07        -0.49725E+07         0.00000E+00
    0.00000E+00         0.00000E+00         0.00000E+00
 
    0.68847E+06         0.21446E+07         0.00000E+00
    0.21446E+07        -0.49658E+07         0.00000E+00
    0.00000E+00         0.00000E+00         0.00000E+00
 
    0.66304E+06         0.22255E+07         0.00000E+00
    0.22255E+07        -0.49587E+07         0.00000E+00
    0.00000E+00         0.00000E+00         0.00000E+00
 
    0.63742E+06         0.23061E+07         0.00000E+00
    0.23061E+07        -0.49514E+07         0.00000E+00
    0.00000E+00         0.00000E+00         0.00000E+00
 
    0.61161E+06         0.23865E+07         0.00000E+00
    0.23865E+07        -0.49437E+07         0.00000E+00
    0.00000E+00         0.00000E+00         0.00000E+00
 
    0.58560E+06         0.24667E+07         0.00000E+00
    0.24667E+07        -0.49357E+07         0.00000E+00
    0.00000E+00         0.00000E+00         0.00000E+00
 
    0.55939E+06         0.25467E+07         0.00000E+00
    0.25467E+07        -0.49274E+07         0.00000E+00
    0.00000E+00         0.00000E+00         0.00000E+00
 
    0.53297E+06         0.26264E+07         0.00000E+00
    0.26264E+07        -0.49188E+07         0.00000E+00
    0.00000E+00         0.00000E+00         0.00000E+00
 
    0.50634E+06         0.27059E+07         0.00000E+00
    0.27059E+07        -0.49099E+07         0.00000E+00
    0.00000E+00         0.00000E+00         0.00000E+00
 
    0.47949E+06         0.27852E+07         0.00000E+00
    0.27852E+07        -0.49006E+07         0.00000E+00
    0.00000E+00         0.00000E+00         0.00000E+00
 
    0.45243E+06         0.28642E+07         0.00000E+00
    0.28642E+07        -0.48910E+07         0.00000E+00
    0.00000E+00         0.00000E+00         0.00000E+00
 
    0.42513E+06         0.29430E+07         0.00000E+00
    0.29430E+07        -0.48810E+07         0.00000E+00
    0.00000E+00         0.00000E+00         0.00000E+00
 
    0.39761E+06         0.30216E+07         0.00000E+00
    0.30216E+07        -0.48707E+07         0.00000E+00
    0.00000E+00         0.00000E+00         0.00000E+00
 
    0.36984E+06         0.31000E+07         0.00000E+00
    0.31000E+07        -0.48600E+07         0.00000E+00
    0.00000E+00         0.00000E+00         0.00000E+00
 
    0.34183E+06         0.31781E+07         0.00000E+00
    0.31781E+07        -0.48490E+07         0.00000E+00
    0.00000E+00         0.00000E+00         0.00000E+00
 
    0.31357E+06         0.32560E+07         0.00000E+00
    0.32560E+07        -0.48376E+07         0.00000E+00
    0.00000E+00         0.00000E+00         0.00000E+00
 
    0.28505E+06         0.33337E+07         0.00000E+00
    0.33337E+07        -0.48259E+07         0.00000E+00
    0.00000E+00         0.00000E+00         0.00000E+00
 
    0.25627E+06         0.34111E+07         0.00000E+00
    0.34111E+07        -0.48138E+07         0.00000E+00
    0.00000E+00         0.00000E+00         0.00000E+00
 
    0.22721E+06         0.34883E+07         0.00000E+00
    0.34883E+07        -0.48013E+07         0.00000E+00
    0.00000E+00         0.00000E+00         0.00000E+00
 
    0.19788E+06         0.35653E+07         0.00000E+00
    0.35653E+07        -0.47884E+07         0.00000E+00
    0.00000E+00         0.00000E+00         0.00000E+00
 
    0.16827E+06         0.36420E+07         0.00000E+00
    0.36420E+07        -0.47751E+07         0.00000E+00
    0.00000E+00         0.00000E+00         0.00000E+00
 
    0.13836E+06         0.37185E+07         0.00000E+00
    0.37185E+07        -0.47615E+07         0.00000E+00
    0.00000E+00         0.00000E+00         0.00000E+00
 
    0.10815E+06         0.37948E+07         0.00000E+00
    0.37948E+07        -0.47474E+07         0.00000E+00
    0.00000E+00         0.00000E+00         0.00000E+00
 
    0.77638E+05         0.38708E+07         0.00000E+00
    0.38708E+07        -0.47329E+07         0.00000E+00
    0.00000E+00         0.00000E+00         0.00000E+00
 
    0.46809E+05         0.39465E+07         0.00000E+00
    0.39465E+07        -0.47181E+07         0.00000E+00
    0.00000E+00         0.00000E+00         0.00000E+00
 
    0.15657E+05         0.40220E+07         0.00000E+00
    0.40220E+07        -0.47027E+07         0.00000E+00
    0.00000E+00         0.00000E+00         0.00000E+00
 
    0.13304E+07         0.44621E+05         0.00000E+00
    0.44621E+05        -0.54310E+07         0.00000E+00
    0.00000E+00         0.00000E+00         0.00000E+00
 
    0.13076E+07         0.13311E+06         0.00000E+00
    0.13311E+06        -0.54308E+07         0.00000E+00
    0.00000E+00         0.00000E+00         0.00000E+00
 
    0.12846E+07         0.22133E+06         0.00000E+00
    0.22133E+06        -0.54303E+07         0.00000E+00
    0.00000E+00         0.00000E+00         0.00000E+00
 
    0.12614E+07         0.30928E+06         0.00000E+00
    0.30928E+06        -0.54295E+07         0.00000E+00
    0.00000E+00         0.00000E+00         0.00000E+00
 
    0.12382E+07         0.39697E+06         0.00000E+00
    0.39697E+06        -0.54285E+07         0.00000E+00
    0.00000E+00         0.00000E+00         0.00000E+00
 
    0.12148E+07         0.48439E+06         0.00000E+00
    0.48439E+06        -0.54272E+07         0.00000E+00
    0.00000E+00         0.00000E+00         0.00000E+00
 
    0.11912E+07         0.57155E+06         0.00000E+00
    0.57155E+06        -0.54256E+07         0.00000E+00
    0.00000E+00         0.00000E+00         0.00000E+00
 
    0.11676E+07         0.65846E+06         0.00000E+00
    0.65846E+06        -0.54238E+07         0.00000E+00
    0.00000E+00         0.00000E+00         0.00000E+00
 
    0.11438E+07         0.74511E+06         0.00000E+00
    0.74511E+06        -0.54217E+07         0.00000E+00
    0.00000E+00         0.00000E+00         0.00000E+00
 
    0.11198E+07         0.83150E+06         0.00000E+00
    0.83150E+06        -0.54194E+07         0.00000E+00
    0.00000E+00         0.00000E+00         0.00000E+00
 
    0.10957E+07         0.91764E+06         0.00000E+00
    0.91764E+06        -0.54168E+07         0.00000E+00
    0.00000E+00         0.00000E+00         0.00000E+00
 
    0.10715E+07         0.10035E+07         0.00000E+00
    0.10035E+07        -0.54139E+07         0.00000E+00
    0.00000E+00         0.00000E+00         0.00000E+00
 
    0.10471E+07         0.10892E+07         0.00000E+00
    0.10892E+07        -0.54107E+07         0.00000E+00
    0.00000E+00         0.00000E+00         0.00000E+00
 
    0.10226E+07         0.11746E+07         0.00000E+00
    0.11746E+07        -0.54073E+07         0.00000E+00
    0.00000E+00         0.00000E+00         0.00000E+00
 
    0.99792E+06         0.12597E+07         0.00000E+00
    0.12597E+07        -0.54036E+07         0.00000E+00
    0.00000E+00         0.00000E+00         0.00000E+00
 
    0.97311E+06         0.13447E+07         0.00000E+00
    0.13447E+07        -0.53996E+07         0.00000E+00
    0.00000E+00         0.00000E+00         0.00000E+00
 
    0.94815E+06         0.14294E+07         0.00000E+00
    0.14294E+07        -0.53954E+07         0.00000E+00
    0.00000E+00         0.00000E+00         0.00000E+00
 
    0.92304E+06         0.15138E+07         0.00000E+00
    0.15138E+07        -0.53908E+07         0.00000E+00
    0.00000E+00         0.00000E+00         0.00000E+00
 
    0.89778E+06         0.15980E+07         0.00000E+00
    0.15980E+07        -0.53860E+07         0.00000E+00
    0.00000E+00         0.00000E+00         0.00000E+00
 
    0.87237E+06         0.16820E+07         0.00000E+00
    0.16820E+07        -0.53809E+07         0.00000E+00
    0.00000E+00         0.00000E+00         0.00000E+00
 
    0.84679E+06         0.17658E+07         0.00000E+00
    0.17658E+07        -0.53755E+07         0.00000E+00
    0.00000E+00         0.00000E+00         0.00000E+00
 
    0.82106E+06         0.18493E+07         0.00000E+00
    0.18493E+07        -0.53697E+07         0.00000E+00
    0.00000E+00         0.00000E+00         0.00000E+00
 
    0.79516E+06         0.19326E+07         0.00000E+00
    0.19326E+07        -0.53637E+07         0.00000E+00
    0.00000E+00         0.00000E+00         0.00000E+00
 
    0.76909E+06         0.20157E+07         0.00000E+00
    0.20157E+07        -0.53574E+07         0.00000E+00
    0.00000E+00         0.00000E+00         0.00000E+00
 
    0.74286E+06         0.20985E+07         0.00000E+00
    0.20985E+07        -0.53508E+07         0.00000E+00
    0.00000E+00         0.00000E+00         0.00000E+00
 
    0.71645E+06         0.21812E+07         0.00000E+00
    0.21812E+07        -0.53439E+07         0.00000E+00
    0.00000E+00         0.00000E+00         0.00000E+00
 
    0.68986E+06         0.22636E+07         0.00000E+00
    0.22636E+07        -0.53367E+07         0.00000E+00
    0.00000E+00         0.00000E+00         0.00000E+00
 
    0.66309E+06         0.23458E+07         0.00000E+00
    0.23458E+07        -0.53291E+07         0.00000E+00
    0.00000E+00         0.00000E+00         0.00000E+00
 
    0.63613E+06         0.24278E+07         0.00000E+00
    0.24278E+07        -0.53213E+07         0.00000E+00
    0.00000E+00         0.00000E+00         0.00000E+00
 
    0.60898E+06         0.25096E+07         0.00000E+00
    0.25096E+07        -0.53131E+07         0.00000E+00
    0.00000E+00         0.00000E+00         0.00000E+00
 
    0.58164E+06         0.25911E+07         0.00000E+00
    0.25911E+07        -0.53045E+07         0.00000E+00
    0.00000E+00         0.00000E+00         0.00000E+00
 
    0.55409E+06         0.26725E+07         0.00000E+00
    0.26725E+07        -0.52957E+07         0.00000E+00
    0.00000E+00         0.00000E+00         0.00000E+00
 
    0.52633E+06         0.27537E+07         0.00000E+00
    0.27537E+07        -0.52865E+07         0.00000E+00
    0.00000E+00         0.00000E+00         0.00000E+00
 
    0.49836E+06         0.28346E+07         0.00000E+00
    0.28346E+07        -0.52769E+07         0.00000E+00
    0.00000E+00         0.00000E+00         0.00000E+00
 
    0.47017E+06         0.29153E+07         0.00000E+00
    0.29153E+07        -0.52670E+07         0.00000E+00
    0.00000E+00         0.00000E+00         0.00000E+00
 
    0.44175E+06         0.29958E+07         0.00000E+00
    0.29958E+07        -0.52568E+07         0.00000E+00
    0.00000E+00         0.00000E+00         0.00000E+00
 
    0.41311E+06         0.30762E+07         0.00000E+00
    0.30762E+07        -0.52462E+07         0.00000E+00
    0.00000E+00         0.00000E+00         0.00000E+00
 
    0.38422E+06         0.31563E+07         0.00000E+00
    0.31563E+07        -0.52352E+07         0.00000E+00
    0.00000E+00         0.00000E+00         0.00000E+00
 
    0.35509E+06         0.32362E+07         0.00000E+00
    0.32362E+07        -0.52238E+07         0.00000E+00
    0.00000E+00         0.00000E+00         0.00000E+00
 
    0.32571E+06         0.33159E+07         0.00000E+00
    0.33159E+07        -0.52121E+07         0.00000E+00
    0.00000E+00         0.00000E+00         0.00000E+00
 
    0.29606E+06         0.33954E+07         0.00000E+00
    0.33954E+07        -0.52000E+07         0.00000E+00
    0.00000E+00         0.00000E+00         0.00000E+00
 
    0.26615E+06         0.34746E+07         0.00000E+00
    0.34746E+07        -0.51875E+07         0.00000E+00
    0.00000E+00         0.00000E+00         0.00000E+00
 
    0.23596E+06         0.35537E+07         0.00000E+00
    0.35537E+07        -0.51746E+07         0.00000E+00
    0.00000E+00         0.00000E+00         0.00000E+00
 
    0.20549E+06         0.36326E+07         0.00000E+00
    0.36326E+07        -0.51612E+07         0.00000E+00
    0.00000E+00         0.00000E+00         0.00000E+00
 
    0.17473E+06         0.37112E+07         0.00000E+00
    0.37112E+07        -0.51475E+07         0.00000E+00
    0.00000E+00         0.00000E+00         0.00000E+00
 
    0.14367E+06         0.37897E+07         0.00000E+00
    0.37897E+07        -0.51334E+07         0.00000E+00
    0.00000E+00         0.00000E+00         0.00000E+00
 
    0.11230E+06         0.38679E+07         0.00000E+00
    0.38679E+07        -0.51188E+07         0.00000E+00
    0.00000E+00         0.00000E+00         0.00000E+00
 
    0.80617E+05         0.39459E+07         0.00000E+00
    0.39459E+07        -0.51038E+07         0.00000E+00
    0.00000E+00         0.00000E+00         0.00000E+00
 
    0.48605E+05         0.40237E+07         0.00000E+00
    0.40237E+07        -0.50884E+07         0.00000E+00
    0.00000E+00         0.00000E+00         0.00000E+00
 
    0.16258E+05         0.41012E+07         0.00000E+00
    0.41012E+07        -0.50725E+07         0.00000E+00
    0.00000E+00         0.00000E+00         0.00000E+00
 
    0.13863E+07         0.45338E+05         0.00000E+00
    0.45338E+05        -0.58219E+07         0.00000E+00
    0.00000E+00         0.00000E+00         0.00000E+00
 
    0.13620E+07         0.13526E+06         0.00000E+00
    0.13526E+06        -0.58216E+07         0.00000E+00
    0.00000E+00         0.00000E+00         0.00000E+00
 
    0.13377E+07         0.22491E+06         0.00000E+00
    0.22491E+06        -0.58211E+07         0.00000E+00
    0.00000E+00         0.00000E+00         0.00000E+00
 
    0.13132E+07         0.31430E+06         0.00000E+00
    0.31430E+06        -0.58203E+07         0.00000E+00
    0.00000E+00         0.00000E+00         0.00000E+00
 
    0.12886E+07         0.40341E+06         0.00000E+00
    0.40341E+06        -0.58193E+07         0.00000E+00
    0.00000E+00         0.00000E+00         0.00000E+00
 
    0.12639E+07         0.49227E+06         0.00000E+00
    0.49227E+06        -0.58180E+07         0.00000E+00
    0.00000E+00         0.00000E+00         0.00000E+00
 
    0.12391E+07         0.58086E+06         0.00000E+00
    0.58086E+06        -0.58164E+07         0.00000E+00
    0.00000E+00         0.00000E+00         0.00000E+00
 
    0.12141E+07         0.66920E+06         0.00000E+00
    0.66920E+06        -0.58145E+07         0.00000E+00
    0.00000E+00         0.00000E+00         0.00000E+00
 
    0.11890E+07         0.75729E+06         0.00000E+00
    0.75729E+06        -0.58124E+07         0.00000E+00
    0.00000E+00         0.00000E+00         0.00000E+00
 
    0.11638E+07         0.84512E+06         0.00000E+00
    0.84512E+06        -0.58100E+07         0.00000E+00
    0.00000E+00         0.00000E+00         0.00000E+00
 
    0.11384E+07         0.93271E+06         0.00000E+00
    0.93271E+06        -0.58074E+07         0.00000E+00
    0.00000E+00         0.00000E+00         0.00000E+00
 
    0.11129E+07         0.10200E+07         0.00000E+00
    0.10200E+07        -0.58045E+07         0.00000E+00
    0.00000E+00         0.00000E+00         0.00000E+00
 
    0.10873E+07         0.11071E+07         0.00000E+00
    0.11071E+07        -0.58012E+07         0.00000E+00
    0.00000E+00         0.00000E+00         0.00000E+00
 
    0.10615E+07         0.11940E+07         0.00000E+00
    0.11940E+07        -0.57978E+07         0.00000E+00
    0.00000E+00         0.00000E+00         0.00000E+00
 
    0.10357E+07         0.12806E+07         0.00000E+00
    0.12806E+07        -0.57940E+07         0.00000E+00
    0.00000E+00         0.00000E+00         0.00000E+00
 
    0.10096E+07         0.13670E+07         0.00000E+00
    0.13670E+07        -0.57899E+07         0.00000E+00
    0.00000E+00         0.00000E+00         0.00000E+00
 
    0.98348E+06         0.14532E+07         0.00000E+00
    0.14532E+07        -0.57856E+07         0.00000E+00
    0.00000E+00         0.00000E+00         0.00000E+00
 
    0.95718E+06         0.15391E+07         0.00000E+00
    0.15391E+07        -0.57810E+07         0.00000E+00
    0.00000E+00         0.00000E+00         0.00000E+00
 
    0.93075E+06         0.16248E+07         0.00000E+00
    0.16248E+07        -0.57761E+07         0.00000E+00
    0.00000E+00         0.00000E+00         0.00000E+00
 
    0.90417E+06         0.17103E+07         0.00000E+00
    0.17103E+07        -0.57709E+07         0.00000E+00
    0.00000E+00         0.00000E+00         0.00000E+00
 
    0.87745E+06         0.17956E+07         0.00000E+00
    0.17956E+07        -0.57654E+07         0.00000E+00
    0.00000E+00         0.00000E+00         0.00000E+00
 
    0.85057E+06         0.18806E+07         0.00000E+00
    0.18806E+07        -0.57596E+07         0.00000E+00
    0.00000E+00         0.00000E+00         0.00000E+00
 
    0.82355E+06         0.19655E+07         0.00000E+00
    0.19655E+07        -0.57534E+07         0.00000E+00
    0.00000E+00         0.00000E+00         0.00000E+00
 
    0.79637E+06         0.20501E+07         0.00000E+00
    0.20501E+07        -0.57470E+07         0.00000E+00
    0.00000E+00         0.00000E+00         0.00000E+00
 
    0.76903E+06         0.21345E+07         0.00000E+00
    0.21345E+07        -0.57403E+07         0.00000E+00
    0.00000E+00         0.00000E+00         0.00000E+00
 
    0.74153E+06         0.22187E+07         0.00000E+00
    0.22187E+07        -0.57332E+07         0.00000E+00
    0.00000E+00         0.00000E+00         0.00000E+00
 
    0.71386E+06         0.23028E+07         0.00000E+00
    0.23028E+07        -0.57259E+07         0.00000E+00
    0.00000E+00         0.00000E+00         0.00000E+00
 
    0.68601E+06         0.23866E+07         0.00000E+00
    0.23866E+07        -0.57182E+07         0.00000E+00
    0.00000E+00         0.00000E+00         0.00000E+00
 
    0.65799E+06         0.24702E+07         0.00000E+00
    0.24702E+07        -0.57102E+07         0.00000E+00
    0.00000E+00         0.00000E+00         0.00000E+00
 
    0.62979E+06         0.25536E+07         0.00000E+00
    0.25536E+07        -0.57018E+07         0.00000E+00
    0.00000E+00         0.00000E+00         0.00000E+00
 
    0.60139E+06         0.26368E+07         0.00000E+00
    0.26368E+07        -0.56931E+07         0.00000E+00
    0.00000E+00         0.00000E+00         0.00000E+00
 
    0.57281E+06         0.27199E+07         0.00000E+00
    0.27199E+07        -0.56840E+07         0.00000E+00
    0.00000E+00         0.00000E+00         0.00000E+00
 
    0.54402E+06         0.28027E+07         0.00000E+00
    0.28027E+07        -0.56746E+07         0.00000E+00
    0.00000E+00         0.00000E+00         0.00000E+00
 
    0.51503E+06         0.28854E+07         0.00000E+00
    0.28854E+07        -0.56649E+07         0.00000E+00
    0.00000E+00         0.00000E+00         0.00000E+00
 
    0.48582E+06         0.29679E+07         0.00000E+00
    0.29679E+07        -0.56548E+07         0.00000E+00
    0.00000E+00         0.00000E+00         0.00000E+00
 
    0.45640E+06         0.30502E+07         0.00000E+00
    0.30502E+07        -0.56443E+07         0.00000E+00
    0.00000E+00         0.00000E+00         0.00000E+00
 
    0.42674E+06         0.31323E+07         0.00000E+00
    0.31323E+07        -0.56334E+07         0.00000E+00
    0.00000E+00         0.00000E+00         0.00000E+00
 
    0.39685E+06         0.32142E+07         0.00000E+00
    0.32142E+07        -0.56222E+07         0.00000E+00
    0.00000E+00         0.00000E+00         0.00000E+00
 
    0.36672E+06         0.32959E+07         0.00000E+00
    0.32959E+07        -0.56105E+07         0.00000E+00
    0.00000E+00         0.00000E+00         0.00000E+00
 
    0.33634E+06         0.33775E+07         0.00000E+00
    0.33775E+07        -0.55985E+07         0.00000E+00
    0.00000E+00         0.00000E+00         0.00000E+00
 
    0.30570E+06         0.34589E+07         0.00000E+00
    0.34589E+07        -0.55861E+07         0.00000E+00
    0.00000E+00         0.00000E+00         0.00000E+00
 
    0.27479E+06         0.35401E+07         0.00000E+00
    0.35401E+07        -0.55733E+07         0.00000E+00
    0.00000E+00         0.00000E+00         0.00000E+00
 
    0.24361E+06         0.36211E+07         0.00000E+00
    0.36211E+07        -0.55600E+07         0.00000E+00
    0.00000E+00         0.00000E+00         0.00000E+00
 
    0.21214E+06         0.37020E+07         0.00000E+00
    0.37020E+07        -0.55463E+07         0.00000E+00
    0.00000E+00         0.00000E+00         0.00000E+00
 
    0.18037E+06         0.37826E+07         0.00000E+00
    0.37826E+07        -0.55322E+07         0.00000E+00
    0.00000E+00         0.00000E+00         0.00000E+00
 
    0.14830E+06         0.38631E+07         0.00000E+00
    0.38631E+07        -0.55177E+07         0.00000E+00
    0.00000E+00         0.00000E+00         0.00000E+00
 
    0.11592E+06         0.39434E+07         0.00000E+00
    0.39434E+07        -0.55027E+07         0.00000E+00
    0.00000E+00         0.00000E+00         0.00000E+00
 
    0.83211E+05         0.40235E+07         0.00000E+00
    0.40235E+07        -0.54872E+07         0.00000E+00
    0.00000E+00         0.00000E+00         0.00000E+00
 
    0.50169E+05         0.41034E+07         0.00000E+00
    0.41034E+07        -0.54713E+07         0.00000E+00
    0.00000E+00         0.00000E+00         0.00000E+00
 
    0.16781E+05         0.41832E+07         0.00000E+00
    0.41832E+07        -0.54549E+07         0.00000E+00
    0.00000E+00         0.00000E+00         0.00000E+00
 
    0.14381E+07         0.46074E+05         0.00000E+00
    0.46074E+05        -0.62241E+07         0.00000E+00
    0.00000E+00         0.00000E+00         0.00000E+00
 
    0.14125E+07         0.13746E+06         0.00000E+00
    0.13746E+06        -0.62238E+07         0.00000E+00
    0.00000E+00         0.00000E+00         0.00000E+00
 
    0.13868E+07         0.22858E+06         0.00000E+00
    0.22858E+06        -0.62233E+07         0.00000E+00
    0.00000E+00         0.00000E+00         0.00000E+00
 
    0.13610E+07         0.31943E+06         0.00000E+00
    0.31943E+06        -0.62225E+07         0.00000E+00
    0.00000E+00         0.00000E+00         0.00000E+00
 
    0.13350E+07         0.41001E+06         0.00000E+00
    0.41001E+06        -0.62214E+07         0.00000E+00
    0.00000E+00         0.00000E+00         0.00000E+00
 
    0.13090E+07         0.50033E+06         0.00000E+00
    0.50033E+06        -0.62201E+07         0.00000E+00
    0.00000E+00         0.00000E+00         0.00000E+00
 
    0.12829E+07         0.59039E+06         0.00000E+00
    0.59039E+06        -0.62185E+07         0.00000E+00
    0.00000E+00         0.00000E+00         0.00000E+00
 
    0.12566E+07         0.68020E+06         0.00000E+00
    0.68020E+06        -0.62166E+07         0.00000E+00
    0.00000E+00         0.00000E+00         0.00000E+00
 
    0.12302E+07         0.76975E+06         0.00000E+00
    0.76975E+06        -0.62145E+07         0.00000E+00
    0.00000E+00         0.00000E+00         0.00000E+00
 
    0.12037E+07         0.85905E+06         0.00000E+00
    0.85905E+06        -0.62121E+07         0.00000E+00
    0.00000E+00         0.00000E+00         0.00000E+00
 
    0.11771E+07         0.94811E+06         0.00000E+00
    0.94811E+06        -0.62094E+07         0.00000E+00
    0.00000E+00         0.00000E+00         0.00000E+00
 
    0.11504E+07         0.10369E+07         0.00000E+00
    0.10369E+07        -0.62064E+07         0.00000E+00
    0.00000E+00         0.00000E+00         0.00000E+00
 
    0.11235E+07         0.11255E+07         0.00000E+00
    0.11255E+07        -0.62032E+07         0.00000E+00
    0.00000E+00         0.00000E+00         0.00000E+00
 
    0.10966E+07         0.12138E+07         0.00000E+00
    0.12138E+07        -0.61997E+07         0.00000E+00
    0.00000E+00         0.00000E+00         0.00000E+00
 
    0.10695E+07         0.13020E+07         0.00000E+00
    0.13020E+07        -0.61958E+07         0.00000E+00
    0.00000E+00         0.00000E+00         0.00000E+00
 
    0.10423E+07         0.13898E+07         0.00000E+00
    0.13898E+07        -0.61918E+07         0.00000E+00
    0.00000E+00         0.00000E+00         0.00000E+00
 
    0.10150E+07         0.14775E+07         0.00000E+00
    0.14775E+07        -0.61874E+07         0.00000E+00
    0.00000E+00         0.00000E+00         0.00000E+00
 
    0.98752E+06         0.15649E+07         0.00000E+00
    0.15649E+07        -0.61827E+07         0.00000E+00
    0.00000E+00         0.00000E+00         0.00000E+00
 
    0.95996E+06         0.16522E+07         0.00000E+00
    0.16522E+07        -0.61777E+07         0.00000E+00
    0.00000E+00         0.00000E+00         0.00000E+00
 
    0.93227E+06         0.17392E+07         0.00000E+00
    0.17392E+07        -0.61725E+07         0.00000E+00
    0.00000E+00         0.00000E+00         0.00000E+00
 
    0.90445E+06         0.18260E+07         0.00000E+00
    0.18260E+07        -0.61669E+07         0.00000E+00
    0.00000E+00         0.00000E+00         0.00000E+00
 
    0.87650E+06         0.19126E+07         0.00000E+00
    0.19126E+07        -0.61610E+07         0.00000E+00
    0.00000E+00         0.00000E+00         0.00000E+00
 
    0.84841E+06         0.19990E+07         0.00000E+00
    0.19990E+07        -0.61548E+07         0.00000E+00
    0.00000E+00         0.00000E+00         0.00000E+00
 
    0.82019E+06         0.20852E+07         0.00000E+00
    0.20852E+07        -0.61484E+07         0.00000E+00
    0.00000E+00         0.00000E+00         0.00000E+00
 
    0.79182E+06         0.21712E+07         0.00000E+00
    0.21712E+07        -0.61415E+07         0.00000E+00
    0.00000E+00         0.00000E+00         0.00000E+00
 
    0.76330E+06         0.22571E+07         0.00000E+00
    0.22571E+07        -0.61344E+07         0.00000E+00
    0.00000E+00         0.00000E+00         0.00000E+00
 
    0.73462E+06         0.23427E+07         0.00000E+00
    0.23427E+07        -0.61269E+07         0.00000E+00
    0.00000E+00         0.00000E+00         0.00000E+00
 
    0.70579E+06         0.24282E+07         0.00000E+00
    0.24282E+07        -0.61192E+07         0.00000E+00
    0.00000E+00         0.00000E+00         0.00000E+00
 
    0.67680E+06         0.25134E+07         0.00000E+00
    0.25134E+07        -0.61110E+07         0.00000E+00
    0.00000E+00         0.00000E+00         0.00000E+00
 
    0.64764E+06         0.25985E+07         0.00000E+00
    0.25985E+07        -0.61026E+07         0.00000E+00
    0.00000E+00         0.00000E+00         0.00000E+00
 
    0.61830E+06         0.26835E+07         0.00000E+00
    0.26835E+07        -0.60937E+07         0.00000E+00
    0.00000E+00         0.00000E+00         0.00000E+00
 
    0.58879E+06         0.27682E+07         0.00000E+00
    0.27682E+07        -0.60846E+07         0.00000E+00
    0.00000E+00         0.00000E+00         0.00000E+00
 
    0.55908E+06         0.28528E+07         0.00000E+00
    0.28528E+07        -0.60750E+07         0.00000E+00
    0.00000E+00         0.00000E+00         0.00000E+00
 
    0.52918E+06         0.29373E+07         0.00000E+00
    0.29373E+07        -0.60651E+07         0.00000E+00
    0.00000E+00         0.00000E+00         0.00000E+00
 
    0.49908E+06         0.30215E+07         0.00000E+00
    0.30215E+07        -0.60549E+07         0.00000E+00
    0.00000E+00         0.00000E+00         0.00000E+00
 
    0.46877E+06         0.31057E+07         0.00000E+00
    0.31057E+07        -0.60442E+07         0.00000E+00
    0.00000E+00         0.00000E+00         0.00000E+00
 
    0.43824E+06         0.31896E+07         0.00000E+00
    0.31896E+07        -0.60332E+07         0.00000E+00
    0.00000E+00         0.00000E+00         0.00000E+00
 
    0.40748E+06         0.32734E+07         0.00000E+00
    0.32734E+07        -0.60217E+07         0.00000E+00
    0.00000E+00         0.00000E+00         0.00000E+00
 
    0.37649E+06         0.33571E+07         0.00000E+00
    0.33571E+07        -0.60099E+07         0.00000E+00
    0.00000E+00         0.00000E+00         0.00000E+00
 
    0.34525E+06         0.34406E+07         0.00000E+00
    0.34406E+07        -0.59977E+07         0.00000E+00
    0.00000E+00         0.00000E+00         0.00000E+00
 
    0.31376E+06         0.35239E+07         0.00000E+00
    0.35239E+07        -0.59850E+07         0.00000E+00
    0.00000E+00         0.00000E+00         0.00000E+00
 
    0.28201E+06         0.36071E+07         0.00000E+00
    0.36071E+07        -0.59719E+07         0.00000E+00
    0.00000E+00         0.00000E+00         0.00000E+00
 
    0.24998E+06         0.36902E+07         0.00000E+00
    0.36902E+07        -0.59584E+07         0.00000E+00
    0.00000E+00         0.00000E+00         0.00000E+00
 
    0.21767E+06         0.37731E+07         0.00000E+00
    0.37731E+07        -0.59445E+07         0.00000E+00
    0.00000E+00         0.00000E+00         0.00000E+00
 
    0.18506E+06         0.38559E+07         0.00000E+00
    0.38559E+07        -0.59301E+07         0.00000E+00
    0.00000E+00         0.00000E+00         0.00000E+00
 
    0.15215E+06         0.39385E+07         0.00000E+00
    0.39385E+07        -0.59152E+07         0.00000E+00
    0.00000E+00         0.00000E+00         0.00000E+00
 
    0.11892E+06         0.40209E+07         0.00000E+00
    0.40209E+07        -0.58999E+07         0.00000E+00
    0.00000E+00         0.00000E+00         0.00000E+00
 
    0.85362E+05         0.41033E+07         0.00000E+00
    0.41033E+07        -0.58840E+07         0.00000E+00
    0.00000E+00         0.00000E+00         0.00000E+00
 
    0.51465E+05         0.41854E+07         0.00000E+00
    0.41854E+07        -0.58677E+07         0.00000E+00
    0.00000E+00         0.00000E+00         0.00000E+00
 
    0.17215E+05         0.42674E+07         0.00000E+00
    0.42674E+07        -0.58510E+07         0.00000E+00
    0.00000E+00         0.00000E+00         0.00000E+00
 
    0.14854E+07         0.46827E+05         0.00000E+00
    0.46827E+05        -0.66381E+07         0.00000E+00
    0.00000E+00         0.00000E+00         0.00000E+00
 
    0.14584E+07         0.13971E+06         0.00000E+00
    0.13971E+06        -0.66379E+07         0.00000E+00
    0.00000E+00         0.00000E+00         0.00000E+00
 
    0.14314E+07         0.23233E+06         0.00000E+00
    0.23233E+06        -0.66373E+07         0.00000E+00
    0.00000E+00         0.00000E+00         0.00000E+00
 
    0.14042E+07         0.32467E+06         0.00000E+00
    0.32467E+06        -0.66365E+07         0.00000E+00
    0.00000E+00         0.00000E+00         0.00000E+00
 
    0.13769E+07         0.41674E+06         0.00000E+00
    0.41674E+06        -0.66355E+07         0.00000E+00
    0.00000E+00         0.00000E+00         0.00000E+00
 
    0.13496E+07         0.50855E+06         0.00000E+00
    0.50855E+06        -0.66341E+07         0.00000E+00
    0.00000E+00         0.00000E+00         0.00000E+00
 
    0.13221E+07         0.60009E+06         0.00000E+00
    0.60009E+06        -0.66325E+07         0.00000E+00
    0.00000E+00         0.00000E+00         0.00000E+00
 
    0.12945E+07         0.69139E+06         0.00000E+00
    0.69139E+06        -0.66306E+07         0.00000E+00
    0.00000E+00         0.00000E+00         0.00000E+00
 
    0.12669E+07         0.78242E+06         0.00000E+00
    0.78242E+06        -0.66285E+07         0.00000E+00
    0.00000E+00         0.00000E+00         0.00000E+00
 
    0.12391E+07         0.87321E+06         0.00000E+00
    0.87321E+06        -0.66261E+07         0.00000E+00
    0.00000E+00         0.00000E+00         0.00000E+00
 
    0.12113E+07         0.96376E+06         0.00000E+00
    0.96376E+06        -0.66234E+07         0.00000E+00
    0.00000E+00         0.00000E+00         0.00000E+00
 
    0.11833E+07         0.10541E+07         0.00000E+00
    0.10541E+07        -0.66204E+07         0.00000E+00
    0.00000E+00         0.00000E+00         0.00000E+00
 
    0.11553E+07         0.11441E+07         0.00000E+00
    0.11441E+07        -0.66171E+07         0.00000E+00
    0.00000E+00         0.00000E+00         0.00000E+00
 
    0.11271E+07         0.12340E+07         0.00000E+00
    0.12340E+07        -0.66136E+07         0.00000E+00
    0.00000E+00         0.00000E+00         0.00000E+00
 
    0.10989E+07         0.13236E+07         0.00000E+00
    0.13236E+07        -0.66098E+07         0.00000E+00
    0.00000E+00         0.00000E+00         0.00000E+00
 
    0.10706E+07         0.14130E+07         0.00000E+00
    0.14130E+07        -0.66056E+07         0.00000E+00
    0.00000E+00         0.00000E+00         0.00000E+00
 
    0.10421E+07         0.15022E+07         0.00000E+00
    0.15022E+07        -0.66012E+07         0.00000E+00
    0.00000E+00         0.00000E+00         0.00000E+00
 
    0.10136E+07         0.15911E+07         0.00000E+00
    0.15911E+07        -0.65966E+07         0.00000E+00
    0.00000E+00         0.00000E+00         0.00000E+00
 
    0.98494E+06         0.16799E+07         0.00000E+00
    0.16799E+07        -0.65916E+07         0.00000E+00
    0.00000E+00         0.00000E+00         0.00000E+00
 
    0.95619E+06         0.17685E+07         0.00000E+00
    0.17685E+07        -0.65863E+07         0.00000E+00
    0.00000E+00         0.00000E+00         0.00000E+00
 
    0.92733E+06         0.18568E+07         0.00000E+00
    0.18568E+07        -0.65807E+07         0.00000E+00
    0.00000E+00         0.00000E+00         0.00000E+00
 
    0.89836E+06         0.19450E+07         0.00000E+00
    0.19450E+07        -0.65748E+07         0.00000E+00
    0.00000E+00         0.00000E+00         0.00000E+00
 
    0.86928E+06         0.20330E+07         0.00000E+00
    0.20330E+07        -0.65686E+07         0.00000E+00
    0.00000E+00         0.00000E+00         0.00000E+00
 
    0.84008E+06         0.21208E+07         0.00000E+00
    0.21208E+07        -0.65621E+07         0.00000E+00
    0.00000E+00         0.00000E+00         0.00000E+00
 
    0.81076E+06         0.22084E+07         0.00000E+00
    0.22084E+07        -0.65552E+07         0.00000E+00
    0.00000E+00         0.00000E+00         0.00000E+00
 
    0.78131E+06         0.22959E+07         0.00000E+00
    0.22959E+07        -0.65481E+07         0.00000E+00
    0.00000E+00         0.00000E+00         0.00000E+00
 
    0.75173E+06         0.23832E+07         0.00000E+00
    0.23832E+07        -0.65406E+07         0.00000E+00
    0.00000E+00         0.00000E+00         0.00000E+00
 
    0.72201E+06         0.24703E+07         0.00000E+00
    0.24703E+07        -0.65327E+07         0.00000E+00
    0.00000E+00         0.00000E+00         0.00000E+00
 
    0.69214E+06         0.25573E+07         0.00000E+00
    0.25573E+07        -0.65246E+07         0.00000E+00
    0.00000E+00         0.00000E+00         0.00000E+00
 
    0.66213E+06         0.26441E+07         0.00000E+00
    0.26441E+07        -0.65161E+07         0.00000E+00
    0.00000E+00         0.00000E+00         0.00000E+00
 
    0.63197E+06         0.27307E+07         0.00000E+00
    0.27307E+07        -0.65072E+07         0.00000E+00
    0.00000E+00         0.00000E+00         0.00000E+00
 
    0.60164E+06         0.28173E+07         0.00000E+00
    0.28173E+07        -0.64980E+07         0.00000E+00
    0.00000E+00         0.00000E+00         0.00000E+00
 
    0.57114E+06         0.29036E+07         0.00000E+00
    0.29036E+07        -0.64884E+07         0.00000E+00
    0.00000E+00         0.00000E+00         0.00000E+00
 
    0.54046E+06         0.29899E+07         0.00000E+00
    0.29899E+07        -0.64784E+07         0.00000E+00
    0.00000E+00         0.00000E+00         0.00000E+00
 
    0.50960E+06         0.30760E+07         0.00000E+00
    0.30760E+07        -0.64681E+07         0.00000E+00
    0.00000E+00         0.00000E+00         0.00000E+00
 
    0.47854E+06         0.31620E+07         0.00000E+00
    0.31620E+07        -0.64573E+07         0.00000E+00
    0.00000E+00         0.00000E+00         0.00000E+00
 
    0.44728E+06         0.32478E+07         0.00000E+00
    0.32478E+07        -0.64462E+07         0.00000E+00
    0.00000E+00         0.00000E+00         0.00000E+00
 
    0.41581E+06         0.33336E+07         0.00000E+00
    0.33336E+07        -0.64347E+07         0.00000E+00
    0.00000E+00         0.00000E+00         0.00000E+00
 
    0.38411E+06         0.34192E+07         0.00000E+00
    0.34192E+07        -0.64227E+07         0.00000E+00
    0.00000E+00         0.00000E+00         0.00000E+00
 
    0.35218E+06         0.35047E+07         0.00000E+00
    0.35047E+07        -0.64103E+07         0.00000E+00
    0.00000E+00         0.00000E+00         0.00000E+00
 
    0.32001E+06         0.35901E+07         0.00000E+00
    0.35901E+07        -0.63975E+07         0.00000E+00
    0.00000E+00         0.00000E+00         0.00000E+00
 
    0.28758E+06         0.36753E+07         0.00000E+00
    0.36753E+07        -0.63843E+07         0.00000E+00
    0.00000E+00         0.00000E+00         0.00000E+00
 
    0.25489E+06         0.37605E+07         0.00000E+00
    0.37605E+07        -0.63706E+07         0.00000E+00
    0.00000E+00         0.00000E+00         0.00000E+00
 
    0.22192E+06         0.38455E+07         0.00000E+00
    0.38455E+07        -0.63565E+07         0.00000E+00
    0.00000E+00         0.00000E+00         0.00000E+00
 
    0.18865E+06         0.39305E+07         0.00000E+00
    0.39305E+07        -0.63419E+07         0.00000E+00
    0.00000E+00         0.00000E+00         0.00000E+00
 
    0.15509E+06         0.40153E+07         0.00000E+00
    0.40153E+07        -0.63268E+07         0.00000E+00
    0.00000E+00         0.00000E+00         0.00000E+00
 
    0.12121E+06         0.41001E+07         0.00000E+00
    0.41001E+07        -0.63112E+07         0.00000E+00
    0.00000E+00         0.00000E+00         0.00000E+00
 
    0.87001E+05         0.41847E+07         0.00000E+00
    0.41847E+07        -0.62952E+07         0.00000E+00
    0.00000E+00         0.00000E+00         0.00000E+00
 
    0.52451E+05         0.42692E+07         0.00000E+00
    0.42692E+07        -0.62786E+07         0.00000E+00
    0.00000E+00         0.00000E+00         0.00000E+00
 
    0.17544E+05         0.43536E+07         0.00000E+00
    0.43536E+07        -0.62615E+07         0.00000E+00
    0.00000E+00         0.00000E+00         0.00000E+00
 
    0.15278E+07         0.47595E+05         0.00000E+00
    0.47595E+05        -0.70647E+07         0.00000E+00
    0.00000E+00         0.00000E+00         0.00000E+00
 
    0.14994E+07         0.14200E+06         0.00000E+00
    0.14200E+06        -0.70644E+07         0.00000E+00
    0.00000E+00         0.00000E+00         0.00000E+00
 
    0.14710E+07         0.23613E+06         0.00000E+00
    0.23613E+06        -0.70639E+07         0.00000E+00
    0.00000E+00         0.00000E+00         0.00000E+00
 
    0.14425E+07         0.32999E+06         0.00000E+00
    0.32999E+06        -0.70631E+07         0.00000E+00
    0.00000E+00         0.00000E+00         0.00000E+00
 
    0.14138E+07         0.42357E+06         0.00000E+00
    0.42357E+06        -0.70620E+07         0.00000E+00
    0.00000E+00         0.00000E+00         0.00000E+00
 
    0.13851E+07         0.51688E+06         0.00000E+00
    0.51688E+06        -0.70607E+07         0.00000E+00
    0.00000E+00         0.00000E+00         0.00000E+00
 
    0.13564E+07         0.60993E+06         0.00000E+00
    0.60993E+06        -0.70590E+07         0.00000E+00
    0.00000E+00         0.00000E+00         0.00000E+00
 
    0.13275E+07         0.70272E+06         0.00000E+00
    0.70272E+06        -0.70572E+07         0.00000E+00
    0.00000E+00         0.00000E+00         0.00000E+00
 
    0.12986E+07         0.79525E+06         0.00000E+00
    0.79525E+06        -0.70550E+07         0.00000E+00
    0.00000E+00         0.00000E+00         0.00000E+00
 
    0.12695E+07         0.88754E+06         0.00000E+00
    0.88754E+06        -0.70526E+07         0.00000E+00
    0.00000E+00         0.00000E+00         0.00000E+00
 
    0.12405E+07         0.97958E+06         0.00000E+00
    0.97958E+06        -0.70499E+07         0.00000E+00
    0.00000E+00         0.00000E+00         0.00000E+00
 
    0.12113E+07         0.10714E+07         0.00000E+00
    0.10714E+07        -0.70469E+07         0.00000E+00
    0.00000E+00         0.00000E+00         0.00000E+00
 
    0.11821E+07         0.11630E+07         0.00000E+00
    0.11630E+07        -0.70437E+07         0.00000E+00
    0.00000E+00         0.00000E+00         0.00000E+00
 
    0.11528E+07         0.12543E+07         0.00000E+00
    0.12543E+07        -0.70401E+07         0.00000E+00
    0.00000E+00         0.00000E+00         0.00000E+00
 
    0.11234E+07         0.13454E+07         0.00000E+00
    0.13454E+07        -0.70363E+07         0.00000E+00
    0.00000E+00         0.00000E+00         0.00000E+00
 
    0.10939E+07         0.14363E+07         0.00000E+00
    0.14363E+07        -0.70322E+07         0.00000E+00
    0.00000E+00         0.00000E+00         0.00000E+00
 
    0.10644E+07         0.15270E+07         0.00000E+00
    0.15270E+07        -0.70278E+07         0.00000E+00
    0.00000E+00         0.00000E+00         0.00000E+00
 
    0.10348E+07         0.16175E+07         0.00000E+00
    0.16175E+07        -0.70232E+07         0.00000E+00
    0.00000E+00         0.00000E+00         0.00000E+00
 
    0.10051E+07         0.17078E+07         0.00000E+00
    0.17078E+07        -0.70182E+07         0.00000E+00
    0.00000E+00         0.00000E+00         0.00000E+00
 
    0.97539E+06         0.17979E+07         0.00000E+00
    0.17979E+07        -0.70129E+07         0.00000E+00
    0.00000E+00         0.00000E+00         0.00000E+00
 
    0.94555E+06         0.18878E+07         0.00000E+00
    0.18878E+07        -0.70074E+07         0.00000E+00
    0.00000E+00         0.00000E+00         0.00000E+00
 
    0.91563E+06         0.19776E+07         0.00000E+00
    0.19776E+07        -0.70015E+07         0.00000E+00
    0.00000E+00         0.00000E+00         0.00000E+00
 
    0.88563E+06         0.20672E+07         0.00000E+00
    0.20672E+07        -0.69953E+07         0.00000E+00
    0.00000E+00         0.00000E+00         0.00000E+00
 
    0.85553E+06         0.21566E+07         0.00000E+00
    0.21566E+07        -0.69888E+07         0.00000E+00
    0.00000E+00         0.00000E+00         0.00000E+00
 
    0.82534E+06         0.22458E+07         0.00000E+00
    0.22458E+07        -0.69820E+07         0.00000E+00
    0.00000E+00         0.00000E+00         0.00000E+00
 
    0.79506E+06         0.23349E+07         0.00000E+00
    0.23349E+07        -0.69749E+07         0.00000E+00
    0.00000E+00         0.00000E+00         0.00000E+00
 
    0.76466E+06         0.24238E+07         0.00000E+00
    0.24238E+07        -0.69674E+07         0.00000E+00
    0.00000E+00         0.00000E+00         0.00000E+00
 
    0.73416E+06         0.25126E+07         0.00000E+00
    0.25126E+07        -0.69596E+07         0.00000E+00
    0.00000E+00         0.00000E+00         0.00000E+00
 
    0.70354E+06         0.26013E+07         0.00000E+00
    0.26013E+07        -0.69515E+07         0.00000E+00
    0.00000E+00         0.00000E+00         0.00000E+00
 
    0.67280E+06         0.26898E+07         0.00000E+00
    0.26898E+07        -0.69430E+07         0.00000E+00
    0.00000E+00         0.00000E+00         0.00000E+00
 
    0.64193E+06         0.27782E+07         0.00000E+00
    0.27782E+07        -0.69341E+07         0.00000E+00
    0.00000E+00         0.00000E+00         0.00000E+00
 
    0.61092E+06         0.28665E+07         0.00000E+00
    0.28665E+07        -0.69249E+07         0.00000E+00
    0.00000E+00         0.00000E+00         0.00000E+00
 
    0.57976E+06         0.29547E+07         0.00000E+00
    0.29547E+07        -0.69154E+07         0.00000E+00
    0.00000E+00         0.00000E+00         0.00000E+00
 
    0.54846E+06         0.30428E+07         0.00000E+00
    0.30428E+07        -0.69054E+07         0.00000E+00
    0.00000E+00         0.00000E+00         0.00000E+00
 
    0.51699E+06         0.31308E+07         0.00000E+00
    0.31308E+07        -0.68951E+07         0.00000E+00
    0.00000E+00         0.00000E+00         0.00000E+00
 
    0.48534E+06         0.32187E+07         0.00000E+00
    0.32187E+07        -0.68844E+07         0.00000E+00
    0.00000E+00         0.00000E+00         0.00000E+00
 
    0.45352E+06         0.33064E+07         0.00000E+00
    0.33064E+07        -0.68732E+07         0.00000E+00
    0.00000E+00         0.00000E+00         0.00000E+00
 
    0.42150E+06         0.33941E+07         0.00000E+00
    0.33941E+07        -0.68617E+07         0.00000E+00
    0.00000E+00         0.00000E+00         0.00000E+00
 
    0.38928E+06         0.34818E+07         0.00000E+00
    0.34818E+07        -0.68497E+07         0.00000E+00
    0.00000E+00         0.00000E+00         0.00000E+00
 
    0.35684E+06         0.35693E+07         0.00000E+00
    0.35693E+07        -0.68373E+07         0.00000E+00
    0.00000E+00         0.00000E+00         0.00000E+00
 
    0.32417E+06         0.36568E+07         0.00000E+00
    0.36568E+07        -0.68245E+07         0.00000E+00
    0.00000E+00         0.00000E+00         0.00000E+00
 
    0.29127E+06         0.37442E+07         0.00000E+00
    0.37442E+07        -0.68112E+07         0.00000E+00
    0.00000E+00         0.00000E+00         0.00000E+00
 
    0.25811E+06         0.38315E+07         0.00000E+00
    0.38315E+07        -0.67975E+07         0.00000E+00
    0.00000E+00         0.00000E+00         0.00000E+00
 
    0.22469E+06         0.39188E+07         0.00000E+00
    0.39188E+07        -0.67833E+07         0.00000E+00
    0.00000E+00         0.00000E+00         0.00000E+00
 
    0.19099E+06         0.40059E+07         0.00000E+00
    0.40059E+07        -0.67686E+07         0.00000E+00
    0.00000E+00         0.00000E+00         0.00000E+00
 
    0.15699E+06         0.40931E+07         0.00000E+00
    0.40931E+07        -0.67534E+07         0.00000E+00
    0.00000E+00         0.00000E+00         0.00000E+00
 
    0.12268E+06         0.41802E+07         0.00000E+00
    0.41802E+07        -0.67377E+07         0.00000E+00
    0.00000E+00         0.00000E+00         0.00000E+00
 
    0.88050E+05         0.42672E+07         0.00000E+00
    0.42672E+07        -0.67215E+07         0.00000E+00
    0.00000E+00         0.00000E+00         0.00000E+00
 
    0.53080E+05         0.43541E+07         0.00000E+00
    0.43541E+07        -0.67047E+07         0.00000E+00
    0.00000E+00         0.00000E+00         0.00000E+00
 
    0.17754E+05         0.44410E+07         0.00000E+00
    0.44410E+07        -0.66874E+07         0.00000E+00
    0.00000E+00         0.00000E+00         0.00000E+00
 
    0.15648E+07         0.48377E+05         0.00000E+00
    0.48377E+05        -0.75043E+07         0.00000E+00
    0.00000E+00         0.00000E+00         0.00000E+00
 
    0.15350E+07         0.14433E+06         0.00000E+00
    0.14433E+06        -0.75040E+07         0.00000E+00
    0.00000E+00         0.00000E+00         0.00000E+00
 
    0.15052E+07         0.23999E+06         0.00000E+00
    0.23999E+06        -0.75035E+07         0.00000E+00
    0.00000E+00         0.00000E+00         0.00000E+00
 
    0.14752E+07         0.33536E+06         0.00000E+00
    0.33536E+06        -0.75027E+07         0.00000E+00
    0.00000E+00         0.00000E+00         0.00000E+00
 
    0.14452E+07         0.43046E+06         0.00000E+00
    0.43046E+06        -0.75016E+07         0.00000E+00
    0.00000E+00         0.00000E+00         0.00000E+00
 
    0.14152E+07         0.52529E+06         0.00000E+00
    0.52529E+06        -0.75003E+07         0.00000E+00
    0.00000E+00         0.00000E+00         0.00000E+00
 
    0.13851E+07         0.61984E+06         0.00000E+00
    0.61984E+06        -0.74987E+07         0.00000E+00
    0.00000E+00         0.00000E+00         0.00000E+00
 
    0.13549E+07         0.71413E+06         0.00000E+00
    0.71413E+06        -0.74968E+07         0.00000E+00
    0.00000E+00         0.00000E+00         0.00000E+00
 
    0.13247E+07         0.80816E+06         0.00000E+00
    0.80816E+06        -0.74947E+07         0.00000E+00
    0.00000E+00         0.00000E+00         0.00000E+00
 
    0.12944E+07         0.90194E+06         0.00000E+00
    0.90194E+06        -0.74922E+07         0.00000E+00
    0.00000E+00         0.00000E+00         0.00000E+00
 
    0.12641E+07         0.99548E+06         0.00000E+00
    0.99548E+06        -0.74896E+07         0.00000E+00
    0.00000E+00         0.00000E+00         0.00000E+00
 
    0.12337E+07         0.10888E+07         0.00000E+00
    0.10888E+07        -0.74866E+07         0.00000E+00
    0.00000E+00         0.00000E+00         0.00000E+00
 
    0.12033E+07         0.11818E+07         0.00000E+00
    0.11818E+07        -0.74834E+07         0.00000E+00
    0.00000E+00         0.00000E+00         0.00000E+00
 
    0.11729E+07         0.12747E+07         0.00000E+00
    0.12747E+07        -0.74799E+07         0.00000E+00
    0.00000E+00         0.00000E+00         0.00000E+00
 
    0.11424E+07         0.13673E+07         0.00000E+00
    0.13673E+07        -0.74761E+07         0.00000E+00
    0.00000E+00         0.00000E+00         0.00000E+00
 
    0.11118E+07         0.14597E+07         0.00000E+00
    0.14597E+07        -0.74721E+07         0.00000E+00
    0.00000E+00         0.00000E+00         0.00000E+00
 
    0.10812E+07         0.15519E+07         0.00000E+00
    0.15519E+07        -0.74677E+07         0.00000E+00
    0.00000E+00         0.00000E+00         0.00000E+00
 
    0.10506E+07         0.16439E+07         0.00000E+00
    0.16439E+07        -0.74631E+07         0.00000E+00
    0.00000E+00         0.00000E+00         0.00000E+00
 
    0.10200E+07         0.17357E+07         0.00000E+00
    0.17357E+07        -0.74582E+07         0.00000E+00
    0.00000E+00         0.00000E+00         0.00000E+00
 
    0.98927E+06         0.18273E+07         0.00000E+00
    0.18273E+07        -0.74530E+07         0.00000E+00
    0.00000E+00         0.00000E+00         0.00000E+00
 
    0.95852E+06         0.19188E+07         0.00000E+00
    0.19188E+07        -0.74475E+07         0.00000E+00
    0.00000E+00         0.00000E+00         0.00000E+00
 
    0.92772E+06         0.20101E+07         0.00000E+00
    0.20101E+07        -0.74417E+07         0.00000E+00
    0.00000E+00         0.00000E+00         0.00000E+00
 
    0.89687E+06         0.21012E+07         0.00000E+00
    0.21012E+07        -0.74356E+07         0.00000E+00
    0.00000E+00         0.00000E+00         0.00000E+00
 
    0.86597E+06         0.21922E+07         0.00000E+00
    0.21922E+07        -0.74292E+07         0.00000E+00
    0.00000E+00         0.00000E+00         0.00000E+00
 
    0.83500E+06         0.22831E+07         0.00000E+00
    0.22831E+07        -0.74225E+07         0.00000E+00
    0.00000E+00         0.00000E+00         0.00000E+00
 
    0.80397E+06         0.23738E+07         0.00000E+00
    0.23738E+07        -0.74155E+07         0.00000E+00
    0.00000E+00         0.00000E+00         0.00000E+00
 
    0.77288E+06         0.24644E+07         0.00000E+00
    0.24644E+07        -0.74081E+07         0.00000E+00
    0.00000E+00         0.00000E+00         0.00000E+00
 
    0.74171E+06         0.25548E+07         0.00000E+00
    0.25548E+07        -0.74004E+07         0.00000E+00
    0.00000E+00         0.00000E+00         0.00000E+00
 
    0.71045E+06         0.26452E+07         0.00000E+00
    0.26452E+07        -0.73924E+07         0.00000E+00
    0.00000E+00         0.00000E+00         0.00000E+00
 
    0.67911E+06         0.27354E+07         0.00000E+00
    0.27354E+07        -0.73840E+07         0.00000E+00
    0.00000E+00         0.00000E+00         0.00000E+00
 
    0.64768E+06         0.28256E+07         0.00000E+00
    0.28256E+07        -0.73753E+07         0.00000E+00
    0.00000E+00         0.00000E+00         0.00000E+00
 
    0.61614E+06         0.29157E+07         0.00000E+00
    0.29157E+07        -0.73662E+07         0.00000E+00
    0.00000E+00         0.00000E+00         0.00000E+00
 
    0.58448E+06         0.30057E+07         0.00000E+00
    0.30057E+07        -0.73568E+07         0.00000E+00
    0.00000E+00         0.00000E+00         0.00000E+00
 
    0.55271E+06         0.30956E+07         0.00000E+00
    0.30956E+07        -0.73469E+07         0.00000E+00
    0.00000E+00         0.00000E+00         0.00000E+00
 
    0.52080E+06         0.31854E+07         0.00000E+00
    0.31854E+07        -0.73367E+07         0.00000E+00
    0.00000E+00         0.00000E+00         0.00000E+00
 
    0.48875E+06         0.32752E+07         0.00000E+00
    0.32752E+07        -0.73261E+07         0.00000E+00
    0.00000E+00         0.00000E+00         0.00000E+00
 
    0.45655E+06         0.33650E+07         0.00000E+00
    0.33650E+07        -0.73151E+07         0.00000E+00
    0.00000E+00         0.00000E+00         0.00000E+00
 
    0.42418E+06         0.34546E+07         0.00000E+00
    0.34546E+07        -0.73036E+07         0.00000E+00
    0.00000E+00         0.00000E+00         0.00000E+00
 
    0.39163E+06         0.35443E+07         0.00000E+00
    0.35443E+07        -0.72918E+07         0.00000E+00
    0.00000E+00         0.00000E+00         0.00000E+00
 
    0.35890E+06         0.36339E+07         0.00000E+00
    0.36339E+07        -0.72795E+07         0.00000E+00
    0.00000E+00         0.00000E+00         0.00000E+00
 
    0.32596E+06         0.37235E+07         0.00000E+00
    0.37235E+07        -0.72667E+07         0.00000E+00
    0.00000E+00         0.00000E+00         0.00000E+00
 
    0.29280E+06         0.38131E+07         0.00000E+00
    0.38131E+07        -0.72535E+07         0.00000E+00
    0.00000E+00         0.00000E+00         0.00000E+00
 
    0.25941E+06         0.39026E+07         0.00000E+00
    0.39026E+07        -0.72399E+07         0.00000E+00
    0.00000E+00         0.00000E+00         0.00000E+00
 
    0.22577E+06         0.39921E+07         0.00000E+00
    0.39921E+07        -0.72257E+07         0.00000E+00
    0.00000E+00         0.00000E+00         0.00000E+00
 
    0.19187E+06         0.40816E+07         0.00000E+00
    0.40816E+07        -0.72110E+07         0.00000E+00
    0.00000E+00         0.00000E+00         0.00000E+00
 
    0.15769E+06         0.41712E+07         0.00000E+00
    0.41712E+07        -0.71959E+07         0.00000E+00
    0.00000E+00         0.00000E+00         0.00000E+00
 
    0.12321E+06         0.42607E+07         0.00000E+00
    0.42607E+07        -0.71802E+07         0.00000E+00
    0.00000E+00         0.00000E+00         0.00000E+00
 
    0.88420E+05         0.43501E+07         0.00000E+00
    0.43501E+07        -0.71640E+07         0.00000E+00
    0.00000E+00         0.00000E+00         0.00000E+00
 
    0.53297E+05         0.44396E+07         0.00000E+00
    0.44396E+07        -0.71472E+07         0.00000E+00
    0.00000E+00         0.00000E+00         0.00000E+00
 
    0.17826E+05         0.45291E+07         0.00000E+00
    0.45291E+07        -0.71299E+07         0.00000E+00
    0.00000E+00         0.00000E+00         0.00000E+00
 
    0.15960E+07         0.49171E+05         0.00000E+00
    0.49171E+05        -0.79575E+07         0.00000E+00
    0.00000E+00         0.00000E+00         0.00000E+00
 
    0.15647E+07         0.14667E+06         0.00000E+00
    0.14667E+06        -0.79572E+07         0.00000E+00
    0.00000E+00         0.00000E+00         0.00000E+00
 
    0.15334E+07         0.24387E+06         0.00000E+00
    0.24387E+06        -0.79567E+07         0.00000E+00
    0.00000E+00         0.00000E+00         0.00000E+00
 
    0.15020E+07         0.34078E+06         0.00000E+00
    0.34078E+06        -0.79559E+07         0.00000E+00
    0.00000E+00         0.00000E+00         0.00000E+00
 
    0.14706E+07         0.43739E+06         0.00000E+00
    0.43739E+06        -0.79548E+07         0.00000E+00
    0.00000E+00         0.00000E+00         0.00000E+00
 
    0.14392E+07         0.53372E+06         0.00000E+00
    0.53372E+06        -0.79535E+07         0.00000E+00
    0.00000E+00         0.00000E+00         0.00000E+00
 
    0.14077E+07         0.62977E+06         0.00000E+00
    0.62977E+06        -0.79519E+07         0.00000E+00
    0.00000E+00         0.00000E+00         0.00000E+00
 
    0.13762E+07         0.72555E+06         0.00000E+00
    0.72555E+06        -0.79500E+07         0.00000E+00
    0.00000E+00         0.00000E+00         0.00000E+00
 
    0.13446E+07         0.82106E+06         0.00000E+00
    0.82106E+06        -0.79479E+07         0.00000E+00
    0.00000E+00         0.00000E+00         0.00000E+00
 
    0.13131E+07         0.91632E+06         0.00000E+00
    0.91632E+06        -0.79456E+07         0.00000E+00
    0.00000E+00         0.00000E+00         0.00000E+00
 
    0.12815E+07         0.10113E+07         0.00000E+00
    0.10113E+07        -0.79429E+07         0.00000E+00
    0.00000E+00         0.00000E+00         0.00000E+00
 
    0.12499E+07         0.11061E+07         0.00000E+00
    0.11061E+07        -0.79400E+07         0.00000E+00
    0.00000E+00         0.00000E+00         0.00000E+00
 
    0.12183E+07         0.12006E+07         0.00000E+00
    0.12006E+07        -0.79369E+07         0.00000E+00
    0.00000E+00         0.00000E+00         0.00000E+00
 
    0.11868E+07         0.12949E+07         0.00000E+00
    0.12949E+07        -0.79335E+07         0.00000E+00
    0.00000E+00         0.00000E+00         0.00000E+00
 
    0.11552E+07         0.13890E+07         0.00000E+00
    0.13890E+07        -0.79298E+07         0.00000E+00
    0.00000E+00         0.00000E+00         0.00000E+00
 
    0.11236E+07         0.14829E+07         0.00000E+00
    0.14829E+07        -0.79258E+07         0.00000E+00
    0.00000E+00         0.00000E+00         0.00000E+00
 
    0.10920E+07         0.15765E+07         0.00000E+00
    0.15765E+07        -0.79216E+07         0.00000E+00
    0.00000E+00         0.00000E+00         0.00000E+00
 
    0.10604E+07         0.16700E+07         0.00000E+00
    0.16700E+07        -0.79170E+07         0.00000E+00
    0.00000E+00         0.00000E+00         0.00000E+00
 
    0.10288E+07         0.17633E+07         0.00000E+00
    0.17633E+07        -0.79123E+07         0.00000E+00
    0.00000E+00         0.00000E+00         0.00000E+00
 
    0.99717E+06         0.18564E+07         0.00000E+00
    0.18564E+07        -0.79072E+07         0.00000E+00
    0.00000E+00         0.00000E+00         0.00000E+00
 
    0.96557E+06         0.19494E+07         0.00000E+00
    0.19494E+07        -0.79018E+07         0.00000E+00
    0.00000E+00         0.00000E+00         0.00000E+00
 
    0.93397E+06         0.20422E+07         0.00000E+00
    0.20422E+07        -0.78962E+07         0.00000E+00
    0.00000E+00         0.00000E+00         0.00000E+00
 
    0.90235E+06         0.21349E+07         0.00000E+00
    0.21349E+07        -0.78903E+07         0.00000E+00
    0.00000E+00         0.00000E+00         0.00000E+00
 
    0.87073E+06         0.22274E+07         0.00000E+00
    0.22274E+07        -0.78840E+07         0.00000E+00
    0.00000E+00         0.00000E+00         0.00000E+00
 
    0.83909E+06         0.23198E+07         0.00000E+00
    0.23198E+07        -0.78775E+07         0.00000E+00
    0.00000E+00         0.00000E+00         0.00000E+00
 
    0.80743E+06         0.24121E+07         0.00000E+00
    0.24121E+07        -0.78706E+07         0.00000E+00
    0.00000E+00         0.00000E+00         0.00000E+00
 
    0.77575E+06         0.25043E+07         0.00000E+00
    0.25043E+07        -0.78634E+07         0.00000E+00
    0.00000E+00         0.00000E+00         0.00000E+00
 
    0.74404E+06         0.25964E+07         0.00000E+00
    0.25964E+07        -0.78560E+07         0.00000E+00
    0.00000E+00         0.00000E+00         0.00000E+00
 
    0.71229E+06         0.26885E+07         0.00000E+00
    0.26885E+07        -0.78481E+07         0.00000E+00
    0.00000E+00         0.00000E+00         0.00000E+00
 
    0.68049E+06         0.27804E+07         0.00000E+00
    0.27804E+07        -0.78400E+07         0.00000E+00
    0.00000E+00         0.00000E+00         0.00000E+00
 
    0.64864E+06         0.28723E+07         0.00000E+00
    0.28723E+07        -0.78315E+07         0.00000E+00
    0.00000E+00         0.00000E+00         0.00000E+00
 
    0.61674E+06         0.29641E+07         0.00000E+00
    0.29641E+07        -0.78226E+07         0.00000E+00
    0.00000E+00         0.00000E+00         0.00000E+00
 
    0.58476E+06         0.30559E+07         0.00000E+00
    0.30559E+07        -0.78134E+07         0.00000E+00
    0.00000E+00         0.00000E+00         0.00000E+00
 
    0.55270E+06         0.31476E+07         0.00000E+00
    0.31476E+07        -0.78038E+07         0.00000E+00
    0.00000E+00         0.00000E+00         0.00000E+00
 
    0.52055E+06         0.32394E+07         0.00000E+00
    0.32394E+07        -0.77938E+07         0.00000E+00
    0.00000E+00         0.00000E+00         0.00000E+00
 
    0.48829E+06         0.33311E+07         0.00000E+00
    0.33311E+07        -0.77834E+07         0.00000E+00
    0.00000E+00         0.00000E+00         0.00000E+00
 
    0.45592E+06         0.34228E+07         0.00000E+00
    0.34228E+07        -0.77726E+07         0.00000E+00
    0.00000E+00         0.00000E+00         0.00000E+00
 
    0.42342E+06         0.35144E+07         0.00000E+00
    0.35144E+07        -0.77614E+07         0.00000E+00
    0.00000E+00         0.00000E+00         0.00000E+00
 
    0.39078E+06         0.36061E+07         0.00000E+00
    0.36061E+07        -0.77498E+07         0.00000E+00
    0.00000E+00         0.00000E+00         0.00000E+00
 
    0.35798E+06         0.36979E+07         0.00000E+00
    0.36979E+07        -0.77377E+07         0.00000E+00
    0.00000E+00         0.00000E+00         0.00000E+00
 
    0.32501E+06         0.37896E+07         0.00000E+00
    0.37896E+07        -0.77252E+07         0.00000E+00
    0.00000E+00         0.00000E+00         0.00000E+00
 
    0.29186E+06         0.38814E+07         0.00000E+00
    0.38814E+07        -0.77122E+07         0.00000E+00
    0.00000E+00         0.00000E+00         0.00000E+00
 
    0.25850E+06         0.39731E+07         0.00000E+00
    0.39731E+07        -0.76987E+07         0.00000E+00
    0.00000E+00         0.00000E+00         0.00000E+00
 
    0.22491E+06         0.40650E+07         0.00000E+00
    0.40650E+07        -0.76848E+07         0.00000E+00
    0.00000E+00         0.00000E+00         0.00000E+00
 
    0.19109E+06         0.41569E+07         0.00000E+00
    0.41569E+07        -0.76703E+07         0.00000E+00
    0.00000E+00         0.00000E+00         0.00000E+00
 
    0.15701E+06         0.42488E+07         0.00000E+00
    0.42488E+07        -0.76553E+07         0.00000E+00
    0.00000E+00         0.00000E+00         0.00000E+00
 
    0.12266E+06         0.43408E+07         0.00000E+00
    0.43408E+07        -0.76398E+07         0.00000E+00
    0.00000E+00         0.00000E+00         0.00000E+00
 
    0.88009E+05         0.44328E+07         0.00000E+00
    0.44328E+07        -0.76237E+07         0.00000E+00
    0.00000E+00         0.00000E+00         0.00000E+00
 
    0.53043E+05         0.45250E+07         0.00000E+00
    0.45250E+07        -0.76071E+07         0.00000E+00
    0.00000E+00         0.00000E+00         0.00000E+00
 
    0.17739E+05         0.46171E+07         0.00000E+00
    0.46171E+07        -0.75899E+07         0.00000E+00
    0.00000E+00         0.00000E+00         0.00000E+00
 
    0.16209E+07         0.49975E+05         0.00000E+00
    0.49975E+05        -0.84248E+07         0.00000E+00
    0.00000E+00         0.00000E+00         0.00000E+00
 
    0.15881E+07         0.14903E+06         0.00000E+00
    0.14903E+06        -0.84245E+07         0.00000E+00
    0.00000E+00         0.00000E+00         0.00000E+00
 
    0.15552E+07         0.24777E+06         0.00000E+00
    0.24777E+06        -0.84240E+07         0.00000E+00
    0.00000E+00         0.00000E+00         0.00000E+00
 
    0.15223E+07         0.34619E+06         0.00000E+00
    0.34619E+06        -0.84232E+07         0.00000E+00
    0.00000E+00         0.00000E+00         0.00000E+00
 
    0.14894E+07         0.44431E+06         0.00000E+00
    0.44431E+06        -0.84221E+07         0.00000E+00
    0.00000E+00         0.00000E+00         0.00000E+00
 
    0.14565E+07         0.54213E+06         0.00000E+00
    0.54213E+06        -0.84208E+07         0.00000E+00
    0.00000E+00         0.00000E+00         0.00000E+00
 
    0.14236E+07         0.63965E+06         0.00000E+00
    0.63965E+06        -0.84193E+07         0.00000E+00
    0.00000E+00         0.00000E+00         0.00000E+00
 
    0.13907E+07         0.73689E+06         0.00000E+00
    0.73689E+06        -0.84175E+07         0.00000E+00
    0.00000E+00         0.00000E+00         0.00000E+00
 
    0.13578E+07         0.83385E+06         0.00000E+00
    0.83385E+06        -0.84154E+07         0.00000E+00
    0.00000E+00         0.00000E+00         0.00000E+00
 
    0.13249E+07         0.93054E+06         0.00000E+00
    0.93054E+06        -0.84131E+07         0.00000E+00
    0.00000E+00         0.00000E+00         0.00000E+00
 
    0.12921E+07         0.10270E+07         0.00000E+00
    0.10270E+07        -0.84106E+07         0.00000E+00
    0.00000E+00         0.00000E+00         0.00000E+00
 
    0.12593E+07         0.11232E+07         0.00000E+00
    0.11232E+07        -0.84077E+07         0.00000E+00
    0.00000E+00         0.00000E+00         0.00000E+00
 
    0.12265E+07         0.12191E+07         0.00000E+00
    0.12191E+07        -0.84047E+07         0.00000E+00
    0.00000E+00         0.00000E+00         0.00000E+00
 
    0.11938E+07         0.13148E+07         0.00000E+00
    0.13148E+07        -0.84014E+07         0.00000E+00
    0.00000E+00         0.00000E+00         0.00000E+00
 
    0.11611E+07         0.14103E+07         0.00000E+00
    0.14103E+07        -0.83978E+07         0.00000E+00
    0.00000E+00         0.00000E+00         0.00000E+00
 
    0.11284E+07         0.15056E+07         0.00000E+00
    0.15056E+07        -0.83940E+07         0.00000E+00
    0.00000E+00         0.00000E+00         0.00000E+00
 
    0.10958E+07         0.16007E+07         0.00000E+00
    0.16007E+07        -0.83899E+07         0.00000E+00
    0.00000E+00         0.00000E+00         0.00000E+00
 
    0.10633E+07         0.16956E+07         0.00000E+00
    0.16956E+07        -0.83855E+07         0.00000E+00
    0.00000E+00         0.00000E+00         0.00000E+00
 
    0.10308E+07         0.17903E+07         0.00000E+00
    0.17903E+07        -0.83809E+07         0.00000E+00
    0.00000E+00         0.00000E+00         0.00000E+00
 
    0.99836E+06         0.18849E+07         0.00000E+00
    0.18849E+07        -0.83761E+07         0.00000E+00
    0.00000E+00         0.00000E+00         0.00000E+00
 
    0.96597E+06         0.19793E+07         0.00000E+00
    0.19793E+07        -0.83709E+07         0.00000E+00
    0.00000E+00         0.00000E+00         0.00000E+00
 
    0.93363E+06         0.20736E+07         0.00000E+00
    0.20736E+07        -0.83655E+07         0.00000E+00
    0.00000E+00         0.00000E+00         0.00000E+00
 
    0.90134E+06         0.21677E+07         0.00000E+00
    0.21677E+07        -0.83598E+07         0.00000E+00
    0.00000E+00         0.00000E+00         0.00000E+00
 
    0.86909E+06         0.22617E+07         0.00000E+00
    0.22617E+07        -0.83538E+07         0.00000E+00
    0.00000E+00         0.00000E+00         0.00000E+00
 
    0.83689E+06         0.23557E+07         0.00000E+00
    0.23557E+07        -0.83475E+07         0.00000E+00
    0.00000E+00         0.00000E+00         0.00000E+00
 
    0.80471E+06         0.24495E+07         0.00000E+00
    0.24495E+07        -0.83409E+07         0.00000E+00
    0.00000E+00         0.00000E+00         0.00000E+00
 
    0.77257E+06         0.25432E+07         0.00000E+00
    0.25432E+07        -0.83341E+07         0.00000E+00
    0.00000E+00         0.00000E+00         0.00000E+00
 
    0.74046E+06         0.26369E+07         0.00000E+00
    0.26369E+07        -0.83269E+07         0.00000E+00
    0.00000E+00         0.00000E+00         0.00000E+00
 
    0.70836E+06         0.27306E+07         0.00000E+00
    0.27306E+07        -0.83194E+07         0.00000E+00
    0.00000E+00         0.00000E+00         0.00000E+00
 
    0.67627E+06         0.28242E+07         0.00000E+00
    0.28242E+07        -0.83115E+07         0.00000E+00
    0.00000E+00         0.00000E+00         0.00000E+00
 
    0.64419E+06         0.29177E+07         0.00000E+00
    0.29177E+07        -0.83033E+07         0.00000E+00
    0.00000E+00         0.00000E+00         0.00000E+00
 
    0.61209E+06         0.30113E+07         0.00000E+00
    0.30113E+07        -0.82948E+07         0.00000E+00
    0.00000E+00         0.00000E+00         0.00000E+00
 
    0.57998E+06         0.31048E+07         0.00000E+00
    0.31048E+07        -0.82859E+07         0.00000E+00
    0.00000E+00         0.00000E+00         0.00000E+00
 
    0.54784E+06         0.31984E+07         0.00000E+00
    0.31984E+07        -0.82767E+07         0.00000E+00
    0.00000E+00         0.00000E+00         0.00000E+00
 
    0.51566E+06         0.32919E+07         0.00000E+00
    0.32919E+07        -0.82671E+07         0.00000E+00
    0.00000E+00         0.00000E+00         0.00000E+00
 
    0.48343E+06         0.33855E+07         0.00000E+00
    0.33855E+07        -0.82571E+07         0.00000E+00
    0.00000E+00         0.00000E+00         0.00000E+00
 
    0.45113E+06         0.34792E+07         0.00000E+00
    0.34792E+07        -0.82467E+07         0.00000E+00
    0.00000E+00         0.00000E+00         0.00000E+00
 
    0.41875E+06         0.35729E+07         0.00000E+00
    0.35729E+07        -0.82358E+07         0.00000E+00
    0.00000E+00         0.00000E+00         0.00000E+00
 
    0.38627E+06         0.36666E+07         0.00000E+00
    0.36666E+07        -0.82246E+07         0.00000E+00
    0.00000E+00         0.00000E+00         0.00000E+00
 
    0.35368E+06         0.37604E+07         0.00000E+00
    0.37604E+07        -0.82129E+07         0.00000E+00
    0.00000E+00         0.00000E+00         0.00000E+00
 
    0.32096E+06         0.38543E+07         0.00000E+00
    0.38543E+07        -0.82008E+07         0.00000E+00
    0.00000E+00         0.00000E+00         0.00000E+00
 
    0.28809E+06         0.39483E+07         0.00000E+00
    0.39483E+07        -0.81882E+07         0.00000E+00
    0.00000E+00         0.00000E+00         0.00000E+00
 
    0.25506E+06         0.40423E+07         0.00000E+00
    0.40423E+07        -0.81751E+07         0.00000E+00
    0.00000E+00         0.00000E+00         0.00000E+00
 
    0.22184E+06         0.41365E+07         0.00000E+00
    0.41365E+07        -0.81615E+07         0.00000E+00
    0.00000E+00         0.00000E+00         0.00000E+00
 
    0.18842E+06         0.42308E+07         0.00000E+00
    0.42308E+07        -0.81474E+07         0.00000E+00
    0.00000E+00         0.00000E+00         0.00000E+00
 
    0.15477E+06         0.43252E+07         0.00000E+00
    0.43252E+07        -0.81327E+07         0.00000E+00
    0.00000E+00         0.00000E+00         0.00000E+00
 
    0.12087E+06         0.44198E+07         0.00000E+00
    0.44198E+07        -0.81176E+07         0.00000E+00
    0.00000E+00         0.00000E+00         0.00000E+00
 
    0.86705E+05         0.45144E+07         0.00000E+00
    0.45144E+07        -0.81018E+07         0.00000E+00
    0.00000E+00         0.00000E+00         0.00000E+00
 
    0.52246E+05         0.46093E+07         0.00000E+00
    0.46093E+07        -0.80855E+07         0.00000E+00
    0.00000E+00         0.00000E+00         0.00000E+00
 
    0.17470E+05         0.47042E+07         0.00000E+00
    0.47042E+07        -0.80686E+07         0.00000E+00
    0.00000E+00         0.00000E+00         0.00000E+00
 
    0.16390E+07         0.50785E+05         0.00000E+00
    0.50785E+05        -0.89067E+07         0.00000E+00
    0.00000E+00         0.00000E+00         0.00000E+00
 
    0.16045E+07         0.15139E+06         0.00000E+00
    0.15139E+06        -0.89064E+07         0.00000E+00
    0.00000E+00         0.00000E+00         0.00000E+00
 
    0.15700E+07         0.25165E+06         0.00000E+00
    0.25165E+06        -0.89059E+07         0.00000E+00
    0.00000E+00         0.00000E+00         0.00000E+00
 
    0.15355E+07         0.35156E+06         0.00000E+00
    0.35156E+06        -0.89051E+07         0.00000E+00
    0.00000E+00         0.00000E+00         0.00000E+00
 
    0.15010E+07         0.45115E+06         0.00000E+00
    0.45115E+06        -0.89041E+07         0.00000E+00
    0.00000E+00         0.00000E+00         0.00000E+00
 
    0.14665E+07         0.55042E+06         0.00000E+00
    0.55042E+06        -0.89028E+07         0.00000E+00
    0.00000E+00         0.00000E+00         0.00000E+00
 
    0.14321E+07         0.64937E+06         0.00000E+00
    0.64937E+06        -0.89013E+07         0.00000E+00
    0.00000E+00         0.00000E+00         0.00000E+00
 
    0.13978E+07         0.74802E+06         0.00000E+00
    0.74802E+06        -0.88996E+07         0.00000E+00
    0.00000E+00         0.00000E+00         0.00000E+00
 
    0.13634E+07         0.84638E+06         0.00000E+00
    0.84638E+06        -0.88976E+07         0.00000E+00
    0.00000E+00         0.00000E+00         0.00000E+00
 
    0.13292E+07         0.94445E+06         0.00000E+00
    0.94445E+06        -0.88954E+07         0.00000E+00
    0.00000E+00         0.00000E+00         0.00000E+00
 
    0.12950E+07         0.10422E+07         0.00000E+00
    0.10422E+07        -0.88930E+07         0.00000E+00
    0.00000E+00         0.00000E+00         0.00000E+00
 
    0.12610E+07         0.11398E+07         0.00000E+00
    0.11398E+07        -0.88903E+07         0.00000E+00
    0.00000E+00         0.00000E+00         0.00000E+00
 
    0.12270E+07         0.12371E+07         0.00000E+00
    0.12371E+07        -0.88874E+07         0.00000E+00
    0.00000E+00         0.00000E+00         0.00000E+00
 
    0.11931E+07         0.13341E+07         0.00000E+00
    0.13341E+07        -0.88842E+07         0.00000E+00
    0.00000E+00         0.00000E+00         0.00000E+00
 
    0.11593E+07         0.14310E+07         0.00000E+00
    0.14310E+07        -0.88808E+07         0.00000E+00
    0.00000E+00         0.00000E+00         0.00000E+00
 
    0.11256E+07         0.15276E+07         0.00000E+00
    0.15276E+07        -0.88772E+07         0.00000E+00
    0.00000E+00         0.00000E+00         0.00000E+00
 
    0.10920E+07         0.16240E+07         0.00000E+00
    0.16240E+07        -0.88733E+07         0.00000E+00
    0.00000E+00         0.00000E+00         0.00000E+00
 
    0.10586E+07         0.17202E+07         0.00000E+00
    0.17202E+07        -0.88692E+07         0.00000E+00
    0.00000E+00         0.00000E+00         0.00000E+00
 
    0.10252E+07         0.18163E+07         0.00000E+00
    0.18163E+07        -0.88649E+07         0.00000E+00
    0.00000E+00         0.00000E+00         0.00000E+00
 
    0.99201E+06         0.19122E+07         0.00000E+00
    0.19122E+07        -0.88603E+07         0.00000E+00
    0.00000E+00         0.00000E+00         0.00000E+00
 
    0.95890E+06         0.20080E+07         0.00000E+00
    0.20080E+07        -0.88554E+07         0.00000E+00
    0.00000E+00         0.00000E+00         0.00000E+00
 
    0.92590E+06         0.21037E+07         0.00000E+00
    0.21037E+07        -0.88503E+07         0.00000E+00
    0.00000E+00         0.00000E+00         0.00000E+00
 
    0.89302E+06         0.21992E+07         0.00000E+00
    0.21992E+07        -0.88449E+07         0.00000E+00
    0.00000E+00         0.00000E+00         0.00000E+00
 
    0.86025E+06         0.22946E+07         0.00000E+00
    0.22946E+07        -0.88393E+07         0.00000E+00
    0.00000E+00         0.00000E+00         0.00000E+00
 
    0.82759E+06         0.23900E+07         0.00000E+00
    0.23900E+07        -0.88334E+07         0.00000E+00
    0.00000E+00         0.00000E+00         0.00000E+00
 
    0.79503E+06         0.24853E+07         0.00000E+00
    0.24853E+07        -0.88272E+07         0.00000E+00
    0.00000E+00         0.00000E+00         0.00000E+00
 
    0.76257E+06         0.25805E+07         0.00000E+00
    0.25805E+07        -0.88208E+07         0.00000E+00
    0.00000E+00         0.00000E+00         0.00000E+00
 
    0.73020E+06         0.26757E+07         0.00000E+00
    0.26757E+07        -0.88140E+07         0.00000E+00
    0.00000E+00         0.00000E+00         0.00000E+00
 
    0.69792E+06         0.27709E+07         0.00000E+00
    0.27709E+07        -0.88069E+07         0.00000E+00
    0.00000E+00         0.00000E+00         0.00000E+00
 
    0.66572E+06         0.28661E+07         0.00000E+00
    0.28661E+07        -0.87995E+07         0.00000E+00
    0.00000E+00         0.00000E+00         0.00000E+00
 
    0.63359E+06         0.29613E+07         0.00000E+00
    0.29613E+07        -0.87918E+07         0.00000E+00
    0.00000E+00         0.00000E+00         0.00000E+00
 
    0.60151E+06         0.30565E+07         0.00000E+00
    0.30565E+07        -0.87838E+07         0.00000E+00
    0.00000E+00         0.00000E+00         0.00000E+00
 
    0.56949E+06         0.31518E+07         0.00000E+00
    0.31518E+07        -0.87754E+07         0.00000E+00
    0.00000E+00         0.00000E+00         0.00000E+00
 
    0.53749E+06         0.32470E+07         0.00000E+00
    0.32470E+07        -0.87667E+07         0.00000E+00
    0.00000E+00         0.00000E+00         0.00000E+00
 
    0.50553E+06         0.33424E+07         0.00000E+00
    0.33424E+07        -0.87576E+07         0.00000E+00
    0.00000E+00         0.00000E+00         0.00000E+00
 
    0.47357E+06         0.34379E+07         0.00000E+00
    0.34379E+07        -0.87481E+07         0.00000E+00
    0.00000E+00         0.00000E+00         0.00000E+00
 
    0.44160E+06         0.35334E+07         0.00000E+00
    0.35334E+07        -0.87383E+07         0.00000E+00
    0.00000E+00         0.00000E+00         0.00000E+00
 
    0.40961E+06         0.36290E+07         0.00000E+00
    0.36290E+07        -0.87280E+07         0.00000E+00
    0.00000E+00         0.00000E+00         0.00000E+00
 
    0.37759E+06         0.37248E+07         0.00000E+00
    0.37248E+07        -0.87173E+07         0.00000E+00
    0.00000E+00         0.00000E+00         0.00000E+00
 
    0.34551E+06         0.38207E+07         0.00000E+00
    0.38207E+07        -0.87062E+07         0.00000E+00
    0.00000E+00         0.00000E+00         0.00000E+00
 
    0.31335E+06         0.39167E+07         0.00000E+00
    0.39167E+07        -0.86946E+07         0.00000E+00
    0.00000E+00         0.00000E+00         0.00000E+00
 
    0.28110E+06         0.40129E+07         0.00000E+00
    0.40129E+07        -0.86826E+07         0.00000E+00
    0.00000E+00         0.00000E+00         0.00000E+00
 
    0.24873E+06         0.41093E+07         0.00000E+00
    0.41093E+07        -0.86700E+07         0.00000E+00
    0.00000E+00         0.00000E+00         0.00000E+00
 
    0.21623E+06         0.42058E+07         0.00000E+00
    0.42058E+07        -0.86570E+07         0.00000E+00
    0.00000E+00         0.00000E+00         0.00000E+00
 
    0.18357E+06         0.43025E+07         0.00000E+00
    0.43025E+07        -0.86435E+07         0.00000E+00
    0.00000E+00         0.00000E+00         0.00000E+00
 
    0.15072E+06         0.43995E+07         0.00000E+00
    0.43995E+07        -0.86294E+07         0.00000E+00
    0.00000E+00         0.00000E+00         0.00000E+00
 
    0.11766E+06         0.44966E+07         0.00000E+00
    0.44966E+07        -0.86148E+07         0.00000E+00
    0.00000E+00         0.00000E+00         0.00000E+00
 
    0.84376E+05         0.45940E+07         0.00000E+00
    0.45940E+07        -0.85995E+07         0.00000E+00
    0.00000E+00         0.00000E+00         0.00000E+00
 
    0.50828E+05         0.46915E+07         0.00000E+00
    0.46915E+07        -0.85837E+07         0.00000E+00
    0.00000E+00         0.00000E+00         0.00000E+00
 
    0.16993E+05         0.47893E+07         0.00000E+00
    0.47893E+07        -0.85673E+07         0.00000E+00
    0.00000E+00         0.00000E+00         0.00000E+00
 
    0.16498E+07         0.51597E+05         0.00000E+00
    0.51597E+05        -0.94037E+07         0.00000E+00
    0.00000E+00         0.00000E+00         0.00000E+00
 
    0.16135E+07         0.15372E+06         0.00000E+00
    0.15372E+06        -0.94034E+07         0.00000E+00
    0.00000E+00         0.00000E+00         0.00000E+00
 
    0.15771E+07         0.25546E+06         0.00000E+00
    0.25546E+06        -0.94029E+07         0.00000E+00
    0.00000E+00         0.00000E+00         0.00000E+00
 
    0.15409E+07         0.35683E+06         0.00000E+00
    0.35683E+06        -0.94022E+07         0.00000E+00
    0.00000E+00         0.00000E+00         0.00000E+00
 
    0.15047E+07         0.45784E+06         0.00000E+00
    0.45784E+06        -0.94012E+07         0.00000E+00
    0.00000E+00         0.00000E+00         0.00000E+00
 
    0.14686E+07         0.55849E+06         0.00000E+00
    0.55849E+06        -0.94000E+07         0.00000E+00
    0.00000E+00         0.00000E+00         0.00000E+00
 
    0.14325E+07         0.65881E+06         0.00000E+00
    0.65881E+06        -0.93986E+07         0.00000E+00
    0.00000E+00         0.00000E+00         0.00000E+00
 
    0.13966E+07         0.75879E+06         0.00000E+00
    0.75879E+06        -0.93969E+07         0.00000E+00
    0.00000E+00         0.00000E+00         0.00000E+00
 
    0.13608E+07         0.85846E+06         0.00000E+00
    0.85846E+06        -0.93951E+07         0.00000E+00
    0.00000E+00         0.00000E+00         0.00000E+00
 
    0.13251E+07         0.95782E+06         0.00000E+00
    0.95782E+06        -0.93930E+07         0.00000E+00
    0.00000E+00         0.00000E+00         0.00000E+00
 
    0.12895E+07         0.10569E+07         0.00000E+00
    0.10569E+07        -0.93907E+07         0.00000E+00
    0.00000E+00         0.00000E+00         0.00000E+00
 
    0.12541E+07         0.11557E+07         0.00000E+00
    0.11557E+07        -0.93882E+07         0.00000E+00
    0.00000E+00         0.00000E+00         0.00000E+00
 
    0.12189E+07         0.12542E+07         0.00000E+00
    0.12542E+07        -0.93855E+07         0.00000E+00
    0.00000E+00         0.00000E+00         0.00000E+00
 
    0.11838E+07         0.13525E+07         0.00000E+00
    0.13525E+07        -0.93825E+07         0.00000E+00
    0.00000E+00         0.00000E+00         0.00000E+00
 
    0.11489E+07         0.14506E+07         0.00000E+00
    0.14506E+07        -0.93794E+07         0.00000E+00
    0.00000E+00         0.00000E+00         0.00000E+00
 
    0.11142E+07         0.15484E+07         0.00000E+00
    0.15484E+07        -0.93761E+07         0.00000E+00
    0.00000E+00         0.00000E+00         0.00000E+00
 
    0.10796E+07         0.16461E+07         0.00000E+00
    0.16461E+07        -0.93725E+07         0.00000E+00
    0.00000E+00         0.00000E+00         0.00000E+00
 
    0.10453E+07         0.17435E+07         0.00000E+00
    0.17435E+07        -0.93687E+07         0.00000E+00
    0.00000E+00         0.00000E+00         0.00000E+00
 
    0.10111E+07         0.18409E+07         0.00000E+00
    0.18409E+07        -0.93647E+07         0.00000E+00
    0.00000E+00         0.00000E+00         0.00000E+00
 
    0.97718E+06         0.19380E+07         0.00000E+00
    0.19380E+07        -0.93605E+07         0.00000E+00
    0.00000E+00         0.00000E+00         0.00000E+00
 
    0.94341E+06         0.20350E+07         0.00000E+00
    0.20350E+07        -0.93561E+07         0.00000E+00
    0.00000E+00         0.00000E+00         0.00000E+00
 
    0.90984E+06         0.21320E+07         0.00000E+00
    0.21320E+07        -0.93514E+07         0.00000E+00
    0.00000E+00         0.00000E+00         0.00000E+00
 
    0.87647E+06         0.22288E+07         0.00000E+00
    0.22288E+07        -0.93465E+07         0.00000E+00
    0.00000E+00         0.00000E+00         0.00000E+00
 
    0.84328E+06         0.23255E+07         0.00000E+00
    0.23255E+07        -0.93413E+07         0.00000E+00
    0.00000E+00         0.00000E+00         0.00000E+00
 
    0.81029E+06         0.24222E+07         0.00000E+00
    0.24222E+07        -0.93359E+07         0.00000E+00
    0.00000E+00         0.00000E+00         0.00000E+00
 
    0.77749E+06         0.25189E+07         0.00000E+00
    0.25189E+07        -0.93303E+07         0.00000E+00
    0.00000E+00         0.00000E+00         0.00000E+00
 
    0.74486E+06         0.26155E+07         0.00000E+00
    0.26155E+07        -0.93244E+07         0.00000E+00
    0.00000E+00         0.00000E+00         0.00000E+00
 
    0.71242E+06         0.27121E+07         0.00000E+00
    0.27121E+07        -0.93182E+07         0.00000E+00
    0.00000E+00         0.00000E+00         0.00000E+00
 
    0.68014E+06         0.28088E+07         0.00000E+00
    0.28088E+07        -0.93117E+07         0.00000E+00
    0.00000E+00         0.00000E+00         0.00000E+00
 
    0.64801E+06         0.29054E+07         0.00000E+00
    0.29054E+07        -0.93049E+07         0.00000E+00
    0.00000E+00         0.00000E+00         0.00000E+00
 
    0.61604E+06         0.30022E+07         0.00000E+00
    0.30022E+07        -0.92979E+07         0.00000E+00
    0.00000E+00         0.00000E+00         0.00000E+00
 
    0.58421E+06         0.30989E+07         0.00000E+00
    0.30989E+07        -0.92905E+07         0.00000E+00
    0.00000E+00         0.00000E+00         0.00000E+00
 
    0.55251E+06         0.31958E+07         0.00000E+00
    0.31958E+07        -0.92828E+07         0.00000E+00
    0.00000E+00         0.00000E+00         0.00000E+00
 
    0.52092E+06         0.32928E+07         0.00000E+00
    0.32928E+07        -0.92748E+07         0.00000E+00
    0.00000E+00         0.00000E+00         0.00000E+00
 
    0.48943E+06         0.33899E+07         0.00000E+00
    0.33899E+07        -0.92664E+07         0.00000E+00
    0.00000E+00         0.00000E+00         0.00000E+00
 
    0.45803E+06         0.34871E+07         0.00000E+00
    0.34871E+07        -0.92576E+07         0.00000E+00
    0.00000E+00         0.00000E+00         0.00000E+00
 
    0.42670E+06         0.35845E+07         0.00000E+00
    0.35845E+07        -0.92485E+07         0.00000E+00
    0.00000E+00         0.00000E+00         0.00000E+00
 
    0.39542E+06         0.36821E+07         0.00000E+00
    0.36821E+07        -0.92390E+07         0.00000E+00
    0.00000E+00         0.00000E+00         0.00000E+00
 
    0.36418E+06         0.37798E+07         0.00000E+00
    0.37798E+07        -0.92290E+07         0.00000E+00
    0.00000E+00         0.00000E+00         0.00000E+00
 
    0.33295E+06         0.38777E+07         0.00000E+00
    0.38777E+07        -0.92187E+07         0.00000E+00
    0.00000E+00         0.00000E+00         0.00000E+00
 
    0.30171E+06         0.39759E+07         0.00000E+00
    0.39759E+07        -0.92079E+07         0.00000E+00
    0.00000E+00         0.00000E+00         0.00000E+00
 
    0.27044E+06         0.40743E+07         0.00000E+00
    0.40743E+07        -0.91966E+07         0.00000E+00
    0.00000E+00         0.00000E+00         0.00000E+00
 
    0.23913E+06         0.41729E+07         0.00000E+00
    0.41729E+07        -0.91849E+07         0.00000E+00
    0.00000E+00         0.00000E+00         0.00000E+00
 
    0.20773E+06         0.42718E+07         0.00000E+00
    0.42718E+07        -0.91726E+07         0.00000E+00
    0.00000E+00         0.00000E+00         0.00000E+00
 
    0.17624E+06         0.43710E+07         0.00000E+00
    0.43710E+07        -0.91599E+07         0.00000E+00
    0.00000E+00         0.00000E+00         0.00000E+00
 
    0.14462E+06         0.44705E+07         0.00000E+00
    0.44705E+07        -0.91466E+07         0.00000E+00
    0.00000E+00         0.00000E+00         0.00000E+00
 
    0.11284E+06         0.45702E+07         0.00000E+00
    0.45702E+07        -0.91327E+07         0.00000E+00
    0.00000E+00         0.00000E+00         0.00000E+00
 
    0.80876E+05         0.46703E+07         0.00000E+00
    0.46703E+07        -0.91183E+07         0.00000E+00
    0.00000E+00         0.00000E+00         0.00000E+00
 
    0.48699E+05         0.47707E+07         0.00000E+00
    0.47707E+07        -0.91032E+07         0.00000E+00
    0.00000E+00         0.00000E+00         0.00000E+00
 
    0.16277E+05         0.48714E+07         0.00000E+00
    0.48714E+07        -0.90875E+07         0.00000E+00
    0.00000E+00         0.00000E+00         0.00000E+00
 
    0.16527E+07         0.52401E+05         0.00000E+00
    0.52401E+05        -0.99161E+07         0.00000E+00
    0.00000E+00         0.00000E+00         0.00000E+00
 
    0.16143E+07         0.15599E+06         0.00000E+00
    0.15599E+06        -0.99159E+07         0.00000E+00
    0.00000E+00         0.00000E+00         0.00000E+00
 
    0.15760E+07         0.25915E+06         0.00000E+00
    0.25915E+06        -0.99154E+07         0.00000E+00
    0.00000E+00         0.00000E+00         0.00000E+00
 
    0.15378E+07         0.36190E+06         0.00000E+00
    0.36190E+06        -0.99147E+07         0.00000E+00
    0.00000E+00         0.00000E+00         0.00000E+00
 
    0.14997E+07         0.46424E+06         0.00000E+00
    0.46424E+06        -0.99138E+07         0.00000E+00
    0.00000E+00         0.00000E+00         0.00000E+00
 
    0.14617E+07         0.56619E+06         0.00000E+00
    0.56619E+06        -0.99127E+07         0.00000E+00
    0.00000E+00         0.00000E+00         0.00000E+00
 
    0.14239E+07         0.66776E+06         0.00000E+00
    0.66776E+06        -0.99114E+07         0.00000E+00
    0.00000E+00         0.00000E+00         0.00000E+00
 
    0.13863E+07         0.76897E+06         0.00000E+00
    0.76897E+06        -0.99099E+07         0.00000E+00
    0.00000E+00         0.00000E+00         0.00000E+00
 
    0.13488E+07         0.86983E+06         0.00000E+00
    0.86983E+06        -0.99082E+07         0.00000E+00
    0.00000E+00         0.00000E+00         0.00000E+00
 
    0.13116E+07         0.97037E+06         0.00000E+00
    0.97037E+06        -0.99063E+07         0.00000E+00
    0.00000E+00         0.00000E+00         0.00000E+00
 
    0.12746E+07         0.10706E+07         0.00000E+00
    0.10706E+07        -0.99043E+07         0.00000E+00
    0.00000E+00         0.00000E+00         0.00000E+00
 
    0.12378E+07         0.11705E+07         0.00000E+00
    0.11705E+07        -0.99020E+07         0.00000E+00
    0.00000E+00         0.00000E+00         0.00000E+00
 
    0.12012E+07         0.12702E+07         0.00000E+00
    0.12702E+07        -0.98996E+07         0.00000E+00
    0.00000E+00         0.00000E+00         0.00000E+00
 
    0.11649E+07         0.13696E+07         0.00000E+00
    0.13696E+07        -0.98970E+07         0.00000E+00
    0.00000E+00         0.00000E+00         0.00000E+00
 
    0.11289E+07         0.14687E+07         0.00000E+00
    0.14687E+07        -0.98942E+07         0.00000E+00
    0.00000E+00         0.00000E+00         0.00000E+00
 
    0.10931E+07         0.15677E+07         0.00000E+00
    0.15677E+07        -0.98912E+07         0.00000E+00
    0.00000E+00         0.00000E+00         0.00000E+00
 
    0.10576E+07         0.16664E+07         0.00000E+00
    0.16664E+07        -0.98881E+07         0.00000E+00
    0.00000E+00         0.00000E+00         0.00000E+00
 
    0.10224E+07         0.17649E+07         0.00000E+00
    0.17649E+07        -0.98848E+07         0.00000E+00
    0.00000E+00         0.00000E+00         0.00000E+00
 
    0.98747E+06         0.18633E+07         0.00000E+00
    0.18633E+07        -0.98812E+07         0.00000E+00
    0.00000E+00         0.00000E+00         0.00000E+00
 
    0.95283E+06         0.19616E+07         0.00000E+00
    0.19616E+07        -0.98775E+07         0.00000E+00
    0.00000E+00         0.00000E+00         0.00000E+00
 
    0.91849E+06         0.20598E+07         0.00000E+00
    0.20598E+07        -0.98736E+07         0.00000E+00
    0.00000E+00         0.00000E+00         0.00000E+00
 
    0.88443E+06         0.21578E+07         0.00000E+00
    0.21578E+07        -0.98695E+07         0.00000E+00
    0.00000E+00         0.00000E+00         0.00000E+00
 
    0.85067E+06         0.22558E+07         0.00000E+00
    0.22558E+07        -0.98652E+07         0.00000E+00
    0.00000E+00         0.00000E+00         0.00000E+00
 
    0.81719E+06         0.23537E+07         0.00000E+00
    0.23537E+07        -0.98607E+07         0.00000E+00
    0.00000E+00         0.00000E+00         0.00000E+00
 
    0.78401E+06         0.24516E+07         0.00000E+00
    0.24516E+07        -0.98560E+07         0.00000E+00
    0.00000E+00         0.00000E+00         0.00000E+00
 
    0.75111E+06         0.25494E+07         0.00000E+00
    0.25494E+07        -0.98510E+07         0.00000E+00
    0.00000E+00         0.00000E+00         0.00000E+00
 
    0.71849E+06         0.26473E+07         0.00000E+00
    0.26473E+07        -0.98458E+07         0.00000E+00
    0.00000E+00         0.00000E+00         0.00000E+00
 
    0.68615E+06         0.27453E+07         0.00000E+00
    0.27453E+07        -0.98404E+07         0.00000E+00
    0.00000E+00         0.00000E+00         0.00000E+00
 
    0.65407E+06         0.28432E+07         0.00000E+00
    0.28432E+07        -0.98347E+07         0.00000E+00
    0.00000E+00         0.00000E+00         0.00000E+00
 
    0.62224E+06         0.29413E+07         0.00000E+00
    0.29413E+07        -0.98287E+07         0.00000E+00
    0.00000E+00         0.00000E+00         0.00000E+00
 
    0.59067E+06         0.30394E+07         0.00000E+00
    0.30394E+07        -0.98225E+07         0.00000E+00
    0.00000E+00         0.00000E+00         0.00000E+00
 
    0.55933E+06         0.31377E+07         0.00000E+00
    0.31377E+07        -0.98160E+07         0.00000E+00
    0.00000E+00         0.00000E+00         0.00000E+00
 
    0.52822E+06         0.32361E+07         0.00000E+00
    0.32361E+07        -0.98091E+07         0.00000E+00
    0.00000E+00         0.00000E+00         0.00000E+00
 
    0.49732E+06         0.33346E+07         0.00000E+00
    0.33346E+07        -0.98020E+07         0.00000E+00
    0.00000E+00         0.00000E+00         0.00000E+00
 
    0.46661E+06         0.34333E+07         0.00000E+00
    0.34333E+07        -0.97945E+07         0.00000E+00
    0.00000E+00         0.00000E+00         0.00000E+00
 
    0.43609E+06         0.35323E+07         0.00000E+00
    0.35323E+07        -0.97867E+07         0.00000E+00
    0.00000E+00         0.00000E+00         0.00000E+00
 
    0.40572E+06         0.36314E+07         0.00000E+00
    0.36314E+07        -0.97786E+07         0.00000E+00
    0.00000E+00         0.00000E+00         0.00000E+00
 
    0.37550E+06         0.37308E+07         0.00000E+00
    0.37308E+07        -0.97700E+07         0.00000E+00
    0.00000E+00         0.00000E+00         0.00000E+00
 
    0.34540E+06         0.38305E+07         0.00000E+00
    0.38305E+07        -0.97611E+07         0.00000E+00
    0.00000E+00         0.00000E+00         0.00000E+00
 
    0.31541E+06         0.39304E+07         0.00000E+00
    0.39304E+07        -0.97517E+07         0.00000E+00
    0.00000E+00         0.00000E+00         0.00000E+00
 
    0.28549E+06         0.40307E+07         0.00000E+00
    0.40307E+07        -0.97419E+07         0.00000E+00
    0.00000E+00         0.00000E+00         0.00000E+00
 
    0.25562E+06         0.41312E+07         0.00000E+00
    0.41312E+07        -0.97317E+07         0.00000E+00
    0.00000E+00         0.00000E+00         0.00000E+00
 
    0.22579E+06         0.42321E+07         0.00000E+00
    0.42321E+07        -0.97210E+07         0.00000E+00
    0.00000E+00         0.00000E+00         0.00000E+00
 
    0.19595E+06         0.43333E+07         0.00000E+00
    0.43333E+07        -0.97098E+07         0.00000E+00
    0.00000E+00         0.00000E+00         0.00000E+00
 
    0.16609E+06         0.44350E+07         0.00000E+00
    0.44350E+07        -0.96981E+07         0.00000E+00
    0.00000E+00         0.00000E+00         0.00000E+00
 
    0.13617E+06         0.45370E+07         0.00000E+00
    0.45370E+07        -0.96858E+07         0.00000E+00
    0.00000E+00         0.00000E+00         0.00000E+00
 
    0.10617E+06         0.46394E+07         0.00000E+00
    0.46394E+07        -0.96730E+07         0.00000E+00
    0.00000E+00         0.00000E+00         0.00000E+00
 
    0.76041E+05         0.47422E+07         0.00000E+00
    0.47422E+07        -0.96596E+07         0.00000E+00
    0.00000E+00         0.00000E+00         0.00000E+00
 
    0.45759E+05         0.48454E+07         0.00000E+00
    0.48454E+07        -0.96456E+07         0.00000E+00
    0.00000E+00         0.00000E+00         0.00000E+00
 
    0.15288E+05         0.49491E+07         0.00000E+00
    0.49491E+07        -0.96309E+07         0.00000E+00
    0.00000E+00         0.00000E+00         0.00000E+00
 
    0.16469E+07         0.53181E+05         0.00000E+00
    0.53181E+05        -0.10445E+08         0.00000E+00
    0.00000E+00         0.00000E+00         0.00000E+00
 
    0.16062E+07         0.15815E+06         0.00000E+00
    0.15815E+06        -0.10444E+08         0.00000E+00
    0.00000E+00         0.00000E+00         0.00000E+00
 
    0.15657E+07         0.26263E+06         0.00000E+00
    0.26263E+06        -0.10444E+08         0.00000E+00
    0.00000E+00         0.00000E+00         0.00000E+00
 
    0.15253E+07         0.36663E+06         0.00000E+00
    0.36663E+06        -0.10443E+08         0.00000E+00
    0.00000E+00         0.00000E+00         0.00000E+00
 
    0.14851E+07         0.47018E+06         0.00000E+00
    0.47018E+06        -0.10442E+08         0.00000E+00
    0.00000E+00         0.00000E+00         0.00000E+00
 
    0.14451E+07         0.57328E+06         0.00000E+00
    0.57328E+06        -0.10441E+08         0.00000E+00
    0.00000E+00         0.00000E+00         0.00000E+00
 
    0.14053E+07         0.67597E+06         0.00000E+00
    0.67597E+06        -0.10440E+08         0.00000E+00
    0.00000E+00         0.00000E+00         0.00000E+00
 
    0.13658E+07         0.77825E+06         0.00000E+00
    0.77825E+06        -0.10439E+08         0.00000E+00
    0.00000E+00         0.00000E+00         0.00000E+00
 
    0.13266E+07         0.88015E+06         0.00000E+00
    0.88015E+06        -0.10438E+08         0.00000E+00
    0.00000E+00         0.00000E+00         0.00000E+00
 
    0.12877E+07         0.98169E+06         0.00000E+00
    0.98169E+06        -0.10436E+08         0.00000E+00
    0.00000E+00         0.00000E+00         0.00000E+00
 
    0.12491E+07         0.10829E+07         0.00000E+00
    0.10829E+07        -0.10434E+08         0.00000E+00
    0.00000E+00         0.00000E+00         0.00000E+00
 
    0.12108E+07         0.11838E+07         0.00000E+00
    0.11838E+07        -0.10432E+08         0.00000E+00
    0.00000E+00         0.00000E+00         0.00000E+00
 
    0.11728E+07         0.12844E+07         0.00000E+00
    0.12844E+07        -0.10430E+08         0.00000E+00
    0.00000E+00         0.00000E+00         0.00000E+00
 
    0.11353E+07         0.13847E+07         0.00000E+00
    0.13847E+07        -0.10428E+08         0.00000E+00
    0.00000E+00         0.00000E+00         0.00000E+00
 
    0.10981E+07         0.14848E+07         0.00000E+00
    0.14848E+07        -0.10426E+08         0.00000E+00
    0.00000E+00         0.00000E+00         0.00000E+00
 
    0.10612E+07         0.15846E+07         0.00000E+00
    0.15846E+07        -0.10423E+08         0.00000E+00
    0.00000E+00         0.00000E+00         0.00000E+00
 
    0.10248E+07         0.16842E+07         0.00000E+00
    0.16842E+07        -0.10421E+08         0.00000E+00
    0.00000E+00         0.00000E+00         0.00000E+00
 
    0.98873E+06         0.17837E+07         0.00000E+00
    0.17837E+07        -0.10418E+08         0.00000E+00
    0.00000E+00         0.00000E+00         0.00000E+00
 
    0.95307E+06         0.18830E+07         0.00000E+00
    0.18830E+07        -0.10415E+08         0.00000E+00
    0.00000E+00         0.00000E+00         0.00000E+00
 
    0.91782E+06         0.19822E+07         0.00000E+00
    0.19822E+07        -0.10412E+08         0.00000E+00
    0.00000E+00         0.00000E+00         0.00000E+00
 
    0.88297E+06         0.20813E+07         0.00000E+00
    0.20813E+07        -0.10409E+08         0.00000E+00
    0.00000E+00         0.00000E+00         0.00000E+00
 
    0.84853E+06         0.21803E+07         0.00000E+00
    0.21803E+07        -0.10406E+08         0.00000E+00
    0.00000E+00         0.00000E+00         0.00000E+00
 
    0.81450E+06         0.22793E+07         0.00000E+00
    0.22793E+07        -0.10402E+08         0.00000E+00
    0.00000E+00         0.00000E+00         0.00000E+00
 
    0.78087E+06         0.23782E+07         0.00000E+00
    0.23782E+07        -0.10398E+08         0.00000E+00
    0.00000E+00         0.00000E+00         0.00000E+00
 
    0.74765E+06         0.24771E+07         0.00000E+00
    0.24771E+07        -0.10395E+08         0.00000E+00
    0.00000E+00         0.00000E+00         0.00000E+00
 
    0.71482E+06         0.25760E+07         0.00000E+00
    0.25760E+07        -0.10390E+08         0.00000E+00
    0.00000E+00         0.00000E+00         0.00000E+00
 
    0.68240E+06         0.26750E+07         0.00000E+00
    0.26750E+07        -0.10386E+08         0.00000E+00
    0.00000E+00         0.00000E+00         0.00000E+00
 
    0.65036E+06         0.27741E+07         0.00000E+00
    0.27741E+07        -0.10382E+08         0.00000E+00
    0.00000E+00         0.00000E+00         0.00000E+00
 
    0.61870E+06         0.28732E+07         0.00000E+00
    0.28732E+07        -0.10377E+08         0.00000E+00
    0.00000E+00         0.00000E+00         0.00000E+00
 
    0.58742E+06         0.29725E+07         0.00000E+00
    0.29725E+07        -0.10372E+08         0.00000E+00
    0.00000E+00         0.00000E+00         0.00000E+00
 
    0.55650E+06         0.30719E+07         0.00000E+00
    0.30719E+07        -0.10367E+08         0.00000E+00
    0.00000E+00         0.00000E+00         0.00000E+00
 
    0.52594E+06         0.31715E+07         0.00000E+00
    0.31715E+07        -0.10361E+08         0.00000E+00
    0.00000E+00         0.00000E+00         0.00000E+00
 
    0.49571E+06         0.32713E+07         0.00000E+00
    0.32713E+07        -0.10356E+08         0.00000E+00
    0.00000E+00         0.00000E+00         0.00000E+00
 
    0.46581E+06         0.33713E+07         0.00000E+00
    0.33713E+07        -0.10350E+08         0.00000E+00
    0.00000E+00         0.00000E+00         0.00000E+00
 
    0.43621E+06         0.34716E+07         0.00000E+00
    0.34716E+07        -0.10343E+08         0.00000E+00
    0.00000E+00         0.00000E+00         0.00000E+00
 
    0.40691E+06         0.35721E+07         0.00000E+00
    0.35721E+07        -0.10337E+08         0.00000E+00
    0.00000E+00         0.00000E+00         0.00000E+00
 
    0.37789E+06         0.36730E+07         0.00000E+00
    0.36730E+07        -0.10330E+08         0.00000E+00
    0.00000E+00         0.00000E+00         0.00000E+00
 
    0.34911E+06         0.37741E+07         0.00000E+00
    0.37741E+07        -0.10323E+08         0.00000E+00
    0.00000E+00         0.00000E+00         0.00000E+00
 
    0.32057E+06         0.38756E+07         0.00000E+00
    0.38756E+07        -0.10315E+08         0.00000E+00
    0.00000E+00         0.00000E+00         0.00000E+00
 
    0.29223E+06         0.39774E+07         0.00000E+00
    0.39774E+07        -0.10307E+08         0.00000E+00
    0.00000E+00         0.00000E+00         0.00000E+00
 
    0.26408E+06         0.40797E+07         0.00000E+00
    0.40797E+07        -0.10298E+08         0.00000E+00
    0.00000E+00         0.00000E+00         0.00000E+00
 
    0.23608E+06         0.41823E+07         0.00000E+00
    0.41823E+07        -0.10289E+08         0.00000E+00
    0.00000E+00         0.00000E+00         0.00000E+00
 
    0.20822E+06         0.42854E+07         0.00000E+00
    0.42854E+07        -0.10280E+08         0.00000E+00
    0.00000E+00         0.00000E+00         0.00000E+00
 
    0.18045E+06         0.43890E+07         0.00000E+00
    0.43890E+07        -0.10270E+08         0.00000E+00
    0.00000E+00         0.00000E+00         0.00000E+00
 
    0.15274E+06         0.44930E+07         0.00000E+00
    0.44930E+07        -0.10260E+08         0.00000E+00
    0.00000E+00         0.00000E+00         0.00000E+00
 
    0.12507E+06         0.45975E+07         0.00000E+00
    0.45975E+07        -0.10249E+08         0.00000E+00
    0.00000E+00         0.00000E+00         0.00000E+00
 
    0.97396E+05         0.47026E+07         0.00000E+00
    0.47026E+07        -0.10237E+08         0.00000E+00
    0.00000E+00         0.00000E+00         0.00000E+00
 
    0.69684E+05         0.48081E+07         0.00000E+00
    0.48081E+07        -0.10225E+08         0.00000E+00
    0.00000E+00         0.00000E+00         0.00000E+00
 
    0.41894E+05         0.49143E+07         0.00000E+00
    0.49143E+07        -0.10213E+08         0.00000E+00
    0.00000E+00         0.00000E+00         0.00000E+00
 
    0.13988E+05         0.50210E+07         0.00000E+00
    0.50210E+07        -0.10199E+08         0.00000E+00
    0.00000E+00         0.00000E+00         0.00000E+00
 
    0.16317E+07         0.53913E+05         0.00000E+00
    0.53913E+05        -0.10989E+08         0.00000E+00
    0.00000E+00         0.00000E+00         0.00000E+00
 
    0.15883E+07         0.16011E+06         0.00000E+00
    0.16011E+06        -0.10989E+08         0.00000E+00
    0.00000E+00         0.00000E+00         0.00000E+00
 
    0.15451E+07         0.26574E+06         0.00000E+00
    0.26574E+06        -0.10989E+08         0.00000E+00
    0.00000E+00         0.00000E+00         0.00000E+00
 
    0.15022E+07         0.37083E+06         0.00000E+00
    0.37083E+06        -0.10988E+08         0.00000E+00
    0.00000E+00         0.00000E+00         0.00000E+00
 
    0.14596E+07         0.47539E+06         0.00000E+00
    0.47539E+06        -0.10987E+08         0.00000E+00
    0.00000E+00         0.00000E+00         0.00000E+00
 
    0.14174E+07         0.57945E+06         0.00000E+00
    0.57945E+06        -0.10987E+08         0.00000E+00
    0.00000E+00         0.00000E+00         0.00000E+00
 
    0.13754E+07         0.68305E+06         0.00000E+00
    0.68305E+06        -0.10986E+08         0.00000E+00
    0.00000E+00         0.00000E+00         0.00000E+00
 
    0.13339E+07         0.78619E+06         0.00000E+00
    0.78619E+06        -0.10985E+08         0.00000E+00
    0.00000E+00         0.00000E+00         0.00000E+00
 
    0.12927E+07         0.88891E+06         0.00000E+00
    0.88891E+06        -0.10984E+08         0.00000E+00
    0.00000E+00         0.00000E+00         0.00000E+00
 
    0.12519E+07         0.99123E+06         0.00000E+00
    0.99123E+06        -0.10982E+08         0.00000E+00
    0.00000E+00         0.00000E+00         0.00000E+00
 
    0.12116E+07         0.10932E+07         0.00000E+00
    0.10932E+07        -0.10981E+08         0.00000E+00
    0.00000E+00         0.00000E+00         0.00000E+00
 
    0.11718E+07         0.11948E+07         0.00000E+00
    0.11948E+07        -0.10980E+08         0.00000E+00
    0.00000E+00         0.00000E+00         0.00000E+00
 
    0.11324E+07         0.12961E+07         0.00000E+00
    0.12961E+07        -0.10978E+08         0.00000E+00
    0.00000E+00         0.00000E+00         0.00000E+00
 
    0.10935E+07         0.13971E+07         0.00000E+00
    0.13971E+07        -0.10977E+08         0.00000E+00
    0.00000E+00         0.00000E+00         0.00000E+00
 
    0.10551E+07         0.14979E+07         0.00000E+00
    0.14979E+07        -0.10975E+08         0.00000E+00
    0.00000E+00         0.00000E+00         0.00000E+00
 
    0.10172E+07         0.15984E+07         0.00000E+00
    0.15984E+07        -0.10973E+08         0.00000E+00
    0.00000E+00         0.00000E+00         0.00000E+00
 
    0.97982E+06         0.16988E+07         0.00000E+00
    0.16988E+07        -0.10971E+08         0.00000E+00
    0.00000E+00         0.00000E+00         0.00000E+00
 
    0.94296E+06         0.17989E+07         0.00000E+00
    0.17989E+07        -0.10970E+08         0.00000E+00
    0.00000E+00         0.00000E+00         0.00000E+00
 
    0.90664E+06         0.18989E+07         0.00000E+00
    0.18989E+07        -0.10968E+08         0.00000E+00
    0.00000E+00         0.00000E+00         0.00000E+00
 
    0.87085E+06         0.19988E+07         0.00000E+00
    0.19988E+07        -0.10965E+08         0.00000E+00
    0.00000E+00         0.00000E+00         0.00000E+00
 
    0.83560E+06         0.20987E+07         0.00000E+00
    0.20987E+07        -0.10963E+08         0.00000E+00
    0.00000E+00         0.00000E+00         0.00000E+00
 
    0.80089E+06         0.21984E+07         0.00000E+00
    0.21984E+07        -0.10961E+08         0.00000E+00
    0.00000E+00         0.00000E+00         0.00000E+00
 
    0.76673E+06         0.22982E+07         0.00000E+00
    0.22982E+07        -0.10958E+08         0.00000E+00
    0.00000E+00         0.00000E+00         0.00000E+00
 
    0.73310E+06         0.23979E+07         0.00000E+00
    0.23979E+07        -0.10956E+08         0.00000E+00
    0.00000E+00         0.00000E+00         0.00000E+00
 
    0.70001E+06         0.24977E+07         0.00000E+00
    0.24977E+07        -0.10953E+08         0.00000E+00
    0.00000E+00         0.00000E+00         0.00000E+00
 
    0.66746E+06         0.25975E+07         0.00000E+00
    0.25975E+07        -0.10950E+08         0.00000E+00
    0.00000E+00         0.00000E+00         0.00000E+00
 
    0.63543E+06         0.26974E+07         0.00000E+00
    0.26974E+07        -0.10947E+08         0.00000E+00
    0.00000E+00         0.00000E+00         0.00000E+00
 
    0.60393E+06         0.27974E+07         0.00000E+00
    0.27974E+07        -0.10944E+08         0.00000E+00
    0.00000E+00         0.00000E+00         0.00000E+00
 
    0.57295E+06         0.28976E+07         0.00000E+00
    0.28976E+07        -0.10940E+08         0.00000E+00
    0.00000E+00         0.00000E+00         0.00000E+00
 
    0.54248E+06         0.29979E+07         0.00000E+00
    0.29979E+07        -0.10936E+08         0.00000E+00
    0.00000E+00         0.00000E+00         0.00000E+00
 
    0.51250E+06         0.30985E+07         0.00000E+00
    0.30985E+07        -0.10933E+08         0.00000E+00
    0.00000E+00         0.00000E+00         0.00000E+00
 
    0.48301E+06         0.31993E+07         0.00000E+00
    0.31993E+07        -0.10929E+08         0.00000E+00
    0.00000E+00         0.00000E+00         0.00000E+00
 
    0.45399E+06         0.33003E+07         0.00000E+00
    0.33003E+07        -0.10924E+08         0.00000E+00
    0.00000E+00         0.00000E+00         0.00000E+00
 
    0.42543E+06         0.34016E+07         0.00000E+00
    0.34016E+07        -0.10920E+08         0.00000E+00
    0.00000E+00         0.00000E+00         0.00000E+00
 
    0.39732E+06         0.35033E+07         0.00000E+00
    0.35033E+07        -0.10915E+08         0.00000E+00
    0.00000E+00         0.00000E+00         0.00000E+00
 
    0.36963E+06         0.36053E+07         0.00000E+00
    0.36053E+07        -0.10910E+08         0.00000E+00
    0.00000E+00         0.00000E+00         0.00000E+00
 
    0.34235E+06         0.37076E+07         0.00000E+00
    0.37076E+07        -0.10904E+08         0.00000E+00
    0.00000E+00         0.00000E+00         0.00000E+00
 
    0.31545E+06         0.38104E+07         0.00000E+00
    0.38104E+07        -0.10898E+08         0.00000E+00
    0.00000E+00         0.00000E+00         0.00000E+00
 
    0.28891E+06         0.39136E+07         0.00000E+00
    0.39136E+07        -0.10892E+08         0.00000E+00
    0.00000E+00         0.00000E+00         0.00000E+00
 
    0.26271E+06         0.40173E+07         0.00000E+00
    0.40173E+07        -0.10886E+08         0.00000E+00
    0.00000E+00         0.00000E+00         0.00000E+00
 
    0.23682E+06         0.41215E+07         0.00000E+00
    0.41215E+07        -0.10879E+08         0.00000E+00
    0.00000E+00         0.00000E+00         0.00000E+00
 
    0.21121E+06         0.42261E+07         0.00000E+00
    0.42261E+07        -0.10872E+08         0.00000E+00
    0.00000E+00         0.00000E+00         0.00000E+00
 
    0.18585E+06         0.43313E+07         0.00000E+00
    0.43313E+07        -0.10864E+08         0.00000E+00
    0.00000E+00         0.00000E+00         0.00000E+00
 
    0.16071E+06         0.44371E+07         0.00000E+00
    0.44371E+07        -0.10856E+08         0.00000E+00
    0.00000E+00         0.00000E+00         0.00000E+00
 
    0.13575E+06         0.45435E+07         0.00000E+00
    0.45435E+07        -0.10847E+08         0.00000E+00
    0.00000E+00         0.00000E+00         0.00000E+00
 
    0.11094E+06         0.46506E+07         0.00000E+00
    0.46506E+07        -0.10838E+08         0.00000E+00
    0.00000E+00         0.00000E+00         0.00000E+00
 
    0.86231E+05         0.47582E+07         0.00000E+00
    0.47582E+07        -0.10828E+08         0.00000E+00
    0.00000E+00         0.00000E+00         0.00000E+00
 
    0.61591E+05         0.48666E+07         0.00000E+00
    0.48666E+07        -0.10817E+08         0.00000E+00
    0.00000E+00         0.00000E+00         0.00000E+00
 
    0.36974E+05         0.49756E+07         0.00000E+00
    0.49756E+07        -0.10806E+08         0.00000E+00
    0.00000E+00         0.00000E+00         0.00000E+00
 
    0.12332E+05         0.50854E+07         0.00000E+00
    0.50854E+07        -0.10795E+08         0.00000E+00
    0.00000E+00         0.00000E+00         0.00000E+00
 
    0.16057E+07         0.54553E+05         0.00000E+00
    0.54553E+05        -0.11550E+08         0.00000E+00
    0.00000E+00         0.00000E+00         0.00000E+00
 
    0.15592E+07         0.16175E+06         0.00000E+00
    0.16175E+06        -0.11550E+08         0.00000E+00
    0.00000E+00         0.00000E+00         0.00000E+00
 
    0.15131E+07         0.26828E+06         0.00000E+00
    0.26828E+06        -0.11550E+08         0.00000E+00
    0.00000E+00         0.00000E+00         0.00000E+00
 
    0.14673E+07         0.37419E+06         0.00000E+00
    0.37419E+06        -0.11550E+08         0.00000E+00
    0.00000E+00         0.00000E+00         0.00000E+00
 
    0.14220E+07         0.47950E+06         0.00000E+00
    0.47950E+06        -0.11549E+08         0.00000E+00
    0.00000E+00         0.00000E+00         0.00000E+00
 
    0.13771E+07         0.58425E+06         0.00000E+00
    0.58425E+06        -0.11549E+08         0.00000E+00
    0.00000E+00         0.00000E+00         0.00000E+00
 
    0.13328E+07         0.68846E+06         0.00000E+00
    0.68846E+06        -0.11548E+08         0.00000E+00
    0.00000E+00         0.00000E+00         0.00000E+00
 
    0.12889E+07         0.79218E+06         0.00000E+00
    0.79218E+06        -0.11548E+08         0.00000E+00
    0.00000E+00         0.00000E+00         0.00000E+00
 
    0.12456E+07         0.89543E+06         0.00000E+00
    0.89543E+06        -0.11547E+08         0.00000E+00
    0.00000E+00         0.00000E+00         0.00000E+00
 
    0.12029E+07         0.99825E+06         0.00000E+00
    0.99825E+06        -0.11546E+08         0.00000E+00
    0.00000E+00         0.00000E+00         0.00000E+00
 
    0.11607E+07         0.11007E+07         0.00000E+00
    0.11007E+07        -0.11546E+08         0.00000E+00
    0.00000E+00         0.00000E+00         0.00000E+00
 
    0.11192E+07         0.12027E+07         0.00000E+00
    0.12027E+07        -0.11545E+08         0.00000E+00
    0.00000E+00         0.00000E+00         0.00000E+00
 
    0.10783E+07         0.13045E+07         0.00000E+00
    0.13045E+07        -0.11544E+08         0.00000E+00
    0.00000E+00         0.00000E+00         0.00000E+00
 
    0.10381E+07         0.14059E+07         0.00000E+00
    0.14059E+07        -0.11543E+08         0.00000E+00
    0.00000E+00         0.00000E+00         0.00000E+00
 
    0.99845E+06         0.15071E+07         0.00000E+00
    0.15071E+07        -0.11543E+08         0.00000E+00
    0.00000E+00         0.00000E+00         0.00000E+00
 
    0.95950E+06         0.16080E+07         0.00000E+00
    0.16080E+07        -0.11542E+08         0.00000E+00
    0.00000E+00         0.00000E+00         0.00000E+00
 
    0.92123E+06         0.17088E+07         0.00000E+00
    0.17088E+07        -0.11541E+08         0.00000E+00
    0.00000E+00         0.00000E+00         0.00000E+00
 
    0.88364E+06         0.18094E+07         0.00000E+00
    0.18094E+07        -0.11540E+08         0.00000E+00
    0.00000E+00         0.00000E+00         0.00000E+00
 
    0.84674E+06         0.19098E+07         0.00000E+00
    0.19098E+07        -0.11539E+08         0.00000E+00
    0.00000E+00         0.00000E+00         0.00000E+00
 
    0.81052E+06         0.20102E+07         0.00000E+00
    0.20102E+07        -0.11538E+08         0.00000E+00
    0.00000E+00         0.00000E+00         0.00000E+00
 
    0.77500E+06         0.21105E+07         0.00000E+00
    0.21105E+07        -0.11537E+08         0.00000E+00
    0.00000E+00         0.00000E+00         0.00000E+00
 
    0.74017E+06         0.22108E+07         0.00000E+00
    0.22108E+07        -0.11536E+08         0.00000E+00
    0.00000E+00         0.00000E+00         0.00000E+00
 
    0.70604E+06         0.23111E+07         0.00000E+00
    0.23111E+07        -0.11535E+08         0.00000E+00
    0.00000E+00         0.00000E+00         0.00000E+00
 
    0.67260E+06         0.24115E+07         0.00000E+00
    0.24115E+07        -0.11534E+08         0.00000E+00
    0.00000E+00         0.00000E+00         0.00000E+00
 
    0.63985E+06         0.25119E+07         0.00000E+00
    0.25119E+07        -0.11532E+08         0.00000E+00
    0.00000E+00         0.00000E+00         0.00000E+00
 
    0.60779E+06         0.26124E+07         0.00000E+00
    0.26124E+07        -0.11531E+08         0.00000E+00
    0.00000E+00         0.00000E+00         0.00000E+00
 
    0.57641E+06         0.27130E+07         0.00000E+00
    0.27130E+07        -0.11529E+08         0.00000E+00
    0.00000E+00         0.00000E+00         0.00000E+00
 
    0.54570E+06         0.28138E+07         0.00000E+00
    0.28138E+07        -0.11527E+08         0.00000E+00
    0.00000E+00         0.00000E+00         0.00000E+00
 
    0.51567E+06         0.29148E+07         0.00000E+00
    0.29148E+07        -0.11525E+08         0.00000E+00
    0.00000E+00         0.00000E+00         0.00000E+00
 
    0.48629E+06         0.30160E+07         0.00000E+00
    0.30160E+07        -0.11523E+08         0.00000E+00
    0.00000E+00         0.00000E+00         0.00000E+00
 
    0.45757E+06         0.31175E+07         0.00000E+00
    0.31175E+07        -0.11521E+08         0.00000E+00
    0.00000E+00         0.00000E+00         0.00000E+00
 
    0.42949E+06         0.32193E+07         0.00000E+00
    0.32193E+07        -0.11519E+08         0.00000E+00
    0.00000E+00         0.00000E+00         0.00000E+00
 
    0.40203E+06         0.33214E+07         0.00000E+00
    0.33214E+07        -0.11516E+08         0.00000E+00
    0.00000E+00         0.00000E+00         0.00000E+00
 
    0.37519E+06         0.34239E+07         0.00000E+00
    0.34239E+07        -0.11513E+08         0.00000E+00
    0.00000E+00         0.00000E+00         0.00000E+00
 
    0.34895E+06         0.35268E+07         0.00000E+00
    0.35268E+07        -0.11510E+08         0.00000E+00
    0.00000E+00         0.00000E+00         0.00000E+00
 
    0.32329E+06         0.36301E+07         0.00000E+00
    0.36301E+07        -0.11507E+08         0.00000E+00
    0.00000E+00         0.00000E+00         0.00000E+00
 
    0.29819E+06         0.37339E+07         0.00000E+00
    0.37339E+07        -0.11503E+08         0.00000E+00
    0.00000E+00         0.00000E+00         0.00000E+00
 
    0.27363E+06         0.38381E+07         0.00000E+00
    0.38381E+07        -0.11499E+08         0.00000E+00
    0.00000E+00         0.00000E+00         0.00000E+00
 
    0.24958E+06         0.39429E+07         0.00000E+00
    0.39429E+07        -0.11495E+08         0.00000E+00
    0.00000E+00         0.00000E+00         0.00000E+00
 
    0.22604E+06         0.40483E+07         0.00000E+00
    0.40483E+07        -0.11491E+08         0.00000E+00
    0.00000E+00         0.00000E+00         0.00000E+00
 
    0.20295E+06         0.41542E+07         0.00000E+00
    0.41542E+07        -0.11486E+08         0.00000E+00
    0.00000E+00         0.00000E+00         0.00000E+00
 
    0.18030E+06         0.42608E+07         0.00000E+00
    0.42608E+07        -0.11480E+08         0.00000E+00
    0.00000E+00         0.00000E+00         0.00000E+00
 
    0.15805E+06         0.43681E+07         0.00000E+00
    0.43681E+07        -0.11475E+08         0.00000E+00
    0.00000E+00         0.00000E+00         0.00000E+00
 
    0.13617E+06         0.44760E+07         0.00000E+00
    0.44760E+07        -0.11469E+08         0.00000E+00
    0.00000E+00         0.00000E+00         0.00000E+00
 
    0.11462E+06         0.45847E+07         0.00000E+00
    0.45847E+07        -0.11462E+08         0.00000E+00
    0.00000E+00         0.00000E+00         0.00000E+00
 
    0.93355E+05         0.46942E+07         0.00000E+00
    0.46942E+07        -0.11455E+08         0.00000E+00
    0.00000E+00         0.00000E+00         0.00000E+00
 
    0.72336E+05         0.48044E+07         0.00000E+00
    0.48044E+07        -0.11447E+08         0.00000E+00
    0.00000E+00         0.00000E+00         0.00000E+00
 
    0.51515E+05         0.49155E+07         0.00000E+00
    0.49155E+07        -0.11439E+08         0.00000E+00
    0.00000E+00         0.00000E+00         0.00000E+00
 
    0.30843E+05         0.50275E+07         0.00000E+00
    0.50275E+07        -0.11430E+08         0.00000E+00
    0.00000E+00         0.00000E+00         0.00000E+00
 
    0.10269E+05         0.51403E+07         0.00000E+00
    0.51403E+07        -0.11420E+08         0.00000E+00
    0.00000E+00         0.00000E+00         0.00000E+00
 
    0.15674E+07         0.55042E+05         0.00000E+00
    0.55042E+05        -0.12128E+08         0.00000E+00
    0.00000E+00         0.00000E+00         0.00000E+00
 
    0.15172E+07         0.16288E+06         0.00000E+00
    0.16288E+06        -0.12128E+08         0.00000E+00
    0.00000E+00         0.00000E+00         0.00000E+00
 
    0.14676E+07         0.26995E+06         0.00000E+00
    0.26995E+06        -0.12128E+08         0.00000E+00
    0.00000E+00         0.00000E+00         0.00000E+00
 
    0.14186E+07         0.37631E+06         0.00000E+00
    0.37631E+06        -0.12128E+08         0.00000E+00
    0.00000E+00         0.00000E+00         0.00000E+00
 
    0.13702E+07         0.48199E+06         0.00000E+00
    0.48199E+06        -0.12128E+08         0.00000E+00
    0.00000E+00         0.00000E+00         0.00000E+00
 
    0.13225E+07         0.58703E+06         0.00000E+00
    0.58703E+06        -0.12128E+08         0.00000E+00
    0.00000E+00         0.00000E+00         0.00000E+00
 
    0.12754E+07         0.69148E+06         0.00000E+00
    0.69148E+06        -0.12128E+08         0.00000E+00
    0.00000E+00         0.00000E+00         0.00000E+00
 
    0.12290E+07         0.79538E+06         0.00000E+00
    0.79538E+06        -0.12128E+08         0.00000E+00
    0.00000E+00         0.00000E+00         0.00000E+00
 
    0.11834E+07         0.89878E+06         0.00000E+00
    0.89878E+06        -0.12128E+08         0.00000E+00
    0.00000E+00         0.00000E+00         0.00000E+00
 
    0.11386E+07         0.10017E+07         0.00000E+00
    0.10017E+07        -0.12128E+08         0.00000E+00
    0.00000E+00         0.00000E+00         0.00000E+00
 
    0.10945E+07         0.11042E+07         0.00000E+00
    0.11042E+07        -0.12128E+08         0.00000E+00
    0.00000E+00         0.00000E+00         0.00000E+00
 
    0.10512E+07         0.12064E+07         0.00000E+00
    0.12064E+07        -0.12128E+08         0.00000E+00
    0.00000E+00         0.00000E+00         0.00000E+00
 
    0.10088E+07         0.13082E+07         0.00000E+00
    0.13082E+07        -0.12129E+08         0.00000E+00
    0.00000E+00         0.00000E+00         0.00000E+00
 
    0.96715E+06         0.14097E+07         0.00000E+00
    0.14097E+07        -0.12129E+08         0.00000E+00
    0.00000E+00         0.00000E+00         0.00000E+00
 
    0.92636E+06         0.15109E+07         0.00000E+00
    0.15109E+07        -0.12130E+08         0.00000E+00
    0.00000E+00         0.00000E+00         0.00000E+00
 
    0.88643E+06         0.16120E+07         0.00000E+00
    0.16120E+07        -0.12130E+08         0.00000E+00
    0.00000E+00         0.00000E+00         0.00000E+00
 
    0.84735E+06         0.17128E+07         0.00000E+00
    0.17128E+07        -0.12130E+08         0.00000E+00
    0.00000E+00         0.00000E+00         0.00000E+00
 
    0.80913E+06         0.18135E+07         0.00000E+00
    0.18135E+07        -0.12131E+08         0.00000E+00
    0.00000E+00         0.00000E+00         0.00000E+00
 
    0.77178E+06         0.19142E+07         0.00000E+00
    0.19142E+07        -0.12131E+08         0.00000E+00
    0.00000E+00         0.00000E+00         0.00000E+00
 
    0.73529E+06         0.20147E+07         0.00000E+00
    0.20147E+07        -0.12132E+08         0.00000E+00
    0.00000E+00         0.00000E+00         0.00000E+00
 
    0.69967E+06         0.21153E+07         0.00000E+00
    0.21153E+07        -0.12132E+08         0.00000E+00
    0.00000E+00         0.00000E+00         0.00000E+00
 
    0.66491E+06         0.22158E+07         0.00000E+00
    0.22158E+07        -0.12133E+08         0.00000E+00
    0.00000E+00         0.00000E+00         0.00000E+00
 
    0.63103E+06         0.23164E+07         0.00000E+00
    0.23164E+07        -0.12133E+08         0.00000E+00
    0.00000E+00         0.00000E+00         0.00000E+00
 
    0.59800E+06         0.24171E+07         0.00000E+00
    0.24171E+07        -0.12134E+08         0.00000E+00
    0.00000E+00         0.00000E+00         0.00000E+00
 
    0.56584E+06         0.25179E+07         0.00000E+00
    0.25179E+07        -0.12134E+08         0.00000E+00
    0.00000E+00         0.00000E+00         0.00000E+00
 
    0.53453E+06         0.26189E+07         0.00000E+00
    0.26189E+07        -0.12135E+08         0.00000E+00
    0.00000E+00         0.00000E+00         0.00000E+00
 
    0.50407E+06         0.27201E+07         0.00000E+00
    0.27201E+07        -0.12135E+08         0.00000E+00
    0.00000E+00         0.00000E+00         0.00000E+00
 
    0.47446E+06         0.28214E+07         0.00000E+00
    0.28214E+07        -0.12135E+08         0.00000E+00
    0.00000E+00         0.00000E+00         0.00000E+00
 
    0.44568E+06         0.29231E+07         0.00000E+00
    0.29231E+07        -0.12135E+08         0.00000E+00
    0.00000E+00         0.00000E+00         0.00000E+00
 
    0.41773E+06         0.30250E+07         0.00000E+00
    0.30250E+07        -0.12135E+08         0.00000E+00
    0.00000E+00         0.00000E+00         0.00000E+00
 
    0.39060E+06         0.31273E+07         0.00000E+00
    0.31273E+07        -0.12135E+08         0.00000E+00
    0.00000E+00         0.00000E+00         0.00000E+00
 
    0.36429E+06         0.32299E+07         0.00000E+00
    0.32299E+07        -0.12135E+08         0.00000E+00
    0.00000E+00         0.00000E+00         0.00000E+00
 
    0.33877E+06         0.33329E+07         0.00000E+00
    0.33329E+07        -0.12134E+08         0.00000E+00
    0.00000E+00         0.00000E+00         0.00000E+00
 
    0.31404E+06         0.34364E+07         0.00000E+00
    0.34364E+07        -0.12133E+08         0.00000E+00
    0.00000E+00         0.00000E+00         0.00000E+00
 
    0.29009E+06         0.35403E+07         0.00000E+00
    0.35403E+07        -0.12132E+08         0.00000E+00
    0.00000E+00         0.00000E+00         0.00000E+00
 
    0.26690E+06         0.36448E+07         0.00000E+00
    0.36448E+07        -0.12131E+08         0.00000E+00
    0.00000E+00         0.00000E+00         0.00000E+00
 
    0.24444E+06         0.37498E+07         0.00000E+00
    0.37498E+07        -0.12130E+08         0.00000E+00
    0.00000E+00         0.00000E+00         0.00000E+00
 
    0.22272E+06         0.38554E+07         0.00000E+00
    0.38554E+07        -0.12128E+08         0.00000E+00
    0.00000E+00         0.00000E+00         0.00000E+00
 
    0.20169E+06         0.39616E+07         0.00000E+00
    0.39616E+07        -0.12126E+08         0.00000E+00
    0.00000E+00         0.00000E+00         0.00000E+00
 
    0.18135E+06         0.40685E+07         0.00000E+00
    0.40685E+07        -0.12124E+08         0.00000E+00
    0.00000E+00         0.00000E+00         0.00000E+00
 
    0.16165E+06         0.41761E+07         0.00000E+00
    0.41761E+07        -0.12122E+08         0.00000E+00
    0.00000E+00         0.00000E+00         0.00000E+00
 
    0.14258E+06         0.42845E+07         0.00000E+00
    0.42845E+07        -0.12119E+08         0.00000E+00
    0.00000E+00         0.00000E+00         0.00000E+00
 
    0.12410E+06         0.43936E+07         0.00000E+00
    0.43936E+07        -0.12115E+08         0.00000E+00
    0.00000E+00         0.00000E+00         0.00000E+00
 
    0.10618E+06         0.45036E+07         0.00000E+00
    0.45036E+07        -0.12112E+08         0.00000E+00
    0.00000E+00         0.00000E+00         0.00000E+00
 
    0.88765E+05         0.46145E+07         0.00000E+00
    0.46145E+07        -0.12107E+08         0.00000E+00
    0.00000E+00         0.00000E+00         0.00000E+00
 
    0.71822E+05         0.47263E+07         0.00000E+00
    0.47263E+07        -0.12103E+08         0.00000E+00
    0.00000E+00         0.00000E+00         0.00000E+00
 
    0.55302E+05         0.48391E+07         0.00000E+00
    0.48391E+07        -0.12098E+08         0.00000E+00
    0.00000E+00         0.00000E+00         0.00000E+00
 
    0.39151E+05         0.49529E+07         0.00000E+00
    0.49529E+07        -0.12092E+08         0.00000E+00
    0.00000E+00         0.00000E+00         0.00000E+00
 
    0.23316E+05         0.50677E+07         0.00000E+00
    0.50677E+07        -0.12086E+08         0.00000E+00
    0.00000E+00         0.00000E+00         0.00000E+00
 
    0.77355E+04         0.51836E+07         0.00000E+00
    0.51836E+07        -0.12079E+08         0.00000E+00
    0.00000E+00         0.00000E+00         0.00000E+00
 
    0.15144E+07         0.55288E+05         0.00000E+00
    0.55288E+05        -0.12723E+08         0.00000E+00
    0.00000E+00         0.00000E+00         0.00000E+00
 
    0.14600E+07         0.16325E+06         0.00000E+00
    0.16325E+06        -0.12723E+08         0.00000E+00
    0.00000E+00         0.00000E+00         0.00000E+00
 
    0.14065E+07         0.27035E+06         0.00000E+00
    0.27035E+06        -0.12723E+08         0.00000E+00
    0.00000E+00         0.00000E+00         0.00000E+00
 
    0.13537E+07         0.37662E+06         0.00000E+00
    0.37662E+06        -0.12724E+08         0.00000E+00
    0.00000E+00         0.00000E+00         0.00000E+00
 
    0.13019E+07         0.48214E+06         0.00000E+00
    0.48214E+06        -0.12724E+08         0.00000E+00
    0.00000E+00         0.00000E+00         0.00000E+00
 
    0.12509E+07         0.58696E+06         0.00000E+00
    0.58696E+06        -0.12725E+08         0.00000E+00
    0.00000E+00         0.00000E+00         0.00000E+00
 
    0.12009E+07         0.69113E+06         0.00000E+00
    0.69113E+06        -0.12725E+08         0.00000E+00
    0.00000E+00         0.00000E+00         0.00000E+00
 
    0.11518E+07         0.79471E+06         0.00000E+00
    0.79471E+06        -0.12726E+08         0.00000E+00
    0.00000E+00         0.00000E+00         0.00000E+00
 
    0.11037E+07         0.89775E+06         0.00000E+00
    0.89775E+06        -0.12727E+08         0.00000E+00
    0.00000E+00         0.00000E+00         0.00000E+00
 
    0.10567E+07         0.10003E+07         0.00000E+00
    0.10003E+07        -0.12728E+08         0.00000E+00
    0.00000E+00         0.00000E+00         0.00000E+00
 
    0.10106E+07         0.11024E+07         0.00000E+00
    0.11024E+07        -0.12730E+08         0.00000E+00
    0.00000E+00         0.00000E+00         0.00000E+00
 
    0.96557E+06         0.12042E+07         0.00000E+00
    0.12042E+07        -0.12731E+08         0.00000E+00
    0.00000E+00         0.00000E+00         0.00000E+00
 
    0.92158E+06         0.13056E+07         0.00000E+00
    0.13056E+07        -0.12733E+08         0.00000E+00
    0.00000E+00         0.00000E+00         0.00000E+00
 
    0.87866E+06         0.14068E+07         0.00000E+00
    0.14068E+07        -0.12735E+08         0.00000E+00
    0.00000E+00         0.00000E+00         0.00000E+00
 
    0.83679E+06         0.15077E+07         0.00000E+00
    0.15077E+07        -0.12737E+08         0.00000E+00
    0.00000E+00         0.00000E+00         0.00000E+00
 
    0.79599E+06         0.16084E+07         0.00000E+00
    0.16084E+07        -0.12739E+08         0.00000E+00
    0.00000E+00         0.00000E+00         0.00000E+00
 
    0.75626E+06         0.17090E+07         0.00000E+00
    0.17090E+07        -0.12741E+08         0.00000E+00
    0.00000E+00         0.00000E+00         0.00000E+00
 
    0.71759E+06         0.18095E+07         0.00000E+00
    0.18095E+07        -0.12743E+08         0.00000E+00
    0.00000E+00         0.00000E+00         0.00000E+00
 
    0.67999E+06         0.19099E+07         0.00000E+00
    0.19099E+07        -0.12745E+08         0.00000E+00
    0.00000E+00         0.00000E+00         0.00000E+00
 
    0.64346E+06         0.20103E+07         0.00000E+00
    0.20103E+07        -0.12748E+08         0.00000E+00
    0.00000E+00         0.00000E+00         0.00000E+00
 
    0.60798E+06         0.21108E+07         0.00000E+00
    0.21108E+07        -0.12751E+08         0.00000E+00
    0.00000E+00         0.00000E+00         0.00000E+00
 
    0.57357E+06         0.22113E+07         0.00000E+00
    0.22113E+07        -0.12753E+08         0.00000E+00
    0.00000E+00         0.00000E+00         0.00000E+00
 
    0.54021E+06         0.23120E+07         0.00000E+00
    0.23120E+07        -0.12756E+08         0.00000E+00
    0.00000E+00         0.00000E+00         0.00000E+00
 
    0.50790E+06         0.24127E+07         0.00000E+00
    0.24127E+07        -0.12758E+08         0.00000E+00
    0.00000E+00         0.00000E+00         0.00000E+00
 
    0.47663E+06         0.25137E+07         0.00000E+00
    0.25137E+07        -0.12761E+08         0.00000E+00
    0.00000E+00         0.00000E+00         0.00000E+00
 
    0.44640E+06         0.26149E+07         0.00000E+00
    0.26149E+07        -0.12764E+08         0.00000E+00
    0.00000E+00         0.00000E+00         0.00000E+00
 
    0.41719E+06         0.27163E+07         0.00000E+00
    0.27163E+07        -0.12766E+08         0.00000E+00
    0.00000E+00         0.00000E+00         0.00000E+00
 
    0.38901E+06         0.28181E+07         0.00000E+00
    0.28181E+07        -0.12769E+08         0.00000E+00
    0.00000E+00         0.00000E+00         0.00000E+00
 
    0.36184E+06         0.29202E+07         0.00000E+00
    0.29202E+07        -0.12771E+08         0.00000E+00
    0.00000E+00         0.00000E+00         0.00000E+00
 
    0.33568E+06         0.30226E+07         0.00000E+00
    0.30226E+07        -0.12774E+08         0.00000E+00
    0.00000E+00         0.00000E+00         0.00000E+00
 
    0.31052E+06         0.31255E+07         0.00000E+00
    0.31255E+07        -0.12776E+08         0.00000E+00
    0.00000E+00         0.00000E+00         0.00000E+00
 
    0.28636E+06         0.32288E+07         0.00000E+00
    0.32288E+07        -0.12778E+08         0.00000E+00
    0.00000E+00         0.00000E+00         0.00000E+00
 
    0.26318E+06         0.33325E+07         0.00000E+00
    0.33325E+07        -0.12780E+08         0.00000E+00
    0.00000E+00         0.00000E+00         0.00000E+00
 
    0.24098E+06         0.34368E+07         0.00000E+00
    0.34368E+07        -0.12782E+08         0.00000E+00
    0.00000E+00         0.00000E+00         0.00000E+00
 
    0.21974E+06         0.35416E+07         0.00000E+00
    0.35416E+07        -0.12784E+08         0.00000E+00
    0.00000E+00         0.00000E+00         0.00000E+00
 
    0.19946E+06         0.36471E+07         0.00000E+00
    0.36471E+07        -0.12785E+08         0.00000E+00
    0.00000E+00         0.00000E+00         0.00000E+00
 
    0.18013E+06         0.37531E+07         0.00000E+00
    0.37531E+07        -0.12787E+08         0.00000E+00
    0.00000E+00         0.00000E+00         0.00000E+00
 
    0.16174E+06         0.38599E+07         0.00000E+00
    0.38599E+07        -0.12788E+08         0.00000E+00
    0.00000E+00         0.00000E+00         0.00000E+00
 
    0.14426E+06         0.39674E+07         0.00000E+00
    0.39674E+07        -0.12789E+08         0.00000E+00
    0.00000E+00         0.00000E+00         0.00000E+00
 
    0.12769E+06         0.40756E+07         0.00000E+00
    0.40756E+07        -0.12789E+08         0.00000E+00
    0.00000E+00         0.00000E+00         0.00000E+00
 
    0.11199E+06         0.41847E+07         0.00000E+00
    0.41847E+07        -0.12789E+08         0.00000E+00
    0.00000E+00         0.00000E+00         0.00000E+00
 
    0.97156E+05         0.42947E+07         0.00000E+00
    0.42947E+07        -0.12789E+08         0.00000E+00
    0.00000E+00         0.00000E+00         0.00000E+00
 
    0.83144E+05         0.44056E+07         0.00000E+00
    0.44056E+07        -0.12789E+08         0.00000E+00
    0.00000E+00         0.00000E+00         0.00000E+00
 
    0.69925E+05         0.45175E+07         0.00000E+00
    0.45175E+07        -0.12788E+08         0.00000E+00
    0.00000E+00         0.00000E+00         0.00000E+00
 
    0.57459E+05         0.46304E+07         0.00000E+00
    0.46304E+07        -0.12787E+08         0.00000E+00
    0.00000E+00         0.00000E+00         0.00000E+00
 
    0.45704E+05         0.47444E+07         0.00000E+00
    0.47444E+07        -0.12786E+08         0.00000E+00
    0.00000E+00         0.00000E+00         0.00000E+00
 
    0.34608E+05         0.48596E+07         0.00000E+00
    0.48596E+07        -0.12783E+08         0.00000E+00
    0.00000E+00         0.00000E+00         0.00000E+00
 
    0.24111E+05         0.49760E+07         0.00000E+00
    0.49760E+07        -0.12781E+08         0.00000E+00
    0.00000E+00         0.00000E+00         0.00000E+00
 
    0.14140E+05         0.50936E+07         0.00000E+00
    0.50936E+07        -0.12778E+08         0.00000E+00
    0.00000E+00         0.00000E+00         0.00000E+00
 
    0.46386E+04         0.52126E+07         0.00000E+00
    0.52126E+07        -0.12774E+08         0.00000E+00
    0.00000E+00         0.00000E+00         0.00000E+00
 
    0.14434E+07         0.55173E+05         0.00000E+00
    0.55173E+05        -0.13335E+08         0.00000E+00
    0.00000E+00         0.00000E+00         0.00000E+00
 
    0.13843E+07         0.16254E+06         0.00000E+00
    0.16254E+06        -0.13335E+08         0.00000E+00
    0.00000E+00         0.00000E+00         0.00000E+00
 
    0.13263E+07         0.26893E+06         0.00000E+00
    0.26893E+06        -0.13336E+08         0.00000E+00
    0.00000E+00         0.00000E+00         0.00000E+00
 
    0.12694E+07         0.37442E+06         0.00000E+00
    0.37442E+06        -0.13337E+08         0.00000E+00
    0.00000E+00         0.00000E+00         0.00000E+00
 
    0.12138E+07         0.47908E+06         0.00000E+00
    0.47908E+06        -0.13338E+08         0.00000E+00
    0.00000E+00         0.00000E+00         0.00000E+00
 
    0.11593E+07         0.58298E+06         0.00000E+00
    0.58298E+06        -0.13339E+08         0.00000E+00
    0.00000E+00         0.00000E+00         0.00000E+00
 
    0.11061E+07         0.68619E+06         0.00000E+00
    0.68619E+06        -0.13341E+08         0.00000E+00
    0.00000E+00         0.00000E+00         0.00000E+00
 
    0.10542E+07         0.78879E+06         0.00000E+00
    0.78879E+06        -0.13343E+08         0.00000E+00
    0.00000E+00         0.00000E+00         0.00000E+00
 
    0.10036E+07         0.89085E+06         0.00000E+00
    0.89085E+06        -0.13345E+08         0.00000E+00
    0.00000E+00         0.00000E+00         0.00000E+00
 
    0.95427E+06         0.99241E+06         0.00000E+00
    0.99241E+06        -0.13348E+08         0.00000E+00
    0.00000E+00         0.00000E+00         0.00000E+00
 
    0.90625E+06         0.10936E+07         0.00000E+00
    0.10936E+07        -0.13350E+08         0.00000E+00
    0.00000E+00         0.00000E+00         0.00000E+00
 
    0.85954E+06         0.11943E+07         0.00000E+00
    0.11943E+07        -0.13354E+08         0.00000E+00
    0.00000E+00         0.00000E+00         0.00000E+00
 
    0.81415E+06         0.12948E+07         0.00000E+00
    0.12948E+07        -0.13357E+08         0.00000E+00
    0.00000E+00         0.00000E+00         0.00000E+00
 
    0.77007E+06         0.13951E+07         0.00000E+00
    0.13951E+07        -0.13361E+08         0.00000E+00
    0.00000E+00         0.00000E+00         0.00000E+00
 
    0.72732E+06         0.14951E+07         0.00000E+00
    0.14951E+07        -0.13365E+08         0.00000E+00
    0.00000E+00         0.00000E+00         0.00000E+00
 
    0.68588E+06         0.15951E+07         0.00000E+00
    0.15951E+07        -0.13369E+08         0.00000E+00
    0.00000E+00         0.00000E+00         0.00000E+00
 
    0.64574E+06         0.16949E+07         0.00000E+00
    0.16949E+07        -0.13373E+08         0.00000E+00
    0.00000E+00         0.00000E+00         0.00000E+00
 
    0.60691E+06         0.17947E+07         0.00000E+00
    0.17947E+07        -0.13378E+08         0.00000E+00
    0.00000E+00         0.00000E+00         0.00000E+00
 
    0.56938E+06         0.18946E+07         0.00000E+00
    0.18946E+07        -0.13383E+08         0.00000E+00
    0.00000E+00         0.00000E+00         0.00000E+00
 
    0.53313E+06         0.19944E+07         0.00000E+00
    0.19944E+07        -0.13388E+08         0.00000E+00
    0.00000E+00         0.00000E+00         0.00000E+00
 
    0.49816E+06         0.20944E+07         0.00000E+00
    0.20944E+07        -0.13393E+08         0.00000E+00
    0.00000E+00         0.00000E+00         0.00000E+00
 
    0.46445E+06         0.21946E+07         0.00000E+00
    0.21946E+07        -0.13398E+08         0.00000E+00
    0.00000E+00         0.00000E+00         0.00000E+00
 
    0.43200E+06         0.22950E+07         0.00000E+00
    0.22950E+07        -0.13403E+08         0.00000E+00
    0.00000E+00         0.00000E+00         0.00000E+00
 
    0.40079E+06         0.23955E+07         0.00000E+00
    0.23955E+07        -0.13409E+08         0.00000E+00
    0.00000E+00         0.00000E+00         0.00000E+00
 
    0.37082E+06         0.24964E+07         0.00000E+00
    0.24964E+07        -0.13414E+08         0.00000E+00
    0.00000E+00         0.00000E+00         0.00000E+00
 
    0.34207E+06         0.25976E+07         0.00000E+00
    0.25976E+07        -0.13420E+08         0.00000E+00
    0.00000E+00         0.00000E+00         0.00000E+00
 
    0.31453E+06         0.26991E+07         0.00000E+00
    0.26991E+07        -0.13425E+08         0.00000E+00
    0.00000E+00         0.00000E+00         0.00000E+00
 
    0.28820E+06         0.28010E+07         0.00000E+00
    0.28010E+07        -0.13431E+08         0.00000E+00
    0.00000E+00         0.00000E+00         0.00000E+00
 
    0.26307E+06         0.29033E+07         0.00000E+00
    0.29033E+07        -0.13436E+08         0.00000E+00
    0.00000E+00         0.00000E+00         0.00000E+00
 
    0.23912E+06         0.30061E+07         0.00000E+00
    0.30061E+07        -0.13442E+08         0.00000E+00
    0.00000E+00         0.00000E+00         0.00000E+00
 
    0.21636E+06         0.31094E+07         0.00000E+00
    0.31094E+07        -0.13447E+08         0.00000E+00
    0.00000E+00         0.00000E+00         0.00000E+00
 
    0.19477E+06         0.32132E+07         0.00000E+00
    0.32132E+07        -0.13453E+08         0.00000E+00
    0.00000E+00         0.00000E+00         0.00000E+00
 
    0.17435E+06         0.33175E+07         0.00000E+00
    0.33175E+07        -0.13458E+08         0.00000E+00
    0.00000E+00         0.00000E+00         0.00000E+00
 
    0.15510E+06         0.34225E+07         0.00000E+00
    0.34225E+07        -0.13463E+08         0.00000E+00
    0.00000E+00         0.00000E+00         0.00000E+00
 
    0.13701E+06         0.35281E+07         0.00000E+00
    0.35281E+07        -0.13468E+08         0.00000E+00
    0.00000E+00         0.00000E+00         0.00000E+00
 
    0.12009E+06         0.36344E+07         0.00000E+00
    0.36344E+07        -0.13473E+08         0.00000E+00
    0.00000E+00         0.00000E+00         0.00000E+00
 
    0.10433E+06         0.37414E+07         0.00000E+00
    0.37414E+07        -0.13477E+08         0.00000E+00
    0.00000E+00         0.00000E+00         0.00000E+00
 
    0.89741E+05         0.38491E+07         0.00000E+00
    0.38491E+07        -0.13482E+08         0.00000E+00
    0.00000E+00         0.00000E+00         0.00000E+00
 
    0.76311E+05         0.39577E+07         0.00000E+00
    0.39577E+07        -0.13486E+08         0.00000E+00
    0.00000E+00         0.00000E+00         0.00000E+00
 
    0.64042E+05         0.40671E+07         0.00000E+00
    0.40671E+07        -0.13490E+08         0.00000E+00
    0.00000E+00         0.00000E+00         0.00000E+00
 
    0.52930E+05         0.41775E+07         0.00000E+00
    0.41775E+07        -0.13494E+08         0.00000E+00
    0.00000E+00         0.00000E+00         0.00000E+00
 
    0.42967E+05         0.42889E+07         0.00000E+00
    0.42889E+07        -0.13497E+08         0.00000E+00
    0.00000E+00         0.00000E+00         0.00000E+00
 
    0.34137E+05         0.44013E+07         0.00000E+00
    0.44013E+07        -0.13500E+08         0.00000E+00
    0.00000E+00         0.00000E+00         0.00000E+00
 
    0.26417E+05         0.45148E+07         0.00000E+00
    0.45148E+07        -0.13503E+08         0.00000E+00
    0.00000E+00         0.00000E+00         0.00000E+00
 
    0.19770E+05         0.46296E+07         0.00000E+00
    0.46296E+07        -0.13505E+08         0.00000E+00
    0.00000E+00         0.00000E+00         0.00000E+00
 
    0.14145E+05         0.47456E+07         0.00000E+00
    0.47456E+07        -0.13507E+08         0.00000E+00
    0.00000E+00         0.00000E+00         0.00000E+00
 
    0.95009E+04         0.48630E+07         0.00000E+00
    0.48630E+07        -0.13509E+08         0.00000E+00
    0.00000E+00         0.00000E+00         0.00000E+00
 
    0.57937E+04         0.49818E+07         0.00000E+00
    0.49818E+07        -0.13510E+08         0.00000E+00
    0.00000E+00         0.00000E+00         0.00000E+00
 
    0.29713E+04         0.51021E+07         0.00000E+00
    0.51021E+07        -0.13511E+08         0.00000E+00
    0.00000E+00         0.00000E+00         0.00000E+00
 
    0.88734E+03         0.52241E+07         0.00000E+00
    0.52241E+07        -0.13511E+08         0.00000E+00
    0.00000E+00         0.00000E+00         0.00000E+00
 
    0.13503E+07         0.54545E+05         0.00000E+00
    0.54545E+05        -0.13965E+08         0.00000E+00
    0.00000E+00         0.00000E+00         0.00000E+00
 
    0.12858E+07         0.16034E+06         0.00000E+00
    0.16034E+06        -0.13965E+08         0.00000E+00
    0.00000E+00         0.00000E+00         0.00000E+00
 
    0.12229E+07         0.26507E+06         0.00000E+00
    0.26507E+06        -0.13966E+08         0.00000E+00
    0.00000E+00         0.00000E+00         0.00000E+00
 
    0.11616E+07         0.36883E+06         0.00000E+00
    0.36883E+06        -0.13967E+08         0.00000E+00
    0.00000E+00         0.00000E+00         0.00000E+00
 
    0.11019E+07         0.47172E+06         0.00000E+00
    0.47172E+06        -0.13969E+08         0.00000E+00
    0.00000E+00         0.00000E+00         0.00000E+00
 
    0.10438E+07         0.57382E+06         0.00000E+00
    0.57382E+06        -0.13972E+08         0.00000E+00
    0.00000E+00         0.00000E+00         0.00000E+00
 
    0.98733E+06         0.67523E+06         0.00000E+00
    0.67523E+06        -0.13975E+08         0.00000E+00
    0.00000E+00         0.00000E+00         0.00000E+00
 
    0.93253E+06         0.77602E+06         0.00000E+00
    0.77602E+06        -0.13978E+08         0.00000E+00
    0.00000E+00         0.00000E+00         0.00000E+00
 
    0.87939E+06         0.87627E+06         0.00000E+00
    0.87627E+06        -0.13982E+08         0.00000E+00
    0.00000E+00         0.00000E+00         0.00000E+00
 
    0.82790E+06         0.97607E+06         0.00000E+00
    0.97607E+06        -0.13986E+08         0.00000E+00
    0.00000E+00         0.00000E+00         0.00000E+00
 
    0.77806E+06         0.10755E+07         0.00000E+00
    0.10755E+07        -0.13991E+08         0.00000E+00
    0.00000E+00         0.00000E+00         0.00000E+00
 
    0.72987E+06         0.11746E+07         0.00000E+00
    0.11746E+07        -0.13996E+08         0.00000E+00
    0.00000E+00         0.00000E+00         0.00000E+00
 
    0.68331E+06         0.12735E+07         0.00000E+00
    0.12735E+07        -0.14002E+08         0.00000E+00
    0.00000E+00         0.00000E+00         0.00000E+00
 
    0.63838E+06         0.13721E+07         0.00000E+00
    0.13721E+07        -0.14008E+08         0.00000E+00
    0.00000E+00         0.00000E+00         0.00000E+00
 
    0.59506E+06         0.14707E+07         0.00000E+00
    0.14707E+07        -0.14014E+08         0.00000E+00
    0.00000E+00         0.00000E+00         0.00000E+00
 
    0.55333E+06         0.15692E+07         0.00000E+00
    0.15692E+07        -0.14021E+08         0.00000E+00
    0.00000E+00         0.00000E+00         0.00000E+00
 
    0.51319E+06         0.16678E+07         0.00000E+00
    0.16678E+07        -0.14029E+08         0.00000E+00
    0.00000E+00         0.00000E+00         0.00000E+00
 
    0.47461E+06         0.17664E+07         0.00000E+00
    0.17664E+07        -0.14036E+08         0.00000E+00
    0.00000E+00         0.00000E+00         0.00000E+00
 
    0.43758E+06         0.18651E+07         0.00000E+00
    0.18651E+07        -0.14044E+08         0.00000E+00
    0.00000E+00         0.00000E+00         0.00000E+00
 
    0.40208E+06         0.19640E+07         0.00000E+00
    0.19640E+07        -0.14052E+08         0.00000E+00
    0.00000E+00         0.00000E+00         0.00000E+00
 
    0.36809E+06         0.20631E+07         0.00000E+00
    0.20631E+07        -0.14060E+08         0.00000E+00
    0.00000E+00         0.00000E+00         0.00000E+00
 
    0.33558E+06         0.21624E+07         0.00000E+00
    0.21624E+07        -0.14069E+08         0.00000E+00
    0.00000E+00         0.00000E+00         0.00000E+00
 
    0.30455E+06         0.22621E+07         0.00000E+00
    0.22621E+07        -0.14078E+08         0.00000E+00
    0.00000E+00         0.00000E+00         0.00000E+00
 
    0.27497E+06         0.23621E+07         0.00000E+00
    0.23621E+07        -0.14087E+08         0.00000E+00
    0.00000E+00         0.00000E+00         0.00000E+00
 
    0.24682E+06         0.24625E+07         0.00000E+00
    0.24625E+07        -0.14096E+08         0.00000E+00
    0.00000E+00         0.00000E+00         0.00000E+00
 
    0.22009E+06         0.25633E+07         0.00000E+00
    0.25633E+07        -0.14105E+08         0.00000E+00
    0.00000E+00         0.00000E+00         0.00000E+00
 
    0.19476E+06         0.26646E+07         0.00000E+00
    0.26646E+07        -0.14114E+08         0.00000E+00
    0.00000E+00         0.00000E+00         0.00000E+00
 
    0.17082E+06         0.27664E+07         0.00000E+00
    0.27664E+07        -0.14124E+08         0.00000E+00
    0.00000E+00         0.00000E+00         0.00000E+00
 
    0.14825E+06         0.28688E+07         0.00000E+00
    0.28688E+07        -0.14133E+08         0.00000E+00
    0.00000E+00         0.00000E+00         0.00000E+00
 
    0.12704E+06         0.29717E+07         0.00000E+00
    0.29717E+07        -0.14143E+08         0.00000E+00
    0.00000E+00         0.00000E+00         0.00000E+00
 
    0.10719E+06         0.30752E+07         0.00000E+00
    0.30752E+07        -0.14152E+08         0.00000E+00
    0.00000E+00         0.00000E+00         0.00000E+00
 
    0.88681E+05         0.31794E+07         0.00000E+00
    0.31794E+07        -0.14161E+08         0.00000E+00
    0.00000E+00         0.00000E+00         0.00000E+00
 
    0.71519E+05         0.32842E+07         0.00000E+00
    0.32842E+07        -0.14171E+08         0.00000E+00
    0.00000E+00         0.00000E+00         0.00000E+00
 
    0.55702E+05         0.33898E+07         0.00000E+00
    0.33898E+07        -0.14180E+08         0.00000E+00
    0.00000E+00         0.00000E+00         0.00000E+00
 
    0.41232E+05         0.34960E+07         0.00000E+00
    0.34960E+07        -0.14189E+08         0.00000E+00
    0.00000E+00         0.00000E+00         0.00000E+00
 
    0.28118E+05         0.36031E+07         0.00000E+00
    0.36031E+07        -0.14198E+08         0.00000E+00
    0.00000E+00         0.00000E+00         0.00000E+00
 
    0.16371E+05         0.37109E+07         0.00000E+00
    0.37109E+07        -0.14206E+08         0.00000E+00
    0.00000E+00         0.00000E+00         0.00000E+00
 
    0.60092E+04         0.38196E+07         0.00000E+00
    0.38196E+07        -0.14215E+08         0.00000E+00
    0.00000E+00         0.00000E+00         0.00000E+00
 
   -0.29473E+04         0.39292E+07         0.00000E+00
    0.39292E+07        -0.14223E+08         0.00000E+00
    0.00000E+00         0.00000E+00         0.00000E+00
 
   -0.10475E+05         0.40397E+07         0.00000E+00
    0.40397E+07        -0.14231E+08         0.00000E+00
    0.00000E+00         0.00000E+00         0.00000E+00
 
   -0.16548E+05         0.41512E+07         0.00000E+00
    0.41512E+07        -0.14239E+08         0.00000E+00
    0.00000E+00         0.00000E+00         0.00000E+00
 
   -0.21145E+05         0.42637E+07         0.00000E+00
    0.42637E+07        -0.14247E+08         0.00000E+00
    0.00000E+00         0.00000E+00         0.00000E+00
 
   -0.24230E+05         0.43774E+07         0.00000E+00
    0.43774E+07        -0.14254E+08         0.00000E+00
    0.00000E+00         0.00000E+00         0.00000E+00
 
   -0.25769E+05         0.44923E+07         0.00000E+00
    0.44923E+07        -0.14261E+08         0.00000E+00
    0.00000E+00         0.00000E+00         0.00000E+00
 
   -0.25734E+05         0.46085E+07         0.00000E+00
    0.46085E+07        -0.14268E+08         0.00000E+00
    0.00000E+00         0.00000E+00         0.00000E+00
 
   -0.24119E+05         0.47261E+07         0.00000E+00
    0.47261E+07        -0.14274E+08         0.00000E+00
    0.00000E+00         0.00000E+00         0.00000E+00
 
   -0.21021E+05         0.48454E+07         0.00000E+00
    0.48454E+07        -0.14281E+08         0.00000E+00
    0.00000E+00         0.00000E+00         0.00000E+00
 
   -0.16588E+05         0.49666E+07         0.00000E+00
    0.49666E+07        -0.14287E+08         0.00000E+00
    0.00000E+00         0.00000E+00         0.00000E+00
 
   -0.10950E+05         0.50895E+07         0.00000E+00
    0.50895E+07        -0.14292E+08         0.00000E+00
    0.00000E+00         0.00000E+00         0.00000E+00
 
   -0.39232E+04         0.52139E+07         0.00000E+00
    0.52139E+07        -0.14296E+08         0.00000E+00
    0.00000E+00         0.00000E+00         0.00000E+00
 
    0.12292E+07         0.53234E+05         0.00000E+00
    0.53234E+05        -0.14611E+08         0.00000E+00
    0.00000E+00         0.00000E+00         0.00000E+00
 
    0.11590E+07         0.15620E+06         0.00000E+00
    0.15620E+06        -0.14612E+08         0.00000E+00
    0.00000E+00         0.00000E+00         0.00000E+00
 
    0.10909E+07         0.25806E+06         0.00000E+00
    0.25806E+06        -0.14613E+08         0.00000E+00
    0.00000E+00         0.00000E+00         0.00000E+00
 
    0.10249E+07         0.35892E+06         0.00000E+00
    0.35892E+06        -0.14616E+08         0.00000E+00
    0.00000E+00         0.00000E+00         0.00000E+00
 
    0.96109E+06         0.45891E+06         0.00000E+00
    0.45891E+06        -0.14619E+08         0.00000E+00
    0.00000E+00         0.00000E+00         0.00000E+00
 
    0.89934E+06         0.55812E+06         0.00000E+00
    0.55812E+06        -0.14622E+08         0.00000E+00
    0.00000E+00         0.00000E+00         0.00000E+00
 
    0.83970E+06         0.65666E+06         0.00000E+00
    0.65666E+06        -0.14627E+08         0.00000E+00
    0.00000E+00         0.00000E+00         0.00000E+00
 
    0.78216E+06         0.75462E+06         0.00000E+00
    0.75462E+06        -0.14632E+08         0.00000E+00
    0.00000E+00         0.00000E+00         0.00000E+00
 
    0.72671E+06         0.85210E+06         0.00000E+00
    0.85210E+06        -0.14638E+08         0.00000E+00
    0.00000E+00         0.00000E+00         0.00000E+00
 
    0.67331E+06         0.94919E+06         0.00000E+00
    0.94919E+06        -0.14644E+08         0.00000E+00
    0.00000E+00         0.00000E+00         0.00000E+00
 
    0.62197E+06         0.10460E+07         0.00000E+00
    0.10460E+07        -0.14651E+08         0.00000E+00
    0.00000E+00         0.00000E+00         0.00000E+00
 
    0.57264E+06         0.11425E+07         0.00000E+00
    0.11425E+07        -0.14659E+08         0.00000E+00
    0.00000E+00         0.00000E+00         0.00000E+00
 
    0.52531E+06         0.12389E+07         0.00000E+00
    0.12389E+07        -0.14668E+08         0.00000E+00
    0.00000E+00         0.00000E+00         0.00000E+00
 
    0.47996E+06         0.13353E+07         0.00000E+00
    0.13353E+07        -0.14677E+08         0.00000E+00
    0.00000E+00         0.00000E+00         0.00000E+00
 
    0.43654E+06         0.14316E+07         0.00000E+00
    0.14316E+07        -0.14686E+08         0.00000E+00
    0.00000E+00         0.00000E+00         0.00000E+00
 
    0.39504E+06         0.15280E+07         0.00000E+00
    0.15280E+07        -0.14696E+08         0.00000E+00
    0.00000E+00         0.00000E+00         0.00000E+00
 
    0.35542E+06         0.16245E+07         0.00000E+00
    0.16245E+07        -0.14707E+08         0.00000E+00
    0.00000E+00         0.00000E+00         0.00000E+00
 
    0.31766E+06         0.17212E+07         0.00000E+00
    0.17212E+07        -0.14718E+08         0.00000E+00
    0.00000E+00         0.00000E+00         0.00000E+00
 
    0.28172E+06         0.18181E+07         0.00000E+00
    0.18181E+07        -0.14730E+08         0.00000E+00
    0.00000E+00         0.00000E+00         0.00000E+00
 
    0.24756E+06         0.19153E+07         0.00000E+00
    0.19153E+07        -0.14742E+08         0.00000E+00
    0.00000E+00         0.00000E+00         0.00000E+00
 
    0.21517E+06         0.20129E+07         0.00000E+00
    0.20129E+07        -0.14754E+08         0.00000E+00
    0.00000E+00         0.00000E+00         0.00000E+00
 
    0.18450E+06         0.21109E+07         0.00000E+00
    0.21109E+07        -0.14767E+08         0.00000E+00
    0.00000E+00         0.00000E+00         0.00000E+00
 
    0.15553E+06         0.22094E+07         0.00000E+00
    0.22094E+07        -0.14780E+08         0.00000E+00
    0.00000E+00         0.00000E+00         0.00000E+00
 
    0.12824E+06         0.23083E+07         0.00000E+00
    0.23083E+07        -0.14793E+08         0.00000E+00
    0.00000E+00         0.00000E+00         0.00000E+00
 
    0.10258E+06         0.24078E+07         0.00000E+00
    0.24078E+07        -0.14807E+08         0.00000E+00
    0.00000E+00         0.00000E+00         0.00000E+00
 
    0.78539E+05         0.25078E+07         0.00000E+00
    0.25078E+07        -0.14820E+08         0.00000E+00
    0.00000E+00         0.00000E+00         0.00000E+00
 
    0.56090E+05         0.26085E+07         0.00000E+00
    0.26085E+07        -0.14834E+08         0.00000E+00
    0.00000E+00         0.00000E+00         0.00000E+00
 
    0.35209E+05         0.27098E+07         0.00000E+00
    0.27098E+07        -0.14849E+08         0.00000E+00
    0.00000E+00         0.00000E+00         0.00000E+00
 
    0.15878E+05         0.28118E+07         0.00000E+00
    0.28118E+07        -0.14863E+08         0.00000E+00
    0.00000E+00         0.00000E+00         0.00000E+00
 
   -0.19211E+04         0.29145E+07         0.00000E+00
    0.29145E+07        -0.14877E+08         0.00000E+00
    0.00000E+00         0.00000E+00         0.00000E+00
 
   -0.18202E+05         0.30179E+07         0.00000E+00
    0.30179E+07        -0.14892E+08         0.00000E+00
    0.00000E+00         0.00000E+00         0.00000E+00
 
   -0.32973E+05         0.31222E+07         0.00000E+00
    0.31222E+07        -0.14906E+08         0.00000E+00
    0.00000E+00         0.00000E+00         0.00000E+00
 
   -0.46240E+05         0.32272E+07         0.00000E+00
    0.32272E+07        -0.14921E+08         0.00000E+00
    0.00000E+00         0.00000E+00         0.00000E+00
 
   -0.58003E+05         0.33332E+07         0.00000E+00
    0.33332E+07        -0.14935E+08         0.00000E+00
    0.00000E+00         0.00000E+00         0.00000E+00
 
   -0.68258E+05         0.34399E+07         0.00000E+00
    0.34399E+07        -0.14950E+08         0.00000E+00
    0.00000E+00         0.00000E+00         0.00000E+00
 
   -0.76993E+05         0.35476E+07         0.00000E+00
    0.35476E+07        -0.14964E+08         0.00000E+00
    0.00000E+00         0.00000E+00         0.00000E+00
 
   -0.84193E+05         0.36562E+07         0.00000E+00
    0.36562E+07        -0.14978E+08         0.00000E+00
    0.00000E+00         0.00000E+00         0.00000E+00
 
   -0.89836E+05         0.37658E+07         0.00000E+00
    0.37658E+07        -0.14992E+08         0.00000E+00
    0.00000E+00         0.00000E+00         0.00000E+00
 
   -0.93881E+05         0.38764E+07         0.00000E+00
    0.38764E+07        -0.15006E+08         0.00000E+00
    0.00000E+00         0.00000E+00         0.00000E+00
 
   -0.96272E+05         0.39880E+07         0.00000E+00
    0.39880E+07        -0.15020E+08         0.00000E+00
    0.00000E+00         0.00000E+00         0.00000E+00
 
   -0.96935E+05         0.41006E+07         0.00000E+00
    0.41006E+07        -0.15033E+08         0.00000E+00
    0.00000E+00         0.00000E+00         0.00000E+00
 
   -0.95780E+05         0.42143E+07         0.00000E+00
    0.42143E+07        -0.15046E+08         0.00000E+00
    0.00000E+00         0.00000E+00         0.00000E+00
 
   -0.92754E+05         0.43293E+07         0.00000E+00
    0.43293E+07        -0.15059E+08         0.00000E+00
    0.00000E+00         0.00000E+00         0.00000E+00
 
   -0.87798E+05         0.44455E+07         0.00000E+00
    0.44455E+07        -0.15072E+08         0.00000E+00
    0.00000E+00         0.00000E+00         0.00000E+00
 
   -0.80840E+05         0.45631E+07         0.00000E+00
    0.45631E+07        -0.15084E+08         0.00000E+00
    0.00000E+00         0.00000E+00         0.00000E+00
 
   -0.71729E+05         0.46819E+07         0.00000E+00
    0.46819E+07        -0.15096E+08         0.00000E+00
    0.00000E+00         0.00000E+00         0.00000E+00
 
   -0.60044E+05         0.48019E+07         0.00000E+00
    0.48019E+07        -0.15107E+08         0.00000E+00
    0.00000E+00         0.00000E+00         0.00000E+00
 
   -0.45460E+05         0.49238E+07         0.00000E+00
    0.49238E+07        -0.15119E+08         0.00000E+00
    0.00000E+00         0.00000E+00         0.00000E+00
 
   -0.28062E+05         0.50482E+07         0.00000E+00
    0.50482E+07        -0.15131E+08         0.00000E+00
    0.00000E+00         0.00000E+00         0.00000E+00
 
   -0.93455E+04         0.51773E+07         0.00000E+00
    0.51773E+07        -0.15143E+08         0.00000E+00
    0.00000E+00         0.00000E+00         0.00000E+00
 
    0.10732E+07         0.51066E+05         0.00000E+00
    0.51066E+05        -0.15275E+08         0.00000E+00
    0.00000E+00         0.00000E+00         0.00000E+00
 
    0.99712E+06         0.14968E+06         0.00000E+00
    0.14968E+06        -0.15276E+08         0.00000E+00
    0.00000E+00         0.00000E+00         0.00000E+00
 
    0.92383E+06         0.24719E+06         0.00000E+00
    0.24719E+06        -0.15278E+08         0.00000E+00
    0.00000E+00         0.00000E+00         0.00000E+00
 
    0.85326E+06         0.34376E+06         0.00000E+00
    0.34376E+06        -0.15281E+08         0.00000E+00
    0.00000E+00         0.00000E+00         0.00000E+00
 
    0.78540E+06         0.43949E+06         0.00000E+00
    0.43949E+06        -0.15286E+08         0.00000E+00
    0.00000E+00         0.00000E+00         0.00000E+00
 
    0.72022E+06         0.53451E+06         0.00000E+00
    0.53451E+06        -0.15291E+08         0.00000E+00
    0.00000E+00         0.00000E+00         0.00000E+00
 
    0.65767E+06         0.62894E+06         0.00000E+00
    0.62894E+06        -0.15297E+08         0.00000E+00
    0.00000E+00         0.00000E+00         0.00000E+00
 
    0.59773E+06         0.72288E+06         0.00000E+00
    0.72288E+06        -0.15304E+08         0.00000E+00
    0.00000E+00         0.00000E+00         0.00000E+00
 
    0.54036E+06         0.81644E+06         0.00000E+00
    0.81644E+06        -0.15312E+08         0.00000E+00
    0.00000E+00         0.00000E+00         0.00000E+00
 
    0.48551E+06         0.90971E+06         0.00000E+00
    0.90971E+06        -0.15322E+08         0.00000E+00
    0.00000E+00         0.00000E+00         0.00000E+00
 
    0.43315E+06         0.10028E+07         0.00000E+00
    0.10028E+07        -0.15331E+08         0.00000E+00
    0.00000E+00         0.00000E+00         0.00000E+00
 
    0.38323E+06         0.10958E+07         0.00000E+00
    0.10958E+07        -0.15342E+08         0.00000E+00
    0.00000E+00         0.00000E+00         0.00000E+00
 
    0.33571E+06         0.11887E+07         0.00000E+00
    0.11887E+07        -0.15354E+08         0.00000E+00
    0.00000E+00         0.00000E+00         0.00000E+00
 
    0.29053E+06         0.12817E+07         0.00000E+00
    0.12817E+07        -0.15366E+08         0.00000E+00
    0.00000E+00         0.00000E+00         0.00000E+00
 
    0.24765E+06         0.13749E+07         0.00000E+00
    0.13749E+07        -0.15380E+08         0.00000E+00
    0.00000E+00         0.00000E+00         0.00000E+00
 
    0.20703E+06         0.14683E+07         0.00000E+00
    0.14683E+07        -0.15393E+08         0.00000E+00
    0.00000E+00         0.00000E+00         0.00000E+00
 
    0.16861E+06         0.15619E+07         0.00000E+00
    0.15619E+07        -0.15408E+08         0.00000E+00
    0.00000E+00         0.00000E+00         0.00000E+00
 
    0.13236E+06         0.16559E+07         0.00000E+00
    0.16559E+07        -0.15423E+08         0.00000E+00
    0.00000E+00         0.00000E+00         0.00000E+00
 
    0.98211E+05         0.17502E+07         0.00000E+00
    0.17502E+07        -0.15439E+08         0.00000E+00
    0.00000E+00         0.00000E+00         0.00000E+00
 
    0.66130E+05         0.18451E+07         0.00000E+00
    0.18451E+07        -0.15456E+08         0.00000E+00
    0.00000E+00         0.00000E+00         0.00000E+00
 
    0.36068E+05         0.19404E+07         0.00000E+00
    0.19404E+07        -0.15473E+08         0.00000E+00
    0.00000E+00         0.00000E+00         0.00000E+00
 
    0.79808E+04         0.20363E+07         0.00000E+00
    0.20363E+07        -0.15490E+08         0.00000E+00
    0.00000E+00         0.00000E+00         0.00000E+00
 
   -0.18174E+05         0.21328E+07         0.00000E+00
    0.21328E+07        -0.15508E+08         0.00000E+00
    0.00000E+00         0.00000E+00         0.00000E+00
 
   -0.42437E+05         0.22299E+07         0.00000E+00
    0.22299E+07        -0.15527E+08         0.00000E+00
    0.00000E+00         0.00000E+00         0.00000E+00
 
   -0.64849E+05         0.23277E+07         0.00000E+00
    0.23277E+07        -0.15546E+08         0.00000E+00
    0.00000E+00         0.00000E+00         0.00000E+00
 
   -0.85446E+05         0.24263E+07         0.00000E+00
    0.24263E+07        -0.15565E+08         0.00000E+00
    0.00000E+00         0.00000E+00         0.00000E+00
 
   -0.10426E+06         0.25256E+07         0.00000E+00
    0.25256E+07        -0.15585E+08         0.00000E+00
    0.00000E+00         0.00000E+00         0.00000E+00
 
   -0.12132E+06         0.26257E+07         0.00000E+00
    0.26257E+07        -0.15604E+08         0.00000E+00
    0.00000E+00         0.00000E+00         0.00000E+00
 
   -0.13666E+06         0.27267E+07         0.00000E+00
    0.27267E+07        -0.15625E+08         0.00000E+00
    0.00000E+00         0.00000E+00         0.00000E+00
 
   -0.15030E+06         0.28285E+07         0.00000E+00
    0.28285E+07        -0.15645E+08         0.00000E+00
    0.00000E+00         0.00000E+00         0.00000E+00
 
   -0.16226E+06         0.29313E+07         0.00000E+00
    0.29313E+07        -0.15666E+08         0.00000E+00
    0.00000E+00         0.00000E+00         0.00000E+00
 
   -0.17255E+06         0.30349E+07         0.00000E+00
    0.30349E+07        -0.15687E+08         0.00000E+00
    0.00000E+00         0.00000E+00         0.00000E+00
 
   -0.18118E+06         0.31396E+07         0.00000E+00
    0.31396E+07        -0.15708E+08         0.00000E+00
    0.00000E+00         0.00000E+00         0.00000E+00
 
   -0.18817E+06         0.32452E+07         0.00000E+00
    0.32452E+07        -0.15730E+08         0.00000E+00
    0.00000E+00         0.00000E+00         0.00000E+00
 
   -0.19349E+06         0.33518E+07         0.00000E+00
    0.33518E+07        -0.15751E+08         0.00000E+00
    0.00000E+00         0.00000E+00         0.00000E+00
 
   -0.19714E+06         0.34595E+07         0.00000E+00
    0.34595E+07        -0.15773E+08         0.00000E+00
    0.00000E+00         0.00000E+00         0.00000E+00
 
   -0.19907E+06         0.35683E+07         0.00000E+00
    0.35683E+07        -0.15794E+08         0.00000E+00
    0.00000E+00         0.00000E+00         0.00000E+00
 
   -0.19925E+06         0.36781E+07         0.00000E+00
    0.36781E+07        -0.15816E+08         0.00000E+00
    0.00000E+00         0.00000E+00         0.00000E+00
 
   -0.19767E+06         0.37892E+07         0.00000E+00
    0.37892E+07        -0.15838E+08         0.00000E+00
    0.00000E+00         0.00000E+00         0.00000E+00
 
   -0.19429E+06         0.39015E+07         0.00000E+00
    0.39015E+07        -0.15860E+08         0.00000E+00
    0.00000E+00         0.00000E+00         0.00000E+00
 
   -0.18909E+06         0.40151E+07         0.00000E+00
    0.40151E+07        -0.15882E+08         0.00000E+00
    0.00000E+00         0.00000E+00         0.00000E+00
 
   -0.18197E+06         0.41298E+07         0.00000E+00
    0.41298E+07        -0.15904E+08         0.00000E+00
    0.00000E+00         0.00000E+00         0.00000E+00
 
   -0.17255E+06         0.42454E+07         0.00000E+00
    0.42454E+07        -0.15925E+08         0.00000E+00
    0.00000E+00         0.00000E+00         0.00000E+00
 
   -0.16047E+06         0.43624E+07         0.00000E+00
    0.43624E+07        -0.15947E+08         0.00000E+00
    0.00000E+00         0.00000E+00         0.00000E+00
 
   -0.14533E+06         0.44808E+07         0.00000E+00
    0.44808E+07        -0.15970E+08         0.00000E+00
    0.00000E+00         0.00000E+00         0.00000E+00
 
   -0.12706E+06         0.46017E+07         0.00000E+00
    0.46017E+07        -0.15993E+08         0.00000E+00
    0.00000E+00         0.00000E+00         0.00000E+00
 
   -0.10645E+06         0.47258E+07         0.00000E+00
    0.47258E+07        -0.16016E+08         0.00000E+00
    0.00000E+00         0.00000E+00         0.00000E+00
 
   -0.83616E+05         0.48510E+07         0.00000E+00
    0.48510E+07        -0.16033E+08         0.00000E+00
    0.00000E+00         0.00000E+00         0.00000E+00
 
   -0.57192E+05         0.49762E+07         0.00000E+00
    0.49762E+07        -0.16048E+08         0.00000E+00
    0.00000E+00         0.00000E+00         0.00000E+00
 
   -0.21428E+05         0.50963E+07         0.00000E+00
    0.50963E+07        -0.16065E+08         0.00000E+00
    0.00000E+00         0.00000E+00         0.00000E+00
 
    0.87383E+06         0.47893E+05         0.00000E+00
    0.47893E+05        -0.15956E+08         0.00000E+00
    0.00000E+00         0.00000E+00         0.00000E+00
 
    0.79219E+06         0.14038E+06         0.00000E+00
    0.14038E+06        -0.15957E+08         0.00000E+00
    0.00000E+00         0.00000E+00         0.00000E+00
 
    0.71402E+06         0.23188E+06         0.00000E+00
    0.23188E+06        -0.15960E+08         0.00000E+00
    0.00000E+00         0.00000E+00         0.00000E+00
 
    0.63927E+06         0.32253E+06         0.00000E+00
    0.32253E+06        -0.15964E+08         0.00000E+00
    0.00000E+00         0.00000E+00         0.00000E+00
 
    0.56786E+06         0.41248E+06         0.00000E+00
    0.41248E+06        -0.15970E+08         0.00000E+00
    0.00000E+00         0.00000E+00         0.00000E+00
 
    0.49975E+06         0.50184E+06         0.00000E+00
    0.50184E+06        -0.15977E+08         0.00000E+00
    0.00000E+00         0.00000E+00         0.00000E+00
 
    0.43486E+06         0.59076E+06         0.00000E+00
    0.59076E+06        -0.15985E+08         0.00000E+00
    0.00000E+00         0.00000E+00         0.00000E+00
 
    0.37313E+06         0.67933E+06         0.00000E+00
    0.67933E+06        -0.15995E+08         0.00000E+00
    0.00000E+00         0.00000E+00         0.00000E+00
 
    0.31449E+06         0.76768E+06         0.00000E+00
    0.76768E+06        -0.16006E+08         0.00000E+00
    0.00000E+00         0.00000E+00         0.00000E+00
 
    0.25887E+06         0.85590E+06         0.00000E+00
    0.85590E+06        -0.16017E+08         0.00000E+00
    0.00000E+00         0.00000E+00         0.00000E+00
 
    0.20621E+06         0.94410E+06         0.00000E+00
    0.94410E+06        -0.16031E+08         0.00000E+00
    0.00000E+00         0.00000E+00         0.00000E+00
 
    0.15644E+06         0.10324E+07         0.00000E+00
    0.10324E+07        -0.16045E+08         0.00000E+00
    0.00000E+00         0.00000E+00         0.00000E+00
 
    0.10947E+06         0.11208E+07         0.00000E+00
    0.11208E+07        -0.16060E+08         0.00000E+00
    0.00000E+00         0.00000E+00         0.00000E+00
 
    0.65253E+05         0.12094E+07         0.00000E+00
    0.12094E+07        -0.16076E+08         0.00000E+00
    0.00000E+00         0.00000E+00         0.00000E+00
 
    0.23707E+05         0.12984E+07         0.00000E+00
    0.12984E+07        -0.16093E+08         0.00000E+00
    0.00000E+00         0.00000E+00         0.00000E+00
 
   -0.15234E+05         0.13877E+07         0.00000E+00
    0.13877E+07        -0.16111E+08         0.00000E+00
    0.00000E+00         0.00000E+00         0.00000E+00
 
   -0.51641E+05         0.14775E+07         0.00000E+00
    0.14775E+07        -0.16130E+08         0.00000E+00
    0.00000E+00         0.00000E+00         0.00000E+00
 
   -0.85582E+05         0.15678E+07         0.00000E+00
    0.15678E+07        -0.16150E+08         0.00000E+00
    0.00000E+00         0.00000E+00         0.00000E+00
 
   -0.11712E+06         0.16587E+07         0.00000E+00
    0.16587E+07        -0.16171E+08         0.00000E+00
    0.00000E+00         0.00000E+00         0.00000E+00
 
   -0.14633E+06         0.17502E+07         0.00000E+00
    0.17502E+07        -0.16192E+08         0.00000E+00
    0.00000E+00         0.00000E+00         0.00000E+00
 
   -0.17326E+06         0.18424E+07         0.00000E+00
    0.18424E+07        -0.16214E+08         0.00000E+00
    0.00000E+00         0.00000E+00         0.00000E+00
 
   -0.19798E+06         0.19353E+07         0.00000E+00
    0.19353E+07        -0.16237E+08         0.00000E+00
    0.00000E+00         0.00000E+00         0.00000E+00
 
   -0.22055E+06         0.20289E+07         0.00000E+00
    0.20289E+07        -0.16261E+08         0.00000E+00
    0.00000E+00         0.00000E+00         0.00000E+00
 
   -0.24102E+06         0.21234E+07         0.00000E+00
    0.21234E+07        -0.16285E+08         0.00000E+00
    0.00000E+00         0.00000E+00         0.00000E+00
 
   -0.25945E+06         0.22187E+07         0.00000E+00
    0.22187E+07        -0.16310E+08         0.00000E+00
    0.00000E+00         0.00000E+00         0.00000E+00
 
   -0.27588E+06         0.23148E+07         0.00000E+00
    0.23148E+07        -0.16335E+08         0.00000E+00
    0.00000E+00         0.00000E+00         0.00000E+00
 
   -0.29036E+06         0.24119E+07         0.00000E+00
    0.24119E+07        -0.16361E+08         0.00000E+00
    0.00000E+00         0.00000E+00         0.00000E+00
 
   -0.30294E+06         0.25099E+07         0.00000E+00
    0.25099E+07        -0.16387E+08         0.00000E+00
    0.00000E+00         0.00000E+00         0.00000E+00
 
   -0.31364E+06         0.26088E+07         0.00000E+00
    0.26088E+07        -0.16414E+08         0.00000E+00
    0.00000E+00         0.00000E+00         0.00000E+00
 
   -0.32250E+06         0.27087E+07         0.00000E+00
    0.27087E+07        -0.16442E+08         0.00000E+00
    0.00000E+00         0.00000E+00         0.00000E+00
 
   -0.32955E+06         0.28096E+07         0.00000E+00
    0.28096E+07        -0.16470E+08         0.00000E+00
    0.00000E+00         0.00000E+00         0.00000E+00
 
   -0.33480E+06         0.29115E+07         0.00000E+00
    0.29115E+07        -0.16498E+08         0.00000E+00
    0.00000E+00         0.00000E+00         0.00000E+00
 
   -0.33824E+06         0.30144E+07         0.00000E+00
    0.30144E+07        -0.16527E+08         0.00000E+00
    0.00000E+00         0.00000E+00         0.00000E+00
 
   -0.33991E+06         0.31184E+07         0.00000E+00
    0.31184E+07        -0.16556E+08         0.00000E+00
    0.00000E+00         0.00000E+00         0.00000E+00
 
   -0.33982E+06         0.32235E+07         0.00000E+00
    0.32235E+07        -0.16586E+08         0.00000E+00
    0.00000E+00         0.00000E+00         0.00000E+00
 
   -0.33799E+06         0.33297E+07         0.00000E+00
    0.33297E+07        -0.16616E+08         0.00000E+00
    0.00000E+00         0.00000E+00         0.00000E+00
 
   -0.33444E+06         0.34370E+07         0.00000E+00
    0.34370E+07        -0.16647E+08         0.00000E+00
    0.00000E+00         0.00000E+00         0.00000E+00
 
   -0.32909E+06         0.35453E+07         0.00000E+00
    0.35453E+07        -0.16678E+08         0.00000E+00
    0.00000E+00         0.00000E+00         0.00000E+00
 
   -0.32172E+06         0.36544E+07         0.00000E+00
    0.36544E+07        -0.16709E+08         0.00000E+00
    0.00000E+00         0.00000E+00         0.00000E+00
 
   -0.31213E+06         0.37646E+07         0.00000E+00
    0.37646E+07        -0.16742E+08         0.00000E+00
    0.00000E+00         0.00000E+00         0.00000E+00
 
   -0.30007E+06         0.38759E+07         0.00000E+00
    0.38759E+07        -0.16776E+08         0.00000E+00
    0.00000E+00         0.00000E+00         0.00000E+00
 
   -0.28565E+06         0.39892E+07         0.00000E+00
    0.39892E+07        -0.16811E+08         0.00000E+00
    0.00000E+00         0.00000E+00         0.00000E+00
 
   -0.26977E+06         0.41051E+07         0.00000E+00
    0.41051E+07        -0.16847E+08         0.00000E+00
    0.00000E+00         0.00000E+00         0.00000E+00
 
   -0.25288E+06         0.42217E+07         0.00000E+00
    0.42217E+07        -0.16880E+08         0.00000E+00
    0.00000E+00         0.00000E+00         0.00000E+00
 
   -0.23510E+06         0.43388E+07         0.00000E+00
    0.43388E+07        -0.16911E+08         0.00000E+00
    0.00000E+00         0.00000E+00         0.00000E+00
 
   -0.21448E+06         0.44521E+07         0.00000E+00
    0.44521E+07        -0.16945E+08         0.00000E+00
    0.00000E+00         0.00000E+00         0.00000E+00
 
   -0.18545E+06         0.45609E+07         0.00000E+00
    0.45609E+07        -0.16983E+08         0.00000E+00
    0.00000E+00         0.00000E+00         0.00000E+00
 
   -0.14477E+06         0.46741E+07         0.00000E+00
    0.46741E+07        -0.17050E+08         0.00000E+00
    0.00000E+00         0.00000E+00         0.00000E+00
 
   -0.12564E+06         0.47795E+07         0.00000E+00
    0.47795E+07        -0.17118E+08         0.00000E+00
    0.00000E+00         0.00000E+00        -0.33221E+05
 
   -0.11963E+06         0.48792E+07         0.00000E+00
    0.48792E+07        -0.17185E+08         0.00000E+00
    0.00000E+00         0.00000E+00        -0.87932E+05
 
    0.62190E+06         0.43607E+05         0.00000E+00
    0.43607E+05        -0.16653E+08         0.00000E+00
    0.00000E+00         0.00000E+00         0.00000E+00
 
    0.53538E+06         0.12804E+06         0.00000E+00
    0.12804E+06        -0.16655E+08         0.00000E+00
    0.00000E+00         0.00000E+00         0.00000E+00
 
    0.45310E+06         0.21168E+06         0.00000E+00
    0.21168E+06        -0.16659E+08         0.00000E+00
    0.00000E+00         0.00000E+00         0.00000E+00
 
    0.37495E+06         0.29468E+06         0.00000E+00
    0.29468E+06        -0.16664E+08         0.00000E+00
    0.00000E+00         0.00000E+00         0.00000E+00
 
    0.30084E+06         0.37717E+06         0.00000E+00
    0.37717E+06        -0.16672E+08         0.00000E+00
    0.00000E+00         0.00000E+00         0.00000E+00
 
    0.23066E+06         0.45930E+06         0.00000E+00
    0.45930E+06        -0.16680E+08         0.00000E+00
    0.00000E+00         0.00000E+00         0.00000E+00
 
    0.16432E+06         0.54119E+06         0.00000E+00
    0.54119E+06        -0.16691E+08         0.00000E+00
    0.00000E+00         0.00000E+00         0.00000E+00
 
    0.10172E+06         0.62296E+06         0.00000E+00
    0.62296E+06        -0.16703E+08         0.00000E+00
    0.00000E+00         0.00000E+00         0.00000E+00
 
    0.42761E+05         0.70472E+06         0.00000E+00
    0.70472E+06        -0.16716E+08         0.00000E+00
    0.00000E+00         0.00000E+00         0.00000E+00
 
   -0.12665E+05         0.78658E+06         0.00000E+00
    0.78658E+06        -0.16731E+08         0.00000E+00
    0.00000E+00         0.00000E+00         0.00000E+00
 
   -0.64655E+05         0.86864E+06         0.00000E+00
    0.86864E+06        -0.16748E+08         0.00000E+00
    0.00000E+00         0.00000E+00         0.00000E+00
 
   -0.11331E+06         0.95099E+06         0.00000E+00
    0.95099E+06        -0.16765E+08         0.00000E+00
    0.00000E+00         0.00000E+00         0.00000E+00
 
   -0.15873E+06         0.10337E+07         0.00000E+00
    0.10337E+07        -0.16784E+08         0.00000E+00
    0.00000E+00         0.00000E+00         0.00000E+00
 
   -0.20101E+06         0.11169E+07         0.00000E+00
    0.11169E+07        -0.16804E+08         0.00000E+00
    0.00000E+00         0.00000E+00         0.00000E+00
 
   -0.24025E+06         0.12006E+07         0.00000E+00
    0.12006E+07        -0.16826E+08         0.00000E+00
    0.00000E+00         0.00000E+00         0.00000E+00
 
   -0.27655E+06         0.12849E+07         0.00000E+00
    0.12849E+07        -0.16848E+08         0.00000E+00
    0.00000E+00         0.00000E+00         0.00000E+00
 
   -0.31001E+06         0.13699E+07         0.00000E+00
    0.13699E+07        -0.16872E+08         0.00000E+00
    0.00000E+00         0.00000E+00         0.00000E+00
 
   -0.34070E+06         0.14555E+07         0.00000E+00
    0.14555E+07        -0.16896E+08         0.00000E+00
    0.00000E+00         0.00000E+00         0.00000E+00
 
   -0.36873E+06         0.15420E+07         0.00000E+00
    0.15420E+07        -0.16922E+08         0.00000E+00
    0.00000E+00         0.00000E+00         0.00000E+00
 
   -0.39418E+06         0.16293E+07         0.00000E+00
    0.16293E+07        -0.16948E+08         0.00000E+00
    0.00000E+00         0.00000E+00         0.00000E+00
 
   -0.41715E+06         0.17174E+07         0.00000E+00
    0.17174E+07        -0.16976E+08         0.00000E+00
    0.00000E+00         0.00000E+00         0.00000E+00
 
   -0.43770E+06         0.18064E+07         0.00000E+00
    0.18064E+07        -0.17004E+08         0.00000E+00
    0.00000E+00         0.00000E+00         0.00000E+00
 
   -0.45593E+06         0.18963E+07         0.00000E+00
    0.18963E+07        -0.17033E+08         0.00000E+00
    0.00000E+00         0.00000E+00         0.00000E+00
 
   -0.47190E+06         0.19872E+07         0.00000E+00
    0.19872E+07        -0.17063E+08         0.00000E+00
    0.00000E+00         0.00000E+00         0.00000E+00
 
   -0.48570E+06         0.20790E+07         0.00000E+00
    0.20790E+07        -0.17094E+08         0.00000E+00
    0.00000E+00         0.00000E+00         0.00000E+00
 
   -0.49738E+06         0.21718E+07         0.00000E+00
    0.21718E+07        -0.17125E+08         0.00000E+00
    0.00000E+00         0.00000E+00         0.00000E+00
 
   -0.50699E+06         0.22656E+07         0.00000E+00
    0.22656E+07        -0.17158E+08         0.00000E+00
    0.00000E+00         0.00000E+00         0.00000E+00
 
   -0.51459E+06         0.23604E+07         0.00000E+00
    0.23604E+07        -0.17190E+08         0.00000E+00
    0.00000E+00         0.00000E+00         0.00000E+00
 
   -0.52025E+06         0.24563E+07         0.00000E+00
    0.24563E+07        -0.17224E+08         0.00000E+00
    0.00000E+00         0.00000E+00         0.00000E+00
 
   -0.52402E+06         0.25531E+07         0.00000E+00
    0.25531E+07        -0.17258E+08         0.00000E+00
    0.00000E+00         0.00000E+00         0.00000E+00
 
   -0.52596E+06         0.26511E+07         0.00000E+00
    0.26511E+07        -0.17293E+08         0.00000E+00
    0.00000E+00         0.00000E+00         0.00000E+00
 
   -0.52615E+06         0.27500E+07         0.00000E+00
    0.27500E+07        -0.17329E+08         0.00000E+00
    0.00000E+00         0.00000E+00         0.00000E+00
 
   -0.52460E+06         0.28498E+07         0.00000E+00
    0.28498E+07        -0.17365E+08         0.00000E+00
    0.00000E+00         0.00000E+00         0.00000E+00
 
   -0.52123E+06         0.29505E+07         0.00000E+00
    0.29505E+07        -0.17401E+08         0.00000E+00
    0.00000E+00         0.00000E+00         0.00000E+00
 
   -0.51598E+06         0.30520E+07         0.00000E+00
    0.30520E+07        -0.17440E+08         0.00000E+00
    0.00000E+00         0.00000E+00         0.00000E+00
 
   -0.50871E+06         0.31544E+07         0.00000E+00
    0.31544E+07        -0.17478E+08         0.00000E+00
    0.00000E+00         0.00000E+00         0.00000E+00
 
   -0.49933E+06         0.32580E+07         0.00000E+00
    0.32580E+07        -0.17518E+08         0.00000E+00
    0.00000E+00         0.00000E+00         0.00000E+00
 
   -0.48831E+06         0.33632E+07         0.00000E+00
    0.33632E+07        -0.17559E+08         0.00000E+00
    0.00000E+00         0.00000E+00         0.00000E+00
 
   -0.47637E+06         0.34700E+07         0.00000E+00
    0.34700E+07        -0.17601E+08         0.00000E+00
    0.00000E+00         0.00000E+00         0.00000E+00
 
   -0.46398E+06         0.35773E+07         0.00000E+00
    0.35773E+07        -0.17639E+08         0.00000E+00
    0.00000E+00         0.00000E+00         0.00000E+00
 
   -0.45149E+06         0.36844E+07         0.00000E+00
    0.36844E+07        -0.17678E+08         0.00000E+00
    0.00000E+00         0.00000E+00         0.00000E+00
 
   -0.43731E+06         0.37876E+07         0.00000E+00
    0.37876E+07        -0.17718E+08         0.00000E+00
    0.00000E+00         0.00000E+00         0.00000E+00
 
   -0.41686E+06         0.38860E+07         0.00000E+00
    0.38860E+07        -0.17761E+08         0.00000E+00
    0.00000E+00         0.00000E+00         0.00000E+00
 
   -0.38808E+06         0.39877E+07         0.00000E+00
    0.39877E+07        -0.17828E+08         0.00000E+00
    0.00000E+00         0.00000E+00         0.00000E+00
 
   -0.36605E+06         0.40852E+07         0.00000E+00
    0.40852E+07        -0.17900E+08         0.00000E+00
    0.00000E+00         0.00000E+00        -0.17388E+05
 
   -0.36435E+06         0.41777E+07         0.00000E+00
    0.41777E+07        -0.17968E+08         0.00000E+00
    0.00000E+00         0.00000E+00        -0.65487E+05
 
   -0.36110E+06         0.42681E+07         0.00000E+00
    0.42681E+07        -0.18037E+08         0.00000E+00
    0.00000E+00         0.00000E+00        -0.11914E+06
 
   -0.39601E+06         0.43443E+07         0.00000E+00
    0.43443E+07        -0.18090E+08         0.00000E+00
    0.00000E+00         0.00000E+00        -0.21951E+06
 
   -0.44304E+06         0.44151E+07         0.00000E+00
    0.44151E+07        -0.18158E+08         0.00000E+00
    0.00000E+00         0.00000E+00        -0.33743E+06
 
   -0.49472E+06         0.44785E+07         0.00000E+00
    0.44785E+07        -0.18239E+08         0.00000E+00
    0.00000E+00         0.00000E+00        -0.46021E+06
 
    0.30751E+06         0.38160E+05         0.00000E+00
    0.38160E+05        -0.17368E+08         0.00000E+00
    0.00000E+00         0.00000E+00         0.00000E+00
 
    0.21734E+06         0.11252E+06         0.00000E+00
    0.11252E+06        -0.17370E+08         0.00000E+00
    0.00000E+00         0.00000E+00         0.00000E+00
 
    0.13218E+06         0.18639E+06         0.00000E+00
    0.18639E+06        -0.17374E+08         0.00000E+00
    0.00000E+00         0.00000E+00         0.00000E+00
 
    0.51889E+05         0.25992E+06         0.00000E+00
    0.25992E+06        -0.17381E+08         0.00000E+00
    0.00000E+00         0.00000E+00         0.00000E+00
 
   -0.23669E+05         0.33324E+06         0.00000E+00
    0.33324E+06        -0.17390E+08         0.00000E+00
    0.00000E+00         0.00000E+00         0.00000E+00
 
   -0.94631E+05         0.40649E+06         0.00000E+00
    0.40649E+06        -0.17401E+08         0.00000E+00
    0.00000E+00         0.00000E+00         0.00000E+00
 
   -0.16114E+06         0.47980E+06         0.00000E+00
    0.47980E+06        -0.17413E+08         0.00000E+00
    0.00000E+00         0.00000E+00         0.00000E+00
 
   -0.22332E+06         0.55328E+06         0.00000E+00
    0.55328E+06        -0.17428E+08         0.00000E+00
    0.00000E+00         0.00000E+00         0.00000E+00
 
   -0.28132E+06         0.62705E+06         0.00000E+00
    0.62705E+06        -0.17444E+08         0.00000E+00
    0.00000E+00         0.00000E+00         0.00000E+00
 
   -0.33528E+06         0.70122E+06         0.00000E+00
    0.70122E+06        -0.17462E+08         0.00000E+00
    0.00000E+00         0.00000E+00         0.00000E+00
 
   -0.38532E+06         0.77587E+06         0.00000E+00
    0.77587E+06        -0.17482E+08         0.00000E+00
    0.00000E+00         0.00000E+00         0.00000E+00
 
   -0.43158E+06         0.85111E+06         0.00000E+00
    0.85111E+06        -0.17503E+08         0.00000E+00
    0.00000E+00         0.00000E+00         0.00000E+00
 
   -0.47419E+06         0.92700E+06         0.00000E+00
    0.92700E+06        -0.17526E+08         0.00000E+00
    0.00000E+00         0.00000E+00         0.00000E+00
 
   -0.51329E+06         0.10036E+07         0.00000E+00
    0.10036E+07        -0.17550E+08         0.00000E+00
    0.00000E+00         0.00000E+00         0.00000E+00
 
   -0.54901E+06         0.10811E+07         0.00000E+00
    0.10811E+07        -0.17575E+08         0.00000E+00
    0.00000E+00         0.00000E+00         0.00000E+00
 
   -0.58148E+06         0.11594E+07         0.00000E+00
    0.11594E+07        -0.17602E+08         0.00000E+00
    0.00000E+00         0.00000E+00         0.00000E+00
 
   -0.61083E+06         0.12386E+07         0.00000E+00
    0.12386E+07        -0.17630E+08         0.00000E+00
    0.00000E+00         0.00000E+00         0.00000E+00
 
   -0.63719E+06         0.13189E+07         0.00000E+00
    0.13189E+07        -0.17659E+08         0.00000E+00
    0.00000E+00         0.00000E+00         0.00000E+00
 
   -0.66067E+06         0.14001E+07         0.00000E+00
    0.14001E+07        -0.17690E+08         0.00000E+00
    0.00000E+00         0.00000E+00         0.00000E+00
 
   -0.68139E+06         0.14823E+07         0.00000E+00
    0.14823E+07        -0.17721E+08         0.00000E+00
    0.00000E+00         0.00000E+00         0.00000E+00
 
   -0.69944E+06         0.15656E+07         0.00000E+00
    0.15656E+07        -0.17754E+08         0.00000E+00
    0.00000E+00         0.00000E+00         0.00000E+00
 
   -0.71495E+06         0.16500E+07         0.00000E+00
    0.16500E+07        -0.17787E+08         0.00000E+00
    0.00000E+00         0.00000E+00         0.00000E+00
 
   -0.72803E+06         0.17355E+07         0.00000E+00
    0.17355E+07        -0.17822E+08         0.00000E+00
    0.00000E+00         0.00000E+00         0.00000E+00
 
   -0.73877E+06         0.18221E+07         0.00000E+00
    0.18221E+07        -0.17857E+08         0.00000E+00
    0.00000E+00         0.00000E+00         0.00000E+00
 
   -0.74728E+06         0.19098E+07         0.00000E+00
    0.19098E+07        -0.17893E+08         0.00000E+00
    0.00000E+00         0.00000E+00         0.00000E+00
 
   -0.75369E+06         0.19987E+07         0.00000E+00
    0.19987E+07        -0.17930E+08         0.00000E+00
    0.00000E+00         0.00000E+00         0.00000E+00
 
   -0.75810E+06         0.20886E+07         0.00000E+00
    0.20886E+07        -0.17968E+08         0.00000E+00
    0.00000E+00         0.00000E+00         0.00000E+00
 
   -0.76056E+06         0.21796E+07         0.00000E+00
    0.21796E+07        -0.18006E+08         0.00000E+00
    0.00000E+00         0.00000E+00         0.00000E+00
 
   -0.76110E+06         0.22715E+07         0.00000E+00
    0.22715E+07        -0.18046E+08         0.00000E+00
    0.00000E+00         0.00000E+00         0.00000E+00
 
   -0.75969E+06         0.23644E+07         0.00000E+00
    0.23644E+07        -0.18086E+08         0.00000E+00
    0.00000E+00         0.00000E+00         0.00000E+00
 
   -0.75623E+06         0.24582E+07         0.00000E+00
    0.24582E+07        -0.18127E+08         0.00000E+00
    0.00000E+00         0.00000E+00         0.00000E+00
 
   -0.75083E+06         0.25534E+07         0.00000E+00
    0.25534E+07        -0.18169E+08         0.00000E+00
    0.00000E+00         0.00000E+00         0.00000E+00
 
   -0.74384E+06         0.26499E+07         0.00000E+00
    0.26499E+07        -0.18212E+08         0.00000E+00
    0.00000E+00         0.00000E+00         0.00000E+00
 
   -0.73578E+06         0.27480E+07         0.00000E+00
    0.27480E+07        -0.18257E+08         0.00000E+00
    0.00000E+00         0.00000E+00         0.00000E+00
 
   -0.72698E+06         0.28467E+07         0.00000E+00
    0.28467E+07        -0.18298E+08         0.00000E+00
    0.00000E+00         0.00000E+00         0.00000E+00
 
   -0.71822E+06         0.29465E+07         0.00000E+00
    0.29465E+07        -0.18339E+08         0.00000E+00
    0.00000E+00         0.00000E+00         0.00000E+00
 
   -0.70926E+06         0.30443E+07         0.00000E+00
    0.30443E+07        -0.18381E+08         0.00000E+00
    0.00000E+00         0.00000E+00         0.00000E+00
 
   -0.69729E+06         0.31385E+07         0.00000E+00
    0.31385E+07        -0.18425E+08         0.00000E+00
    0.00000E+00         0.00000E+00         0.00000E+00
 
   -0.67927E+06         0.32310E+07         0.00000E+00
    0.32310E+07        -0.18473E+08         0.00000E+00
    0.00000E+00         0.00000E+00         0.00000E+00
 
   -0.65375E+06         0.33266E+07         0.00000E+00
    0.33266E+07        -0.18544E+08         0.00000E+00
    0.00000E+00         0.00000E+00         0.00000E+00
 
   -0.63904E+06         0.34188E+07         0.00000E+00
    0.34188E+07        -0.18612E+08         0.00000E+00
    0.00000E+00         0.00000E+00        -0.22000E+05
 
   -0.63513E+06         0.35099E+07         0.00000E+00
    0.35099E+07        -0.18676E+08         0.00000E+00
    0.00000E+00         0.00000E+00        -0.66051E+05
 
   -0.62453E+06         0.36023E+07         0.00000E+00
    0.36023E+07        -0.18741E+08         0.00000E+00
    0.00000E+00         0.00000E+00        -0.11227E+06
 
   -0.64511E+06         0.36865E+07         0.00000E+00
    0.36865E+07        -0.18789E+08         0.00000E+00
    0.00000E+00         0.00000E+00        -0.20258E+06
 
   -0.67526E+06         0.37654E+07         0.00000E+00
    0.37654E+07        -0.18841E+08         0.00000E+00
    0.00000E+00         0.00000E+00        -0.31110E+06
 
   -0.71159E+06         0.38415E+07         0.00000E+00
    0.38415E+07        -0.18907E+08         0.00000E+00
    0.00000E+00         0.00000E+00        -0.43015E+06
 
   -0.74838E+06         0.39093E+07         0.00000E+00
    0.39093E+07        -0.18977E+08         0.00000E+00
    0.00000E+00         0.00000E+00        -0.54713E+06
 
   -0.79177E+06         0.39729E+07         0.00000E+00
    0.39729E+07        -0.19052E+08         0.00000E+00
    0.00000E+00         0.00000E+00        -0.66114E+06
 
   -0.83976E+06         0.40357E+07         0.00000E+00
    0.40357E+07        -0.19125E+08         0.00000E+00
    0.00000E+00         0.00000E+00        -0.76846E+06
 
   -0.89247E+06         0.40997E+07         0.00000E+00
    0.40997E+07        -0.19196E+08         0.00000E+00
    0.00000E+00         0.00000E+00        -0.87031E+06
 
   -0.79313E+05         0.31560E+05         0.00000E+00
    0.31560E+05        -0.18098E+08         0.00000E+00
    0.00000E+00         0.00000E+00         0.00000E+00
 
   -0.17140E+06         0.93856E+05         0.00000E+00
    0.93856E+05        -0.18101E+08         0.00000E+00
    0.00000E+00         0.00000E+00         0.00000E+00
 
   -0.25772E+06         0.15602E+06         0.00000E+00
    0.15602E+06        -0.18106E+08         0.00000E+00
    0.00000E+00         0.00000E+00         0.00000E+00
 
   -0.33844E+06         0.21823E+06         0.00000E+00
    0.21823E+06        -0.18114E+08         0.00000E+00
    0.00000E+00         0.00000E+00         0.00000E+00
 
   -0.41373E+06         0.28063E+06         0.00000E+00
    0.28063E+06        -0.18124E+08         0.00000E+00
    0.00000E+00         0.00000E+00         0.00000E+00
 
   -0.48377E+06         0.34334E+06         0.00000E+00
    0.34334E+06        -0.18137E+08         0.00000E+00
    0.00000E+00         0.00000E+00         0.00000E+00
 
   -0.54873E+06         0.40650E+06         0.00000E+00
    0.40650E+06        -0.18152E+08         0.00000E+00
    0.00000E+00         0.00000E+00         0.00000E+00
 
   -0.60880E+06         0.47022E+06         0.00000E+00
    0.47022E+06        -0.18169E+08         0.00000E+00
    0.00000E+00         0.00000E+00         0.00000E+00
 
   -0.66413E+06         0.53462E+06         0.00000E+00
    0.53462E+06        -0.18188E+08         0.00000E+00
    0.00000E+00         0.00000E+00         0.00000E+00
 
   -0.71492E+06         0.59980E+06         0.00000E+00
    0.59980E+06        -0.18209E+08         0.00000E+00
    0.00000E+00         0.00000E+00         0.00000E+00
 
   -0.76134E+06         0.66586E+06         0.00000E+00
    0.66586E+06        -0.18232E+08         0.00000E+00
    0.00000E+00         0.00000E+00         0.00000E+00
 
   -0.80356E+06         0.73287E+06         0.00000E+00
    0.73287E+06        -0.18256E+08         0.00000E+00
    0.00000E+00         0.00000E+00         0.00000E+00
 
   -0.84176E+06         0.80091E+06         0.00000E+00
    0.80091E+06        -0.18283E+08         0.00000E+00
    0.00000E+00         0.00000E+00         0.00000E+00
 
   -0.87609E+06         0.87005E+06         0.00000E+00
    0.87005E+06        -0.18311E+08         0.00000E+00
    0.00000E+00         0.00000E+00         0.00000E+00
 
   -0.90674E+06         0.94035E+06         0.00000E+00
    0.94035E+06        -0.18340E+08         0.00000E+00
    0.00000E+00         0.00000E+00         0.00000E+00
 
   -0.93386E+06         0.10119E+07         0.00000E+00
    0.10119E+07        -0.18371E+08         0.00000E+00
    0.00000E+00         0.00000E+00         0.00000E+00
 
   -0.95763E+06         0.10846E+07         0.00000E+00
    0.10846E+07        -0.18404E+08         0.00000E+00
    0.00000E+00         0.00000E+00         0.00000E+00
 
   -0.97820E+06         0.11587E+07         0.00000E+00
    0.11587E+07        -0.18437E+08         0.00000E+00
    0.00000E+00         0.00000E+00         0.00000E+00
 
   -0.99576E+06         0.12341E+07         0.00000E+00
    0.12341E+07        -0.18472E+08         0.00000E+00
    0.00000E+00         0.00000E+00         0.00000E+00
 
   -0.10105E+07         0.13110E+07         0.00000E+00
    0.13110E+07        -0.18508E+08         0.00000E+00
    0.00000E+00         0.00000E+00         0.00000E+00
 
   -0.10226E+07         0.13891E+07         0.00000E+00
    0.13891E+07        -0.18545E+08         0.00000E+00
    0.00000E+00         0.00000E+00         0.00000E+00
 
   -0.10322E+07         0.14685E+07         0.00000E+00
    0.14685E+07        -0.18583E+08         0.00000E+00
    0.00000E+00         0.00000E+00         0.00000E+00
 
   -0.10393E+07         0.15491E+07         0.00000E+00
    0.15491E+07        -0.18623E+08         0.00000E+00
    0.00000E+00         0.00000E+00         0.00000E+00
 
   -0.10440E+07         0.16309E+07         0.00000E+00
    0.16309E+07        -0.18663E+08         0.00000E+00
    0.00000E+00         0.00000E+00         0.00000E+00
 
   -0.10463E+07         0.17140E+07         0.00000E+00
    0.17140E+07        -0.18704E+08         0.00000E+00
    0.00000E+00         0.00000E+00         0.00000E+00
 
   -0.10463E+07         0.17986E+07         0.00000E+00
    0.17986E+07        -0.18746E+08         0.00000E+00
    0.00000E+00         0.00000E+00         0.00000E+00
 
   -0.10444E+07         0.18845E+07         0.00000E+00
    0.18845E+07        -0.18789E+08         0.00000E+00
    0.00000E+00         0.00000E+00         0.00000E+00
 
   -0.10407E+07         0.19722E+07         0.00000E+00
    0.19722E+07        -0.18833E+08         0.00000E+00
    0.00000E+00         0.00000E+00         0.00000E+00
 
   -0.10357E+07         0.20613E+07         0.00000E+00
    0.20613E+07        -0.18876E+08         0.00000E+00
    0.00000E+00         0.00000E+00         0.00000E+00
 
   -0.10301E+07         0.21519E+07         0.00000E+00
    0.21519E+07        -0.18919E+08         0.00000E+00
    0.00000E+00         0.00000E+00         0.00000E+00
 
   -0.10244E+07         0.22430E+07         0.00000E+00
    0.22430E+07        -0.18962E+08         0.00000E+00
    0.00000E+00         0.00000E+00         0.00000E+00
 
   -0.10177E+07         0.23323E+07         0.00000E+00
    0.23323E+07        -0.19006E+08         0.00000E+00
    0.00000E+00         0.00000E+00         0.00000E+00
 
   -0.10079E+07         0.24199E+07         0.00000E+00
    0.24199E+07        -0.19051E+08         0.00000E+00
    0.00000E+00         0.00000E+00         0.00000E+00
 
   -0.99317E+06         0.25069E+07         0.00000E+00
    0.25069E+07        -0.19098E+08         0.00000E+00
    0.00000E+00         0.00000E+00         0.00000E+00
 
   -0.97271E+06         0.25967E+07         0.00000E+00
    0.25967E+07        -0.19165E+08         0.00000E+00
    0.00000E+00         0.00000E+00         0.00000E+00
 
   -0.95149E+06         0.26857E+07         0.00000E+00
    0.26857E+07        -0.19231E+08         0.00000E+00
    0.00000E+00         0.00000E+00        -0.90189E+04
 
   -0.94652E+06         0.27745E+07         0.00000E+00
    0.27745E+07        -0.19290E+08         0.00000E+00
    0.00000E+00         0.00000E+00        -0.47829E+05
 
   -0.93428E+06         0.28663E+07         0.00000E+00
    0.28663E+07        -0.19349E+08         0.00000E+00
    0.00000E+00         0.00000E+00        -0.88805E+05
 
   -0.92062E+06         0.29597E+07         0.00000E+00
    0.29597E+07        -0.19405E+08         0.00000E+00
    0.00000E+00         0.00000E+00        -0.14001E+06
 
   -0.93563E+06         0.30470E+07         0.00000E+00
    0.30470E+07        -0.19443E+08         0.00000E+00
    0.00000E+00         0.00000E+00        -0.23524E+06
 
   -0.95225E+06         0.31324E+07         0.00000E+00
    0.31324E+07        -0.19491E+08         0.00000E+00
    0.00000E+00         0.00000E+00        -0.34096E+06
 
   -0.97248E+06         0.32149E+07         0.00000E+00
    0.32149E+07        -0.19548E+08         0.00000E+00
    0.00000E+00         0.00000E+00        -0.45518E+06
 
   -0.99381E+06         0.32904E+07         0.00000E+00
    0.32904E+07        -0.19608E+08         0.00000E+00
    0.00000E+00         0.00000E+00        -0.56880E+06
 
   -0.10215E+07         0.33612E+07         0.00000E+00
    0.33612E+07        -0.19674E+08         0.00000E+00
    0.00000E+00         0.00000E+00        -0.68094E+06
 
   -0.10551E+07         0.34306E+07         0.00000E+00
    0.34306E+07        -0.19740E+08         0.00000E+00
    0.00000E+00         0.00000E+00        -0.78905E+06
 
   -0.10932E+07         0.34994E+07         0.00000E+00
    0.34994E+07        -0.19805E+08         0.00000E+00
    0.00000E+00         0.00000E+00        -0.89175E+06
 
   -0.11363E+07         0.35692E+07         0.00000E+00
    0.35692E+07        -0.19870E+08         0.00000E+00
    0.00000E+00         0.00000E+00        -0.99115E+06
 
   -0.11822E+07         0.36395E+07         0.00000E+00
    0.36395E+07        -0.19932E+08         0.00000E+00
    0.00000E+00         0.00000E+00        -0.10867E+07
 
   -0.12313E+07         0.37098E+07         0.00000E+00
    0.37098E+07        -0.19993E+08         0.00000E+00
    0.00000E+00         0.00000E+00        -0.11789E+07
 
   -0.12839E+07         0.37799E+07         0.00000E+00
    0.37799E+07        -0.20054E+08         0.00000E+00
    0.00000E+00         0.00000E+00        -0.12677E+07
 
   -0.54816E+06         0.23954E+05         0.00000E+00
    0.23954E+05        -0.18844E+08         0.00000E+00
    0.00000E+00         0.00000E+00         0.00000E+00
 
   -0.64005E+06         0.72151E+05         0.00000E+00
    0.72151E+05        -0.18847E+08         0.00000E+00
    0.00000E+00         0.00000E+00         0.00000E+00
 
   -0.72541E+06         0.12077E+06         0.00000E+00
    0.12077E+06        -0.18853E+08         0.00000E+00
    0.00000E+00         0.00000E+00         0.00000E+00
 
   -0.80448E+06         0.16987E+06         0.00000E+00
    0.16987E+06        -0.18862E+08         0.00000E+00
    0.00000E+00         0.00000E+00         0.00000E+00
 
   -0.87744E+06         0.21956E+06         0.00000E+00
    0.21956E+06        -0.18874E+08         0.00000E+00
    0.00000E+00         0.00000E+00         0.00000E+00
 
   -0.94445E+06         0.27001E+06         0.00000E+00
    0.27001E+06        -0.18888E+08         0.00000E+00
    0.00000E+00         0.00000E+00         0.00000E+00
 
   -0.10057E+07         0.32137E+06         0.00000E+00
    0.32137E+06        -0.18905E+08         0.00000E+00
    0.00000E+00         0.00000E+00         0.00000E+00
 
   -0.10614E+07         0.37377E+06         0.00000E+00
    0.37377E+06        -0.18925E+08         0.00000E+00
    0.00000E+00         0.00000E+00         0.00000E+00
 
   -0.11118E+07         0.42737E+06         0.00000E+00
    0.42737E+06        -0.18947E+08         0.00000E+00
    0.00000E+00         0.00000E+00         0.00000E+00
 
   -0.11571E+07         0.48230E+06         0.00000E+00
    0.48230E+06        -0.18971E+08         0.00000E+00
    0.00000E+00         0.00000E+00         0.00000E+00
 
   -0.11976E+07         0.53866E+06         0.00000E+00
    0.53866E+06        -0.18997E+08         0.00000E+00
    0.00000E+00         0.00000E+00         0.00000E+00
 
   -0.12335E+07         0.59655E+06         0.00000E+00
    0.59655E+06        -0.19025E+08         0.00000E+00
    0.00000E+00         0.00000E+00         0.00000E+00
 
   -0.12651E+07         0.65603E+06         0.00000E+00
    0.65603E+06        -0.19055E+08         0.00000E+00
    0.00000E+00         0.00000E+00         0.00000E+00
 
   -0.12927E+07         0.71710E+06         0.00000E+00
    0.71710E+06        -0.19087E+08         0.00000E+00
    0.00000E+00         0.00000E+00         0.00000E+00
 
   -0.13164E+07         0.77974E+06         0.00000E+00
    0.77974E+06        -0.19120E+08         0.00000E+00
    0.00000E+00         0.00000E+00         0.00000E+00
 
   -0.13364E+07         0.84392E+06         0.00000E+00
    0.84392E+06        -0.19155E+08         0.00000E+00
    0.00000E+00         0.00000E+00         0.00000E+00
 
   -0.13528E+07         0.90972E+06         0.00000E+00
    0.90972E+06        -0.19191E+08         0.00000E+00
    0.00000E+00         0.00000E+00         0.00000E+00
 
   -0.13659E+07         0.97722E+06         0.00000E+00
    0.97722E+06        -0.19229E+08         0.00000E+00
    0.00000E+00         0.00000E+00         0.00000E+00
 
   -0.13758E+07         0.10463E+07         0.00000E+00
    0.10463E+07        -0.19268E+08         0.00000E+00
    0.00000E+00         0.00000E+00         0.00000E+00
 
   -0.13826E+07         0.11171E+07         0.00000E+00
    0.11171E+07        -0.19308E+08         0.00000E+00
    0.00000E+00         0.00000E+00         0.00000E+00
 
   -0.13866E+07         0.11899E+07         0.00000E+00
    0.11899E+07        -0.19350E+08         0.00000E+00
    0.00000E+00         0.00000E+00         0.00000E+00
 
   -0.13881E+07         0.12648E+07         0.00000E+00
    0.12648E+07        -0.19393E+08         0.00000E+00
    0.00000E+00         0.00000E+00         0.00000E+00
 
   -0.13877E+07         0.13416E+07         0.00000E+00
    0.13416E+07        -0.19435E+08         0.00000E+00
    0.00000E+00         0.00000E+00         0.00000E+00
 
   -0.13863E+07         0.14207E+07         0.00000E+00
    0.14207E+07        -0.19478E+08         0.00000E+00
    0.00000E+00         0.00000E+00         0.00000E+00
 
   -0.13841E+07         0.15004E+07         0.00000E+00
    0.15004E+07        -0.19521E+08         0.00000E+00
    0.00000E+00         0.00000E+00         0.00000E+00
 
   -0.13803E+07         0.15793E+07         0.00000E+00
    0.15793E+07        -0.19565E+08         0.00000E+00
    0.00000E+00         0.00000E+00         0.00000E+00
 
   -0.13734E+07         0.16580E+07         0.00000E+00
    0.16580E+07        -0.19610E+08         0.00000E+00
    0.00000E+00         0.00000E+00         0.00000E+00
 
   -0.13623E+07         0.17368E+07         0.00000E+00
    0.17368E+07        -0.19654E+08         0.00000E+00
    0.00000E+00         0.00000E+00         0.00000E+00
 
   -0.13469E+07         0.18179E+07         0.00000E+00
    0.18179E+07        -0.19711E+08         0.00000E+00
    0.00000E+00         0.00000E+00         0.00000E+00
 
   -0.13252E+07         0.19003E+07         0.00000E+00
    0.19003E+07        -0.19775E+08         0.00000E+00
    0.00000E+00         0.00000E+00         0.00000E+00
 
   -0.13136E+07         0.19833E+07         0.00000E+00
    0.19833E+07        -0.19832E+08         0.00000E+00
    0.00000E+00         0.00000E+00        -0.22377E+05
 
   -0.13029E+07         0.20694E+07         0.00000E+00
    0.20694E+07        -0.19886E+08         0.00000E+00
    0.00000E+00         0.00000E+00        -0.56375E+05
 
   -0.12851E+07         0.21594E+07         0.00000E+00
    0.21594E+07        -0.19940E+08         0.00000E+00
    0.00000E+00         0.00000E+00        -0.92564E+05
 
   -0.12634E+07         0.22525E+07         0.00000E+00
    0.22525E+07        -0.19991E+08         0.00000E+00
    0.00000E+00         0.00000E+00        -0.13664E+06
 
   -0.12653E+07         0.23432E+07         0.00000E+00
    0.23432E+07        -0.20025E+08         0.00000E+00
    0.00000E+00         0.00000E+00        -0.22160E+06
 
   -0.12656E+07         0.24325E+07         0.00000E+00
    0.24325E+07        -0.20062E+08         0.00000E+00
    0.00000E+00         0.00000E+00        -0.31494E+06
 
   -0.12708E+07         0.25215E+07         0.00000E+00
    0.25215E+07        -0.20110E+08         0.00000E+00
    0.00000E+00         0.00000E+00        -0.42036E+06
 
   -0.12754E+07         0.26058E+07         0.00000E+00
    0.26058E+07        -0.20161E+08         0.00000E+00
    0.00000E+00         0.00000E+00        -0.52816E+06
 
   -0.12834E+07         0.26843E+07         0.00000E+00
    0.26843E+07        -0.20215E+08         0.00000E+00
    0.00000E+00         0.00000E+00        -0.63598E+06
 
   -0.12984E+07         0.27599E+07         0.00000E+00
    0.27599E+07        -0.20274E+08         0.00000E+00
    0.00000E+00         0.00000E+00        -0.74361E+06
 
   -0.13184E+07         0.28340E+07         0.00000E+00
    0.28340E+07        -0.20334E+08         0.00000E+00
    0.00000E+00         0.00000E+00        -0.84810E+06
 
   -0.13431E+07         0.29073E+07         0.00000E+00
    0.29073E+07        -0.20394E+08         0.00000E+00
    0.00000E+00         0.00000E+00        -0.94908E+06
 
   -0.13727E+07         0.29807E+07         0.00000E+00
    0.29807E+07        -0.20454E+08         0.00000E+00
    0.00000E+00         0.00000E+00        -0.10476E+07
 
   -0.14052E+07         0.30541E+07         0.00000E+00
    0.30541E+07        -0.20513E+08         0.00000E+00
    0.00000E+00         0.00000E+00        -0.11429E+07
 
   -0.14409E+07         0.31274E+07         0.00000E+00
    0.31274E+07        -0.20570E+08         0.00000E+00
    0.00000E+00         0.00000E+00        -0.12352E+07
 
   -0.14800E+07         0.32008E+07         0.00000E+00
    0.32008E+07        -0.20627E+08         0.00000E+00
    0.00000E+00         0.00000E+00        -0.13249E+07
 
   -0.15224E+07         0.32743E+07         0.00000E+00
    0.32743E+07        -0.20684E+08         0.00000E+00
    0.00000E+00         0.00000E+00        -0.14116E+07
 
   -0.15684E+07         0.33471E+07         0.00000E+00
    0.33471E+07        -0.20740E+08         0.00000E+00
    0.00000E+00         0.00000E+00        -0.14958E+07
 
   -0.16173E+07         0.34209E+07         0.00000E+00
    0.34209E+07        -0.20795E+08         0.00000E+00
    0.00000E+00         0.00000E+00        -0.15777E+07
 
   -0.16695E+07         0.34949E+07         0.00000E+00
    0.34949E+07        -0.20850E+08         0.00000E+00
    0.00000E+00         0.00000E+00        -0.16574E+07
 
   -0.11080E+07         0.15241E+05         0.00000E+00
    0.15241E+05        -0.19605E+08         0.00000E+00
    0.00000E+00         0.00000E+00         0.00000E+00
 
   -0.11975E+07         0.47832E+05         0.00000E+00
    0.47832E+05        -0.19608E+08         0.00000E+00
    0.00000E+00         0.00000E+00         0.00000E+00
 
   -0.12798E+07         0.80843E+05         0.00000E+00
    0.80843E+05        -0.19615E+08         0.00000E+00
    0.00000E+00         0.00000E+00         0.00000E+00
 
   -0.13550E+07         0.11471E+06         0.00000E+00
    0.11471E+06        -0.19625E+08         0.00000E+00
    0.00000E+00         0.00000E+00         0.00000E+00
 
   -0.14231E+07         0.14973E+06         0.00000E+00
    0.14973E+06        -0.19639E+08         0.00000E+00
    0.00000E+00         0.00000E+00         0.00000E+00
 
   -0.14844E+07         0.18615E+06         0.00000E+00
    0.18615E+06        -0.19656E+08         0.00000E+00
    0.00000E+00         0.00000E+00         0.00000E+00
 
   -0.15392E+07         0.22412E+06         0.00000E+00
    0.22412E+06        -0.19675E+08         0.00000E+00
    0.00000E+00         0.00000E+00         0.00000E+00
 
   -0.15878E+07         0.26380E+06         0.00000E+00
    0.26380E+06        -0.19697E+08         0.00000E+00
    0.00000E+00         0.00000E+00         0.00000E+00
 
   -0.16304E+07         0.30528E+06         0.00000E+00
    0.30528E+06        -0.19722E+08         0.00000E+00
    0.00000E+00         0.00000E+00         0.00000E+00
 
   -0.16672E+07         0.34869E+06         0.00000E+00
    0.34869E+06        -0.19749E+08         0.00000E+00
    0.00000E+00         0.00000E+00         0.00000E+00
 
   -0.16987E+07         0.39415E+06         0.00000E+00
    0.39415E+06        -0.19778E+08         0.00000E+00
    0.00000E+00         0.00000E+00         0.00000E+00
 
   -0.17250E+07         0.44180E+06         0.00000E+00
    0.44180E+06        -0.19810E+08         0.00000E+00
    0.00000E+00         0.00000E+00         0.00000E+00
 
   -0.17465E+07         0.49184E+06         0.00000E+00
    0.49184E+06        -0.19844E+08         0.00000E+00
    0.00000E+00         0.00000E+00         0.00000E+00
 
   -0.17636E+07         0.54451E+06         0.00000E+00
    0.54451E+06        -0.19880E+08         0.00000E+00
    0.00000E+00         0.00000E+00         0.00000E+00
 
   -0.17770E+07         0.59998E+06         0.00000E+00
    0.59998E+06        -0.19917E+08         0.00000E+00
    0.00000E+00         0.00000E+00         0.00000E+00
 
   -0.17875E+07         0.65829E+06         0.00000E+00
    0.65829E+06        -0.19955E+08         0.00000E+00
    0.00000E+00         0.00000E+00         0.00000E+00
 
   -0.17956E+07         0.71859E+06         0.00000E+00
    0.71859E+06        -0.19994E+08         0.00000E+00
    0.00000E+00         0.00000E+00         0.00000E+00
 
   -0.18012E+07         0.77983E+06         0.00000E+00
    0.77983E+06        -0.20035E+08         0.00000E+00
    0.00000E+00         0.00000E+00         0.00000E+00
 
   -0.18035E+07         0.84214E+06         0.00000E+00
    0.84214E+06        -0.20076E+08         0.00000E+00
    0.00000E+00         0.00000E+00         0.00000E+00
 
   -0.18021E+07         0.90572E+06         0.00000E+00
    0.90572E+06        -0.20119E+08         0.00000E+00
    0.00000E+00         0.00000E+00         0.00000E+00
 
   -0.17966E+07         0.97067E+06         0.00000E+00
    0.97067E+06        -0.20161E+08         0.00000E+00
    0.00000E+00         0.00000E+00         0.00000E+00
 
   -0.17871E+07         0.10373E+07         0.00000E+00
    0.10373E+07        -0.20205E+08         0.00000E+00
    0.00000E+00         0.00000E+00         0.00000E+00
 
   -0.17733E+07         0.11064E+07         0.00000E+00
    0.11064E+07        -0.20260E+08         0.00000E+00
    0.00000E+00         0.00000E+00         0.00000E+00
 
   -0.17542E+07         0.11772E+07         0.00000E+00
    0.11772E+07        -0.20317E+08         0.00000E+00
    0.00000E+00         0.00000E+00        -0.16984E+04
 
   -0.17466E+07         0.12504E+07         0.00000E+00
    0.12504E+07        -0.20366E+08         0.00000E+00
    0.00000E+00         0.00000E+00        -0.27581E+05
 
   -0.17329E+07         0.13279E+07         0.00000E+00
    0.13279E+07        -0.20416E+08         0.00000E+00
    0.00000E+00         0.00000E+00        -0.55360E+05
 
   -0.17130E+07         0.14099E+07         0.00000E+00
    0.14099E+07        -0.20464E+08         0.00000E+00
    0.00000E+00         0.00000E+00        -0.85030E+05
 
   -0.16860E+07         0.14962E+07         0.00000E+00
    0.14962E+07        -0.20512E+08         0.00000E+00
    0.00000E+00         0.00000E+00        -0.11715E+06
 
   -0.16714E+07         0.15841E+07         0.00000E+00
    0.15841E+07        -0.20548E+08         0.00000E+00
    0.00000E+00         0.00000E+00        -0.17799E+06
 
   -0.16601E+07         0.16723E+07         0.00000E+00
    0.16723E+07        -0.20578E+08         0.00000E+00
    0.00000E+00         0.00000E+00        -0.25512E+06
 
   -0.16502E+07         0.17615E+07         0.00000E+00
    0.17615E+07        -0.20616E+08         0.00000E+00
    0.00000E+00         0.00000E+00        -0.34311E+06
 
   -0.16404E+07         0.18498E+07         0.00000E+00
    0.18498E+07        -0.20658E+08         0.00000E+00
    0.00000E+00         0.00000E+00        -0.43820E+06
 
   -0.16303E+07         0.19352E+07         0.00000E+00
    0.19352E+07        -0.20702E+08         0.00000E+00
    0.00000E+00         0.00000E+00        -0.53646E+06
 
   -0.16232E+07         0.20165E+07         0.00000E+00
    0.20165E+07        -0.20749E+08         0.00000E+00
    0.00000E+00         0.00000E+00        -0.63637E+06
 
   -0.16220E+07         0.20954E+07         0.00000E+00
    0.20954E+07        -0.20801E+08         0.00000E+00
    0.00000E+00         0.00000E+00        -0.73787E+06
 
   -0.16259E+07         0.21730E+07         0.00000E+00
    0.21730E+07        -0.20855E+08         0.00000E+00
    0.00000E+00         0.00000E+00        -0.83901E+06
 
   -0.16335E+07         0.22493E+07         0.00000E+00
    0.22493E+07        -0.20909E+08         0.00000E+00
    0.00000E+00         0.00000E+00        -0.93772E+06
 
   -0.16463E+07         0.23253E+07         0.00000E+00
    0.23253E+07        -0.20965E+08         0.00000E+00
    0.00000E+00         0.00000E+00        -0.10355E+07
 
   -0.16629E+07         0.24009E+07         0.00000E+00
    0.24009E+07        -0.21022E+08         0.00000E+00
    0.00000E+00         0.00000E+00        -0.11315E+07
 
   -0.16823E+07         0.24760E+07         0.00000E+00
    0.24760E+07        -0.21077E+08         0.00000E+00
    0.00000E+00         0.00000E+00        -0.12250E+07
 
   -0.17051E+07         0.25511E+07         0.00000E+00
    0.25511E+07        -0.21132E+08         0.00000E+00
    0.00000E+00         0.00000E+00        -0.13162E+07
 
   -0.17313E+07         0.26262E+07         0.00000E+00
    0.26262E+07        -0.21186E+08         0.00000E+00
    0.00000E+00         0.00000E+00        -0.14053E+07
 
   -0.17609E+07         0.27015E+07         0.00000E+00
    0.27015E+07        -0.21240E+08         0.00000E+00
    0.00000E+00         0.00000E+00        -0.14920E+07
 
   -0.17938E+07         0.27764E+07         0.00000E+00
    0.27764E+07        -0.21294E+08         0.00000E+00
    0.00000E+00         0.00000E+00        -0.15766E+07
 
   -0.18297E+07         0.28520E+07         0.00000E+00
    0.28520E+07        -0.21348E+08         0.00000E+00
    0.00000E+00         0.00000E+00        -0.16596E+07
 
   -0.18685E+07         0.29278E+07         0.00000E+00
    0.29278E+07        -0.21401E+08         0.00000E+00
    0.00000E+00         0.00000E+00        -0.17407E+07
 
   -0.19102E+07         0.30036E+07         0.00000E+00
    0.30036E+07        -0.21454E+08         0.00000E+00
    0.00000E+00         0.00000E+00        -0.18199E+07
 
   -0.19552E+07         0.30802E+07         0.00000E+00
    0.30802E+07        -0.21506E+08         0.00000E+00
    0.00000E+00         0.00000E+00        -0.18969E+07
 
   -0.20033E+07         0.31562E+07         0.00000E+00
    0.31562E+07        -0.21558E+08         0.00000E+00
    0.00000E+00         0.00000E+00        -0.19716E+07
 
   -0.20540E+07         0.32321E+07         0.00000E+00
    0.32321E+07        -0.21609E+08         0.00000E+00
    0.00000E+00         0.00000E+00        -0.20442E+07
 
   -0.17697E+07         0.69835E+04         0.00000E+00
    0.69835E+04        -0.20379E+08         0.00000E+00
    0.00000E+00         0.00000E+00         0.00000E+00
 
   -0.18562E+07         0.18684E+05         0.00000E+00
    0.18684E+05        -0.20385E+08         0.00000E+00
    0.00000E+00         0.00000E+00         0.00000E+00
 
   -0.19325E+07         0.32445E+05         0.00000E+00
    0.32445E+05        -0.20394E+08         0.00000E+00
    0.00000E+00         0.00000E+00         0.00000E+00
 
   -0.19996E+07         0.48537E+05         0.00000E+00
    0.48537E+05        -0.20407E+08         0.00000E+00
    0.00000E+00         0.00000E+00         0.00000E+00
 
   -0.20585E+07         0.67134E+05         0.00000E+00
    0.67134E+05        -0.20423E+08         0.00000E+00
    0.00000E+00         0.00000E+00         0.00000E+00
 
   -0.21097E+07         0.88357E+05         0.00000E+00
    0.88357E+05        -0.20443E+08         0.00000E+00
    0.00000E+00         0.00000E+00         0.00000E+00
 
   -0.21537E+07         0.11228E+06         0.00000E+00
    0.11228E+06        -0.20466E+08         0.00000E+00
    0.00000E+00         0.00000E+00         0.00000E+00
 
   -0.21911E+07         0.13896E+06         0.00000E+00
    0.13896E+06        -0.20492E+08         0.00000E+00
    0.00000E+00         0.00000E+00         0.00000E+00
 
   -0.22221E+07         0.16841E+06         0.00000E+00
    0.16841E+06        -0.20520E+08         0.00000E+00
    0.00000E+00         0.00000E+00         0.00000E+00
 
   -0.22472E+07         0.20060E+06         0.00000E+00
    0.20060E+06        -0.20550E+08         0.00000E+00
    0.00000E+00         0.00000E+00         0.00000E+00
 
   -0.22666E+07         0.23550E+06         0.00000E+00
    0.23550E+06        -0.20582E+08         0.00000E+00
    0.00000E+00         0.00000E+00         0.00000E+00
 
   -0.22805E+07         0.27304E+06         0.00000E+00
    0.27304E+06        -0.20616E+08         0.00000E+00
    0.00000E+00         0.00000E+00         0.00000E+00
 
   -0.22891E+07         0.31315E+06         0.00000E+00
    0.31315E+06        -0.20650E+08         0.00000E+00
    0.00000E+00         0.00000E+00         0.00000E+00
 
   -0.22925E+07         0.35578E+06         0.00000E+00
    0.35578E+06        -0.20685E+08         0.00000E+00
    0.00000E+00         0.00000E+00         0.00000E+00
 
   -0.22909E+07         0.40105E+06         0.00000E+00
    0.40105E+06        -0.20724E+08         0.00000E+00
    0.00000E+00         0.00000E+00         0.00000E+00
 
   -0.22833E+07         0.44896E+06         0.00000E+00
    0.44896E+06        -0.20771E+08         0.00000E+00
    0.00000E+00         0.00000E+00         0.00000E+00
 
   -0.22799E+07         0.50000E+06         0.00000E+00
    0.50000E+06        -0.20814E+08         0.00000E+00
    0.00000E+00         0.00000E+00        -0.14462E+05
 
   -0.22731E+07         0.55525E+06         0.00000E+00
    0.55525E+06        -0.20856E+08         0.00000E+00
    0.00000E+00         0.00000E+00        -0.33369E+05
 
   -0.22608E+07         0.61499E+06         0.00000E+00
    0.61499E+06        -0.20898E+08         0.00000E+00
    0.00000E+00         0.00000E+00        -0.53663E+05
 
   -0.22433E+07         0.67925E+06         0.00000E+00
    0.67925E+06        -0.20940E+08         0.00000E+00
    0.00000E+00         0.00000E+00        -0.75550E+05
 
   -0.22199E+07         0.74813E+06         0.00000E+00
    0.74813E+06        -0.20982E+08         0.00000E+00
    0.00000E+00         0.00000E+00        -0.99404E+05
 
   -0.21911E+07         0.82161E+06         0.00000E+00
    0.82161E+06        -0.21022E+08         0.00000E+00
    0.00000E+00         0.00000E+00        -0.12815E+06
 
   -0.21743E+07         0.89781E+06         0.00000E+00
    0.89781E+06        -0.21051E+08         0.00000E+00
    0.00000E+00         0.00000E+00        -0.18600E+06
 
   -0.21537E+07         0.97606E+06         0.00000E+00
    0.97606E+06        -0.21079E+08         0.00000E+00
    0.00000E+00         0.00000E+00        -0.25070E+06
 
   -0.21345E+07         0.10567E+07         0.00000E+00
    0.10567E+07        -0.21116E+08         0.00000E+00
    0.00000E+00         0.00000E+00        -0.32657E+06
 
   -0.21125E+07         0.11378E+07         0.00000E+00
    0.11378E+07        -0.21152E+08         0.00000E+00
    0.00000E+00         0.00000E+00        -0.40711E+06
 
   -0.20892E+07         0.12185E+07         0.00000E+00
    0.12185E+07        -0.21190E+08         0.00000E+00
    0.00000E+00         0.00000E+00        -0.49174E+06
 
   -0.20669E+07         0.12975E+07         0.00000E+00
    0.12975E+07        -0.21230E+08         0.00000E+00
    0.00000E+00         0.00000E+00        -0.57965E+06
 
   -0.20481E+07         0.13750E+07         0.00000E+00
    0.13750E+07        -0.21274E+08         0.00000E+00
    0.00000E+00         0.00000E+00        -0.67075E+06
 
   -0.20337E+07         0.14522E+07         0.00000E+00
    0.14522E+07        -0.21321E+08         0.00000E+00
    0.00000E+00         0.00000E+00        -0.76433E+06
 
   -0.20222E+07         0.15287E+07         0.00000E+00
    0.15287E+07        -0.21369E+08         0.00000E+00
    0.00000E+00         0.00000E+00        -0.85807E+06
 
   -0.20146E+07         0.16050E+07         0.00000E+00
    0.16050E+07        -0.21419E+08         0.00000E+00
    0.00000E+00         0.00000E+00        -0.95236E+06
 
   -0.20110E+07         0.16811E+07         0.00000E+00
    0.16811E+07        -0.21471E+08         0.00000E+00
    0.00000E+00         0.00000E+00        -0.10471E+07
 
   -0.20109E+07         0.17566E+07         0.00000E+00
    0.17566E+07        -0.21524E+08         0.00000E+00
    0.00000E+00         0.00000E+00        -0.11414E+07
 
   -0.20137E+07         0.18317E+07         0.00000E+00
    0.18317E+07        -0.21577E+08         0.00000E+00
    0.00000E+00         0.00000E+00        -0.12343E+07
 
   -0.20198E+07         0.19068E+07         0.00000E+00
    0.19068E+07        -0.21629E+08         0.00000E+00
    0.00000E+00         0.00000E+00        -0.13257E+07
 
   -0.20296E+07         0.19821E+07         0.00000E+00
    0.19821E+07        -0.21682E+08         0.00000E+00
    0.00000E+00         0.00000E+00        -0.14158E+07
 
   -0.20426E+07         0.20576E+07         0.00000E+00
    0.20576E+07        -0.21734E+08         0.00000E+00
    0.00000E+00         0.00000E+00        -0.15040E+07
 
   -0.20591E+07         0.21333E+07         0.00000E+00
    0.21333E+07        -0.21787E+08         0.00000E+00
    0.00000E+00         0.00000E+00        -0.15905E+07
 
   -0.20789E+07         0.22093E+07         0.00000E+00
    0.22093E+07        -0.21839E+08         0.00000E+00
    0.00000E+00         0.00000E+00        -0.16756E+07
 
   -0.21016E+07         0.22858E+07         0.00000E+00
    0.22858E+07        -0.21891E+08         0.00000E+00
    0.00000E+00         0.00000E+00        -0.17592E+07
 
   -0.21273E+07         0.23625E+07         0.00000E+00
    0.23625E+07        -0.21943E+08         0.00000E+00
    0.00000E+00         0.00000E+00        -0.18412E+07
 
   -0.21560E+07         0.24394E+07         0.00000E+00
    0.24394E+07        -0.21995E+08         0.00000E+00
    0.00000E+00         0.00000E+00        -0.19215E+07
 
   -0.21878E+07         0.25169E+07         0.00000E+00
    0.25169E+07        -0.22046E+08         0.00000E+00
    0.00000E+00         0.00000E+00        -0.20000E+07
 
   -0.22230E+07         0.25940E+07         0.00000E+00
    0.25940E+07        -0.22097E+08         0.00000E+00
    0.00000E+00         0.00000E+00        -0.20762E+07
 
   -0.22611E+07         0.26712E+07         0.00000E+00
    0.26712E+07        -0.22147E+08         0.00000E+00
    0.00000E+00         0.00000E+00        -0.21506E+07
 
   -0.23017E+07         0.27494E+07         0.00000E+00
    0.27494E+07        -0.22197E+08         0.00000E+00
    0.00000E+00         0.00000E+00        -0.22235E+07
 
   -0.23447E+07         0.28279E+07         0.00000E+00
    0.28279E+07        -0.22246E+08         0.00000E+00
    0.00000E+00         0.00000E+00        -0.22947E+07
 
   -0.23905E+07         0.29071E+07         0.00000E+00
    0.29071E+07        -0.22294E+08         0.00000E+00
    0.00000E+00         0.00000E+00        -0.23642E+07
 
   -0.24397E+07         0.29869E+07         0.00000E+00
    0.29869E+07        -0.22343E+08         0.00000E+00
    0.00000E+00         0.00000E+00        -0.24319E+07
 
   -0.25619E+07        -0.83851E+04         0.00000E+00
   -0.83851E+04        -0.21151E+08         0.00000E+00
    0.00000E+00         0.00000E+00        -0.55920E+05
 
   -0.26347E+07        -0.21283E+05         0.00000E+00
   -0.21283E+05        -0.21160E+08         0.00000E+00
    0.00000E+00         0.00000E+00        -0.42540E+05
 
   -0.26958E+07        -0.29929E+05         0.00000E+00
   -0.29929E+05        -0.21174E+08         0.00000E+00
    0.00000E+00         0.00000E+00        -0.33829E+05
 
   -0.27467E+07        -0.34189E+05         0.00000E+00
   -0.34189E+05        -0.21192E+08         0.00000E+00
    0.00000E+00         0.00000E+00        -0.28934E+05
 
   -0.27884E+07        -0.33961E+05         0.00000E+00
   -0.33961E+05        -0.21213E+08         0.00000E+00
    0.00000E+00         0.00000E+00        -0.27231E+05
 
   -0.28220E+07        -0.29172E+05         0.00000E+00
   -0.29172E+05        -0.21236E+08         0.00000E+00
    0.00000E+00         0.00000E+00        -0.28259E+05
 
   -0.28479E+07        -0.19775E+05         0.00000E+00
   -0.19775E+05        -0.21262E+08         0.00000E+00
    0.00000E+00         0.00000E+00        -0.31671E+05
 
   -0.28670E+07        -0.57455E+04         0.00000E+00
   -0.57455E+04        -0.21289E+08         0.00000E+00
    0.00000E+00         0.00000E+00        -0.37206E+05
 
   -0.28795E+07         0.12947E+05         0.00000E+00
    0.12947E+05        -0.21318E+08         0.00000E+00
    0.00000E+00         0.00000E+00        -0.44676E+05
 
   -0.28859E+07         0.36333E+05         0.00000E+00
    0.36333E+05        -0.21348E+08         0.00000E+00
    0.00000E+00         0.00000E+00        -0.53955E+05
 
   -0.28863E+07         0.64471E+05         0.00000E+00
    0.64471E+05        -0.21379E+08         0.00000E+00
    0.00000E+00         0.00000E+00        -0.64981E+05
 
   -0.28808E+07         0.97437E+05         0.00000E+00
    0.97437E+05        -0.21411E+08         0.00000E+00
    0.00000E+00         0.00000E+00        -0.77755E+05
 
   -0.28693E+07         0.13534E+06         0.00000E+00
    0.13534E+06        -0.21444E+08         0.00000E+00
    0.00000E+00         0.00000E+00        -0.92392E+05
 
   -0.28511E+07         0.17837E+06         0.00000E+00
    0.17837E+06        -0.21476E+08         0.00000E+00
    0.00000E+00         0.00000E+00        -0.10917E+06
 
   -0.28302E+07         0.22641E+06         0.00000E+00
    0.22641E+06        -0.21506E+08         0.00000E+00
    0.00000E+00         0.00000E+00        -0.13521E+06
 
   -0.28120E+07         0.27862E+06         0.00000E+00
    0.27862E+06        -0.21531E+08         0.00000E+00
    0.00000E+00         0.00000E+00        -0.17870E+06
 
   -0.27912E+07         0.33448E+06         0.00000E+00
    0.33448E+06        -0.21559E+08         0.00000E+00
    0.00000E+00         0.00000E+00        -0.23064E+06
 
   -0.27665E+07         0.39346E+06         0.00000E+00
    0.39346E+06        -0.21590E+08         0.00000E+00
    0.00000E+00         0.00000E+00        -0.28801E+06
 
   -0.27381E+07         0.45510E+06         0.00000E+00
    0.45510E+06        -0.21620E+08         0.00000E+00
    0.00000E+00         0.00000E+00        -0.34984E+06
 
   -0.27068E+07         0.51898E+06         0.00000E+00
    0.51898E+06        -0.21651E+08         0.00000E+00
    0.00000E+00         0.00000E+00        -0.41615E+06
 
   -0.26738E+07         0.58434E+06         0.00000E+00
    0.58434E+06        -0.21684E+08         0.00000E+00
    0.00000E+00         0.00000E+00        -0.48679E+06
 
   -0.26408E+07         0.65008E+06         0.00000E+00
    0.65008E+06        -0.21718E+08         0.00000E+00
    0.00000E+00         0.00000E+00        -0.56145E+06
 
   -0.26098E+07         0.71675E+06         0.00000E+00
    0.71675E+06        -0.21757E+08         0.00000E+00
    0.00000E+00         0.00000E+00        -0.64038E+06
 
   -0.25809E+07         0.78477E+06         0.00000E+00
    0.78477E+06        -0.21798E+08         0.00000E+00
    0.00000E+00         0.00000E+00        -0.72272E+06
 
   -0.25529E+07         0.85378E+06         0.00000E+00
    0.85378E+06        -0.21839E+08         0.00000E+00
    0.00000E+00         0.00000E+00        -0.80660E+06
 
   -0.25276E+07         0.92404E+06         0.00000E+00
    0.92404E+06        -0.21883E+08         0.00000E+00
    0.00000E+00         0.00000E+00        -0.89336E+06
 
   -0.25047E+07         0.99478E+06         0.00000E+00
    0.99478E+06        -0.21930E+08         0.00000E+00
    0.00000E+00         0.00000E+00        -0.98246E+06
 
   -0.24845E+07         0.10657E+07         0.00000E+00
    0.10657E+07        -0.21977E+08         0.00000E+00
    0.00000E+00         0.00000E+00        -0.10729E+07
 
   -0.24668E+07         0.11367E+07         0.00000E+00
    0.11367E+07        -0.22026E+08         0.00000E+00
    0.00000E+00         0.00000E+00        -0.11637E+07
 
   -0.24518E+07         0.12081E+07         0.00000E+00
    0.12081E+07        -0.22075E+08         0.00000E+00
    0.00000E+00         0.00000E+00        -0.12544E+07
 
   -0.24402E+07         0.12801E+07         0.00000E+00
    0.12801E+07        -0.22125E+08         0.00000E+00
    0.00000E+00         0.00000E+00        -0.13450E+07
 
   -0.24319E+07         0.13525E+07         0.00000E+00
    0.13525E+07        -0.22175E+08         0.00000E+00
    0.00000E+00         0.00000E+00        -0.14350E+07
 
   -0.24269E+07         0.14256E+07         0.00000E+00
    0.14256E+07        -0.22225E+08         0.00000E+00
    0.00000E+00         0.00000E+00        -0.15241E+07
 
   -0.24254E+07         0.14995E+07         0.00000E+00
    0.14995E+07        -0.22276E+08         0.00000E+00
    0.00000E+00         0.00000E+00        -0.16122E+07
 
   -0.24273E+07         0.15740E+07         0.00000E+00
    0.15740E+07        -0.22327E+08         0.00000E+00
    0.00000E+00         0.00000E+00        -0.16994E+07
 
   -0.24322E+07         0.16492E+07         0.00000E+00
    0.16492E+07        -0.22377E+08         0.00000E+00
    0.00000E+00         0.00000E+00        -0.17855E+07
 
   -0.24402E+07         0.17250E+07         0.00000E+00
    0.17250E+07        -0.22428E+08         0.00000E+00
    0.00000E+00         0.00000E+00        -0.18703E+07
 
   -0.24515E+07         0.18013E+07         0.00000E+00
    0.18013E+07        -0.22479E+08         0.00000E+00
    0.00000E+00         0.00000E+00        -0.19538E+07
 
   -0.24659E+07         0.18781E+07         0.00000E+00
    0.18781E+07        -0.22529E+08         0.00000E+00
    0.00000E+00         0.00000E+00        -0.20357E+07
 
   -0.24838E+07         0.19556E+07         0.00000E+00
    0.19556E+07        -0.22579E+08         0.00000E+00
    0.00000E+00         0.00000E+00        -0.21158E+07
 
   -0.25051E+07         0.20330E+07         0.00000E+00
    0.20330E+07        -0.22629E+08         0.00000E+00
    0.00000E+00         0.00000E+00        -0.21939E+07
 
   -0.25294E+07         0.21110E+07         0.00000E+00
    0.21110E+07        -0.22679E+08         0.00000E+00
    0.00000E+00         0.00000E+00        -0.22704E+07
 
   -0.25566E+07         0.21898E+07         0.00000E+00
    0.21898E+07        -0.22728E+08         0.00000E+00
    0.00000E+00         0.00000E+00        -0.23453E+07
 
   -0.25865E+07         0.22690E+07         0.00000E+00
    0.22690E+07        -0.22777E+08         0.00000E+00
    0.00000E+00         0.00000E+00        -0.24185E+07
 
   -0.26192E+07         0.23488E+07         0.00000E+00
    0.23488E+07        -0.22825E+08         0.00000E+00
    0.00000E+00         0.00000E+00        -0.24899E+07
 
   -0.26548E+07         0.24289E+07         0.00000E+00
    0.24289E+07        -0.22872E+08         0.00000E+00
    0.00000E+00         0.00000E+00        -0.25596E+07
 
   -0.26937E+07         0.25093E+07         0.00000E+00
    0.25093E+07        -0.22919E+08         0.00000E+00
    0.00000E+00         0.00000E+00        -0.26276E+07
 
   -0.27360E+07         0.25894E+07         0.00000E+00
    0.25894E+07        -0.22967E+08         0.00000E+00
    0.00000E+00         0.00000E+00        -0.26936E+07
 
   -0.27811E+07         0.26696E+07         0.00000E+00
    0.26696E+07        -0.23014E+08         0.00000E+00
    0.00000E+00         0.00000E+00        -0.27579E+07
 
   -0.28280E+07         0.27501E+07         0.00000E+00
    0.27501E+07        -0.23060E+08         0.00000E+00
    0.00000E+00         0.00000E+00        -0.28208E+07
 
   -0.35104E+07        -0.41114E+05         0.00000E+00
   -0.41114E+05        -0.21970E+08         0.00000E+00
    0.00000E+00         0.00000E+00        -0.16969E+06
 
   -0.35411E+07        -0.75987E+05         0.00000E+00
   -0.75987E+05        -0.21975E+08         0.00000E+00
    0.00000E+00         0.00000E+00        -0.15481E+06
 
   -0.35661E+07        -0.10082E+06         0.00000E+00
   -0.10082E+06        -0.21984E+08         0.00000E+00
    0.00000E+00         0.00000E+00        -0.14777E+06
 
   -0.35846E+07        -0.11714E+06         0.00000E+00
   -0.11714E+06        -0.21995E+08         0.00000E+00
    0.00000E+00         0.00000E+00        -0.14800E+06
 
   -0.35966E+07        -0.12598E+06         0.00000E+00
   -0.12598E+06        -0.22009E+08         0.00000E+00
    0.00000E+00         0.00000E+00        -0.15488E+06
 
   -0.36021E+07        -0.12809E+06         0.00000E+00
   -0.12809E+06        -0.22024E+08         0.00000E+00
    0.00000E+00         0.00000E+00        -0.16787E+06
 
   -0.36013E+07        -0.12401E+06         0.00000E+00
   -0.12401E+06        -0.22040E+08         0.00000E+00
    0.00000E+00         0.00000E+00        -0.18647E+06
 
   -0.35944E+07        -0.11412E+06         0.00000E+00
   -0.11412E+06        -0.22058E+08         0.00000E+00
    0.00000E+00         0.00000E+00        -0.21033E+06
 
   -0.35819E+07        -0.98763E+05         0.00000E+00
   -0.98763E+05        -0.22077E+08         0.00000E+00
    0.00000E+00         0.00000E+00        -0.23916E+06
 
   -0.35639E+07        -0.78203E+05         0.00000E+00
   -0.78203E+05        -0.22097E+08         0.00000E+00
    0.00000E+00         0.00000E+00        -0.27280E+06
 
   -0.35408E+07        -0.52731E+05         0.00000E+00
   -0.52731E+05        -0.22117E+08         0.00000E+00
    0.00000E+00         0.00000E+00        -0.31116E+06
 
   -0.35130E+07        -0.22679E+05         0.00000E+00
   -0.22679E+05        -0.22139E+08         0.00000E+00
    0.00000E+00         0.00000E+00        -0.35421E+06
 
   -0.34810E+07         0.11510E+05         0.00000E+00
    0.11510E+05        -0.22162E+08         0.00000E+00
    0.00000E+00         0.00000E+00        -0.40200E+06
 
   -0.34459E+07         0.49112E+05         0.00000E+00
    0.49112E+05        -0.22186E+08         0.00000E+00
    0.00000E+00         0.00000E+00        -0.45442E+06
 
   -0.34088E+07         0.89476E+05         0.00000E+00
    0.89476E+05        -0.22213E+08         0.00000E+00
    0.00000E+00         0.00000E+00        -0.51145E+06
 
   -0.33709E+07         0.13292E+06         0.00000E+00
    0.13292E+06        -0.22243E+08         0.00000E+00
    0.00000E+00         0.00000E+00        -0.57311E+06
 
   -0.33317E+07         0.17979E+06         0.00000E+00
    0.17979E+06        -0.22273E+08         0.00000E+00
    0.00000E+00         0.00000E+00        -0.63802E+06
 
   -0.32917E+07         0.22991E+06         0.00000E+00
    0.22991E+06        -0.22306E+08         0.00000E+00
    0.00000E+00         0.00000E+00        -0.70694E+06
 
   -0.32513E+07         0.28266E+06         0.00000E+00
    0.28266E+06        -0.22341E+08         0.00000E+00
    0.00000E+00         0.00000E+00        -0.78002E+06
 
   -0.32109E+07         0.33739E+06         0.00000E+00
    0.33739E+06        -0.22378E+08         0.00000E+00
    0.00000E+00         0.00000E+00        -0.85688E+06
 
   -0.31710E+07         0.39367E+06         0.00000E+00
    0.39367E+06        -0.22417E+08         0.00000E+00
    0.00000E+00         0.00000E+00        -0.93698E+06
 
   -0.31322E+07         0.45141E+06         0.00000E+00
    0.45141E+06        -0.22458E+08         0.00000E+00
    0.00000E+00         0.00000E+00        -0.10195E+07
 
   -0.30946E+07         0.51050E+06         0.00000E+00
    0.51050E+06        -0.22499E+08         0.00000E+00
    0.00000E+00         0.00000E+00        -0.11037E+07
 
   -0.30588E+07         0.57110E+06         0.00000E+00
    0.57110E+06        -0.22541E+08         0.00000E+00
    0.00000E+00         0.00000E+00        -0.11893E+07
 
   -0.30254E+07         0.63319E+06         0.00000E+00
    0.63319E+06        -0.22585E+08         0.00000E+00
    0.00000E+00         0.00000E+00        -0.12765E+07
 
   -0.29945E+07         0.69650E+06         0.00000E+00
    0.69650E+06        -0.22630E+08         0.00000E+00
    0.00000E+00         0.00000E+00        -0.13644E+07
 
   -0.29664E+07         0.76130E+06         0.00000E+00
    0.76130E+06        -0.22676E+08         0.00000E+00
    0.00000E+00         0.00000E+00        -0.14529E+07
 
   -0.29413E+07         0.82768E+06         0.00000E+00
    0.82768E+06        -0.22722E+08         0.00000E+00
    0.00000E+00         0.00000E+00        -0.15416E+07
 
   -0.29193E+07         0.89546E+06         0.00000E+00
    0.89546E+06        -0.22770E+08         0.00000E+00
    0.00000E+00         0.00000E+00        -0.16305E+07
 
   -0.29004E+07         0.96439E+06         0.00000E+00
    0.96439E+06        -0.22817E+08         0.00000E+00
    0.00000E+00         0.00000E+00        -0.17192E+07
 
   -0.28846E+07         0.10345E+07         0.00000E+00
    0.10345E+07        -0.22866E+08         0.00000E+00
    0.00000E+00         0.00000E+00        -0.18075E+07
 
   -0.28720E+07         0.11059E+07         0.00000E+00
    0.11059E+07        -0.22914E+08         0.00000E+00
    0.00000E+00         0.00000E+00        -0.18951E+07
 
   -0.28627E+07         0.11783E+07         0.00000E+00
    0.11783E+07        -0.22963E+08         0.00000E+00
    0.00000E+00         0.00000E+00        -0.19818E+07
 
   -0.28567E+07         0.12518E+07         0.00000E+00
    0.12518E+07        -0.23011E+08         0.00000E+00
    0.00000E+00         0.00000E+00        -0.20675E+07
 
   -0.28543E+07         0.13264E+07         0.00000E+00
    0.13264E+07        -0.23060E+08         0.00000E+00
    0.00000E+00         0.00000E+00        -0.21518E+07
 
   -0.28556E+07         0.14018E+07         0.00000E+00
    0.14018E+07        -0.23109E+08         0.00000E+00
    0.00000E+00         0.00000E+00        -0.22345E+07
 
   -0.28604E+07         0.14780E+07         0.00000E+00
    0.14780E+07        -0.23158E+08         0.00000E+00
    0.00000E+00         0.00000E+00        -0.23158E+07
 
   -0.28685E+07         0.15551E+07         0.00000E+00
    0.15551E+07        -0.23206E+08         0.00000E+00
    0.00000E+00         0.00000E+00        -0.23955E+07
 
   -0.28799E+07         0.16333E+07         0.00000E+00
    0.16333E+07        -0.23254E+08         0.00000E+00
    0.00000E+00         0.00000E+00        -0.24736E+07
 
   -0.28945E+07         0.17121E+07         0.00000E+00
    0.17121E+07        -0.23302E+08         0.00000E+00
    0.00000E+00         0.00000E+00        -0.25500E+07
 
   -0.29123E+07         0.17917E+07         0.00000E+00
    0.17917E+07        -0.23350E+08         0.00000E+00
    0.00000E+00         0.00000E+00        -0.26246E+07
 
   -0.29335E+07         0.18719E+07         0.00000E+00
    0.18719E+07        -0.23397E+08         0.00000E+00
    0.00000E+00         0.00000E+00        -0.26973E+07
 
   -0.29584E+07         0.19526E+07         0.00000E+00
    0.19526E+07        -0.23444E+08         0.00000E+00
    0.00000E+00         0.00000E+00        -0.27680E+07
 
   -0.29871E+07         0.20331E+07         0.00000E+00
    0.20331E+07        -0.23491E+08         0.00000E+00
    0.00000E+00         0.00000E+00        -0.28364E+07
 
   -0.30191E+07         0.21142E+07         0.00000E+00
    0.21142E+07        -0.23538E+08         0.00000E+00
    0.00000E+00         0.00000E+00        -0.29030E+07
 
   -0.30538E+07         0.21957E+07         0.00000E+00
    0.21957E+07        -0.23584E+08         0.00000E+00
    0.00000E+00         0.00000E+00        -0.29679E+07
 
   -0.30908E+07         0.22776E+07         0.00000E+00
    0.22776E+07        -0.23629E+08         0.00000E+00
    0.00000E+00         0.00000E+00        -0.30309E+07
 
   -0.31299E+07         0.23611E+07         0.00000E+00
    0.23611E+07        -0.23673E+08         0.00000E+00
    0.00000E+00         0.00000E+00        -0.30927E+07
 
   -0.31715E+07         0.24453E+07         0.00000E+00
    0.24453E+07        -0.23716E+08         0.00000E+00
    0.00000E+00         0.00000E+00        -0.31529E+07
 
   -0.32163E+07         0.25299E+07         0.00000E+00
    0.25299E+07        -0.23759E+08         0.00000E+00
    0.00000E+00         0.00000E+00        -0.32111E+07
 
   -0.45660E+07        -0.40010E+05         0.00000E+00
   -0.40010E+05        -0.22782E+08         0.00000E+00
    0.00000E+00         0.00000E+00        -0.36187E+06
 
   -0.45447E+07        -0.87840E+05         0.00000E+00
   -0.87840E+05        -0.22780E+08         0.00000E+00
    0.00000E+00         0.00000E+00        -0.37408E+06
 
   -0.45223E+07        -0.12616E+06         0.00000E+00
   -0.12616E+06        -0.22781E+08         0.00000E+00
    0.00000E+00         0.00000E+00        -0.38954E+06
 
   -0.44978E+07        -0.15543E+06         0.00000E+00
   -0.15543E+06        -0.22784E+08         0.00000E+00
    0.00000E+00         0.00000E+00        -0.40888E+06
 
   -0.44708E+07        -0.17632E+06         0.00000E+00
   -0.17632E+06        -0.22790E+08         0.00000E+00
    0.00000E+00         0.00000E+00        -0.43254E+06
 
   -0.44407E+07        -0.18947E+06         0.00000E+00
   -0.18947E+06        -0.22798E+08         0.00000E+00
    0.00000E+00         0.00000E+00        -0.46077E+06
 
   -0.44073E+07        -0.19554E+06         0.00000E+00
   -0.19554E+06        -0.22809E+08         0.00000E+00
    0.00000E+00         0.00000E+00        -0.49368E+06
 
   -0.43704E+07        -0.19512E+06         0.00000E+00
   -0.19512E+06        -0.22822E+08         0.00000E+00
    0.00000E+00         0.00000E+00        -0.53132E+06
 
   -0.43301E+07        -0.18878E+06         0.00000E+00
   -0.18878E+06        -0.22838E+08         0.00000E+00
    0.00000E+00         0.00000E+00        -0.57373E+06
 
   -0.42866E+07        -0.17705E+06         0.00000E+00
   -0.17705E+06        -0.22855E+08         0.00000E+00
    0.00000E+00         0.00000E+00        -0.62082E+06
 
   -0.42402E+07        -0.16046E+06         0.00000E+00
   -0.16046E+06        -0.22875E+08         0.00000E+00
    0.00000E+00         0.00000E+00        -0.67248E+06
 
   -0.41913E+07        -0.13953E+06         0.00000E+00
   -0.13953E+06        -0.22897E+08         0.00000E+00
    0.00000E+00         0.00000E+00        -0.72857E+06
 
   -0.41405E+07        -0.11471E+06         0.00000E+00
   -0.11471E+06        -0.22921E+08         0.00000E+00
    0.00000E+00         0.00000E+00        -0.78882E+06
 
   -0.40882E+07        -0.86318E+05         0.00000E+00
   -0.86318E+05        -0.22947E+08         0.00000E+00
    0.00000E+00         0.00000E+00        -0.85288E+06
 
   -0.40349E+07        -0.54462E+05         0.00000E+00
   -0.54462E+05        -0.22974E+08         0.00000E+00
    0.00000E+00         0.00000E+00        -0.92031E+06
 
   -0.39808E+07        -0.19315E+05         0.00000E+00
   -0.19315E+05        -0.23003E+08         0.00000E+00
    0.00000E+00         0.00000E+00        -0.99064E+06
 
   -0.39267E+07         0.18858E+05         0.00000E+00
    0.18858E+05        -0.23034E+08         0.00000E+00
    0.00000E+00         0.00000E+00        -0.10640E+07
 
   -0.38729E+07         0.59827E+05         0.00000E+00
    0.59827E+05        -0.23066E+08         0.00000E+00
    0.00000E+00         0.00000E+00        -0.11402E+07
 
   -0.38200E+07         0.10353E+06         0.00000E+00
    0.10353E+06        -0.23100E+08         0.00000E+00
    0.00000E+00         0.00000E+00        -0.12188E+07
 
   -0.37682E+07         0.14985E+06         0.00000E+00
    0.14985E+06        -0.23136E+08         0.00000E+00
    0.00000E+00         0.00000E+00        -0.12996E+07
 
   -0.37178E+07         0.19872E+06         0.00000E+00
    0.19872E+06        -0.23173E+08         0.00000E+00
    0.00000E+00         0.00000E+00        -0.13823E+07
 
   -0.36691E+07         0.24999E+06         0.00000E+00
    0.24999E+06        -0.23211E+08         0.00000E+00
    0.00000E+00         0.00000E+00        -0.14667E+07
 
   -0.36224E+07         0.30351E+06         0.00000E+00
    0.30351E+06        -0.23250E+08         0.00000E+00
    0.00000E+00         0.00000E+00        -0.15527E+07
 
   -0.35781E+07         0.35898E+06         0.00000E+00
    0.35898E+06        -0.23291E+08         0.00000E+00
    0.00000E+00         0.00000E+00        -0.16396E+07
 
   -0.35361E+07         0.41637E+06         0.00000E+00
    0.41637E+06        -0.23332E+08         0.00000E+00
    0.00000E+00         0.00000E+00        -0.17273E+07
 
   -0.34969E+07         0.47581E+06         0.00000E+00
    0.47581E+06        -0.23374E+08         0.00000E+00
    0.00000E+00         0.00000E+00        -0.18155E+07
 
   -0.34605E+07         0.53713E+06         0.00000E+00
    0.53713E+06        -0.23417E+08         0.00000E+00
    0.00000E+00         0.00000E+00        -0.19039E+07
 
   -0.34272E+07         0.60028E+06         0.00000E+00
    0.60028E+06        -0.23461E+08         0.00000E+00
    0.00000E+00         0.00000E+00        -0.19923E+07
 
   -0.33972E+07         0.66527E+06         0.00000E+00
    0.66527E+06        -0.23505E+08         0.00000E+00
    0.00000E+00         0.00000E+00        -0.20804E+07
 
   -0.33707E+07         0.73212E+06         0.00000E+00
    0.73212E+06        -0.23550E+08         0.00000E+00
    0.00000E+00         0.00000E+00        -0.21681E+07
 
   -0.33477E+07         0.80068E+06         0.00000E+00
    0.80068E+06        -0.23595E+08         0.00000E+00
    0.00000E+00         0.00000E+00        -0.22551E+07
 
   -0.33285E+07         0.87067E+06         0.00000E+00
    0.87067E+06        -0.23640E+08         0.00000E+00
    0.00000E+00         0.00000E+00        -0.23411E+07
 
   -0.33129E+07         0.94224E+06         0.00000E+00
    0.94224E+06        -0.23686E+08         0.00000E+00
    0.00000E+00         0.00000E+00        -0.24262E+07
 
   -0.33009E+07         0.10153E+07         0.00000E+00
    0.10153E+07        -0.23732E+08         0.00000E+00
    0.00000E+00         0.00000E+00        -0.25101E+07
 
   -0.32926E+07         0.10899E+07         0.00000E+00
    0.10899E+07        -0.23779E+08         0.00000E+00
    0.00000E+00         0.00000E+00        -0.25926E+07
 
   -0.32881E+07         0.11658E+07         0.00000E+00
    0.11658E+07        -0.23825E+08         0.00000E+00
    0.00000E+00         0.00000E+00        -0.26735E+07
 
   -0.32873E+07         0.12430E+07         0.00000E+00
    0.12430E+07        -0.23871E+08         0.00000E+00
    0.00000E+00         0.00000E+00        -0.27528E+07
 
   -0.32905E+07         0.13213E+07         0.00000E+00
    0.13213E+07        -0.23917E+08         0.00000E+00
    0.00000E+00         0.00000E+00        -0.28301E+07
 
   -0.32979E+07         0.14003E+07         0.00000E+00
    0.14003E+07        -0.23963E+08         0.00000E+00
    0.00000E+00         0.00000E+00        -0.29053E+07
 
   -0.33093E+07         0.14800E+07         0.00000E+00
    0.14800E+07        -0.24009E+08         0.00000E+00
    0.00000E+00         0.00000E+00        -0.29784E+07
 
   -0.33245E+07         0.15605E+07         0.00000E+00
    0.15605E+07        -0.24055E+08         0.00000E+00
    0.00000E+00         0.00000E+00        -0.30495E+07
 
   -0.33431E+07         0.16417E+07         0.00000E+00
    0.16417E+07        -0.24100E+08         0.00000E+00
    0.00000E+00         0.00000E+00        -0.31185E+07
 
   -0.33648E+07         0.17238E+07         0.00000E+00
    0.17238E+07        -0.24145E+08         0.00000E+00
    0.00000E+00         0.00000E+00        -0.31855E+07
 
   -0.33892E+07         0.18077E+07         0.00000E+00
    0.18077E+07        -0.24189E+08         0.00000E+00
    0.00000E+00         0.00000E+00        -0.32510E+07
 
   -0.34166E+07         0.18920E+07         0.00000E+00
    0.18920E+07        -0.24232E+08         0.00000E+00
    0.00000E+00         0.00000E+00        -0.33143E+07
 
   -0.34475E+07         0.19773E+07         0.00000E+00
    0.19773E+07        -0.24274E+08         0.00000E+00
    0.00000E+00         0.00000E+00        -0.33757E+07
 
   -0.34821E+07         0.20624E+07         0.00000E+00
    0.20624E+07        -0.24317E+08         0.00000E+00
    0.00000E+00         0.00000E+00        -0.34349E+07
 
   -0.35203E+07         0.21464E+07         0.00000E+00
    0.21464E+07        -0.24360E+08         0.00000E+00
    0.00000E+00         0.00000E+00        -0.34921E+07
 
   -0.35617E+07         0.22314E+07         0.00000E+00
    0.22314E+07        -0.24403E+08         0.00000E+00
    0.00000E+00         0.00000E+00        -0.35478E+07
 
   -0.36060E+07         0.23172E+07         0.00000E+00
    0.23172E+07        -0.24445E+08         0.00000E+00
    0.00000E+00         0.00000E+00        -0.36021E+07
 
   -0.56629E+07        -0.37210E+05         0.00000E+00
   -0.37210E+05        -0.23608E+08         0.00000E+00
    0.00000E+00         0.00000E+00        -0.57556E+06
 
   -0.56015E+07        -0.89900E+05         0.00000E+00
   -0.89900E+05        -0.23608E+08         0.00000E+00
    0.00000E+00         0.00000E+00        -0.61053E+06
 
   -0.55390E+07        -0.13548E+06         0.00000E+00
   -0.13548E+06        -0.23609E+08         0.00000E+00
    0.00000E+00         0.00000E+00        -0.64785E+06
 
   -0.54755E+07        -0.17389E+06         0.00000E+00
   -0.17389E+06        -0.23611E+08         0.00000E+00
    0.00000E+00         0.00000E+00        -0.68778E+06
 
   -0.54109E+07        -0.20514E+06         0.00000E+00
   -0.20514E+06        -0.23616E+08         0.00000E+00
    0.00000E+00         0.00000E+00        -0.73051E+06
 
   -0.53452E+07        -0.22939E+06         0.00000E+00
   -0.22939E+06        -0.23621E+08         0.00000E+00
    0.00000E+00         0.00000E+00        -0.77626E+06
 
   -0.52783E+07        -0.24691E+06         0.00000E+00
   -0.24691E+06        -0.23629E+08         0.00000E+00
    0.00000E+00         0.00000E+00        -0.82517E+06
 
   -0.52103E+07        -0.25804E+06         0.00000E+00
   -0.25804E+06        -0.23639E+08         0.00000E+00
    0.00000E+00         0.00000E+00        -0.87739E+06
 
   -0.51411E+07        -0.26316E+06         0.00000E+00
   -0.26316E+06        -0.23652E+08         0.00000E+00
    0.00000E+00         0.00000E+00        -0.93295E+06
 
   -0.50711E+07        -0.26267E+06         0.00000E+00
   -0.26267E+06        -0.23666E+08         0.00000E+00
    0.00000E+00         0.00000E+00        -0.99180E+06
 
   -0.50004E+07        -0.25699E+06         0.00000E+00
   -0.25699E+06        -0.23682E+08         0.00000E+00
    0.00000E+00         0.00000E+00        -0.10539E+07
 
   -0.49290E+07        -0.24642E+06         0.00000E+00
   -0.24642E+06        -0.23701E+08         0.00000E+00
    0.00000E+00         0.00000E+00        -0.11191E+07
 
   -0.48573E+07        -0.23125E+06         0.00000E+00
   -0.23125E+06        -0.23721E+08         0.00000E+00
    0.00000E+00         0.00000E+00        -0.11873E+07
 
   -0.47856E+07        -0.21179E+06         0.00000E+00
   -0.21179E+06        -0.23743E+08         0.00000E+00
    0.00000E+00         0.00000E+00        -0.12582E+07
 
   -0.47140E+07        -0.18837E+06         0.00000E+00
   -0.18837E+06        -0.23766E+08         0.00000E+00
    0.00000E+00         0.00000E+00        -0.13317E+07
 
   -0.46431E+07        -0.16130E+06         0.00000E+00
   -0.16130E+06        -0.23792E+08         0.00000E+00
    0.00000E+00         0.00000E+00        -0.14077E+07
 
   -0.45730E+07        -0.13079E+06         0.00000E+00
   -0.13079E+06        -0.23818E+08         0.00000E+00
    0.00000E+00         0.00000E+00        -0.14858E+07
 
   -0.45041E+07        -0.96996E+05         0.00000E+00
   -0.96996E+05        -0.23847E+08         0.00000E+00
    0.00000E+00         0.00000E+00        -0.15657E+07
 
   -0.44368E+07        -0.60184E+05         0.00000E+00
   -0.60184E+05        -0.23876E+08         0.00000E+00
    0.00000E+00         0.00000E+00        -0.16472E+07
 
   -0.43712E+07        -0.20395E+05         0.00000E+00
   -0.20395E+05        -0.23906E+08         0.00000E+00
    0.00000E+00         0.00000E+00        -0.17303E+07
 
   -0.43076E+07         0.22254E+05         0.00000E+00
    0.22254E+05        -0.23938E+08         0.00000E+00
    0.00000E+00         0.00000E+00        -0.18146E+07
 
   -0.42464E+07         0.67618E+05         0.00000E+00
    0.67618E+05        -0.23971E+08         0.00000E+00
    0.00000E+00         0.00000E+00        -0.18999E+07
 
   -0.41878E+07         0.11560E+06         0.00000E+00
    0.11560E+06        -0.24005E+08         0.00000E+00
    0.00000E+00         0.00000E+00        -0.19861E+07
 
   -0.41317E+07         0.16619E+06         0.00000E+00
    0.16619E+06        -0.24041E+08         0.00000E+00
    0.00000E+00         0.00000E+00        -0.20730E+07
 
   -0.40786E+07         0.21927E+06         0.00000E+00
    0.21927E+06        -0.24077E+08         0.00000E+00
    0.00000E+00         0.00000E+00        -0.21604E+07
 
   -0.40287E+07         0.27467E+06         0.00000E+00
    0.27467E+06        -0.24114E+08         0.00000E+00
    0.00000E+00         0.00000E+00        -0.22480E+07
 
   -0.39820E+07         0.33227E+06         0.00000E+00
    0.33227E+06        -0.24152E+08         0.00000E+00
    0.00000E+00         0.00000E+00        -0.23357E+07
 
   -0.39386E+07         0.39205E+06         0.00000E+00
    0.39205E+06        -0.24190E+08         0.00000E+00
    0.00000E+00         0.00000E+00        -0.24233E+07
 
   -0.38988E+07         0.45405E+06         0.00000E+00
    0.45405E+06        -0.24230E+08         0.00000E+00
    0.00000E+00         0.00000E+00        -0.25106E+07
 
   -0.38627E+07         0.51813E+06         0.00000E+00
    0.51813E+06        -0.24270E+08         0.00000E+00
    0.00000E+00         0.00000E+00        -0.25974E+07
 
   -0.38305E+07         0.58427E+06         0.00000E+00
    0.58427E+06        -0.24311E+08         0.00000E+00
    0.00000E+00         0.00000E+00        -0.26835E+07
 
   -0.38021E+07         0.65254E+06         0.00000E+00
    0.65254E+06        -0.24352E+08         0.00000E+00
    0.00000E+00         0.00000E+00        -0.27687E+07
 
   -0.37777E+07         0.72273E+06         0.00000E+00
    0.72273E+06        -0.24394E+08         0.00000E+00
    0.00000E+00         0.00000E+00        -0.28528E+07
 
   -0.37576E+07         0.79466E+06         0.00000E+00
    0.79466E+06        -0.24436E+08         0.00000E+00
    0.00000E+00         0.00000E+00        -0.29355E+07
 
   -0.37419E+07         0.86817E+06         0.00000E+00
    0.86817E+06        -0.24479E+08         0.00000E+00
    0.00000E+00         0.00000E+00        -0.30167E+07
 
   -0.37307E+07         0.94327E+06         0.00000E+00
    0.94327E+06        -0.24523E+08         0.00000E+00
    0.00000E+00         0.00000E+00        -0.30963E+07
 
   -0.37238E+07         0.10199E+07         0.00000E+00
    0.10199E+07        -0.24566E+08         0.00000E+00
    0.00000E+00         0.00000E+00        -0.31742E+07
 
   -0.37212E+07         0.10980E+07         0.00000E+00
    0.10980E+07        -0.24610E+08         0.00000E+00
    0.00000E+00         0.00000E+00        -0.32501E+07
 
   -0.37226E+07         0.11776E+07         0.00000E+00
    0.11776E+07        -0.24653E+08         0.00000E+00
    0.00000E+00         0.00000E+00        -0.33239E+07
 
   -0.37276E+07         0.12592E+07         0.00000E+00
    0.12592E+07        -0.24696E+08         0.00000E+00
    0.00000E+00         0.00000E+00        -0.33959E+07
 
   -0.37369E+07         0.13420E+07         0.00000E+00
    0.13420E+07        -0.24739E+08         0.00000E+00
    0.00000E+00         0.00000E+00        -0.34653E+07
 
   -0.37504E+07         0.14260E+07         0.00000E+00
    0.14260E+07        -0.24782E+08         0.00000E+00
    0.00000E+00         0.00000E+00        -0.35325E+07
 
   -0.37683E+07         0.15102E+07         0.00000E+00
    0.15102E+07        -0.24824E+08         0.00000E+00
    0.00000E+00         0.00000E+00        -0.35969E+07
 
   -0.37904E+07         0.15942E+07         0.00000E+00
    0.15942E+07        -0.24867E+08         0.00000E+00
    0.00000E+00         0.00000E+00        -0.36588E+07
 
   -0.38163E+07         0.16795E+07         0.00000E+00
    0.16795E+07        -0.24909E+08         0.00000E+00
    0.00000E+00         0.00000E+00        -0.37188E+07
 
   -0.38459E+07         0.17648E+07         0.00000E+00
    0.17648E+07        -0.24952E+08         0.00000E+00
    0.00000E+00         0.00000E+00        -0.37765E+07
 
   -0.38792E+07         0.18502E+07         0.00000E+00
    0.18502E+07        -0.24994E+08         0.00000E+00
    0.00000E+00         0.00000E+00        -0.38320E+07
 
   -0.39155E+07         0.19366E+07         0.00000E+00
    0.19366E+07        -0.25035E+08         0.00000E+00
    0.00000E+00         0.00000E+00        -0.38859E+07
 
   -0.39543E+07         0.20228E+07         0.00000E+00
    0.20228E+07        -0.25077E+08         0.00000E+00
    0.00000E+00         0.00000E+00        -0.39384E+07
 
   -0.39950E+07         0.21097E+07         0.00000E+00
    0.21097E+07        -0.25117E+08         0.00000E+00
    0.00000E+00         0.00000E+00        -0.39900E+07
 
   -0.67937E+07        -0.38753E+05         0.00000E+00
   -0.38753E+05        -0.24444E+08         0.00000E+00
    0.00000E+00         0.00000E+00        -0.81068E+06
 
   -0.66979E+07        -0.97147E+05         0.00000E+00
   -0.97147E+05        -0.24445E+08         0.00000E+00
    0.00000E+00         0.00000E+00        -0.86058E+06
 
   -0.66012E+07        -0.14893E+06         0.00000E+00
   -0.14893E+06        -0.24447E+08         0.00000E+00
    0.00000E+00         0.00000E+00        -0.91375E+06
 
   -0.65036E+07        -0.19400E+06         0.00000E+00
   -0.19400E+06        -0.24451E+08         0.00000E+00
    0.00000E+00         0.00000E+00        -0.96974E+06
 
   -0.64055E+07        -0.23251E+06         0.00000E+00
   -0.23251E+06        -0.24455E+08         0.00000E+00
    0.00000E+00         0.00000E+00        -0.10283E+07
 
   -0.63069E+07        -0.26458E+06         0.00000E+00
   -0.26458E+06        -0.24461E+08         0.00000E+00
    0.00000E+00         0.00000E+00        -0.10895E+07
 
   -0.62084E+07        -0.29037E+06         0.00000E+00
   -0.29037E+06        -0.24469E+08         0.00000E+00
    0.00000E+00         0.00000E+00        -0.11529E+07
 
   -0.61100E+07        -0.31005E+06         0.00000E+00
   -0.31005E+06        -0.24477E+08         0.00000E+00
    0.00000E+00         0.00000E+00        -0.12187E+07
 
   -0.60119E+07        -0.32387E+06         0.00000E+00
   -0.32387E+06        -0.24487E+08         0.00000E+00
    0.00000E+00         0.00000E+00        -0.12866E+07
 
   -0.59144E+07        -0.33203E+06         0.00000E+00
   -0.33203E+06        -0.24499E+08         0.00000E+00
    0.00000E+00         0.00000E+00        -0.13565E+07
 
   -0.58175E+07        -0.33475E+06         0.00000E+00
   -0.33475E+06        -0.24511E+08         0.00000E+00
    0.00000E+00         0.00000E+00        -0.14284E+07
 
   -0.57216E+07        -0.33233E+06         0.00000E+00
   -0.33233E+06        -0.24525E+08         0.00000E+00
    0.00000E+00         0.00000E+00        -0.15021E+07
 
   -0.56270E+07        -0.32508E+06         0.00000E+00
   -0.32508E+06        -0.24540E+08         0.00000E+00
    0.00000E+00         0.00000E+00        -0.15774E+07
 
   -0.55337E+07        -0.31332E+06         0.00000E+00
   -0.31332E+06        -0.24557E+08         0.00000E+00
    0.00000E+00         0.00000E+00        -0.16543E+07
 
   -0.54418E+07        -0.29725E+06         0.00000E+00
   -0.29725E+06        -0.24575E+08         0.00000E+00
    0.00000E+00         0.00000E+00        -0.17327E+07
 
   -0.53519E+07        -0.27711E+06         0.00000E+00
   -0.27711E+06        -0.24594E+08         0.00000E+00
    0.00000E+00         0.00000E+00        -0.18125E+07
 
   -0.52640E+07        -0.25320E+06         0.00000E+00
   -0.25320E+06        -0.24614E+08         0.00000E+00
    0.00000E+00         0.00000E+00        -0.18934E+07
 
   -0.51783E+07        -0.22574E+06         0.00000E+00
   -0.22574E+06        -0.24635E+08         0.00000E+00
    0.00000E+00         0.00000E+00        -0.19755E+07
 
   -0.50948E+07        -0.19484E+06         0.00000E+00
   -0.19484E+06        -0.24658E+08         0.00000E+00
    0.00000E+00         0.00000E+00        -0.20586E+07
 
   -0.50139E+07        -0.16077E+06         0.00000E+00
   -0.16077E+06        -0.24682E+08         0.00000E+00
    0.00000E+00         0.00000E+00        -0.21425E+07
 
   -0.49359E+07        -0.12368E+06         0.00000E+00
   -0.12368E+06        -0.24706E+08         0.00000E+00
    0.00000E+00         0.00000E+00        -0.22269E+07
 
   -0.48606E+07        -0.83735E+05         0.00000E+00
   -0.83735E+05        -0.24732E+08         0.00000E+00
    0.00000E+00         0.00000E+00        -0.23120E+07
 
   -0.47883E+07        -0.41007E+05         0.00000E+00
   -0.41007E+05        -0.24759E+08         0.00000E+00
    0.00000E+00         0.00000E+00        -0.23976E+07
 
   -0.47192E+07         0.44472E+04         0.00000E+00
    0.44472E+04        -0.24787E+08         0.00000E+00
    0.00000E+00         0.00000E+00        -0.24836E+07
 
   -0.46534E+07         0.52568E+05         0.00000E+00
    0.52568E+05        -0.24816E+08         0.00000E+00
    0.00000E+00         0.00000E+00        -0.25698E+07
 
   -0.45913E+07         0.10316E+06         0.00000E+00
    0.10316E+06        -0.24846E+08         0.00000E+00
    0.00000E+00         0.00000E+00        -0.26559E+07
 
   -0.45326E+07         0.15633E+06         0.00000E+00
    0.15633E+06        -0.24877E+08         0.00000E+00
    0.00000E+00         0.00000E+00        -0.27421E+07
 
   -0.44776E+07         0.21198E+06         0.00000E+00
    0.21198E+06        -0.24909E+08         0.00000E+00
    0.00000E+00         0.00000E+00        -0.28281E+07
 
   -0.44265E+07         0.26991E+06         0.00000E+00
    0.26991E+06        -0.24942E+08         0.00000E+00
    0.00000E+00         0.00000E+00        -0.29138E+07
 
   -0.43794E+07         0.33012E+06         0.00000E+00
    0.33012E+06        -0.24976E+08         0.00000E+00
    0.00000E+00         0.00000E+00        -0.29990E+07
 
   -0.43364E+07         0.39254E+06         0.00000E+00
    0.39254E+06        -0.25011E+08         0.00000E+00
    0.00000E+00         0.00000E+00        -0.30836E+07
 
   -0.42977E+07         0.45705E+06         0.00000E+00
    0.45705E+06        -0.25046E+08         0.00000E+00
    0.00000E+00         0.00000E+00        -0.31675E+07
 
   -0.42634E+07         0.52371E+06         0.00000E+00
    0.52371E+06        -0.25083E+08         0.00000E+00
    0.00000E+00         0.00000E+00        -0.32506E+07
 
   -0.42337E+07         0.59254E+06         0.00000E+00
    0.59254E+06        -0.25121E+08         0.00000E+00
    0.00000E+00         0.00000E+00        -0.33326E+07
 
   -0.42084E+07         0.66360E+06         0.00000E+00
    0.66360E+06        -0.25160E+08         0.00000E+00
    0.00000E+00         0.00000E+00        -0.34133E+07
 
   -0.41874E+07         0.73696E+06         0.00000E+00
    0.73696E+06        -0.25199E+08         0.00000E+00
    0.00000E+00         0.00000E+00        -0.34927E+07
 
   -0.41710E+07         0.81257E+06         0.00000E+00
    0.81257E+06        -0.25238E+08         0.00000E+00
    0.00000E+00         0.00000E+00        -0.35704E+07
 
   -0.41593E+07         0.89023E+06         0.00000E+00
    0.89023E+06        -0.25278E+08         0.00000E+00
    0.00000E+00         0.00000E+00        -0.36464E+07
 
   -0.41528E+07         0.96952E+06         0.00000E+00
    0.96952E+06        -0.25319E+08         0.00000E+00
    0.00000E+00         0.00000E+00        -0.37202E+07
 
   -0.41515E+07         0.10499E+07         0.00000E+00
    0.10499E+07        -0.25360E+08         0.00000E+00
    0.00000E+00         0.00000E+00        -0.37918E+07
 
   -0.41550E+07         0.11320E+07         0.00000E+00
    0.11320E+07        -0.25402E+08         0.00000E+00
    0.00000E+00         0.00000E+00        -0.38613E+07
 
   -0.41638E+07         0.12152E+07         0.00000E+00
    0.12152E+07        -0.25444E+08         0.00000E+00
    0.00000E+00         0.00000E+00        -0.39280E+07
 
   -0.41777E+07         0.12998E+07         0.00000E+00
    0.12998E+07        -0.25486E+08         0.00000E+00
    0.00000E+00         0.00000E+00        -0.39919E+07
 
   -0.41963E+07         0.13856E+07         0.00000E+00
    0.13856E+07        -0.25528E+08         0.00000E+00
    0.00000E+00         0.00000E+00        -0.40530E+07
 
   -0.42195E+07         0.14716E+07         0.00000E+00
    0.14716E+07        -0.25570E+08         0.00000E+00
    0.00000E+00         0.00000E+00        -0.41112E+07
 
   -0.42464E+07         0.15588E+07         0.00000E+00
    0.15588E+07        -0.25612E+08         0.00000E+00
    0.00000E+00         0.00000E+00        -0.41671E+07
 
   -0.42758E+07         0.16479E+07         0.00000E+00
    0.16479E+07        -0.25652E+08         0.00000E+00
    0.00000E+00         0.00000E+00        -0.42209E+07
 
   -0.43072E+07         0.17382E+07         0.00000E+00
    0.17382E+07        -0.25690E+08         0.00000E+00
    0.00000E+00         0.00000E+00        -0.42727E+07
 
   -0.43403E+07         0.18306E+07         0.00000E+00
    0.18306E+07        -0.25727E+08         0.00000E+00
    0.00000E+00         0.00000E+00        -0.43226E+07
 
   -0.43755E+07         0.19245E+07         0.00000E+00
    0.19245E+07        -0.25761E+08         0.00000E+00
    0.00000E+00         0.00000E+00        -0.43704E+07
 
   -0.79665E+07        -0.42336E+05         0.00000E+00
   -0.42336E+05        -0.25289E+08         0.00000E+00
    0.00000E+00         0.00000E+00        -0.10633E+07
 
   -0.78357E+07        -0.10793E+06         0.00000E+00
   -0.10793E+06        -0.25291E+08         0.00000E+00
    0.00000E+00         0.00000E+00        -0.11251E+07
 
   -0.77041E+07        -0.16576E+06         0.00000E+00
   -0.16576E+06        -0.25293E+08         0.00000E+00
    0.00000E+00         0.00000E+00        -0.11899E+07
 
   -0.75726E+07        -0.21662E+06         0.00000E+00
   -0.21662E+06        -0.25297E+08         0.00000E+00
    0.00000E+00         0.00000E+00        -0.12577E+07
 
   -0.74413E+07        -0.26070E+06         0.00000E+00
   -0.26070E+06        -0.25301E+08         0.00000E+00
    0.00000E+00         0.00000E+00        -0.13282E+07
 
   -0.73105E+07        -0.29818E+06         0.00000E+00
   -0.29818E+06        -0.25307E+08         0.00000E+00
    0.00000E+00         0.00000E+00        -0.14012E+07
 
   -0.71807E+07        -0.32915E+06         0.00000E+00
   -0.32915E+06        -0.25313E+08         0.00000E+00
    0.00000E+00         0.00000E+00        -0.14761E+07
 
   -0.70520E+07        -0.35386E+06         0.00000E+00
   -0.35386E+06        -0.25320E+08         0.00000E+00
    0.00000E+00         0.00000E+00        -0.15526E+07
 
   -0.69247E+07        -0.37251E+06         0.00000E+00
   -0.37251E+06        -0.25327E+08         0.00000E+00
    0.00000E+00         0.00000E+00        -0.16305E+07
 
   -0.67992E+07        -0.38538E+06         0.00000E+00
   -0.38538E+06        -0.25335E+08         0.00000E+00
    0.00000E+00         0.00000E+00        -0.17094E+07
 
   -0.66761E+07        -0.39283E+06         0.00000E+00
   -0.39283E+06        -0.25344E+08         0.00000E+00
    0.00000E+00         0.00000E+00        -0.17891E+07
 
   -0.65551E+07        -0.39521E+06         0.00000E+00
   -0.39521E+06        -0.25353E+08         0.00000E+00
    0.00000E+00         0.00000E+00        -0.18697E+07
 
   -0.64368E+07        -0.39280E+06         0.00000E+00
   -0.39280E+06        -0.25363E+08         0.00000E+00
    0.00000E+00         0.00000E+00        -0.19507E+07
 
   -0.63211E+07        -0.38585E+06         0.00000E+00
   -0.38585E+06        -0.25374E+08         0.00000E+00
    0.00000E+00         0.00000E+00        -0.20324E+07
 
   -0.62084E+07        -0.37470E+06         0.00000E+00
   -0.37470E+06        -0.25385E+08         0.00000E+00
    0.00000E+00         0.00000E+00        -0.21144E+07
 
   -0.60989E+07        -0.35959E+06         0.00000E+00
   -0.35959E+06        -0.25397E+08         0.00000E+00
    0.00000E+00         0.00000E+00        -0.21968E+07
 
   -0.59923E+07        -0.34076E+06         0.00000E+00
   -0.34076E+06        -0.25410E+08         0.00000E+00
    0.00000E+00         0.00000E+00        -0.22796E+07
 
   -0.58887E+07        -0.31835E+06         0.00000E+00
   -0.31835E+06        -0.25424E+08         0.00000E+00
    0.00000E+00         0.00000E+00        -0.23628E+07
 
   -0.57885E+07        -0.29253E+06         0.00000E+00
   -0.29253E+06        -0.25438E+08         0.00000E+00
    0.00000E+00         0.00000E+00        -0.24462E+07
 
   -0.56918E+07        -0.26348E+06         0.00000E+00
   -0.26348E+06        -0.25454E+08         0.00000E+00
    0.00000E+00         0.00000E+00        -0.25297E+07
 
   -0.55989E+07        -0.23147E+06         0.00000E+00
   -0.23147E+06        -0.25470E+08         0.00000E+00
    0.00000E+00         0.00000E+00        -0.26132E+07
 
   -0.55091E+07        -0.19650E+06         0.00000E+00
   -0.19650E+06        -0.25488E+08         0.00000E+00
    0.00000E+00         0.00000E+00        -0.26969E+07
 
   -0.54229E+07        -0.15871E+06         0.00000E+00
   -0.15871E+06        -0.25506E+08         0.00000E+00
    0.00000E+00         0.00000E+00        -0.27806E+07
 
   -0.53405E+07        -0.11831E+06         0.00000E+00
   -0.11831E+06        -0.25525E+08         0.00000E+00
    0.00000E+00         0.00000E+00        -0.28642E+07
 
   -0.52619E+07        -0.75450E+05         0.00000E+00
   -0.75450E+05        -0.25546E+08         0.00000E+00
    0.00000E+00         0.00000E+00        -0.29477E+07
 
   -0.51870E+07        -0.30040E+05         0.00000E+00
   -0.30040E+05        -0.25567E+08         0.00000E+00
    0.00000E+00         0.00000E+00        -0.30311E+07
 
   -0.51159E+07         0.17720E+05         0.00000E+00
    0.17720E+05        -0.25590E+08         0.00000E+00
    0.00000E+00         0.00000E+00        -0.31145E+07
 
   -0.50490E+07         0.67726E+05         0.00000E+00
    0.67726E+05        -0.25613E+08         0.00000E+00
    0.00000E+00         0.00000E+00        -0.31976E+07
 
   -0.49861E+07         0.12005E+06         0.00000E+00
    0.12005E+06        -0.25638E+08         0.00000E+00
    0.00000E+00         0.00000E+00        -0.32805E+07
 
   -0.49275E+07         0.17466E+06         0.00000E+00
    0.17466E+06        -0.25665E+08         0.00000E+00
    0.00000E+00         0.00000E+00        -0.33631E+07
 
   -0.48731E+07         0.23155E+06         0.00000E+00
    0.23155E+06        -0.25693E+08         0.00000E+00
    0.00000E+00         0.00000E+00        -0.34452E+07
 
   -0.48230E+07         0.29087E+06         0.00000E+00
    0.29087E+06        -0.25721E+08         0.00000E+00
    0.00000E+00         0.00000E+00        -0.35270E+07
 
   -0.47772E+07         0.35255E+06         0.00000E+00
    0.35255E+06        -0.25751E+08         0.00000E+00
    0.00000E+00         0.00000E+00        -0.36082E+07
 
   -0.47358E+07         0.41670E+06         0.00000E+00
    0.41670E+06        -0.25783E+08         0.00000E+00
    0.00000E+00         0.00000E+00        -0.36888E+07
 
   -0.46990E+07         0.48316E+06         0.00000E+00
    0.48316E+06        -0.25815E+08         0.00000E+00
    0.00000E+00         0.00000E+00        -0.37687E+07
 
   -0.46671E+07         0.55179E+06         0.00000E+00
    0.55179E+06        -0.25849E+08         0.00000E+00
    0.00000E+00         0.00000E+00        -0.38477E+07
 
   -0.46402E+07         0.62249E+06         0.00000E+00
    0.62249E+06        -0.25885E+08         0.00000E+00
    0.00000E+00         0.00000E+00        -0.39257E+07
 
   -0.46184E+07         0.69544E+06         0.00000E+00
    0.69544E+06        -0.25922E+08         0.00000E+00
    0.00000E+00         0.00000E+00        -0.40026E+07
 
   -0.46021E+07         0.77068E+06         0.00000E+00
    0.77068E+06        -0.25959E+08         0.00000E+00
    0.00000E+00         0.00000E+00        -0.40777E+07
 
   -0.45912E+07         0.84852E+06         0.00000E+00
    0.84852E+06        -0.25998E+08         0.00000E+00
    0.00000E+00         0.00000E+00        -0.41510E+07
 
   -0.45860E+07         0.92841E+06         0.00000E+00
    0.92841E+06        -0.26038E+08         0.00000E+00
    0.00000E+00         0.00000E+00        -0.42220E+07
 
   -0.45862E+07         0.10107E+07         0.00000E+00
    0.10107E+07        -0.26079E+08         0.00000E+00
    0.00000E+00         0.00000E+00        -0.42908E+07
 
   -0.45910E+07         0.10956E+07         0.00000E+00
    0.10956E+07        -0.26119E+08         0.00000E+00
    0.00000E+00         0.00000E+00        -0.43575E+07
 
   -0.46001E+07         0.11830E+07         0.00000E+00
    0.11830E+07        -0.26160E+08         0.00000E+00
    0.00000E+00         0.00000E+00        -0.44220E+07
 
   -0.46129E+07         0.12734E+07         0.00000E+00
    0.12734E+07        -0.26199E+08         0.00000E+00
    0.00000E+00         0.00000E+00        -0.44844E+07
 
   -0.46291E+07         0.13674E+07         0.00000E+00
    0.13674E+07        -0.26237E+08         0.00000E+00
    0.00000E+00         0.00000E+00        -0.45445E+07
 
   -0.46506E+07         0.14620E+07         0.00000E+00
    0.14620E+07        -0.26275E+08         0.00000E+00
    0.00000E+00         0.00000E+00        -0.46011E+07
 
   -0.46776E+07         0.15570E+07         0.00000E+00
    0.15570E+07        -0.26313E+08         0.00000E+00
    0.00000E+00         0.00000E+00        -0.46544E+07
 
   -0.47109E+07         0.16516E+07         0.00000E+00
    0.16516E+07        -0.26351E+08         0.00000E+00
    0.00000E+00         0.00000E+00        -0.47039E+07
 
   -0.47509E+07         0.17426E+07         0.00000E+00
    0.17426E+07        -0.26392E+08         0.00000E+00
    0.00000E+00         0.00000E+00        -0.47500E+07
 
   -0.91825E+07        -0.47278E+05         0.00000E+00
   -0.47278E+05        -0.26142E+08         0.00000E+00
    0.00000E+00         0.00000E+00        -0.13334E+07
 
   -0.90118E+07        -0.11764E+06         0.00000E+00
   -0.11764E+06        -0.26141E+08         0.00000E+00
    0.00000E+00         0.00000E+00        -0.14029E+07
 
   -0.88427E+07        -0.18150E+06         0.00000E+00
   -0.18150E+06        -0.26144E+08         0.00000E+00
    0.00000E+00         0.00000E+00        -0.14778E+07
 
   -0.86741E+07        -0.23742E+06         0.00000E+00
   -0.23742E+06        -0.26147E+08         0.00000E+00
    0.00000E+00         0.00000E+00        -0.15557E+07
 
   -0.85066E+07        -0.28529E+06         0.00000E+00
   -0.28529E+06        -0.26151E+08         0.00000E+00
    0.00000E+00         0.00000E+00        -0.16363E+07
 
   -0.83406E+07        -0.32511E+06         0.00000E+00
   -0.32511E+06        -0.26155E+08         0.00000E+00
    0.00000E+00         0.00000E+00        -0.17185E+07
 
   -0.81772E+07        -0.35764E+06         0.00000E+00
   -0.35764E+06        -0.26158E+08         0.00000E+00
    0.00000E+00         0.00000E+00        -0.18015E+07
 
   -0.80169E+07        -0.38351E+06         0.00000E+00
   -0.38351E+06        -0.26161E+08         0.00000E+00
    0.00000E+00         0.00000E+00        -0.18850E+07
 
   -0.78601E+07        -0.40335E+06         0.00000E+00
   -0.40335E+06        -0.26164E+08         0.00000E+00
    0.00000E+00         0.00000E+00        -0.19689E+07
 
   -0.77072E+07        -0.41773E+06         0.00000E+00
   -0.41773E+06        -0.26167E+08         0.00000E+00
    0.00000E+00         0.00000E+00        -0.20529E+07
 
   -0.75581E+07        -0.42703E+06         0.00000E+00
   -0.42703E+06        -0.26170E+08         0.00000E+00
    0.00000E+00         0.00000E+00        -0.21370E+07
 
   -0.74127E+07        -0.43155E+06         0.00000E+00
   -0.43155E+06        -0.26174E+08         0.00000E+00
    0.00000E+00         0.00000E+00        -0.22215E+07
 
   -0.72715E+07        -0.43155E+06         0.00000E+00
   -0.43155E+06        -0.26177E+08         0.00000E+00
    0.00000E+00         0.00000E+00        -0.23058E+07
 
   -0.71345E+07        -0.42730E+06         0.00000E+00
   -0.42730E+06        -0.26182E+08         0.00000E+00
    0.00000E+00         0.00000E+00        -0.23899E+07
 
   -0.70017E+07        -0.41908E+06         0.00000E+00
   -0.41908E+06        -0.26186E+08         0.00000E+00
    0.00000E+00         0.00000E+00        -0.24739E+07
 
   -0.68729E+07        -0.40701E+06         0.00000E+00
   -0.40701E+06        -0.26191E+08         0.00000E+00
    0.00000E+00         0.00000E+00        -0.25576E+07
 
   -0.67480E+07        -0.39126E+06         0.00000E+00
   -0.39126E+06        -0.26197E+08         0.00000E+00
    0.00000E+00         0.00000E+00        -0.26410E+07
 
   -0.66275E+07        -0.37212E+06         0.00000E+00
   -0.37212E+06        -0.26203E+08         0.00000E+00
    0.00000E+00         0.00000E+00        -0.27239E+07
 
   -0.65112E+07        -0.34986E+06         0.00000E+00
   -0.34986E+06        -0.26209E+08         0.00000E+00
    0.00000E+00         0.00000E+00        -0.28062E+07
 
   -0.63994E+07        -0.32465E+06         0.00000E+00
   -0.32465E+06        -0.26216E+08         0.00000E+00
    0.00000E+00         0.00000E+00        -0.28879E+07
 
   -0.62918E+07        -0.29657E+06         0.00000E+00
   -0.29657E+06        -0.26223E+08         0.00000E+00
    0.00000E+00         0.00000E+00        -0.29690E+07
 
   -0.61882E+07        -0.26588E+06         0.00000E+00
   -0.26588E+06        -0.26232E+08         0.00000E+00
    0.00000E+00         0.00000E+00        -0.30497E+07
 
   -0.60890E+07        -0.23278E+06         0.00000E+00
   -0.23278E+06        -0.26241E+08         0.00000E+00
    0.00000E+00         0.00000E+00        -0.31299E+07
 
   -0.59941E+07        -0.19736E+06         0.00000E+00
   -0.19736E+06        -0.26251E+08         0.00000E+00
    0.00000E+00         0.00000E+00        -0.32095E+07
 
   -0.59035E+07        -0.15971E+06         0.00000E+00
   -0.15971E+06        -0.26262E+08         0.00000E+00
    0.00000E+00         0.00000E+00        -0.32887E+07
 
   -0.58172E+07        -0.11999E+06         0.00000E+00
   -0.11999E+06        -0.26274E+08         0.00000E+00
    0.00000E+00         0.00000E+00        -0.33675E+07
 
   -0.57351E+07        -0.78235E+05         0.00000E+00
   -0.78235E+05        -0.26288E+08         0.00000E+00
    0.00000E+00         0.00000E+00        -0.34459E+07
 
   -0.56572E+07        -0.34418E+05         0.00000E+00
   -0.34418E+05        -0.26302E+08         0.00000E+00
    0.00000E+00         0.00000E+00        -0.35240E+07
 
   -0.55835E+07         0.11444E+05         0.00000E+00
    0.11444E+05        -0.26318E+08         0.00000E+00
    0.00000E+00         0.00000E+00        -0.36020E+07
 
   -0.55140E+07         0.59390E+05         0.00000E+00
    0.59390E+05        -0.26336E+08         0.00000E+00
    0.00000E+00         0.00000E+00        -0.36798E+07
 
   -0.54484E+07         0.10941E+06         0.00000E+00
    0.10941E+06        -0.26354E+08         0.00000E+00
    0.00000E+00         0.00000E+00        -0.37576E+07
 
   -0.53869E+07         0.16146E+06         0.00000E+00
    0.16146E+06        -0.26375E+08         0.00000E+00
    0.00000E+00         0.00000E+00        -0.38355E+07
 
   -0.53296E+07         0.21558E+06         0.00000E+00
    0.21558E+06        -0.26397E+08         0.00000E+00
    0.00000E+00         0.00000E+00        -0.39136E+07
 
   -0.52764E+07         0.27175E+06         0.00000E+00
    0.27175E+06        -0.26421E+08         0.00000E+00
    0.00000E+00         0.00000E+00        -0.39919E+07
 
   -0.52278E+07         0.33028E+06         0.00000E+00
    0.33028E+06        -0.26447E+08         0.00000E+00
    0.00000E+00         0.00000E+00        -0.40703E+07
 
   -0.51837E+07         0.39118E+06         0.00000E+00
    0.39118E+06        -0.26475E+08         0.00000E+00
    0.00000E+00         0.00000E+00        -0.41484E+07
 
   -0.51443E+07         0.45472E+06         0.00000E+00
    0.45472E+06        -0.26505E+08         0.00000E+00
    0.00000E+00         0.00000E+00        -0.42263E+07
 
   -0.51098E+07         0.52104E+06         0.00000E+00
    0.52104E+06        -0.26536E+08         0.00000E+00
    0.00000E+00         0.00000E+00        -0.43038E+07
 
   -0.50800E+07         0.59037E+06         0.00000E+00
    0.59037E+06        -0.26569E+08         0.00000E+00
    0.00000E+00         0.00000E+00        -0.43809E+07
 
   -0.50549E+07         0.66269E+06         0.00000E+00
    0.66269E+06        -0.26604E+08         0.00000E+00
    0.00000E+00         0.00000E+00        -0.44575E+07
 
   -0.50345E+07         0.73848E+06         0.00000E+00
    0.73848E+06        -0.26640E+08         0.00000E+00
    0.00000E+00         0.00000E+00        -0.45336E+07
 
   -0.50188E+07         0.81791E+06         0.00000E+00
    0.81791E+06        -0.26677E+08         0.00000E+00
    0.00000E+00         0.00000E+00        -0.46091E+07
 
   -0.50076E+07         0.90110E+06         0.00000E+00
    0.90110E+06        -0.26715E+08         0.00000E+00
    0.00000E+00         0.00000E+00        -0.46843E+07
 
   -0.50027E+07         0.98787E+06         0.00000E+00
    0.98787E+06        -0.26755E+08         0.00000E+00
    0.00000E+00         0.00000E+00        -0.47575E+07
 
   -0.50052E+07         0.10766E+07         0.00000E+00
    0.10766E+07        -0.26796E+08         0.00000E+00
    0.00000E+00         0.00000E+00        -0.48278E+07
 
   -0.50162E+07         0.11656E+07         0.00000E+00
    0.11656E+07        -0.26840E+08         0.00000E+00
    0.00000E+00         0.00000E+00        -0.48943E+07
 
   -0.50351E+07         0.12564E+07         0.00000E+00
    0.12564E+07        -0.26884E+08         0.00000E+00
    0.00000E+00         0.00000E+00        -0.49571E+07
 
   -0.50614E+07         0.13484E+07         0.00000E+00
    0.13484E+07        -0.26930E+08         0.00000E+00
    0.00000E+00         0.00000E+00        -0.50161E+07
 
   -0.50926E+07         0.14408E+07         0.00000E+00
    0.14408E+07        -0.26975E+08         0.00000E+00
    0.00000E+00         0.00000E+00        -0.50716E+07
 
   -0.51275E+07         0.15402E+07         0.00000E+00
    0.15402E+07        -0.27017E+08         0.00000E+00
    0.00000E+00         0.00000E+00        -0.51221E+07
 
   -0.10435E+08        -0.46907E+05         0.00000E+00
   -0.46907E+05        -0.26995E+08         0.00000E+00
    0.00000E+00         0.00000E+00        -0.16189E+07
 
   -0.10220E+08        -0.12956E+06         0.00000E+00
   -0.12956E+06        -0.27002E+08         0.00000E+00
    0.00000E+00         0.00000E+00        -0.17033E+07
 
   -0.10002E+08        -0.19579E+06         0.00000E+00
   -0.19579E+06        -0.27003E+08         0.00000E+00
    0.00000E+00         0.00000E+00        -0.17877E+07
 
   -0.97882E+07        -0.24935E+06         0.00000E+00
   -0.24935E+06        -0.27004E+08         0.00000E+00
    0.00000E+00         0.00000E+00        -0.18738E+07
 
   -0.95789E+07        -0.29308E+06         0.00000E+00
   -0.29308E+06        -0.27001E+08         0.00000E+00
    0.00000E+00         0.00000E+00        -0.19584E+07
 
   -0.93764E+07        -0.33004E+06         0.00000E+00
   -0.33004E+06        -0.26997E+08         0.00000E+00
    0.00000E+00         0.00000E+00        -0.20426E+07
 
   -0.91801E+07        -0.36104E+06         0.00000E+00
   -0.36104E+06        -0.26993E+08         0.00000E+00
    0.00000E+00         0.00000E+00        -0.21271E+07
 
   -0.89896E+07        -0.38653E+06         0.00000E+00
   -0.38653E+06        -0.26989E+08         0.00000E+00
    0.00000E+00         0.00000E+00        -0.22123E+07
 
   -0.88051E+07        -0.40683E+06         0.00000E+00
   -0.40683E+06        -0.26986E+08         0.00000E+00
    0.00000E+00         0.00000E+00        -0.22981E+07
 
   -0.86260E+07        -0.42216E+06         0.00000E+00
   -0.42216E+06        -0.26983E+08         0.00000E+00
    0.00000E+00         0.00000E+00        -0.23841E+07
 
   -0.84521E+07        -0.43258E+06         0.00000E+00
   -0.43258E+06        -0.26981E+08         0.00000E+00
    0.00000E+00         0.00000E+00        -0.24705E+07
 
   -0.82836E+07        -0.43827E+06         0.00000E+00
   -0.43827E+06        -0.26979E+08         0.00000E+00
    0.00000E+00         0.00000E+00        -0.25567E+07
 
   -0.81205E+07        -0.43946E+06         0.00000E+00
   -0.43946E+06        -0.26976E+08         0.00000E+00
    0.00000E+00         0.00000E+00        -0.26426E+07
 
   -0.79628E+07        -0.43637E+06         0.00000E+00
   -0.43637E+06        -0.26974E+08         0.00000E+00
    0.00000E+00         0.00000E+00        -0.27277E+07
 
   -0.78099E+07        -0.42914E+06         0.00000E+00
   -0.42914E+06        -0.26972E+08         0.00000E+00
    0.00000E+00         0.00000E+00        -0.28122E+07
 
   -0.76624E+07        -0.41814E+06         0.00000E+00
   -0.41814E+06        -0.26969E+08         0.00000E+00
    0.00000E+00         0.00000E+00        -0.28956E+07
 
   -0.75204E+07        -0.40364E+06         0.00000E+00
   -0.40364E+06        -0.26967E+08         0.00000E+00
    0.00000E+00         0.00000E+00        -0.29776E+07
 
   -0.73840E+07        -0.38601E+06         0.00000E+00
   -0.38601E+06        -0.26965E+08         0.00000E+00
    0.00000E+00         0.00000E+00        -0.30582E+07
 
   -0.72531E+07        -0.36550E+06         0.00000E+00
   -0.36550E+06        -0.26962E+08         0.00000E+00
    0.00000E+00         0.00000E+00        -0.31373E+07
 
   -0.71277E+07        -0.34243E+06         0.00000E+00
   -0.34243E+06        -0.26960E+08         0.00000E+00
    0.00000E+00         0.00000E+00        -0.32149E+07
 
   -0.70077E+07        -0.31708E+06         0.00000E+00
   -0.31708E+06        -0.26958E+08         0.00000E+00
    0.00000E+00         0.00000E+00        -0.32911E+07
 
   -0.68930E+07        -0.28969E+06         0.00000E+00
   -0.28969E+06        -0.26957E+08         0.00000E+00
    0.00000E+00         0.00000E+00        -0.33661E+07
 
   -0.67831E+07        -0.26044E+06         0.00000E+00
   -0.26044E+06        -0.26957E+08         0.00000E+00
    0.00000E+00         0.00000E+00        -0.34400E+07
 
   -0.66784E+07        -0.22947E+06         0.00000E+00
   -0.22947E+06        -0.26957E+08         0.00000E+00
    0.00000E+00         0.00000E+00        -0.35128E+07
 
   -0.65785E+07        -0.19682E+06         0.00000E+00
   -0.19682E+06        -0.26958E+08         0.00000E+00
    0.00000E+00         0.00000E+00        -0.35849E+07
 
   -0.64832E+07        -0.16265E+06         0.00000E+00
   -0.16265E+06        -0.26961E+08         0.00000E+00
    0.00000E+00         0.00000E+00        -0.36564E+07
 
   -0.63923E+07        -0.12705E+06         0.00000E+00
   -0.12705E+06        -0.26964E+08         0.00000E+00
    0.00000E+00         0.00000E+00        -0.37275E+07
 
   -0.63056E+07        -0.90027E+05         0.00000E+00
   -0.90027E+05        -0.26969E+08         0.00000E+00
    0.00000E+00         0.00000E+00        -0.37984E+07
 
   -0.62230E+07        -0.51661E+05         0.00000E+00
   -0.51661E+05        -0.26976E+08         0.00000E+00
    0.00000E+00         0.00000E+00        -0.38693E+07
 
   -0.61441E+07        -0.11920E+05         0.00000E+00
   -0.11920E+05        -0.26984E+08         0.00000E+00
    0.00000E+00         0.00000E+00        -0.39407E+07
 
   -0.60690E+07         0.29353E+05         0.00000E+00
    0.29353E+05        -0.26994E+08         0.00000E+00
    0.00000E+00         0.00000E+00        -0.40127E+07
 
   -0.59977E+07         0.72270E+05         0.00000E+00
    0.72270E+05        -0.27006E+08         0.00000E+00
    0.00000E+00         0.00000E+00        -0.40852E+07
 
   -0.59302E+07         0.11698E+06         0.00000E+00
    0.11698E+06        -0.27020E+08         0.00000E+00
    0.00000E+00         0.00000E+00        -0.41584E+07
 
   -0.58663E+07         0.16358E+06         0.00000E+00
    0.16358E+06        -0.27037E+08         0.00000E+00
    0.00000E+00         0.00000E+00        -0.42326E+07
 
   -0.58062E+07         0.21215E+06         0.00000E+00
    0.21215E+06        -0.27055E+08         0.00000E+00
    0.00000E+00         0.00000E+00        -0.43077E+07
 
   -0.57498E+07         0.26309E+06         0.00000E+00
    0.26309E+06        -0.27076E+08         0.00000E+00
    0.00000E+00         0.00000E+00        -0.43838E+07
 
   -0.56967E+07         0.31665E+06         0.00000E+00
    0.31665E+06        -0.27099E+08         0.00000E+00
    0.00000E+00         0.00000E+00        -0.44615E+07
 
   -0.56472E+07         0.37302E+06         0.00000E+00
    0.37302E+06        -0.27124E+08         0.00000E+00
    0.00000E+00         0.00000E+00        -0.45405E+07
 
   -0.56015E+07         0.43247E+06         0.00000E+00
    0.43247E+06        -0.27152E+08         0.00000E+00
    0.00000E+00         0.00000E+00        -0.46208E+07
 
   -0.55599E+07         0.49524E+06         0.00000E+00
    0.49524E+06        -0.27182E+08         0.00000E+00
    0.00000E+00         0.00000E+00        -0.47024E+07
 
   -0.55223E+07         0.56135E+06         0.00000E+00
    0.56135E+06        -0.27215E+08         0.00000E+00
    0.00000E+00         0.00000E+00        -0.47853E+07
 
   -0.54892E+07         0.63081E+06         0.00000E+00
    0.63081E+06        -0.27250E+08         0.00000E+00
    0.00000E+00         0.00000E+00        -0.48695E+07
 
   -0.54620E+07         0.70285E+06         0.00000E+00
    0.70285E+06        -0.27288E+08         0.00000E+00
    0.00000E+00         0.00000E+00        -0.49535E+07
 
   -0.54431E+07         0.77827E+06         0.00000E+00
    0.77827E+06        -0.27330E+08         0.00000E+00
    0.00000E+00         0.00000E+00        -0.50363E+07
 
   -0.54314E+07         0.85736E+06         0.00000E+00
    0.85736E+06        -0.27374E+08         0.00000E+00
    0.00000E+00         0.00000E+00        -0.51186E+07
 
   -0.54270E+07         0.94173E+06         0.00000E+00
    0.94173E+06        -0.27421E+08         0.00000E+00
    0.00000E+00         0.00000E+00        -0.51990E+07
 
   -0.54298E+07         0.10313E+07         0.00000E+00
    0.10313E+07        -0.27469E+08         0.00000E+00
    0.00000E+00         0.00000E+00        -0.52768E+07
 
   -0.54392E+07         0.11262E+07         0.00000E+00
    0.11262E+07        -0.27516E+08         0.00000E+00
    0.00000E+00         0.00000E+00        -0.53505E+07
 
   -0.54582E+07         0.12244E+07         0.00000E+00
    0.12244E+07        -0.27563E+08         0.00000E+00
    0.00000E+00         0.00000E+00        -0.54171E+07
 
   -0.54894E+07         0.13206E+07         0.00000E+00
    0.13206E+07        -0.27614E+08         0.00000E+00
    0.00000E+00         0.00000E+00        -0.54779E+07
 
   -0.11710E+08        -0.82288E+05         0.00000E+00
   -0.82288E+05        -0.27878E+08         0.00000E+00
    0.00000E+00         0.00000E+00        -0.19514E+07
 
   -0.11406E+08        -0.12523E+06         0.00000E+00
   -0.12523E+06        -0.27865E+08         0.00000E+00
    0.00000E+00         0.00000E+00        -0.20365E+07
 
   -0.11136E+08        -0.16693E+06         0.00000E+00
   -0.16693E+06        -0.27854E+08         0.00000E+00
    0.00000E+00         0.00000E+00        -0.21185E+07
 
   -0.10884E+08        -0.21067E+06         0.00000E+00
   -0.21067E+06        -0.27832E+08         0.00000E+00
    0.00000E+00         0.00000E+00        -0.21905E+07
 
   -0.10645E+08        -0.25493E+06         0.00000E+00
   -0.25493E+06        -0.27818E+08         0.00000E+00
    0.00000E+00         0.00000E+00        -0.22685E+07
 
   -0.10414E+08        -0.29505E+06         0.00000E+00
   -0.29505E+06        -0.27808E+08         0.00000E+00
    0.00000E+00         0.00000E+00        -0.23502E+07
 
   -0.10190E+08        -0.33038E+06         0.00000E+00
   -0.33038E+06        -0.27799E+08         0.00000E+00
    0.00000E+00         0.00000E+00        -0.24350E+07
 
   -0.99719E+07        -0.36032E+06         0.00000E+00
   -0.36032E+06        -0.27791E+08         0.00000E+00
    0.00000E+00         0.00000E+00        -0.25221E+07
 
   -0.97591E+07        -0.38417E+06         0.00000E+00
   -0.38417E+06        -0.27784E+08         0.00000E+00
    0.00000E+00         0.00000E+00        -0.26105E+07
 
   -0.95521E+07        -0.40122E+06         0.00000E+00
   -0.40122E+06        -0.27778E+08         0.00000E+00
    0.00000E+00         0.00000E+00        -0.27005E+07
 
   -0.93515E+07        -0.41184E+06         0.00000E+00
   -0.41184E+06        -0.27771E+08         0.00000E+00
    0.00000E+00         0.00000E+00        -0.27900E+07
 
   -0.91577E+07        -0.41664E+06         0.00000E+00
   -0.41664E+06        -0.27764E+08         0.00000E+00
    0.00000E+00         0.00000E+00        -0.28784E+07
 
   -0.89710E+07        -0.41606E+06         0.00000E+00
   -0.41606E+06        -0.27755E+08         0.00000E+00
    0.00000E+00         0.00000E+00        -0.29649E+07
 
   -0.87914E+07        -0.41061E+06         0.00000E+00
   -0.41061E+06        -0.27745E+08         0.00000E+00
    0.00000E+00         0.00000E+00        -0.30492E+07
 
   -0.86193E+07        -0.40100E+06         0.00000E+00
   -0.40100E+06        -0.27734E+08         0.00000E+00
    0.00000E+00         0.00000E+00        -0.31309E+07
 
   -0.84548E+07        -0.38789E+06         0.00000E+00
   -0.38789E+06        -0.27722E+08         0.00000E+00
    0.00000E+00         0.00000E+00        -0.32099E+07
 
   -0.82980E+07        -0.37193E+06         0.00000E+00
   -0.37193E+06        -0.27710E+08         0.00000E+00
    0.00000E+00         0.00000E+00        -0.32860E+07
 
   -0.81486E+07        -0.35361E+06         0.00000E+00
   -0.35361E+06        -0.27697E+08         0.00000E+00
    0.00000E+00         0.00000E+00        -0.33596E+07
 
   -0.80063E+07        -0.33335E+06         0.00000E+00
   -0.33335E+06        -0.27684E+08         0.00000E+00
    0.00000E+00         0.00000E+00        -0.34308E+07
 
   -0.78710E+07        -0.31149E+06         0.00000E+00
   -0.31149E+06        -0.27671E+08         0.00000E+00
    0.00000E+00         0.00000E+00        -0.34999E+07
 
   -0.77423E+07        -0.28829E+06         0.00000E+00
   -0.28829E+06        -0.27659E+08         0.00000E+00
    0.00000E+00         0.00000E+00        -0.35670E+07
 
   -0.76198E+07        -0.26394E+06         0.00000E+00
   -0.26394E+06        -0.27647E+08         0.00000E+00
    0.00000E+00         0.00000E+00        -0.36326E+07
 
   -0.75033E+07        -0.23862E+06         0.00000E+00
   -0.23862E+06        -0.27637E+08         0.00000E+00
    0.00000E+00         0.00000E+00        -0.36968E+07
 
   -0.73922E+07        -0.21249E+06         0.00000E+00
   -0.21249E+06        -0.27627E+08         0.00000E+00
    0.00000E+00         0.00000E+00        -0.37599E+07
 
   -0.72865E+07        -0.18569E+06         0.00000E+00
   -0.18569E+06        -0.27619E+08         0.00000E+00
    0.00000E+00         0.00000E+00        -0.38223E+07
 
   -0.71854E+07        -0.15818E+06         0.00000E+00
   -0.15818E+06        -0.27612E+08         0.00000E+00
    0.00000E+00         0.00000E+00        -0.38843E+07
 
   -0.70886E+07        -0.12988E+06         0.00000E+00
   -0.12988E+06        -0.27606E+08         0.00000E+00
    0.00000E+00         0.00000E+00        -0.39465E+07
 
   -0.69962E+07        -0.10082E+06         0.00000E+00
   -0.10082E+06        -0.27603E+08         0.00000E+00
    0.00000E+00         0.00000E+00        -0.40087E+07
 
   -0.69078E+07        -0.70951E+05         0.00000E+00
   -0.70951E+05        -0.27601E+08         0.00000E+00
    0.00000E+00         0.00000E+00        -0.40714E+07
 
   -0.68230E+07        -0.40233E+05         0.00000E+00
   -0.40233E+05        -0.27601E+08         0.00000E+00
    0.00000E+00         0.00000E+00        -0.41347E+07
 
   -0.67418E+07        -0.86581E+04         0.00000E+00
   -0.86581E+04        -0.27604E+08         0.00000E+00
    0.00000E+00         0.00000E+00        -0.41988E+07
 
   -0.66636E+07         0.23891E+05         0.00000E+00
    0.23891E+05        -0.27608E+08         0.00000E+00
    0.00000E+00         0.00000E+00        -0.42644E+07
 
   -0.65883E+07         0.57544E+05         0.00000E+00
    0.57544E+05        -0.27615E+08         0.00000E+00
    0.00000E+00         0.00000E+00        -0.43315E+07
 
   -0.65160E+07         0.92486E+05         0.00000E+00
    0.92486E+05        -0.27624E+08         0.00000E+00
    0.00000E+00         0.00000E+00        -0.44003E+07
 
   -0.64465E+07         0.12890E+06         0.00000E+00
    0.12890E+06        -0.27636E+08         0.00000E+00
    0.00000E+00         0.00000E+00        -0.44711E+07
 
   -0.63792E+07         0.16698E+06         0.00000E+00
    0.16698E+06        -0.27650E+08         0.00000E+00
    0.00000E+00         0.00000E+00        -0.45445E+07
 
   -0.63137E+07         0.20699E+06         0.00000E+00
    0.20699E+06        -0.27667E+08         0.00000E+00
    0.00000E+00         0.00000E+00        -0.46212E+07
 
   -0.62509E+07         0.24913E+06         0.00000E+00
    0.24913E+06        -0.27688E+08         0.00000E+00
    0.00000E+00         0.00000E+00        -0.47007E+07
 
   -0.61909E+07         0.29371E+06         0.00000E+00
    0.29371E+06        -0.27711E+08         0.00000E+00
    0.00000E+00         0.00000E+00        -0.47833E+07
 
   -0.61339E+07         0.34100E+06         0.00000E+00
    0.34100E+06        -0.27738E+08         0.00000E+00
    0.00000E+00         0.00000E+00        -0.48690E+07
 
   -0.60803E+07         0.39130E+06         0.00000E+00
    0.39130E+06        -0.27769E+08         0.00000E+00
    0.00000E+00         0.00000E+00        -0.49579E+07
 
   -0.60306E+07         0.44491E+06         0.00000E+00
    0.44491E+06        -0.27803E+08         0.00000E+00
    0.00000E+00         0.00000E+00        -0.50496E+07
 
   -0.59850E+07         0.50243E+06         0.00000E+00
    0.50243E+06        -0.27841E+08         0.00000E+00
    0.00000E+00         0.00000E+00        -0.51438E+07
 
   -0.59424E+07         0.56374E+06         0.00000E+00
    0.56374E+06        -0.27881E+08         0.00000E+00
    0.00000E+00         0.00000E+00        -0.52409E+07
 
   -0.59031E+07         0.63154E+06         0.00000E+00
    0.63154E+06        -0.27924E+08         0.00000E+00
    0.00000E+00         0.00000E+00        -0.53408E+07
 
   -0.58693E+07         0.70558E+06         0.00000E+00
    0.70558E+06        -0.27971E+08         0.00000E+00
    0.00000E+00         0.00000E+00        -0.54430E+07
 
   -0.58443E+07         0.78676E+06         0.00000E+00
    0.78676E+06        -0.28023E+08         0.00000E+00
    0.00000E+00         0.00000E+00        -0.55456E+07
 
   -0.58322E+07         0.87150E+06         0.00000E+00
    0.87150E+06        -0.28079E+08         0.00000E+00
    0.00000E+00         0.00000E+00        -0.56454E+07
 
   -0.58372E+07         0.96675E+06         0.00000E+00
    0.96675E+06        -0.28141E+08         0.00000E+00
    0.00000E+00         0.00000E+00        -0.57386E+07
 
   -0.58505E+07         0.10663E+07         0.00000E+00
    0.10663E+07        -0.28197E+08         0.00000E+00
    0.00000E+00         0.00000E+00        -0.58203E+07
 
   -0.12821E+08         0.59424E+05         0.00000E+00
    0.59424E+05        -0.28589E+08         0.00000E+00
    0.00000E+00         0.00000E+00        -0.22101E+07
 
   -0.12545E+08        -0.26464E+05         0.00000E+00
   -0.26464E+05        -0.28573E+08         0.00000E+00
    0.00000E+00         0.00000E+00        -0.22747E+07
 
   -0.12259E+08        -0.10423E+06         0.00000E+00
   -0.10423E+06        -0.28557E+08         0.00000E+00
    0.00000E+00         0.00000E+00        -0.23471E+07
 
   -0.11994E+08        -0.16521E+06         0.00000E+00
   -0.16521E+06        -0.28590E+08         0.00000E+00
    0.00000E+00         0.00000E+00        -0.24600E+07
 
   -0.11732E+08        -0.21828E+06         0.00000E+00
   -0.21828E+06        -0.28601E+08         0.00000E+00
    0.00000E+00         0.00000E+00        -0.25581E+07
 
   -0.11469E+08        -0.26559E+06         0.00000E+00
   -0.26559E+06        -0.28605E+08         0.00000E+00
    0.00000E+00         0.00000E+00        -0.26569E+07
 
   -0.11206E+08        -0.30149E+06         0.00000E+00
   -0.30149E+06        -0.28605E+08         0.00000E+00
    0.00000E+00         0.00000E+00        -0.27560E+07
 
   -0.10950E+08        -0.32587E+06         0.00000E+00
   -0.32587E+06        -0.28601E+08         0.00000E+00
    0.00000E+00         0.00000E+00        -0.28533E+07
 
   -0.10702E+08        -0.34102E+06         0.00000E+00
   -0.34102E+06        -0.28591E+08         0.00000E+00
    0.00000E+00         0.00000E+00        -0.29471E+07
 
   -0.10462E+08        -0.34987E+06         0.00000E+00
   -0.34987E+06        -0.28573E+08         0.00000E+00
    0.00000E+00         0.00000E+00        -0.30342E+07
 
   -0.10230E+08        -0.35210E+06         0.00000E+00
   -0.35210E+06        -0.28553E+08         0.00000E+00
    0.00000E+00         0.00000E+00        -0.31183E+07
 
   -0.10009E+08        -0.34788E+06         0.00000E+00
   -0.34788E+06        -0.28529E+08         0.00000E+00
    0.00000E+00         0.00000E+00        -0.31985E+07
 
   -0.98000E+07        -0.33872E+06         0.00000E+00
   -0.33872E+06        -0.28504E+08         0.00000E+00
    0.00000E+00         0.00000E+00        -0.32741E+07
 
   -0.96023E+07        -0.32624E+06         0.00000E+00
   -0.32624E+06        -0.28477E+08         0.00000E+00
    0.00000E+00         0.00000E+00        -0.33455E+07
 
   -0.94156E+07        -0.31158E+06         0.00000E+00
   -0.31158E+06        -0.28449E+08         0.00000E+00
    0.00000E+00         0.00000E+00        -0.34131E+07
 
   -0.92398E+07        -0.29550E+06         0.00000E+00
   -0.29550E+06        -0.28420E+08         0.00000E+00
    0.00000E+00         0.00000E+00        -0.34773E+07
 
   -0.90741E+07        -0.27846E+06         0.00000E+00
   -0.27846E+06        -0.28393E+08         0.00000E+00
    0.00000E+00         0.00000E+00        -0.35387E+07
 
   -0.89179E+07        -0.26076E+06         0.00000E+00
   -0.26076E+06        -0.28366E+08         0.00000E+00
    0.00000E+00         0.00000E+00        -0.35976E+07
 
   -0.87702E+07        -0.24265E+06         0.00000E+00
   -0.24265E+06        -0.28339E+08         0.00000E+00
    0.00000E+00         0.00000E+00        -0.36544E+07
 
   -0.86307E+07        -0.22429E+06         0.00000E+00
   -0.22429E+06        -0.28315E+08         0.00000E+00
    0.00000E+00         0.00000E+00        -0.37096E+07
 
   -0.84985E+07        -0.20578E+06         0.00000E+00
   -0.20578E+06        -0.28291E+08         0.00000E+00
    0.00000E+00         0.00000E+00        -0.37635E+07
 
   -0.83732E+07        -0.18717E+06         0.00000E+00
   -0.18717E+06        -0.28269E+08         0.00000E+00
    0.00000E+00         0.00000E+00        -0.38165E+07
 
   -0.82541E+07        -0.16848E+06         0.00000E+00
   -0.16848E+06        -0.28249E+08         0.00000E+00
    0.00000E+00         0.00000E+00        -0.38688E+07
 
   -0.81409E+07        -0.14970E+06         0.00000E+00
   -0.14970E+06        -0.28231E+08         0.00000E+00
    0.00000E+00         0.00000E+00        -0.39207E+07
 
   -0.80329E+07        -0.13080E+06         0.00000E+00
   -0.13080E+06        -0.28215E+08         0.00000E+00
    0.00000E+00         0.00000E+00        -0.39726E+07
 
   -0.79297E+07        -0.11177E+06         0.00000E+00
   -0.11177E+06        -0.28201E+08         0.00000E+00
    0.00000E+00         0.00000E+00        -0.40246E+07
 
   -0.78309E+07        -0.92630E+05         0.00000E+00
   -0.92630E+05        -0.28189E+08         0.00000E+00
    0.00000E+00         0.00000E+00        -0.40772E+07
 
   -0.77362E+07        -0.73328E+05         0.00000E+00
   -0.73328E+05        -0.28179E+08         0.00000E+00
    0.00000E+00         0.00000E+00        -0.41304E+07
 
   -0.76453E+07        -0.53802E+05         0.00000E+00
   -0.53802E+05        -0.28172E+08         0.00000E+00
    0.00000E+00         0.00000E+00        -0.41845E+07
 
   -0.75575E+07        -0.33979E+05         0.00000E+00
   -0.33979E+05        -0.28167E+08         0.00000E+00
    0.00000E+00         0.00000E+00        -0.42401E+07
 
   -0.74728E+07        -0.13750E+05         0.00000E+00
   -0.13750E+05        -0.28164E+08         0.00000E+00
    0.00000E+00         0.00000E+00        -0.42972E+07
 
   -0.73909E+07         0.69261E+04         0.00000E+00
    0.69261E+04        -0.28164E+08         0.00000E+00
    0.00000E+00         0.00000E+00        -0.43560E+07
 
   -0.73115E+07         0.28109E+05         0.00000E+00
    0.28109E+05        -0.28166E+08         0.00000E+00
    0.00000E+00         0.00000E+00        -0.44170E+07
 
   -0.72340E+07         0.49922E+05         0.00000E+00
    0.49922E+05        -0.28171E+08         0.00000E+00
    0.00000E+00         0.00000E+00        -0.44807E+07
 
   -0.71586E+07         0.72435E+05         0.00000E+00
    0.72435E+05        -0.28179E+08         0.00000E+00
    0.00000E+00         0.00000E+00        -0.45471E+07
 
   -0.70845E+07         0.95704E+05         0.00000E+00
    0.95704E+05        -0.28190E+08         0.00000E+00
    0.00000E+00         0.00000E+00        -0.46169E+07
 
   -0.70112E+07         0.11987E+06         0.00000E+00
    0.11987E+06        -0.28204E+08         0.00000E+00
    0.00000E+00         0.00000E+00        -0.46908E+07
 
   -0.69390E+07         0.14530E+06         0.00000E+00
    0.14530E+06        -0.28221E+08         0.00000E+00
    0.00000E+00         0.00000E+00        -0.47688E+07
 
   -0.68679E+07         0.17220E+06         0.00000E+00
    0.17220E+06        -0.28241E+08         0.00000E+00
    0.00000E+00         0.00000E+00        -0.48511E+07
 
   -0.67980E+07         0.20092E+06         0.00000E+00
    0.20092E+06        -0.28266E+08         0.00000E+00
    0.00000E+00         0.00000E+00        -0.49383E+07
 
   -0.67292E+07         0.23193E+06         0.00000E+00
    0.23193E+06        -0.28294E+08         0.00000E+00
    0.00000E+00         0.00000E+00        -0.50305E+07
 
   -0.66618E+07         0.26582E+06         0.00000E+00
    0.26582E+06        -0.28326E+08         0.00000E+00
    0.00000E+00         0.00000E+00        -0.51282E+07
 
   -0.65960E+07         0.30393E+06         0.00000E+00
    0.30393E+06        -0.28362E+08         0.00000E+00
    0.00000E+00         0.00000E+00        -0.52316E+07
 
   -0.65306E+07         0.34665E+06         0.00000E+00
    0.34665E+06        -0.28404E+08         0.00000E+00
    0.00000E+00         0.00000E+00        -0.53427E+07
 
   -0.64618E+07         0.39300E+06         0.00000E+00
    0.39300E+06        -0.28450E+08         0.00000E+00
    0.00000E+00         0.00000E+00        -0.54650E+07
 
   -0.63933E+07         0.44407E+06         0.00000E+00
    0.44407E+06        -0.28500E+08         0.00000E+00
    0.00000E+00         0.00000E+00        -0.55947E+07
 
   -0.63270E+07         0.50328E+06         0.00000E+00
    0.50328E+06        -0.28554E+08         0.00000E+00
    0.00000E+00         0.00000E+00        -0.57312E+07
 
   -0.62680E+07         0.57606E+06         0.00000E+00
    0.57606E+06        -0.28613E+08         0.00000E+00
    0.00000E+00         0.00000E+00        -0.58712E+07
 
   -0.62210E+07         0.65564E+06         0.00000E+00
    0.65564E+06        -0.28680E+08         0.00000E+00
    0.00000E+00         0.00000E+00        -0.60130E+07
 
   -0.62115E+07         0.75715E+06         0.00000E+00
    0.75715E+06        -0.28768E+08         0.00000E+00
    0.00000E+00         0.00000E+00        -0.61523E+07
 
   -0.13629E+08        -0.21027E+04         0.00000E+00
   -0.21027E+04        -0.29698E+08         0.00000E+00
    0.00000E+00         0.00000E+00        -0.51493E+07
 
   -0.13528E+08         0.78488E+04         0.00000E+00
    0.78488E+04        -0.29704E+08         0.00000E+00
    0.00000E+00         0.00000E+00        -0.40789E+07
 
   -0.13303E+08        -0.14761E+05         0.00000E+00
   -0.14761E+05        -0.29697E+08         0.00000E+00
    0.00000E+00         0.00000E+00        -0.32788E+07
 
   -0.13085E+08        -0.60780E+05         0.00000E+00
   -0.60780E+05        -0.29640E+08         0.00000E+00
    0.00000E+00         0.00000E+00        -0.29997E+07
 
   -0.12838E+08        -0.10768E+06         0.00000E+00
   -0.10768E+06        -0.29590E+08         0.00000E+00
    0.00000E+00         0.00000E+00        -0.30357E+07
 
   -0.12526E+08        -0.14043E+06         0.00000E+00
   -0.14043E+06        -0.29535E+08         0.00000E+00
    0.00000E+00         0.00000E+00        -0.30913E+07
 
   -0.12200E+08        -0.15893E+06         0.00000E+00
   -0.15893E+06        -0.29476E+08         0.00000E+00
    0.00000E+00         0.00000E+00        -0.31528E+07
 
   -0.11895E+08        -0.16796E+06         0.00000E+00
   -0.16796E+06        -0.29414E+08         0.00000E+00
    0.00000E+00         0.00000E+00        -0.32092E+07
 
   -0.11614E+08        -0.17139E+06         0.00000E+00
   -0.17139E+06        -0.29351E+08         0.00000E+00
    0.00000E+00         0.00000E+00        -0.32606E+07
 
   -0.11342E+08        -0.16987E+06         0.00000E+00
   -0.16987E+06        -0.29292E+08         0.00000E+00
    0.00000E+00         0.00000E+00        -0.33154E+07
 
   -0.11081E+08        -0.16279E+06         0.00000E+00
   -0.16279E+06        -0.29233E+08         0.00000E+00
    0.00000E+00         0.00000E+00        -0.33703E+07
 
   -0.10837E+08        -0.15328E+06         0.00000E+00
   -0.15328E+06        -0.29177E+08         0.00000E+00
    0.00000E+00         0.00000E+00        -0.34229E+07
 
   -0.10614E+08        -0.14347E+06         0.00000E+00
   -0.14347E+06        -0.29122E+08         0.00000E+00
    0.00000E+00         0.00000E+00        -0.34719E+07
 
   -0.10409E+08        -0.13392E+06         0.00000E+00
   -0.13392E+06        -0.29071E+08         0.00000E+00
    0.00000E+00         0.00000E+00        -0.35183E+07
 
   -0.10218E+08        -0.12472E+06         0.00000E+00
   -0.12472E+06        -0.29023E+08         0.00000E+00
    0.00000E+00         0.00000E+00        -0.35634E+07
 
   -0.10040E+08        -0.11578E+06         0.00000E+00
   -0.11578E+06        -0.28978E+08         0.00000E+00
    0.00000E+00         0.00000E+00        -0.36072E+07
 
   -0.98724E+07        -0.10711E+06         0.00000E+00
   -0.10711E+06        -0.28936E+08         0.00000E+00
    0.00000E+00         0.00000E+00        -0.36502E+07
 
   -0.97156E+07        -0.98774E+05         0.00000E+00
   -0.98774E+05        -0.28897E+08         0.00000E+00
    0.00000E+00         0.00000E+00        -0.36925E+07
 
   -0.95679E+07        -0.90762E+05         0.00000E+00
   -0.90762E+05        -0.28860E+08         0.00000E+00
    0.00000E+00         0.00000E+00        -0.37345E+07
 
   -0.94286E+07        -0.83011E+05         0.00000E+00
   -0.83011E+05        -0.28827E+08         0.00000E+00
    0.00000E+00         0.00000E+00        -0.37764E+07
 
   -0.92968E+07        -0.75477E+05         0.00000E+00
   -0.75477E+05        -0.28797E+08         0.00000E+00
    0.00000E+00         0.00000E+00        -0.38183E+07
 
   -0.91719E+07        -0.68128E+05         0.00000E+00
   -0.68128E+05        -0.28769E+08         0.00000E+00
    0.00000E+00         0.00000E+00        -0.38605E+07
 
   -0.90531E+07        -0.60919E+05         0.00000E+00
   -0.60919E+05        -0.28745E+08         0.00000E+00
    0.00000E+00         0.00000E+00        -0.39030E+07
 
   -0.89401E+07        -0.53817E+05         0.00000E+00
   -0.53817E+05        -0.28722E+08         0.00000E+00
    0.00000E+00         0.00000E+00        -0.39462E+07
 
   -0.88322E+07        -0.46788E+05         0.00000E+00
   -0.46788E+05        -0.28703E+08         0.00000E+00
    0.00000E+00         0.00000E+00        -0.39901E+07
 
   -0.87290E+07        -0.39805E+05         0.00000E+00
   -0.39805E+05        -0.28687E+08         0.00000E+00
    0.00000E+00         0.00000E+00        -0.40351E+07
 
   -0.86302E+07        -0.32851E+05         0.00000E+00
   -0.32851E+05        -0.28673E+08         0.00000E+00
    0.00000E+00         0.00000E+00        -0.40811E+07
 
   -0.85352E+07        -0.25913E+05         0.00000E+00
   -0.25913E+05        -0.28662E+08         0.00000E+00
    0.00000E+00         0.00000E+00        -0.41286E+07
 
   -0.84437E+07        -0.18957E+05         0.00000E+00
   -0.18957E+05        -0.28653E+08         0.00000E+00
    0.00000E+00         0.00000E+00        -0.41776E+07
 
   -0.83553E+07        -0.11970E+05         0.00000E+00
   -0.11970E+05        -0.28648E+08         0.00000E+00
    0.00000E+00         0.00000E+00        -0.42285E+07
 
   -0.82695E+07        -0.49338E+04         0.00000E+00
   -0.49338E+04        -0.28645E+08         0.00000E+00
    0.00000E+00         0.00000E+00        -0.42815E+07
 
   -0.81862E+07         0.22055E+04         0.00000E+00
    0.22055E+04        -0.28645E+08         0.00000E+00
    0.00000E+00         0.00000E+00        -0.43368E+07
 
   -0.81051E+07         0.94633E+04         0.00000E+00
    0.94633E+04        -0.28648E+08         0.00000E+00
    0.00000E+00         0.00000E+00        -0.43947E+07
 
   -0.80258E+07         0.16839E+05         0.00000E+00
    0.16839E+05        -0.28654E+08         0.00000E+00
    0.00000E+00         0.00000E+00        -0.44555E+07
 
   -0.79480E+07         0.24443E+05         0.00000E+00
    0.24443E+05        -0.28663E+08         0.00000E+00
    0.00000E+00         0.00000E+00        -0.45194E+07
 
   -0.78713E+07         0.32322E+05         0.00000E+00
    0.32322E+05        -0.28675E+08         0.00000E+00
    0.00000E+00         0.00000E+00        -0.45870E+07
 
   -0.77948E+07         0.40460E+05         0.00000E+00
    0.40460E+05        -0.28690E+08         0.00000E+00
    0.00000E+00         0.00000E+00        -0.46591E+07
 
   -0.77183E+07         0.48838E+05         0.00000E+00
    0.48838E+05        -0.28709E+08         0.00000E+00
    0.00000E+00         0.00000E+00        -0.47361E+07
 
   -0.76414E+07         0.57677E+05         0.00000E+00
    0.57677E+05        -0.28731E+08         0.00000E+00
    0.00000E+00         0.00000E+00        -0.48185E+07
 
   -0.75638E+07         0.67148E+05         0.00000E+00
    0.67148E+05        -0.28757E+08         0.00000E+00
    0.00000E+00         0.00000E+00        -0.49070E+07
 
   -0.74854E+07         0.77416E+05         0.00000E+00
    0.77416E+05        -0.28787E+08         0.00000E+00
    0.00000E+00         0.00000E+00        -0.50020E+07
 
   -0.74055E+07         0.88726E+05         0.00000E+00
    0.88726E+05        -0.28821E+08         0.00000E+00
    0.00000E+00         0.00000E+00        -0.51047E+07
 
   -0.73237E+07         0.10112E+06         0.00000E+00
    0.10112E+06        -0.28860E+08         0.00000E+00
    0.00000E+00         0.00000E+00        -0.52161E+07
 
   -0.72395E+07         0.11536E+06         0.00000E+00
    0.11536E+06        -0.28904E+08         0.00000E+00
    0.00000E+00         0.00000E+00        -0.53377E+07
 
   -0.71526E+07         0.13252E+06         0.00000E+00
    0.13252E+06        -0.28954E+08         0.00000E+00
    0.00000E+00         0.00000E+00        -0.54710E+07
 
   -0.70591E+07         0.15367E+06         0.00000E+00
    0.15367E+06        -0.29012E+08         0.00000E+00
    0.00000E+00         0.00000E+00        -0.56212E+07
 
   -0.69448E+07         0.17918E+06         0.00000E+00
    0.17918E+06        -0.29077E+08         0.00000E+00
    0.00000E+00         0.00000E+00        -0.58026E+07
 
   -0.68265E+07         0.21175E+06         0.00000E+00
    0.21175E+06        -0.29150E+08         0.00000E+00
    0.00000E+00         0.00000E+00        -0.60028E+07
 
   -0.67059E+07         0.25795E+06         0.00000E+00
    0.25795E+06        -0.29230E+08         0.00000E+00
    0.00000E+00         0.00000E+00        -0.62210E+07
 
   -0.65831E+07         0.31010E+06         0.00000E+00
    0.31010E+06        -0.29312E+08         0.00000E+00
    0.00000E+00         0.00000E+00        -0.64494E+07
 
TENSORS stresstot double 
   -0.58732E+08         0.37766E+05         0.00000E+00
    0.37766E+05        -0.49798E+08         0.00000E+00
    0.00000E+00         0.00000E+00        -0.59039E+08
 
   -0.58363E+08         0.12712E+06         0.00000E+00
    0.12712E+06        -0.49756E+08         0.00000E+00
    0.00000E+00         0.00000E+00        -0.60235E+08
 
   -0.58317E+08         0.11622E+06         0.00000E+00
    0.11622E+06        -0.49748E+08         0.00000E+00
    0.00000E+00         0.00000E+00        -0.61154E+08
 
   -0.58538E+08         0.70180E+04         0.00000E+00
    0.70180E+04        -0.49787E+08         0.00000E+00
    0.00000E+00         0.00000E+00        -0.61768E+08
 
   -0.58872E+08        -0.10292E+06         0.00000E+00
   -0.10292E+06        -0.49826E+08         0.00000E+00
    0.00000E+00         0.00000E+00        -0.61867E+08
 
   -0.59295E+08        -0.15573E+06         0.00000E+00
   -0.15573E+06        -0.49881E+08         0.00000E+00
    0.00000E+00         0.00000E+00        -0.61861E+08
 
   -0.59688E+08        -0.18493E+06         0.00000E+00
   -0.18493E+06        -0.49947E+08         0.00000E+00
    0.00000E+00         0.00000E+00        -0.61867E+08
 
   -0.60057E+08        -0.20098E+06         0.00000E+00
   -0.20098E+06        -0.50022E+08         0.00000E+00
    0.00000E+00         0.00000E+00        -0.61883E+08
 
   -0.60390E+08        -0.20906E+06         0.00000E+00
   -0.20906E+06        -0.50101E+08         0.00000E+00
    0.00000E+00         0.00000E+00        -0.61910E+08
 
   -0.60692E+08        -0.21289E+06         0.00000E+00
   -0.21289E+06        -0.50183E+08         0.00000E+00
    0.00000E+00         0.00000E+00        -0.61950E+08
 
   -0.60964E+08        -0.21355E+06         0.00000E+00
   -0.21355E+06        -0.50267E+08         0.00000E+00
    0.00000E+00         0.00000E+00        -0.62002E+08
 
   -0.61212E+08        -0.21150E+06         0.00000E+00
   -0.21150E+06        -0.50350E+08         0.00000E+00
    0.00000E+00         0.00000E+00        -0.62063E+08
 
   -0.61438E+08        -0.20750E+06         0.00000E+00
   -0.20750E+06        -0.50433E+08         0.00000E+00
    0.00000E+00         0.00000E+00        -0.62133E+08
 
   -0.61646E+08        -0.20415E+06         0.00000E+00
   -0.20415E+06        -0.50515E+08         0.00000E+00
    0.00000E+00         0.00000E+00        -0.62210E+08
 
   -0.61834E+08        -0.19926E+06         0.00000E+00
   -0.19926E+06        -0.50595E+08         0.00000E+00
    0.00000E+00         0.00000E+00        -0.62294E+08
 
   -0.62007E+08        -0.19353E+06         0.00000E+00
   -0.19353E+06        -0.50672E+08         0.00000E+00
    0.00000E+00         0.00000E+00        -0.62384E+08
 
   -0.62165E+08        -0.18747E+06         0.00000E+00
   -0.18747E+06        -0.50748E+08         0.00000E+00
    0.00000E+00         0.00000E+00        -0.62477E+08
 
   -0.62311E+08        -0.18116E+06         0.00000E+00
   -0.18116E+06        -0.50821E+08         0.00000E+00
    0.00000E+00         0.00000E+00        -0.62574E+08
 
   -0.62445E+08        -0.17476E+06         0.00000E+00
   -0.17476E+06        -0.50891E+08         0.00000E+00
    0.00000E+00         0.00000E+00        -0.62673E+08
 
   -0.62568E+08        -0.16814E+06         0.00000E+00
   -0.16814E+06        -0.50959E+08         0.00000E+00
    0.00000E+00         0.00000E+00        -0.62773E+08
 
   -0.62679E+08        -0.16171E+06         0.00000E+00
   -0.16171E+06        -0.51024E+08         0.00000E+00
    0.00000E+00         0.00000E+00        -0.62872E+08
 
   -0.62783E+08        -0.15522E+06         0.00000E+00
   -0.15522E+06        -0.51086E+08         0.00000E+00
    0.00000E+00         0.00000E+00        -0.62968E+08
 
   -0.62880E+08        -0.14865E+06         0.00000E+00
   -0.14865E+06        -0.51147E+08         0.00000E+00
    0.00000E+00         0.00000E+00        -0.63062E+08
 
   -0.62969E+08        -0.14214E+06         0.00000E+00
   -0.14214E+06        -0.51204E+08         0.00000E+00
    0.00000E+00         0.00000E+00        -0.63155E+08
 
   -0.63051E+08        -0.13578E+06         0.00000E+00
   -0.13578E+06        -0.51259E+08         0.00000E+00
    0.00000E+00         0.00000E+00        -0.63247E+08
 
   -0.63127E+08        -0.12965E+06         0.00000E+00
   -0.12965E+06        -0.51311E+08         0.00000E+00
    0.00000E+00         0.00000E+00        -0.63337E+08
 
   -0.63200E+08        -0.12364E+06         0.00000E+00
   -0.12364E+06        -0.51361E+08         0.00000E+00
    0.00000E+00         0.00000E+00        -0.63423E+08
 
   -0.63266E+08        -0.11763E+06         0.00000E+00
   -0.11763E+06        -0.51408E+08         0.00000E+00
    0.00000E+00         0.00000E+00        -0.63506E+08
 
   -0.63327E+08        -0.11169E+06         0.00000E+00
   -0.11169E+06        -0.51453E+08         0.00000E+00
    0.00000E+00         0.00000E+00        -0.63588E+08
 
   -0.63383E+08        -0.10574E+06         0.00000E+00
   -0.10574E+06        -0.51495E+08         0.00000E+00
    0.00000E+00         0.00000E+00        -0.63666E+08
 
   -0.63435E+08        -0.99948E+05         0.00000E+00
   -0.99948E+05        -0.51535E+08         0.00000E+00
    0.00000E+00         0.00000E+00        -0.63742E+08
 
   -0.63483E+08        -0.94167E+05         0.00000E+00
   -0.94167E+05        -0.51573E+08         0.00000E+00
    0.00000E+00         0.00000E+00        -0.63814E+08
 
   -0.63529E+08        -0.88331E+05         0.00000E+00
   -0.88331E+05        -0.51609E+08         0.00000E+00
    0.00000E+00         0.00000E+00        -0.63882E+08
 
   -0.63571E+08        -0.82395E+05         0.00000E+00
   -0.82395E+05        -0.51643E+08         0.00000E+00
    0.00000E+00         0.00000E+00        -0.63945E+08
 
   -0.63611E+08        -0.76325E+05         0.00000E+00
   -0.76325E+05        -0.51674E+08         0.00000E+00
    0.00000E+00         0.00000E+00        -0.64004E+08
 
   -0.63648E+08        -0.70102E+05         0.00000E+00
   -0.70102E+05        -0.51703E+08         0.00000E+00
    0.00000E+00         0.00000E+00        -0.64057E+08
 
   -0.63684E+08        -0.63680E+05         0.00000E+00
   -0.63680E+05        -0.51729E+08         0.00000E+00
    0.00000E+00         0.00000E+00        -0.64104E+08
 
   -0.63718E+08        -0.57025E+05         0.00000E+00
   -0.57025E+05        -0.51753E+08         0.00000E+00
    0.00000E+00         0.00000E+00        -0.64146E+08
 
   -0.63749E+08        -0.50167E+05         0.00000E+00
   -0.50167E+05        -0.51774E+08         0.00000E+00
    0.00000E+00         0.00000E+00        -0.64181E+08
 
   -0.63779E+08        -0.43177E+05         0.00000E+00
   -0.43177E+05        -0.51792E+08         0.00000E+00
    0.00000E+00         0.00000E+00        -0.64209E+08
 
   -0.63807E+08        -0.36085E+05         0.00000E+00
   -0.36085E+05        -0.51808E+08         0.00000E+00
    0.00000E+00         0.00000E+00        -0.64230E+08
 
   -0.63833E+08        -0.28923E+05         0.00000E+00
   -0.28923E+05        -0.51821E+08         0.00000E+00
    0.00000E+00         0.00000E+00        -0.64244E+08
 
   -0.63858E+08        -0.21693E+05         0.00000E+00
   -0.21693E+05        -0.51830E+08         0.00000E+00
    0.00000E+00         0.00000E+00        -0.64250E+08
 
   -0.63880E+08        -0.14379E+05         0.00000E+00
   -0.14379E+05        -0.51837E+08         0.00000E+00
    0.00000E+00         0.00000E+00        -0.64249E+08
 
   -0.63900E+08        -0.68817E+04         0.00000E+00
   -0.68817E+04        -0.51840E+08         0.00000E+00
    0.00000E+00         0.00000E+00        -0.64241E+08
 
   -0.63919E+08         0.14724E+04         0.00000E+00
    0.14724E+04        -0.51841E+08         0.00000E+00
    0.00000E+00         0.00000E+00        -0.64224E+08
 
   -0.63947E+08         0.11103E+05         0.00000E+00
    0.11103E+05        -0.51838E+08         0.00000E+00
    0.00000E+00         0.00000E+00        -0.64189E+08
 
   -0.63975E+08         0.21459E+05         0.00000E+00
    0.21459E+05        -0.51833E+08         0.00000E+00
    0.00000E+00         0.00000E+00        -0.64144E+08
 
   -0.64003E+08         0.32108E+05         0.00000E+00
    0.32108E+05        -0.51825E+08         0.00000E+00
    0.00000E+00         0.00000E+00        -0.64094E+08
 
   -0.64039E+08         0.46510E+05         0.00000E+00
    0.46510E+05        -0.51824E+08         0.00000E+00
    0.00000E+00         0.00000E+00        -0.64055E+08
 
   -0.58303E+08         0.26764E+06         0.00000E+00
    0.26764E+06        -0.50142E+08         0.00000E+00
    0.00000E+00         0.00000E+00        -0.62997E+08
 
   -0.58446E+08         0.14367E+06         0.00000E+00
    0.14367E+06        -0.50173E+08         0.00000E+00
    0.00000E+00         0.00000E+00        -0.63062E+08
 
   -0.58687E+08        -0.39505E+04         0.00000E+00
   -0.39505E+04        -0.50186E+08         0.00000E+00
    0.00000E+00         0.00000E+00        -0.63090E+08
 
   -0.58991E+08        -0.12164E+06         0.00000E+00
   -0.12164E+06        -0.50171E+08         0.00000E+00
    0.00000E+00         0.00000E+00        -0.63041E+08
 
   -0.59302E+08        -0.22043E+06         0.00000E+00
   -0.22043E+06        -0.50178E+08         0.00000E+00
    0.00000E+00         0.00000E+00        -0.63008E+08
 
   -0.59607E+08        -0.31435E+06         0.00000E+00
   -0.31435E+06        -0.50190E+08         0.00000E+00
    0.00000E+00         0.00000E+00        -0.62964E+08
 
   -0.59915E+08        -0.38898E+06         0.00000E+00
   -0.38898E+06        -0.50207E+08         0.00000E+00
    0.00000E+00         0.00000E+00        -0.62913E+08
 
   -0.60211E+08        -0.44404E+06         0.00000E+00
   -0.44404E+06        -0.50230E+08         0.00000E+00
    0.00000E+00         0.00000E+00        -0.62864E+08
 
   -0.60492E+08        -0.48267E+06         0.00000E+00
   -0.48267E+06        -0.50260E+08         0.00000E+00
    0.00000E+00         0.00000E+00        -0.62823E+08
 
   -0.60755E+08        -0.50801E+06         0.00000E+00
   -0.50801E+06        -0.50296E+08         0.00000E+00
    0.00000E+00         0.00000E+00        -0.62791E+08
 
   -0.60998E+08        -0.52299E+06         0.00000E+00
   -0.52299E+06        -0.50336E+08         0.00000E+00
    0.00000E+00         0.00000E+00        -0.62770E+08
 
   -0.61222E+08        -0.53013E+06         0.00000E+00
   -0.53013E+06        -0.50380E+08         0.00000E+00
    0.00000E+00         0.00000E+00        -0.62761E+08
 
   -0.61432E+08        -0.53094E+06         0.00000E+00
   -0.53094E+06        -0.50427E+08         0.00000E+00
    0.00000E+00         0.00000E+00        -0.62762E+08
 
   -0.61626E+08        -0.52614E+06         0.00000E+00
   -0.52614E+06        -0.50475E+08         0.00000E+00
    0.00000E+00         0.00000E+00        -0.62771E+08
 
   -0.61803E+08        -0.51826E+06         0.00000E+00
   -0.51826E+06        -0.50524E+08         0.00000E+00
    0.00000E+00         0.00000E+00        -0.62790E+08
 
   -0.61968E+08        -0.50781E+06         0.00000E+00
   -0.50781E+06        -0.50573E+08         0.00000E+00
    0.00000E+00         0.00000E+00        -0.62816E+08
 
   -0.62121E+08        -0.49528E+06         0.00000E+00
   -0.49528E+06        -0.50623E+08         0.00000E+00
    0.00000E+00         0.00000E+00        -0.62848E+08
 
   -0.62263E+08        -0.48150E+06         0.00000E+00
   -0.48150E+06        -0.50672E+08         0.00000E+00
    0.00000E+00         0.00000E+00        -0.62886E+08
 
   -0.62394E+08        -0.46672E+06         0.00000E+00
   -0.46672E+06        -0.50720E+08         0.00000E+00
    0.00000E+00         0.00000E+00        -0.62928E+08
 
   -0.62516E+08        -0.45155E+06         0.00000E+00
   -0.45155E+06        -0.50767E+08         0.00000E+00
    0.00000E+00         0.00000E+00        -0.62974E+08
 
   -0.62628E+08        -0.43639E+06         0.00000E+00
   -0.43639E+06        -0.50814E+08         0.00000E+00
    0.00000E+00         0.00000E+00        -0.63024E+08
 
   -0.62731E+08        -0.42137E+06         0.00000E+00
   -0.42137E+06        -0.50859E+08         0.00000E+00
    0.00000E+00         0.00000E+00        -0.63076E+08
 
   -0.62828E+08        -0.40609E+06         0.00000E+00
   -0.40609E+06        -0.50902E+08         0.00000E+00
    0.00000E+00         0.00000E+00        -0.63130E+08
 
   -0.62917E+08        -0.39078E+06         0.00000E+00
   -0.39078E+06        -0.50945E+08         0.00000E+00
    0.00000E+00         0.00000E+00        -0.63186E+08
 
   -0.62999E+08        -0.37553E+06         0.00000E+00
   -0.37553E+06        -0.50986E+08         0.00000E+00
    0.00000E+00         0.00000E+00        -0.63244E+08
 
   -0.63076E+08        -0.36027E+06         0.00000E+00
   -0.36027E+06        -0.51027E+08         0.00000E+00
    0.00000E+00         0.00000E+00        -0.63302E+08
 
   -0.63147E+08        -0.34487E+06         0.00000E+00
   -0.34487E+06        -0.51067E+08         0.00000E+00
    0.00000E+00         0.00000E+00        -0.63361E+08
 
   -0.63212E+08        -0.32927E+06         0.00000E+00
   -0.32927E+06        -0.51105E+08         0.00000E+00
    0.00000E+00         0.00000E+00        -0.63421E+08
 
   -0.63273E+08        -0.31357E+06         0.00000E+00
   -0.31357E+06        -0.51142E+08         0.00000E+00
    0.00000E+00         0.00000E+00        -0.63480E+08
 
   -0.63329E+08        -0.29789E+06         0.00000E+00
   -0.29789E+06        -0.51177E+08         0.00000E+00
    0.00000E+00         0.00000E+00        -0.63538E+08
 
   -0.63381E+08        -0.28214E+06         0.00000E+00
   -0.28214E+06        -0.51211E+08         0.00000E+00
    0.00000E+00         0.00000E+00        -0.63594E+08
 
   -0.63429E+08        -0.26632E+06         0.00000E+00
   -0.26632E+06        -0.51242E+08         0.00000E+00
    0.00000E+00         0.00000E+00        -0.63649E+08
 
   -0.63473E+08        -0.25033E+06         0.00000E+00
   -0.25033E+06        -0.51272E+08         0.00000E+00
    0.00000E+00         0.00000E+00        -0.63701E+08
 
   -0.63514E+08        -0.23404E+06         0.00000E+00
   -0.23404E+06        -0.51300E+08         0.00000E+00
    0.00000E+00         0.00000E+00        -0.63751E+08
 
   -0.63553E+08        -0.21738E+06         0.00000E+00
   -0.21738E+06        -0.51326E+08         0.00000E+00
    0.00000E+00         0.00000E+00        -0.63798E+08
 
   -0.63589E+08        -0.20024E+06         0.00000E+00
   -0.20024E+06        -0.51351E+08         0.00000E+00
    0.00000E+00         0.00000E+00        -0.63840E+08
 
   -0.63622E+08        -0.18253E+06         0.00000E+00
   -0.18253E+06        -0.51373E+08         0.00000E+00
    0.00000E+00         0.00000E+00        -0.63879E+08
 
   -0.63654E+08        -0.16423E+06         0.00000E+00
   -0.16423E+06        -0.51394E+08         0.00000E+00
    0.00000E+00         0.00000E+00        -0.63914E+08
 
   -0.63684E+08        -0.14534E+06         0.00000E+00
   -0.14534E+06        -0.51412E+08         0.00000E+00
    0.00000E+00         0.00000E+00        -0.63944E+08
 
   -0.63712E+08        -0.12581E+06         0.00000E+00
   -0.12581E+06        -0.51428E+08         0.00000E+00
    0.00000E+00         0.00000E+00        -0.63968E+08
 
   -0.63739E+08        -0.10558E+06         0.00000E+00
   -0.10558E+06        -0.51442E+08         0.00000E+00
    0.00000E+00         0.00000E+00        -0.63986E+08
 
   -0.63763E+08        -0.84638E+05         0.00000E+00
   -0.84638E+05        -0.51454E+08         0.00000E+00
    0.00000E+00         0.00000E+00        -0.63999E+08
 
   -0.63786E+08        -0.63071E+05         0.00000E+00
   -0.63071E+05        -0.51463E+08         0.00000E+00
    0.00000E+00         0.00000E+00        -0.64005E+08
 
   -0.63806E+08        -0.40795E+05         0.00000E+00
   -0.40795E+05        -0.51470E+08         0.00000E+00
    0.00000E+00         0.00000E+00        -0.64004E+08
 
   -0.63823E+08        -0.17691E+05         0.00000E+00
   -0.17691E+05        -0.51473E+08         0.00000E+00
    0.00000E+00         0.00000E+00        -0.63997E+08
 
   -0.63836E+08         0.62405E+04         0.00000E+00
    0.62405E+04        -0.51473E+08         0.00000E+00
    0.00000E+00         0.00000E+00        -0.63982E+08
 
   -0.63850E+08         0.33034E+05         0.00000E+00
    0.33034E+05        -0.51471E+08         0.00000E+00
    0.00000E+00         0.00000E+00        -0.63956E+08
 
   -0.63862E+08         0.65151E+05         0.00000E+00
    0.65151E+05        -0.51467E+08         0.00000E+00
    0.00000E+00         0.00000E+00        -0.63925E+08
 
   -0.63863E+08         0.10384E+06         0.00000E+00
    0.10384E+06        -0.51457E+08         0.00000E+00
    0.00000E+00         0.00000E+00        -0.63886E+08
 
   -0.63820E+08         0.14912E+06         0.00000E+00
    0.14912E+06        -0.51428E+08         0.00000E+00
    0.00000E+00         0.00000E+00        -0.63824E+08
 
   -0.58308E+08        -0.62130E+05         0.00000E+00
   -0.62130E+05        -0.50040E+08         0.00000E+00
    0.00000E+00         0.00000E+00        -0.63272E+08
 
   -0.58766E+08        -0.10102E+06         0.00000E+00
   -0.10102E+06        -0.50085E+08         0.00000E+00
    0.00000E+00         0.00000E+00        -0.63360E+08
 
   -0.59130E+08        -0.16671E+06         0.00000E+00
   -0.16671E+06        -0.50126E+08         0.00000E+00
    0.00000E+00         0.00000E+00        -0.63417E+08
 
   -0.59443E+08        -0.25189E+06         0.00000E+00
   -0.25189E+06        -0.50165E+08         0.00000E+00
    0.00000E+00         0.00000E+00        -0.63457E+08
 
   -0.59726E+08        -0.34006E+06         0.00000E+00
   -0.34006E+06        -0.50194E+08         0.00000E+00
    0.00000E+00         0.00000E+00        -0.63465E+08
 
   -0.59990E+08        -0.42063E+06         0.00000E+00
   -0.42063E+06        -0.50220E+08         0.00000E+00
    0.00000E+00         0.00000E+00        -0.63454E+08
 
   -0.60236E+08        -0.49393E+06         0.00000E+00
   -0.49393E+06        -0.50242E+08         0.00000E+00
    0.00000E+00         0.00000E+00        -0.63428E+08
 
   -0.60466E+08        -0.55731E+06         0.00000E+00
   -0.55731E+06        -0.50263E+08         0.00000E+00
    0.00000E+00         0.00000E+00        -0.63394E+08
 
   -0.60685E+08        -0.60933E+06         0.00000E+00
   -0.60933E+06        -0.50283E+08         0.00000E+00
    0.00000E+00         0.00000E+00        -0.63354E+08
 
   -0.60892E+08        -0.64970E+06         0.00000E+00
   -0.64970E+06        -0.50304E+08         0.00000E+00
    0.00000E+00         0.00000E+00        -0.63315E+08
 
   -0.61087E+08        -0.67940E+06         0.00000E+00
   -0.67940E+06        -0.50326E+08         0.00000E+00
    0.00000E+00         0.00000E+00        -0.63278E+08
 
   -0.61272E+08        -0.69954E+06         0.00000E+00
   -0.69954E+06        -0.50351E+08         0.00000E+00
    0.00000E+00         0.00000E+00        -0.63247E+08
 
   -0.61447E+08        -0.71139E+06         0.00000E+00
   -0.71139E+06        -0.50377E+08         0.00000E+00
    0.00000E+00         0.00000E+00        -0.63222E+08
 
   -0.61614E+08        -0.71573E+06         0.00000E+00
   -0.71573E+06        -0.50405E+08         0.00000E+00
    0.00000E+00         0.00000E+00        -0.63204E+08
 
   -0.61771E+08        -0.71384E+06         0.00000E+00
   -0.71384E+06        -0.50435E+08         0.00000E+00
    0.00000E+00         0.00000E+00        -0.63193E+08
 
   -0.61920E+08        -0.70701E+06         0.00000E+00
   -0.70701E+06        -0.50466E+08         0.00000E+00
    0.00000E+00         0.00000E+00        -0.63188E+08
 
   -0.62061E+08        -0.69642E+06         0.00000E+00
   -0.69642E+06        -0.50498E+08         0.00000E+00
    0.00000E+00         0.00000E+00        -0.63189E+08
 
   -0.62193E+08        -0.68274E+06         0.00000E+00
   -0.68274E+06        -0.50531E+08         0.00000E+00
    0.00000E+00         0.00000E+00        -0.63195E+08
 
   -0.62318E+08        -0.66694E+06         0.00000E+00
   -0.66694E+06        -0.50563E+08         0.00000E+00
    0.00000E+00         0.00000E+00        -0.63206E+08
 
   -0.62435E+08        -0.64942E+06         0.00000E+00
   -0.64942E+06        -0.50596E+08         0.00000E+00
    0.00000E+00         0.00000E+00        -0.63221E+08
 
   -0.62544E+08        -0.63058E+06         0.00000E+00
   -0.63058E+06        -0.50629E+08         0.00000E+00
    0.00000E+00         0.00000E+00        -0.63239E+08
 
   -0.62646E+08        -0.61096E+06         0.00000E+00
   -0.61096E+06        -0.50661E+08         0.00000E+00
    0.00000E+00         0.00000E+00        -0.63261E+08
 
   -0.62742E+08        -0.59096E+06         0.00000E+00
   -0.59096E+06        -0.50692E+08         0.00000E+00
    0.00000E+00         0.00000E+00        -0.63284E+08
 
   -0.62830E+08        -0.57073E+06         0.00000E+00
   -0.57073E+06        -0.50722E+08         0.00000E+00
    0.00000E+00         0.00000E+00        -0.63310E+08
 
   -0.62912E+08        -0.55035E+06         0.00000E+00
   -0.55035E+06        -0.50751E+08         0.00000E+00
    0.00000E+00         0.00000E+00        -0.63337E+08
 
   -0.62987E+08        -0.52982E+06         0.00000E+00
   -0.52982E+06        -0.50780E+08         0.00000E+00
    0.00000E+00         0.00000E+00        -0.63366E+08
 
   -0.63056E+08        -0.50906E+06         0.00000E+00
   -0.50906E+06        -0.50807E+08         0.00000E+00
    0.00000E+00         0.00000E+00        -0.63395E+08
 
   -0.63120E+08        -0.48797E+06         0.00000E+00
   -0.48797E+06        -0.50832E+08         0.00000E+00
    0.00000E+00         0.00000E+00        -0.63425E+08
 
   -0.63179E+08        -0.46643E+06         0.00000E+00
   -0.46643E+06        -0.50857E+08         0.00000E+00
    0.00000E+00         0.00000E+00        -0.63455E+08
 
   -0.63234E+08        -0.44435E+06         0.00000E+00
   -0.44435E+06        -0.50881E+08         0.00000E+00
    0.00000E+00         0.00000E+00        -0.63486E+08
 
   -0.63284E+08        -0.42171E+06         0.00000E+00
   -0.42171E+06        -0.50905E+08         0.00000E+00
    0.00000E+00         0.00000E+00        -0.63516E+08
 
   -0.63330E+08        -0.39852E+06         0.00000E+00
   -0.39852E+06        -0.50927E+08         0.00000E+00
    0.00000E+00         0.00000E+00        -0.63546E+08
 
   -0.63373E+08        -0.37484E+06         0.00000E+00
   -0.37484E+06        -0.50948E+08         0.00000E+00
    0.00000E+00         0.00000E+00        -0.63575E+08
 
   -0.63412E+08        -0.35069E+06         0.00000E+00
   -0.35069E+06        -0.50968E+08         0.00000E+00
    0.00000E+00         0.00000E+00        -0.63603E+08
 
   -0.63447E+08        -0.32597E+06         0.00000E+00
   -0.32597E+06        -0.50986E+08         0.00000E+00
    0.00000E+00         0.00000E+00        -0.63629E+08
 
   -0.63480E+08        -0.30063E+06         0.00000E+00
   -0.30063E+06        -0.51002E+08         0.00000E+00
    0.00000E+00         0.00000E+00        -0.63653E+08
 
   -0.63510E+08        -0.27455E+06         0.00000E+00
   -0.27455E+06        -0.51017E+08         0.00000E+00
    0.00000E+00         0.00000E+00        -0.63675E+08
 
   -0.63538E+08        -0.24747E+06         0.00000E+00
   -0.24747E+06        -0.51031E+08         0.00000E+00
    0.00000E+00         0.00000E+00        -0.63695E+08
 
   -0.63563E+08        -0.21906E+06         0.00000E+00
   -0.21906E+06        -0.51043E+08         0.00000E+00
    0.00000E+00         0.00000E+00        -0.63711E+08
 
   -0.63586E+08        -0.18921E+06         0.00000E+00
   -0.18921E+06        -0.51053E+08         0.00000E+00
    0.00000E+00         0.00000E+00        -0.63723E+08
 
   -0.63607E+08        -0.15787E+06         0.00000E+00
   -0.15787E+06        -0.51062E+08         0.00000E+00
    0.00000E+00         0.00000E+00        -0.63731E+08
 
   -0.63625E+08        -0.12476E+06         0.00000E+00
   -0.12476E+06        -0.51069E+08         0.00000E+00
    0.00000E+00         0.00000E+00        -0.63734E+08
 
   -0.63641E+08        -0.89420E+05         0.00000E+00
   -0.89420E+05        -0.51073E+08         0.00000E+00
    0.00000E+00         0.00000E+00        -0.63732E+08
 
   -0.63652E+08        -0.51732E+05         0.00000E+00
   -0.51732E+05        -0.51075E+08         0.00000E+00
    0.00000E+00         0.00000E+00        -0.63724E+08
 
   -0.63660E+08        -0.11488E+05         0.00000E+00
   -0.11488E+05        -0.51074E+08         0.00000E+00
    0.00000E+00         0.00000E+00        -0.63710E+08
 
   -0.63662E+08         0.31524E+05         0.00000E+00
    0.31524E+05        -0.51070E+08         0.00000E+00
    0.00000E+00         0.00000E+00        -0.63689E+08
 
   -0.63655E+08         0.76750E+05         0.00000E+00
    0.76750E+05        -0.51061E+08         0.00000E+00
    0.00000E+00         0.00000E+00        -0.63659E+08
 
   -0.63633E+08         0.12582E+06         0.00000E+00
    0.12582E+06        -0.51046E+08         0.00000E+00
    0.00000E+00         0.00000E+00        -0.63623E+08
 
   -0.63597E+08         0.18071E+06         0.00000E+00
    0.18071E+06        -0.51027E+08         0.00000E+00
    0.00000E+00         0.00000E+00        -0.63583E+08
 
   -0.63556E+08         0.23990E+06         0.00000E+00
    0.23990E+06        -0.51010E+08         0.00000E+00
    0.00000E+00         0.00000E+00        -0.63550E+08
 
   -0.58877E+08        -0.10543E+06         0.00000E+00
   -0.10543E+06        -0.50007E+08         0.00000E+00
    0.00000E+00         0.00000E+00        -0.63678E+08
 
   -0.59234E+08        -0.23999E+06         0.00000E+00
   -0.23999E+06        -0.50010E+08         0.00000E+00
    0.00000E+00         0.00000E+00        -0.63663E+08
 
   -0.59563E+08        -0.34355E+06         0.00000E+00
   -0.34355E+06        -0.50029E+08         0.00000E+00
    0.00000E+00         0.00000E+00        -0.63661E+08
 
   -0.59853E+08        -0.42869E+06         0.00000E+00
   -0.42869E+06        -0.50056E+08         0.00000E+00
    0.00000E+00         0.00000E+00        -0.63663E+08
 
   -0.60110E+08        -0.50348E+06         0.00000E+00
   -0.50348E+06        -0.50087E+08         0.00000E+00
    0.00000E+00         0.00000E+00        -0.63664E+08
 
   -0.60338E+08        -0.57179E+06         0.00000E+00
   -0.57179E+06        -0.50118E+08         0.00000E+00
    0.00000E+00         0.00000E+00        -0.63660E+08
 
   -0.60544E+08        -0.63251E+06         0.00000E+00
   -0.63251E+06        -0.50148E+08         0.00000E+00
    0.00000E+00         0.00000E+00        -0.63654E+08
 
   -0.60731E+08        -0.68583E+06         0.00000E+00
   -0.68583E+06        -0.50176E+08         0.00000E+00
    0.00000E+00         0.00000E+00        -0.63644E+08
 
   -0.60903E+08        -0.73147E+06         0.00000E+00
   -0.73147E+06        -0.50203E+08         0.00000E+00
    0.00000E+00         0.00000E+00        -0.63632E+08
 
   -0.61063E+08        -0.76916E+06         0.00000E+00
   -0.76916E+06        -0.50228E+08         0.00000E+00
    0.00000E+00         0.00000E+00        -0.63618E+08
 
   -0.61215E+08        -0.79874E+06         0.00000E+00
   -0.79874E+06        -0.50252E+08         0.00000E+00
    0.00000E+00         0.00000E+00        -0.63603E+08
 
   -0.61359E+08        -0.82041E+06         0.00000E+00
   -0.82041E+06        -0.50275E+08         0.00000E+00
    0.00000E+00         0.00000E+00        -0.63588E+08
 
   -0.61498E+08        -0.83453E+06         0.00000E+00
   -0.83453E+06        -0.50296E+08         0.00000E+00
    0.00000E+00         0.00000E+00        -0.63572E+08
 
   -0.61632E+08        -0.84172E+06         0.00000E+00
   -0.84172E+06        -0.50318E+08         0.00000E+00
    0.00000E+00         0.00000E+00        -0.63558E+08
 
   -0.61761E+08        -0.84264E+06         0.00000E+00
   -0.84264E+06        -0.50338E+08         0.00000E+00
    0.00000E+00         0.00000E+00        -0.63544E+08
 
   -0.61886E+08        -0.83795E+06         0.00000E+00
   -0.83795E+06        -0.50359E+08         0.00000E+00
    0.00000E+00         0.00000E+00        -0.63532E+08
 
   -0.62007E+08        -0.82836E+06         0.00000E+00
   -0.82836E+06        -0.50379E+08         0.00000E+00
    0.00000E+00         0.00000E+00        -0.63522E+08
 
   -0.62124E+08        -0.81478E+06         0.00000E+00
   -0.81478E+06        -0.50399E+08         0.00000E+00
    0.00000E+00         0.00000E+00        -0.63512E+08
 
   -0.62236E+08        -0.79792E+06         0.00000E+00
   -0.79792E+06        -0.50419E+08         0.00000E+00
    0.00000E+00         0.00000E+00        -0.63503E+08
 
   -0.62343E+08        -0.77849E+06         0.00000E+00
   -0.77849E+06        -0.50438E+08         0.00000E+00
    0.00000E+00         0.00000E+00        -0.63495E+08
 
   -0.62446E+08        -0.75717E+06         0.00000E+00
   -0.75717E+06        -0.50457E+08         0.00000E+00
    0.00000E+00         0.00000E+00        -0.63488E+08
 
   -0.62543E+08        -0.73443E+06         0.00000E+00
   -0.73443E+06        -0.50476E+08         0.00000E+00
    0.00000E+00         0.00000E+00        -0.63481E+08
 
   -0.62634E+08        -0.71065E+06         0.00000E+00
   -0.71065E+06        -0.50493E+08         0.00000E+00
    0.00000E+00         0.00000E+00        -0.63476E+08
 
   -0.62720E+08        -0.68614E+06         0.00000E+00
   -0.68614E+06        -0.50510E+08         0.00000E+00
    0.00000E+00         0.00000E+00        -0.63470E+08
 
   -0.62799E+08        -0.66107E+06         0.00000E+00
   -0.66107E+06        -0.50526E+08         0.00000E+00
    0.00000E+00         0.00000E+00        -0.63466E+08
 
   -0.62873E+08        -0.63570E+06         0.00000E+00
   -0.63570E+06        -0.50541E+08         0.00000E+00
    0.00000E+00         0.00000E+00        -0.63462E+08
 
   -0.62941E+08        -0.61021E+06         0.00000E+00
   -0.61021E+06        -0.50556E+08         0.00000E+00
    0.00000E+00         0.00000E+00        -0.63460E+08
 
   -0.63003E+08        -0.58448E+06         0.00000E+00
   -0.58448E+06        -0.50570E+08         0.00000E+00
    0.00000E+00         0.00000E+00        -0.63459E+08
 
   -0.63060E+08        -0.55849E+06         0.00000E+00
   -0.55849E+06        -0.50582E+08         0.00000E+00
    0.00000E+00         0.00000E+00        -0.63459E+08
 
   -0.63112E+08        -0.53214E+06         0.00000E+00
   -0.53214E+06        -0.50594E+08         0.00000E+00
    0.00000E+00         0.00000E+00        -0.63459E+08
 
   -0.63159E+08        -0.50529E+06         0.00000E+00
   -0.50529E+06        -0.50606E+08         0.00000E+00
    0.00000E+00         0.00000E+00        -0.63461E+08
 
   -0.63202E+08        -0.47773E+06         0.00000E+00
   -0.47773E+06        -0.50616E+08         0.00000E+00
    0.00000E+00         0.00000E+00        -0.63463E+08
 
   -0.63240E+08        -0.44925E+06         0.00000E+00
   -0.44925E+06        -0.50626E+08         0.00000E+00
    0.00000E+00         0.00000E+00        -0.63466E+08
 
   -0.63275E+08        -0.41971E+06         0.00000E+00
   -0.41971E+06        -0.50634E+08         0.00000E+00
    0.00000E+00         0.00000E+00        -0.63469E+08
 
   -0.63307E+08        -0.38909E+06         0.00000E+00
   -0.38909E+06        -0.50642E+08         0.00000E+00
    0.00000E+00         0.00000E+00        -0.63471E+08
 
   -0.63335E+08        -0.35717E+06         0.00000E+00
   -0.35717E+06        -0.50649E+08         0.00000E+00
    0.00000E+00         0.00000E+00        -0.63473E+08
 
   -0.63359E+08        -0.32386E+06         0.00000E+00
   -0.32386E+06        -0.50655E+08         0.00000E+00
    0.00000E+00         0.00000E+00        -0.63473E+08
 
   -0.63380E+08        -0.28918E+06         0.00000E+00
   -0.28918E+06        -0.50660E+08         0.00000E+00
    0.00000E+00         0.00000E+00        -0.63471E+08
 
   -0.63396E+08        -0.25314E+06         0.00000E+00
   -0.25314E+06        -0.50663E+08         0.00000E+00
    0.00000E+00         0.00000E+00        -0.63467E+08
 
   -0.63409E+08        -0.21516E+06         0.00000E+00
   -0.21516E+06        -0.50664E+08         0.00000E+00
    0.00000E+00         0.00000E+00        -0.63462E+08
 
   -0.63419E+08        -0.17447E+06         0.00000E+00
   -0.17447E+06        -0.50664E+08         0.00000E+00
    0.00000E+00         0.00000E+00        -0.63453E+08
 
   -0.63425E+08        -0.13113E+06         0.00000E+00
   -0.13113E+06        -0.50662E+08         0.00000E+00
    0.00000E+00         0.00000E+00        -0.63442E+08
 
   -0.63427E+08        -0.85075E+05         0.00000E+00
   -0.85075E+05        -0.50659E+08         0.00000E+00
    0.00000E+00         0.00000E+00        -0.63428E+08
 
   -0.63424E+08        -0.35514E+05         0.00000E+00
   -0.35514E+05        -0.50654E+08         0.00000E+00
    0.00000E+00         0.00000E+00        -0.63411E+08
 
   -0.63415E+08         0.17950E+05         0.00000E+00
    0.17950E+05        -0.50646E+08         0.00000E+00
    0.00000E+00         0.00000E+00        -0.63391E+08
 
   -0.63401E+08         0.75391E+05         0.00000E+00
    0.75391E+05        -0.50637E+08         0.00000E+00
    0.00000E+00         0.00000E+00        -0.63366E+08
 
   -0.63381E+08         0.13713E+06         0.00000E+00
    0.13713E+06        -0.50626E+08         0.00000E+00
    0.00000E+00         0.00000E+00        -0.63338E+08
 
   -0.63351E+08         0.19923E+06         0.00000E+00
    0.19923E+06        -0.50612E+08         0.00000E+00
    0.00000E+00         0.00000E+00        -0.63308E+08
 
   -0.63309E+08         0.25847E+06         0.00000E+00
    0.25847E+06        -0.50595E+08         0.00000E+00
    0.00000E+00         0.00000E+00        -0.63278E+08
 
   -0.63259E+08         0.31706E+06         0.00000E+00
    0.31706E+06        -0.50578E+08         0.00000E+00
    0.00000E+00         0.00000E+00        -0.63249E+08
 
   -0.59706E+08        -0.11304E+06         0.00000E+00
   -0.11304E+06        -0.50006E+08         0.00000E+00
    0.00000E+00         0.00000E+00        -0.64109E+08
 
   -0.59924E+08        -0.27673E+06         0.00000E+00
   -0.27673E+06        -0.50010E+08         0.00000E+00
    0.00000E+00         0.00000E+00        -0.64081E+08
 
   -0.60131E+08        -0.41574E+06         0.00000E+00
   -0.41574E+06        -0.50017E+08         0.00000E+00
    0.00000E+00         0.00000E+00        -0.64044E+08
 
   -0.60327E+08        -0.53134E+06         0.00000E+00
   -0.53134E+06        -0.50030E+08         0.00000E+00
    0.00000E+00         0.00000E+00        -0.64009E+08
 
   -0.60509E+08        -0.62608E+06         0.00000E+00
   -0.62608E+06        -0.50047E+08         0.00000E+00
    0.00000E+00         0.00000E+00        -0.63981E+08
 
   -0.60676E+08        -0.70237E+06         0.00000E+00
   -0.70237E+06        -0.50067E+08         0.00000E+00
    0.00000E+00         0.00000E+00        -0.63959E+08
 
   -0.60828E+08        -0.76430E+06         0.00000E+00
   -0.76430E+06        -0.50089E+08         0.00000E+00
    0.00000E+00         0.00000E+00        -0.63942E+08
 
   -0.60967E+08        -0.81398E+06         0.00000E+00
   -0.81398E+06        -0.50111E+08         0.00000E+00
    0.00000E+00         0.00000E+00        -0.63930E+08
 
   -0.61095E+08        -0.85306E+06         0.00000E+00
   -0.85306E+06        -0.50131E+08         0.00000E+00
    0.00000E+00         0.00000E+00        -0.63919E+08
 
   -0.61214E+08        -0.88291E+06         0.00000E+00
   -0.88291E+06        -0.50151E+08         0.00000E+00
    0.00000E+00         0.00000E+00        -0.63910E+08
 
   -0.61327E+08        -0.90465E+06         0.00000E+00
   -0.90465E+06        -0.50169E+08         0.00000E+00
    0.00000E+00         0.00000E+00        -0.63899E+08
 
   -0.61435E+08        -0.91903E+06         0.00000E+00
   -0.91903E+06        -0.50185E+08         0.00000E+00
    0.00000E+00         0.00000E+00        -0.63888E+08
 
   -0.61540E+08        -0.92683E+06         0.00000E+00
   -0.92683E+06        -0.50199E+08         0.00000E+00
    0.00000E+00         0.00000E+00        -0.63876E+08
 
   -0.61643E+08        -0.92859E+06         0.00000E+00
   -0.92859E+06        -0.50212E+08         0.00000E+00
    0.00000E+00         0.00000E+00        -0.63862E+08
 
   -0.61745E+08        -0.92488E+06         0.00000E+00
   -0.92488E+06        -0.50224E+08         0.00000E+00
    0.00000E+00         0.00000E+00        -0.63846E+08
 
   -0.61845E+08        -0.91631E+06         0.00000E+00
   -0.91631E+06        -0.50234E+08         0.00000E+00
    0.00000E+00         0.00000E+00        -0.63828E+08
 
   -0.61944E+08        -0.90343E+06         0.00000E+00
   -0.90343E+06        -0.50244E+08         0.00000E+00
    0.00000E+00         0.00000E+00        -0.63809E+08
 
   -0.62043E+08        -0.88665E+06         0.00000E+00
   -0.88665E+06        -0.50253E+08         0.00000E+00
    0.00000E+00         0.00000E+00        -0.63788E+08
 
   -0.62141E+08        -0.86672E+06         0.00000E+00
   -0.86672E+06        -0.50261E+08         0.00000E+00
    0.00000E+00         0.00000E+00        -0.63765E+08
 
   -0.62236E+08        -0.84423E+06         0.00000E+00
   -0.84423E+06        -0.50269E+08         0.00000E+00
    0.00000E+00         0.00000E+00        -0.63740E+08
 
   -0.62330E+08        -0.81951E+06         0.00000E+00
   -0.81951E+06        -0.50275E+08         0.00000E+00
    0.00000E+00         0.00000E+00        -0.63713E+08
 
   -0.62420E+08        -0.79311E+06         0.00000E+00
   -0.79311E+06        -0.50282E+08         0.00000E+00
    0.00000E+00         0.00000E+00        -0.63685E+08
 
   -0.62507E+08        -0.76549E+06         0.00000E+00
   -0.76549E+06        -0.50287E+08         0.00000E+00
    0.00000E+00         0.00000E+00        -0.63655E+08
 
   -0.62589E+08        -0.73710E+06         0.00000E+00
   -0.73710E+06        -0.50292E+08         0.00000E+00
    0.00000E+00         0.00000E+00        -0.63624E+08
 
   -0.62666E+08        -0.70830E+06         0.00000E+00
   -0.70830E+06        -0.50296E+08         0.00000E+00
    0.00000E+00         0.00000E+00        -0.63593E+08
 
   -0.62738E+08        -0.67917E+06         0.00000E+00
   -0.67917E+06        -0.50299E+08         0.00000E+00
    0.00000E+00         0.00000E+00        -0.63561E+08
 
   -0.62805E+08        -0.64959E+06         0.00000E+00
   -0.64959E+06        -0.50301E+08         0.00000E+00
    0.00000E+00         0.00000E+00        -0.63529E+08
 
   -0.62866E+08        -0.62004E+06         0.00000E+00
   -0.62004E+06        -0.50303E+08         0.00000E+00
    0.00000E+00         0.00000E+00        -0.63497E+08
 
   -0.62921E+08        -0.59039E+06         0.00000E+00
   -0.59039E+06        -0.50304E+08         0.00000E+00
    0.00000E+00         0.00000E+00        -0.63466E+08
 
   -0.62970E+08        -0.56045E+06         0.00000E+00
   -0.56045E+06        -0.50304E+08         0.00000E+00
    0.00000E+00         0.00000E+00        -0.63437E+08
 
   -0.63014E+08        -0.52997E+06         0.00000E+00
   -0.52997E+06        -0.50304E+08         0.00000E+00
    0.00000E+00         0.00000E+00        -0.63408E+08
 
   -0.63052E+08        -0.49879E+06         0.00000E+00
   -0.49879E+06        -0.50302E+08         0.00000E+00
    0.00000E+00         0.00000E+00        -0.63381E+08
 
   -0.63085E+08        -0.46669E+06         0.00000E+00
   -0.46669E+06        -0.50301E+08         0.00000E+00
    0.00000E+00         0.00000E+00        -0.63356E+08
 
   -0.63114E+08        -0.43331E+06         0.00000E+00
   -0.43331E+06        -0.50298E+08         0.00000E+00
    0.00000E+00         0.00000E+00        -0.63331E+08
 
   -0.63138E+08        -0.39829E+06         0.00000E+00
   -0.39829E+06        -0.50295E+08         0.00000E+00
    0.00000E+00         0.00000E+00        -0.63308E+08
 
   -0.63158E+08        -0.36159E+06         0.00000E+00
   -0.36159E+06        -0.50291E+08         0.00000E+00
    0.00000E+00         0.00000E+00        -0.63286E+08
 
   -0.63173E+08        -0.32296E+06         0.00000E+00
   -0.32296E+06        -0.50287E+08         0.00000E+00
    0.00000E+00         0.00000E+00        -0.63264E+08
 
   -0.63185E+08        -0.28215E+06         0.00000E+00
   -0.28215E+06        -0.50281E+08         0.00000E+00
    0.00000E+00         0.00000E+00        -0.63241E+08
 
   -0.63192E+08        -0.23883E+06         0.00000E+00
   -0.23883E+06        -0.50274E+08         0.00000E+00
    0.00000E+00         0.00000E+00        -0.63218E+08
 
   -0.63194E+08        -0.19335E+06         0.00000E+00
   -0.19335E+06        -0.50266E+08         0.00000E+00
    0.00000E+00         0.00000E+00        -0.63194E+08
 
   -0.63191E+08        -0.14589E+06         0.00000E+00
   -0.14589E+06        -0.50257E+08         0.00000E+00
    0.00000E+00         0.00000E+00        -0.63168E+08
 
   -0.63183E+08        -0.95730E+05         0.00000E+00
   -0.95730E+05        -0.50247E+08         0.00000E+00
    0.00000E+00         0.00000E+00        -0.63143E+08
 
   -0.63168E+08        -0.42926E+05         0.00000E+00
   -0.42926E+05        -0.50235E+08         0.00000E+00
    0.00000E+00         0.00000E+00        -0.63117E+08
 
   -0.63148E+08         0.12533E+05         0.00000E+00
    0.12533E+05        -0.50221E+08         0.00000E+00
    0.00000E+00         0.00000E+00        -0.63089E+08
 
   -0.63123E+08         0.71100E+05         0.00000E+00
    0.71100E+05        -0.50208E+08         0.00000E+00
    0.00000E+00         0.00000E+00        -0.63062E+08
 
   -0.63094E+08         0.13172E+06         0.00000E+00
    0.13172E+06        -0.50194E+08         0.00000E+00
    0.00000E+00         0.00000E+00        -0.63035E+08
 
   -0.63062E+08         0.19469E+06         0.00000E+00
    0.19469E+06        -0.50180E+08         0.00000E+00
    0.00000E+00         0.00000E+00        -0.63008E+08
 
   -0.63030E+08         0.26106E+06         0.00000E+00
    0.26106E+06        -0.50168E+08         0.00000E+00
    0.00000E+00         0.00000E+00        -0.62983E+08
 
   -0.62992E+08         0.33189E+06         0.00000E+00
    0.33189E+06        -0.50156E+08         0.00000E+00
    0.00000E+00         0.00000E+00        -0.62958E+08
 
   -0.62944E+08         0.40107E+06         0.00000E+00
    0.40107E+06        -0.50141E+08         0.00000E+00
    0.00000E+00         0.00000E+00        -0.62931E+08
 
   -0.60632E+08        -0.12432E+06         0.00000E+00
   -0.12432E+06        -0.50004E+08         0.00000E+00
    0.00000E+00         0.00000E+00        -0.64449E+08
 
   -0.60723E+08        -0.30334E+06         0.00000E+00
   -0.30334E+06        -0.50009E+08         0.00000E+00
    0.00000E+00         0.00000E+00        -0.64424E+08
 
   -0.60808E+08        -0.45786E+06         0.00000E+00
   -0.45786E+06        -0.50017E+08         0.00000E+00
    0.00000E+00         0.00000E+00        -0.64396E+08
 
   -0.60890E+08        -0.58707E+06         0.00000E+00
   -0.58707E+06        -0.50026E+08         0.00000E+00
    0.00000E+00         0.00000E+00        -0.64366E+08
 
   -0.60967E+08        -0.69208E+06         0.00000E+00
   -0.69208E+06        -0.50035E+08         0.00000E+00
    0.00000E+00         0.00000E+00        -0.64336E+08
 
   -0.61043E+08        -0.77545E+06         0.00000E+00
   -0.77545E+06        -0.50043E+08         0.00000E+00
    0.00000E+00         0.00000E+00        -0.64306E+08
 
   -0.61116E+08        -0.83940E+06         0.00000E+00
   -0.83940E+06        -0.50051E+08         0.00000E+00
    0.00000E+00         0.00000E+00        -0.64278E+08
 
   -0.61189E+08        -0.88709E+06         0.00000E+00
   -0.88709E+06        -0.50058E+08         0.00000E+00
    0.00000E+00         0.00000E+00        -0.64252E+08
 
   -0.61261E+08        -0.92170E+06         0.00000E+00
   -0.92170E+06        -0.50063E+08         0.00000E+00
    0.00000E+00         0.00000E+00        -0.64228E+08
 
   -0.61334E+08        -0.94566E+06         0.00000E+00
   -0.94566E+06        -0.50068E+08         0.00000E+00
    0.00000E+00         0.00000E+00        -0.64205E+08
 
   -0.61406E+08        -0.96082E+06         0.00000E+00
   -0.96082E+06        -0.50073E+08         0.00000E+00
    0.00000E+00         0.00000E+00        -0.64183E+08
 
   -0.61478E+08        -0.96861E+06         0.00000E+00
   -0.96861E+06        -0.50076E+08         0.00000E+00
    0.00000E+00         0.00000E+00        -0.64161E+08
 
   -0.61552E+08        -0.96997E+06         0.00000E+00
   -0.96997E+06        -0.50079E+08         0.00000E+00
    0.00000E+00         0.00000E+00        -0.64139E+08
 
   -0.61627E+08        -0.96573E+06         0.00000E+00
   -0.96573E+06        -0.50081E+08         0.00000E+00
    0.00000E+00         0.00000E+00        -0.64116E+08
 
   -0.61704E+08        -0.95669E+06         0.00000E+00
   -0.95669E+06        -0.50082E+08         0.00000E+00
    0.00000E+00         0.00000E+00        -0.64091E+08
 
   -0.61783E+08        -0.94329E+06         0.00000E+00
   -0.94329E+06        -0.50082E+08         0.00000E+00
    0.00000E+00         0.00000E+00        -0.64064E+08
 
   -0.61863E+08        -0.92613E+06         0.00000E+00
   -0.92613E+06        -0.50081E+08         0.00000E+00
    0.00000E+00         0.00000E+00        -0.64035E+08
 
   -0.61945E+08        -0.90568E+06         0.00000E+00
   -0.90568E+06        -0.50080E+08         0.00000E+00
    0.00000E+00         0.00000E+00        -0.64004E+08
 
   -0.62027E+08        -0.88210E+06         0.00000E+00
   -0.88210E+06        -0.50079E+08         0.00000E+00
    0.00000E+00         0.00000E+00        -0.63970E+08
 
   -0.62111E+08        -0.85560E+06         0.00000E+00
   -0.85560E+06        -0.50076E+08         0.00000E+00
    0.00000E+00         0.00000E+00        -0.63932E+08
 
   -0.62195E+08        -0.82690E+06         0.00000E+00
   -0.82690E+06        -0.50073E+08         0.00000E+00
    0.00000E+00         0.00000E+00        -0.63892E+08
 
   -0.62278E+08        -0.79648E+06         0.00000E+00
   -0.79648E+06        -0.50069E+08         0.00000E+00
    0.00000E+00         0.00000E+00        -0.63848E+08
 
   -0.62359E+08        -0.76477E+06         0.00000E+00
   -0.76477E+06        -0.50065E+08         0.00000E+00
    0.00000E+00         0.00000E+00        -0.63802E+08
 
   -0.62438E+08        -0.73213E+06         0.00000E+00
   -0.73213E+06        -0.50059E+08         0.00000E+00
    0.00000E+00         0.00000E+00        -0.63752E+08
 
   -0.62513E+08        -0.69892E+06         0.00000E+00
   -0.69892E+06        -0.50053E+08         0.00000E+00
    0.00000E+00         0.00000E+00        -0.63699E+08
 
   -0.62584E+08        -0.66547E+06         0.00000E+00
   -0.66547E+06        -0.50046E+08         0.00000E+00
    0.00000E+00         0.00000E+00        -0.63645E+08
 
   -0.62650E+08        -0.63214E+06         0.00000E+00
   -0.63214E+06        -0.50038E+08         0.00000E+00
    0.00000E+00         0.00000E+00        -0.63588E+08
 
   -0.62710E+08        -0.59869E+06         0.00000E+00
   -0.59869E+06        -0.50029E+08         0.00000E+00
    0.00000E+00         0.00000E+00        -0.63530E+08
 
   -0.62764E+08        -0.56510E+06         0.00000E+00
   -0.56510E+06        -0.50020E+08         0.00000E+00
    0.00000E+00         0.00000E+00        -0.63473E+08
 
   -0.62811E+08        -0.53134E+06         0.00000E+00
   -0.53134E+06        -0.50009E+08         0.00000E+00
    0.00000E+00         0.00000E+00        -0.63415E+08
 
   -0.62852E+08        -0.49740E+06         0.00000E+00
   -0.49740E+06        -0.49998E+08         0.00000E+00
    0.00000E+00         0.00000E+00        -0.63358E+08
 
   -0.62885E+08        -0.46279E+06         0.00000E+00
   -0.46279E+06        -0.49985E+08         0.00000E+00
    0.00000E+00         0.00000E+00        -0.63303E+08
 
   -0.62913E+08        -0.42724E+06         0.00000E+00
   -0.42724E+06        -0.49972E+08         0.00000E+00
    0.00000E+00         0.00000E+00        -0.63249E+08
 
   -0.62934E+08        -0.39063E+06         0.00000E+00
   -0.39063E+06        -0.49959E+08         0.00000E+00
    0.00000E+00         0.00000E+00        -0.63197E+08
 
   -0.62949E+08        -0.35262E+06         0.00000E+00
   -0.35262E+06        -0.49945E+08         0.00000E+00
    0.00000E+00         0.00000E+00        -0.63147E+08
 
   -0.62959E+08        -0.31258E+06         0.00000E+00
   -0.31258E+06        -0.49930E+08         0.00000E+00
    0.00000E+00         0.00000E+00        -0.63100E+08
 
   -0.62964E+08        -0.27054E+06         0.00000E+00
   -0.27054E+06        -0.49915E+08         0.00000E+00
    0.00000E+00         0.00000E+00        -0.63055E+08
 
   -0.62964E+08        -0.22618E+06         0.00000E+00
   -0.22618E+06        -0.49899E+08         0.00000E+00
    0.00000E+00         0.00000E+00        -0.63012E+08
 
   -0.62959E+08        -0.17951E+06         0.00000E+00
   -0.17951E+06        -0.49883E+08         0.00000E+00
    0.00000E+00         0.00000E+00        -0.62971E+08
 
   -0.62949E+08        -0.13006E+06         0.00000E+00
   -0.13006E+06        -0.49867E+08         0.00000E+00
    0.00000E+00         0.00000E+00        -0.62932E+08
 
   -0.62935E+08        -0.77962E+05         0.00000E+00
   -0.77962E+05        -0.49850E+08         0.00000E+00
    0.00000E+00         0.00000E+00        -0.62894E+08
 
   -0.62914E+08        -0.24009E+05         0.00000E+00
   -0.24009E+05        -0.49833E+08         0.00000E+00
    0.00000E+00         0.00000E+00        -0.62856E+08
 
   -0.62890E+08         0.32227E+05         0.00000E+00
    0.32227E+05        -0.49815E+08         0.00000E+00
    0.00000E+00         0.00000E+00        -0.62819E+08
 
   -0.62860E+08         0.89652E+05         0.00000E+00
    0.89652E+05        -0.49797E+08         0.00000E+00
    0.00000E+00         0.00000E+00        -0.62783E+08
 
   -0.62826E+08         0.14788E+06         0.00000E+00
    0.14788E+06        -0.49779E+08         0.00000E+00
    0.00000E+00         0.00000E+00        -0.62749E+08
 
   -0.62786E+08         0.20824E+06         0.00000E+00
    0.20824E+06        -0.49761E+08         0.00000E+00
    0.00000E+00         0.00000E+00        -0.62717E+08
 
   -0.62742E+08         0.26997E+06         0.00000E+00
    0.26997E+06        -0.49743E+08         0.00000E+00
    0.00000E+00         0.00000E+00        -0.62687E+08
 
   -0.62695E+08         0.33404E+06         0.00000E+00
    0.33404E+06        -0.49725E+08         0.00000E+00
    0.00000E+00         0.00000E+00        -0.62656E+08
 
   -0.62648E+08         0.39770E+06         0.00000E+00
    0.39770E+06        -0.49709E+08         0.00000E+00
    0.00000E+00         0.00000E+00        -0.62626E+08
 
   -0.62606E+08         0.46383E+06         0.00000E+00
    0.46383E+06        -0.49696E+08         0.00000E+00
    0.00000E+00         0.00000E+00        -0.62598E+08
 
   -0.61625E+08        -0.14149E+06         0.00000E+00
   -0.14149E+06        -0.50003E+08         0.00000E+00
    0.00000E+00         0.00000E+00        -0.64682E+08
 
   -0.61574E+08        -0.33126E+06         0.00000E+00
   -0.33126E+06        -0.50013E+08         0.00000E+00
    0.00000E+00         0.00000E+00        -0.64701E+08
 
   -0.61519E+08        -0.48310E+06         0.00000E+00
   -0.48310E+06        -0.50017E+08         0.00000E+00
    0.00000E+00         0.00000E+00        -0.64699E+08
 
   -0.61470E+08        -0.60360E+06         0.00000E+00
   -0.60360E+06        -0.50015E+08         0.00000E+00
    0.00000E+00         0.00000E+00        -0.64682E+08
 
   -0.61432E+08        -0.69891E+06         0.00000E+00
   -0.69891E+06        -0.50008E+08         0.00000E+00
    0.00000E+00         0.00000E+00        -0.64653E+08
 
   -0.61408E+08        -0.77363E+06         0.00000E+00
   -0.77363E+06        -0.49999E+08         0.00000E+00
    0.00000E+00         0.00000E+00        -0.64617E+08
 
   -0.61398E+08        -0.83167E+06         0.00000E+00
   -0.83167E+06        -0.49988E+08         0.00000E+00
    0.00000E+00         0.00000E+00        -0.64576E+08
 
   -0.61400E+08        -0.87602E+06         0.00000E+00
   -0.87602E+06        -0.49977E+08         0.00000E+00
    0.00000E+00         0.00000E+00        -0.64535E+08
 
   -0.61413E+08        -0.90874E+06         0.00000E+00
   -0.90874E+06        -0.49965E+08         0.00000E+00
    0.00000E+00         0.00000E+00        -0.64493E+08
 
   -0.61435E+08        -0.93150E+06         0.00000E+00
   -0.93150E+06        -0.49954E+08         0.00000E+00
    0.00000E+00         0.00000E+00        -0.64452E+08
 
   -0.61465E+08        -0.94559E+06         0.00000E+00
   -0.94559E+06        -0.49943E+08         0.00000E+00
    0.00000E+00         0.00000E+00        -0.64413E+08
 
   -0.61502E+08        -0.95216E+06         0.00000E+00
   -0.95216E+06        -0.49933E+08         0.00000E+00
    0.00000E+00         0.00000E+00        -0.64375E+08
 
   -0.61544E+08        -0.95232E+06         0.00000E+00
   -0.95232E+06        -0.49923E+08         0.00000E+00
    0.00000E+00         0.00000E+00        -0.64338E+08
 
   -0.61592E+08        -0.94674E+06         0.00000E+00
   -0.94674E+06        -0.49914E+08         0.00000E+00
    0.00000E+00         0.00000E+00        -0.64301E+08
 
   -0.61645E+08        -0.93581E+06         0.00000E+00
   -0.93581E+06        -0.49904E+08         0.00000E+00
    0.00000E+00         0.00000E+00        -0.64265E+08
 
   -0.61702E+08        -0.92052E+06         0.00000E+00
   -0.92052E+06        -0.49895E+08         0.00000E+00
    0.00000E+00         0.00000E+00        -0.64227E+08
 
   -0.61764E+08        -0.90126E+06         0.00000E+00
   -0.90126E+06        -0.49886E+08         0.00000E+00
    0.00000E+00         0.00000E+00        -0.64189E+08
 
   -0.61829E+08        -0.87830E+06         0.00000E+00
   -0.87830E+06        -0.49876E+08         0.00000E+00
    0.00000E+00         0.00000E+00        -0.64148E+08
 
   -0.61897E+08        -0.85178E+06         0.00000E+00
   -0.85178E+06        -0.49866E+08         0.00000E+00
    0.00000E+00         0.00000E+00        -0.64105E+08
 
   -0.61968E+08        -0.82228E+06         0.00000E+00
   -0.82228E+06        -0.49856E+08         0.00000E+00
    0.00000E+00         0.00000E+00        -0.64059E+08
 
   -0.62041E+08        -0.79045E+06         0.00000E+00
   -0.79045E+06        -0.49845E+08         0.00000E+00
    0.00000E+00         0.00000E+00        -0.64010E+08
 
   -0.62115E+08        -0.75656E+06         0.00000E+00
   -0.75656E+06        -0.49834E+08         0.00000E+00
    0.00000E+00         0.00000E+00        -0.63957E+08
 
   -0.62190E+08        -0.72090E+06         0.00000E+00
   -0.72090E+06        -0.49822E+08         0.00000E+00
    0.00000E+00         0.00000E+00        -0.63900E+08
 
   -0.62264E+08        -0.68386E+06         0.00000E+00
   -0.68386E+06        -0.49810E+08         0.00000E+00
    0.00000E+00         0.00000E+00        -0.63839E+08
 
   -0.62336E+08        -0.64579E+06         0.00000E+00
   -0.64579E+06        -0.49796E+08         0.00000E+00
    0.00000E+00         0.00000E+00        -0.63773E+08
 
   -0.62406E+08        -0.60705E+06         0.00000E+00
   -0.60705E+06        -0.49781E+08         0.00000E+00
    0.00000E+00         0.00000E+00        -0.63704E+08
 
   -0.62471E+08        -0.56810E+06         0.00000E+00
   -0.56810E+06        -0.49766E+08         0.00000E+00
    0.00000E+00         0.00000E+00        -0.63630E+08
 
   -0.62530E+08        -0.52913E+06         0.00000E+00
   -0.52913E+06        -0.49749E+08         0.00000E+00
    0.00000E+00         0.00000E+00        -0.63554E+08
 
   -0.62584E+08        -0.49037E+06         0.00000E+00
   -0.49037E+06        -0.49730E+08         0.00000E+00
    0.00000E+00         0.00000E+00        -0.63475E+08
 
   -0.62631E+08        -0.45180E+06         0.00000E+00
   -0.45180E+06        -0.49711E+08         0.00000E+00
    0.00000E+00         0.00000E+00        -0.63395E+08
 
   -0.62670E+08        -0.41306E+06         0.00000E+00
   -0.41306E+06        -0.49690E+08         0.00000E+00
    0.00000E+00         0.00000E+00        -0.63314E+08
 
   -0.62701E+08        -0.37435E+06         0.00000E+00
   -0.37435E+06        -0.49668E+08         0.00000E+00
    0.00000E+00         0.00000E+00        -0.63233E+08
 
   -0.62724E+08        -0.33543E+06         0.00000E+00
   -0.33543E+06        -0.49646E+08         0.00000E+00
    0.00000E+00         0.00000E+00        -0.63154E+08
 
   -0.62740E+08        -0.29574E+06         0.00000E+00
   -0.29574E+06        -0.49623E+08         0.00000E+00
    0.00000E+00         0.00000E+00        -0.63078E+08
 
   -0.62748E+08        -0.25521E+06         0.00000E+00
   -0.25521E+06        -0.49599E+08         0.00000E+00
    0.00000E+00         0.00000E+00        -0.63004E+08
 
   -0.62749E+08        -0.21358E+06         0.00000E+00
   -0.21358E+06        -0.49575E+08         0.00000E+00
    0.00000E+00         0.00000E+00        -0.62934E+08
 
   -0.62744E+08        -0.17017E+06         0.00000E+00
   -0.17017E+06        -0.49551E+08         0.00000E+00
    0.00000E+00         0.00000E+00        -0.62867E+08
 
   -0.62733E+08        -0.12521E+06         0.00000E+00
   -0.12521E+06        -0.49526E+08         0.00000E+00
    0.00000E+00         0.00000E+00        -0.62804E+08
 
   -0.62717E+08        -0.78303E+05         0.00000E+00
   -0.78303E+05        -0.49502E+08         0.00000E+00
    0.00000E+00         0.00000E+00        -0.62744E+08
 
   -0.62695E+08        -0.29549E+05         0.00000E+00
   -0.29549E+05        -0.49478E+08         0.00000E+00
    0.00000E+00         0.00000E+00        -0.62689E+08
 
   -0.62669E+08         0.21593E+05         0.00000E+00
    0.21593E+05        -0.49454E+08         0.00000E+00
    0.00000E+00         0.00000E+00        -0.62638E+08
 
   -0.62641E+08         0.74871E+05         0.00000E+00
    0.74871E+05        -0.49431E+08         0.00000E+00
    0.00000E+00         0.00000E+00        -0.62590E+08
 
   -0.62608E+08         0.12996E+06         0.00000E+00
    0.12996E+06        -0.49409E+08         0.00000E+00
    0.00000E+00         0.00000E+00        -0.62546E+08
 
   -0.62572E+08         0.18733E+06         0.00000E+00
    0.18733E+06        -0.49387E+08         0.00000E+00
    0.00000E+00         0.00000E+00        -0.62503E+08
 
   -0.62531E+08         0.24610E+06         0.00000E+00
    0.24610E+06        -0.49366E+08         0.00000E+00
    0.00000E+00         0.00000E+00        -0.62461E+08
 
   -0.62486E+08         0.30452E+06         0.00000E+00
    0.30452E+06        -0.49345E+08         0.00000E+00
    0.00000E+00         0.00000E+00        -0.62422E+08
 
   -0.62438E+08         0.36341E+06         0.00000E+00
    0.36341E+06        -0.49324E+08         0.00000E+00
    0.00000E+00         0.00000E+00        -0.62383E+08
 
   -0.62387E+08         0.42206E+06         0.00000E+00
    0.42206E+06        -0.49303E+08         0.00000E+00
    0.00000E+00         0.00000E+00        -0.62347E+08
 
   -0.62336E+08         0.48194E+06         0.00000E+00
    0.48194E+06        -0.49284E+08         0.00000E+00
    0.00000E+00         0.00000E+00        -0.62312E+08
 
   -0.62284E+08         0.54283E+06         0.00000E+00
    0.54283E+06        -0.49266E+08         0.00000E+00
    0.00000E+00         0.00000E+00        -0.62276E+08
 
   -0.62615E+08        -0.16143E+06         0.00000E+00
   -0.16143E+06        -0.50006E+08         0.00000E+00
    0.00000E+00         0.00000E+00        -0.64804E+08
 
   -0.62377E+08        -0.30530E+06         0.00000E+00
   -0.30530E+06        -0.49987E+08         0.00000E+00
    0.00000E+00         0.00000E+00        -0.64856E+08
 
   -0.62169E+08        -0.42403E+06         0.00000E+00
   -0.42403E+06        -0.49961E+08         0.00000E+00
    0.00000E+00         0.00000E+00        -0.64866E+08
 
   -0.61996E+08        -0.52400E+06         0.00000E+00
   -0.52400E+06        -0.49933E+08         0.00000E+00
    0.00000E+00         0.00000E+00        -0.64850E+08
 
   -0.61858E+08        -0.60848E+06         0.00000E+00
   -0.60848E+06        -0.49904E+08         0.00000E+00
    0.00000E+00         0.00000E+00        -0.64816E+08
 
   -0.61749E+08        -0.67952E+06         0.00000E+00
   -0.67952E+06        -0.49876E+08         0.00000E+00
    0.00000E+00         0.00000E+00        -0.64774E+08
 
   -0.61666E+08        -0.73816E+06         0.00000E+00
   -0.73816E+06        -0.49850E+08         0.00000E+00
    0.00000E+00         0.00000E+00        -0.64727E+08
 
   -0.61607E+08        -0.78516E+06         0.00000E+00
   -0.78516E+06        -0.49826E+08         0.00000E+00
    0.00000E+00         0.00000E+00        -0.64679E+08
 
   -0.61566E+08        -0.82160E+06         0.00000E+00
   -0.82160E+06        -0.49804E+08         0.00000E+00
    0.00000E+00         0.00000E+00        -0.64631E+08
 
   -0.61542E+08        -0.84844E+06         0.00000E+00
   -0.84844E+06        -0.49783E+08         0.00000E+00
    0.00000E+00         0.00000E+00        -0.64585E+08
 
   -0.61530E+08        -0.86650E+06         0.00000E+00
   -0.86650E+06        -0.49762E+08         0.00000E+00
    0.00000E+00         0.00000E+00        -0.64535E+08
 
   -0.61531E+08        -0.87661E+06         0.00000E+00
   -0.87661E+06        -0.49742E+08         0.00000E+00
    0.00000E+00         0.00000E+00        -0.64487E+08
 
   -0.61541E+08        -0.87982E+06         0.00000E+00
   -0.87982E+06        -0.49722E+08         0.00000E+00
    0.00000E+00         0.00000E+00        -0.64439E+08
 
   -0.61560E+08        -0.87750E+06         0.00000E+00
   -0.87750E+06        -0.49704E+08         0.00000E+00
    0.00000E+00         0.00000E+00        -0.64392E+08
 
   -0.61587E+08        -0.87028E+06         0.00000E+00
   -0.87028E+06        -0.49687E+08         0.00000E+00
    0.00000E+00         0.00000E+00        -0.64347E+08
 
   -0.61620E+08        -0.85684E+06         0.00000E+00
   -0.85684E+06        -0.49671E+08         0.00000E+00
    0.00000E+00         0.00000E+00        -0.64304E+08
 
   -0.61659E+08        -0.83740E+06         0.00000E+00
   -0.83740E+06        -0.49654E+08         0.00000E+00
    0.00000E+00         0.00000E+00        -0.64259E+08
 
   -0.61705E+08        -0.81352E+06         0.00000E+00
   -0.81352E+06        -0.49638E+08         0.00000E+00
    0.00000E+00         0.00000E+00        -0.64212E+08
 
   -0.61756E+08        -0.78631E+06         0.00000E+00
   -0.78631E+06        -0.49622E+08         0.00000E+00
    0.00000E+00         0.00000E+00        -0.64164E+08
 
   -0.61812E+08        -0.75627E+06         0.00000E+00
   -0.75627E+06        -0.49606E+08         0.00000E+00
    0.00000E+00         0.00000E+00        -0.64113E+08
 
   -0.61872E+08        -0.72293E+06         0.00000E+00
   -0.72293E+06        -0.49591E+08         0.00000E+00
    0.00000E+00         0.00000E+00        -0.64060E+08
 
   -0.61934E+08        -0.68652E+06         0.00000E+00
   -0.68652E+06        -0.49575E+08         0.00000E+00
    0.00000E+00         0.00000E+00        -0.64004E+08
 
   -0.61999E+08        -0.64743E+06         0.00000E+00
   -0.64743E+06        -0.49558E+08         0.00000E+00
    0.00000E+00         0.00000E+00        -0.63943E+08
 
   -0.62065E+08        -0.60580E+06         0.00000E+00
   -0.60580E+06        -0.49541E+08         0.00000E+00
    0.00000E+00         0.00000E+00        -0.63878E+08
 
   -0.62132E+08        -0.56235E+06         0.00000E+00
   -0.56235E+06        -0.49523E+08         0.00000E+00
    0.00000E+00         0.00000E+00        -0.63808E+08
 
   -0.62198E+08        -0.51790E+06         0.00000E+00
   -0.51790E+06        -0.49504E+08         0.00000E+00
    0.00000E+00         0.00000E+00        -0.63733E+08
 
   -0.62261E+08        -0.47235E+06         0.00000E+00
   -0.47235E+06        -0.49484E+08         0.00000E+00
    0.00000E+00         0.00000E+00        -0.63653E+08
 
   -0.62321E+08        -0.42619E+06         0.00000E+00
   -0.42619E+06        -0.49462E+08         0.00000E+00
    0.00000E+00         0.00000E+00        -0.63567E+08
 
   -0.62375E+08        -0.37986E+06         0.00000E+00
   -0.37986E+06        -0.49438E+08         0.00000E+00
    0.00000E+00         0.00000E+00        -0.63476E+08
 
   -0.62423E+08        -0.33395E+06         0.00000E+00
   -0.33395E+06        -0.49413E+08         0.00000E+00
    0.00000E+00         0.00000E+00        -0.63381E+08
 
   -0.62464E+08        -0.28905E+06         0.00000E+00
   -0.28905E+06        -0.49386E+08         0.00000E+00
    0.00000E+00         0.00000E+00        -0.63283E+08
 
   -0.62496E+08        -0.24500E+06         0.00000E+00
   -0.24500E+06        -0.49358E+08         0.00000E+00
    0.00000E+00         0.00000E+00        -0.63184E+08
 
   -0.62519E+08        -0.20167E+06         0.00000E+00
   -0.20167E+06        -0.49329E+08         0.00000E+00
    0.00000E+00         0.00000E+00        -0.63085E+08
 
   -0.62533E+08        -0.15894E+06         0.00000E+00
   -0.15894E+06        -0.49299E+08         0.00000E+00
    0.00000E+00         0.00000E+00        -0.62987E+08
 
   -0.62538E+08        -0.11643E+06         0.00000E+00
   -0.11643E+06        -0.49267E+08         0.00000E+00
    0.00000E+00         0.00000E+00        -0.62892E+08
 
   -0.62534E+08        -0.73877E+05         0.00000E+00
   -0.73877E+05        -0.49236E+08         0.00000E+00
    0.00000E+00         0.00000E+00        -0.62800E+08
 
   -0.62523E+08        -0.30740E+05         0.00000E+00
   -0.30740E+05        -0.49204E+08         0.00000E+00
    0.00000E+00         0.00000E+00        -0.62714E+08
 
   -0.62505E+08         0.13588E+05         0.00000E+00
    0.13588E+05        -0.49173E+08         0.00000E+00
    0.00000E+00         0.00000E+00        -0.62632E+08
 
   -0.62481E+08         0.59148E+05         0.00000E+00
    0.59148E+05        -0.49142E+08         0.00000E+00
    0.00000E+00         0.00000E+00        -0.62555E+08
 
   -0.62452E+08         0.10602E+06         0.00000E+00
    0.10602E+06        -0.49112E+08         0.00000E+00
    0.00000E+00         0.00000E+00        -0.62484E+08
 
   -0.62417E+08         0.15366E+06         0.00000E+00
    0.15366E+06        -0.49082E+08         0.00000E+00
    0.00000E+00         0.00000E+00        -0.62417E+08
 
   -0.62379E+08         0.20318E+06         0.00000E+00
    0.20318E+06        -0.49052E+08         0.00000E+00
    0.00000E+00         0.00000E+00        -0.62354E+08
 
   -0.62337E+08         0.25372E+06         0.00000E+00
    0.25372E+06        -0.49024E+08         0.00000E+00
    0.00000E+00         0.00000E+00        -0.62296E+08
 
   -0.62292E+08         0.30516E+06         0.00000E+00
    0.30516E+06        -0.48996E+08         0.00000E+00
    0.00000E+00         0.00000E+00        -0.62242E+08
 
   -0.62246E+08         0.35827E+06         0.00000E+00
    0.35827E+06        -0.48971E+08         0.00000E+00
    0.00000E+00         0.00000E+00        -0.62193E+08
 
   -0.62199E+08         0.41416E+06         0.00000E+00
    0.41416E+06        -0.48947E+08         0.00000E+00
    0.00000E+00         0.00000E+00        -0.62147E+08
 
   -0.62150E+08         0.47122E+06         0.00000E+00
    0.47122E+06        -0.48924E+08         0.00000E+00
    0.00000E+00         0.00000E+00        -0.62103E+08
 
   -0.62097E+08         0.52951E+06         0.00000E+00
    0.52951E+06        -0.48902E+08         0.00000E+00
    0.00000E+00         0.00000E+00        -0.62059E+08
 
   -0.62040E+08         0.58840E+06         0.00000E+00
    0.58840E+06        -0.48878E+08         0.00000E+00
    0.00000E+00         0.00000E+00        -0.62014E+08
 
   -0.61978E+08         0.64764E+06         0.00000E+00
    0.64764E+06        -0.48855E+08         0.00000E+00
    0.00000E+00         0.00000E+00        -0.61968E+08
 
   -0.63305E+08        -0.15554E+05         0.00000E+00
   -0.15554E+05        -0.49984E+08         0.00000E+00
    0.00000E+00         0.00000E+00        -0.64624E+08
 
   -0.62979E+08        -0.11865E+06         0.00000E+00
   -0.11865E+06        -0.49954E+08         0.00000E+00
    0.00000E+00         0.00000E+00        -0.64646E+08
 
   -0.62703E+08        -0.22270E+06         0.00000E+00
   -0.22270E+06        -0.49912E+08         0.00000E+00
    0.00000E+00         0.00000E+00        -0.64652E+08
 
   -0.62468E+08        -0.32219E+06         0.00000E+00
   -0.32219E+06        -0.49862E+08         0.00000E+00
    0.00000E+00         0.00000E+00        -0.64646E+08
 
   -0.62270E+08        -0.41387E+06         0.00000E+00
   -0.41387E+06        -0.49809E+08         0.00000E+00
    0.00000E+00         0.00000E+00        -0.64634E+08
 
   -0.62104E+08        -0.49593E+06         0.00000E+00
   -0.49593E+06        -0.49753E+08         0.00000E+00
    0.00000E+00         0.00000E+00        -0.64617E+08
 
   -0.61965E+08        -0.56762E+06         0.00000E+00
   -0.56762E+06        -0.49698E+08         0.00000E+00
    0.00000E+00         0.00000E+00        -0.64599E+08
 
   -0.61851E+08        -0.62869E+06         0.00000E+00
   -0.62869E+06        -0.49645E+08         0.00000E+00
    0.00000E+00         0.00000E+00        -0.64580E+08
 
   -0.61759E+08        -0.67890E+06         0.00000E+00
   -0.67890E+06        -0.49594E+08         0.00000E+00
    0.00000E+00         0.00000E+00        -0.64561E+08
 
   -0.61689E+08        -0.71850E+06         0.00000E+00
   -0.71850E+06        -0.49546E+08         0.00000E+00
    0.00000E+00         0.00000E+00        -0.64542E+08
 
   -0.61629E+08        -0.74711E+06         0.00000E+00
   -0.74711E+06        -0.49517E+08         0.00000E+00
    0.00000E+00         0.00000E+00        -0.64500E+08
 
   -0.61587E+08        -0.76650E+06         0.00000E+00
   -0.76650E+06        -0.49494E+08         0.00000E+00
    0.00000E+00         0.00000E+00        -0.64457E+08
 
   -0.61559E+08        -0.77690E+06         0.00000E+00
   -0.77690E+06        -0.49472E+08         0.00000E+00
    0.00000E+00         0.00000E+00        -0.64416E+08
 
   -0.61547E+08        -0.77805E+06         0.00000E+00
   -0.77805E+06        -0.49453E+08         0.00000E+00
    0.00000E+00         0.00000E+00        -0.64378E+08
 
   -0.61543E+08        -0.77130E+06         0.00000E+00
   -0.77130E+06        -0.49431E+08         0.00000E+00
    0.00000E+00         0.00000E+00        -0.64331E+08
 
   -0.61548E+08        -0.76009E+06         0.00000E+00
   -0.76009E+06        -0.49406E+08         0.00000E+00
    0.00000E+00         0.00000E+00        -0.64278E+08
 
   -0.61562E+08        -0.74523E+06         0.00000E+00
   -0.74523E+06        -0.49385E+08         0.00000E+00
    0.00000E+00         0.00000E+00        -0.64229E+08
 
   -0.61585E+08        -0.72543E+06         0.00000E+00
   -0.72543E+06        -0.49365E+08         0.00000E+00
    0.00000E+00         0.00000E+00        -0.64183E+08
 
   -0.61616E+08        -0.70058E+06         0.00000E+00
   -0.70058E+06        -0.49348E+08         0.00000E+00
    0.00000E+00         0.00000E+00        -0.64138E+08
 
   -0.61653E+08        -0.67087E+06         0.00000E+00
   -0.67087E+06        -0.49331E+08         0.00000E+00
    0.00000E+00         0.00000E+00        -0.64092E+08
 
   -0.61694E+08        -0.63660E+06         0.00000E+00
   -0.63660E+06        -0.49312E+08         0.00000E+00
    0.00000E+00         0.00000E+00        -0.64040E+08
 
   -0.61741E+08        -0.59806E+06         0.00000E+00
   -0.59806E+06        -0.49293E+08         0.00000E+00
    0.00000E+00         0.00000E+00        -0.63986E+08
 
   -0.61791E+08        -0.55623E+06         0.00000E+00
   -0.55623E+06        -0.49274E+08         0.00000E+00
    0.00000E+00         0.00000E+00        -0.63927E+08
 
   -0.61845E+08        -0.51242E+06         0.00000E+00
   -0.51242E+06        -0.49254E+08         0.00000E+00
    0.00000E+00         0.00000E+00        -0.63864E+08
 
   -0.61900E+08        -0.46529E+06         0.00000E+00
   -0.46529E+06        -0.49235E+08         0.00000E+00
    0.00000E+00         0.00000E+00        -0.63800E+08
 
   -0.61957E+08        -0.41382E+06         0.00000E+00
   -0.41382E+06        -0.49215E+08         0.00000E+00
    0.00000E+00         0.00000E+00        -0.63728E+08
 
   -0.62015E+08        -0.36032E+06         0.00000E+00
   -0.36032E+06        -0.49192E+08         0.00000E+00
    0.00000E+00         0.00000E+00        -0.63649E+08
 
   -0.62072E+08        -0.30633E+06         0.00000E+00
   -0.30633E+06        -0.49169E+08         0.00000E+00
    0.00000E+00         0.00000E+00        -0.63562E+08
 
   -0.62127E+08        -0.25247E+06         0.00000E+00
   -0.25247E+06        -0.49144E+08         0.00000E+00
    0.00000E+00         0.00000E+00        -0.63471E+08
 
   -0.62178E+08        -0.19846E+06         0.00000E+00
   -0.19846E+06        -0.49118E+08         0.00000E+00
    0.00000E+00         0.00000E+00        -0.63373E+08
 
   -0.62223E+08        -0.14474E+06         0.00000E+00
   -0.14474E+06        -0.49089E+08         0.00000E+00
    0.00000E+00         0.00000E+00        -0.63270E+08
 
   -0.62261E+08        -0.92306E+05         0.00000E+00
   -0.92306E+05        -0.49059E+08         0.00000E+00
    0.00000E+00         0.00000E+00        -0.63162E+08
 
   -0.62290E+08        -0.41910E+05         0.00000E+00
   -0.41910E+05        -0.49027E+08         0.00000E+00
    0.00000E+00         0.00000E+00        -0.63051E+08
 
   -0.62309E+08         0.64980E+04         0.00000E+00
    0.64980E+04        -0.48994E+08         0.00000E+00
    0.00000E+00         0.00000E+00        -0.62938E+08
 
   -0.62318E+08         0.53393E+05         0.00000E+00
    0.53393E+05        -0.48958E+08         0.00000E+00
    0.00000E+00         0.00000E+00        -0.62825E+08
 
   -0.62317E+08         0.98760E+05         0.00000E+00
    0.98760E+05        -0.48921E+08         0.00000E+00
    0.00000E+00         0.00000E+00        -0.62714E+08
 
   -0.62305E+08         0.14249E+06         0.00000E+00
    0.14249E+06        -0.48884E+08         0.00000E+00
    0.00000E+00         0.00000E+00        -0.62607E+08
 
   -0.62285E+08         0.18529E+06         0.00000E+00
    0.18529E+06        -0.48846E+08         0.00000E+00
    0.00000E+00         0.00000E+00        -0.62505E+08
 
   -0.62257E+08         0.22789E+06         0.00000E+00
    0.22789E+06        -0.48809E+08         0.00000E+00
    0.00000E+00         0.00000E+00        -0.62408E+08
 
   -0.62223E+08         0.27086E+06         0.00000E+00
    0.27086E+06        -0.48772E+08         0.00000E+00
    0.00000E+00         0.00000E+00        -0.62318E+08
 
   -0.62184E+08         0.31425E+06         0.00000E+00
    0.31425E+06        -0.48736E+08         0.00000E+00
    0.00000E+00         0.00000E+00        -0.62234E+08
 
   -0.62141E+08         0.35845E+06         0.00000E+00
    0.35845E+06        -0.48702E+08         0.00000E+00
    0.00000E+00         0.00000E+00        -0.62156E+08
 
   -0.62093E+08         0.40429E+06         0.00000E+00
    0.40429E+06        -0.48669E+08         0.00000E+00
    0.00000E+00         0.00000E+00        -0.62084E+08
 
   -0.62043E+08         0.45179E+06         0.00000E+00
    0.45179E+06        -0.48637E+08         0.00000E+00
    0.00000E+00         0.00000E+00        -0.62017E+08
 
   -0.61988E+08         0.50015E+06         0.00000E+00
    0.50015E+06        -0.48605E+08         0.00000E+00
    0.00000E+00         0.00000E+00        -0.61953E+08
 
   -0.61930E+08         0.54969E+06         0.00000E+00
    0.54969E+06        -0.48573E+08         0.00000E+00
    0.00000E+00         0.00000E+00        -0.61891E+08
 
   -0.61869E+08         0.60128E+06         0.00000E+00
    0.60128E+06        -0.48542E+08         0.00000E+00
    0.00000E+00         0.00000E+00        -0.61833E+08
 
   -0.61807E+08         0.65359E+06         0.00000E+00
    0.65359E+06        -0.48514E+08         0.00000E+00
    0.00000E+00         0.00000E+00        -0.61778E+08
 
   -0.61747E+08         0.70921E+06         0.00000E+00
    0.70921E+06        -0.48488E+08         0.00000E+00
    0.00000E+00         0.00000E+00        -0.61727E+08
 
   -0.61687E+08         0.76692E+06         0.00000E+00
    0.76692E+06        -0.48464E+08         0.00000E+00
    0.00000E+00         0.00000E+00        -0.61679E+08
 
   -0.63547E+08         0.13047E+05         0.00000E+00
    0.13047E+05        -0.50014E+08         0.00000E+00
    0.00000E+00         0.00000E+00        -0.64111E+08
 
   -0.63284E+08        -0.15688E+05         0.00000E+00
   -0.15688E+05        -0.50005E+08         0.00000E+00
    0.00000E+00         0.00000E+00        -0.64111E+08
 
   -0.63039E+08        -0.54842E+05         0.00000E+00
   -0.54842E+05        -0.49988E+08         0.00000E+00
    0.00000E+00         0.00000E+00        -0.64111E+08
 
   -0.62815E+08        -0.10156E+06         0.00000E+00
   -0.10156E+06        -0.49963E+08         0.00000E+00
    0.00000E+00         0.00000E+00        -0.64111E+08
 
   -0.62611E+08        -0.15312E+06         0.00000E+00
   -0.15312E+06        -0.49929E+08         0.00000E+00
    0.00000E+00         0.00000E+00        -0.64110E+08
 
   -0.62428E+08        -0.20716E+06         0.00000E+00
   -0.20716E+06        -0.49887E+08         0.00000E+00
    0.00000E+00         0.00000E+00        -0.64110E+08
 
   -0.62266E+08        -0.26177E+06         0.00000E+00
   -0.26177E+06        -0.49839E+08         0.00000E+00
    0.00000E+00         0.00000E+00        -0.64109E+08
 
   -0.62123E+08        -0.31543E+06         0.00000E+00
   -0.31543E+06        -0.49786E+08         0.00000E+00
    0.00000E+00         0.00000E+00        -0.64108E+08
 
   -0.61998E+08        -0.36700E+06         0.00000E+00
   -0.36700E+06        -0.49728E+08         0.00000E+00
    0.00000E+00         0.00000E+00        -0.64107E+08
 
   -0.61889E+08        -0.41557E+06         0.00000E+00
   -0.41557E+06        -0.49668E+08         0.00000E+00
    0.00000E+00         0.00000E+00        -0.64106E+08
 
   -0.61797E+08        -0.46103E+06         0.00000E+00
   -0.46103E+06        -0.49588E+08         0.00000E+00
    0.00000E+00         0.00000E+00        -0.64105E+08
 
   -0.61719E+08        -0.50100E+06         0.00000E+00
   -0.50100E+06        -0.49508E+08         0.00000E+00
    0.00000E+00         0.00000E+00        -0.64104E+08
 
   -0.61656E+08        -0.53537E+06         0.00000E+00
   -0.53537E+06        -0.49431E+08         0.00000E+00
    0.00000E+00         0.00000E+00        -0.64103E+08
 
   -0.61606E+08        -0.56473E+06         0.00000E+00
   -0.56473E+06        -0.49357E+08         0.00000E+00
    0.00000E+00         0.00000E+00        -0.64102E+08
 
   -0.61565E+08        -0.58764E+06         0.00000E+00
   -0.58764E+06        -0.49291E+08         0.00000E+00
    0.00000E+00         0.00000E+00        -0.64086E+08
 
   -0.61533E+08        -0.60085E+06         0.00000E+00
   -0.60085E+06        -0.49230E+08         0.00000E+00
    0.00000E+00         0.00000E+00        -0.64060E+08
 
   -0.61513E+08        -0.60403E+06         0.00000E+00
   -0.60403E+06        -0.49174E+08         0.00000E+00
    0.00000E+00         0.00000E+00        -0.64037E+08
 
   -0.61504E+08        -0.59885E+06         0.00000E+00
   -0.59885E+06        -0.49122E+08         0.00000E+00
    0.00000E+00         0.00000E+00        -0.64017E+08
 
   -0.61505E+08        -0.58585E+06         0.00000E+00
   -0.58585E+06        -0.49073E+08         0.00000E+00
    0.00000E+00         0.00000E+00        -0.63998E+08
 
   -0.61516E+08        -0.56535E+06         0.00000E+00
   -0.56535E+06        -0.49029E+08         0.00000E+00
    0.00000E+00         0.00000E+00        -0.63980E+08
 
   -0.61527E+08        -0.53728E+06         0.00000E+00
   -0.53728E+06        -0.49006E+08         0.00000E+00
    0.00000E+00         0.00000E+00        -0.63936E+08
 
   -0.61546E+08        -0.50291E+06         0.00000E+00
   -0.50291E+06        -0.48987E+08         0.00000E+00
    0.00000E+00         0.00000E+00        -0.63891E+08
 
   -0.61574E+08        -0.46180E+06         0.00000E+00
   -0.46180E+06        -0.48970E+08         0.00000E+00
    0.00000E+00         0.00000E+00        -0.63848E+08
 
   -0.61611E+08        -0.41330E+06         0.00000E+00
   -0.41330E+06        -0.48953E+08         0.00000E+00
    0.00000E+00         0.00000E+00        -0.63801E+08
 
   -0.61646E+08        -0.36086E+06         0.00000E+00
   -0.36086E+06        -0.48929E+08         0.00000E+00
    0.00000E+00         0.00000E+00        -0.63734E+08
 
   -0.61688E+08        -0.30721E+06         0.00000E+00
   -0.30721E+06        -0.48907E+08         0.00000E+00
    0.00000E+00         0.00000E+00        -0.63668E+08
 
   -0.61736E+08        -0.25075E+06         0.00000E+00
   -0.25075E+06        -0.48887E+08         0.00000E+00
    0.00000E+00         0.00000E+00        -0.63601E+08
 
   -0.61788E+08        -0.19142E+06         0.00000E+00
   -0.19142E+06        -0.48868E+08         0.00000E+00
    0.00000E+00         0.00000E+00        -0.63531E+08
 
   -0.61839E+08        -0.12937E+06         0.00000E+00
   -0.12937E+06        -0.48846E+08         0.00000E+00
    0.00000E+00         0.00000E+00        -0.63451E+08
 
   -0.61890E+08        -0.66012E+05         0.00000E+00
   -0.66012E+05        -0.48822E+08         0.00000E+00
    0.00000E+00         0.00000E+00        -0.63361E+08
 
   -0.61937E+08        -0.33503E+04         0.00000E+00
   -0.33503E+04        -0.48796E+08         0.00000E+00
    0.00000E+00         0.00000E+00        -0.63264E+08
 
   -0.61982E+08         0.58729E+05         0.00000E+00
    0.58729E+05        -0.48769E+08         0.00000E+00
    0.00000E+00         0.00000E+00        -0.63162E+08
 
   -0.62020E+08         0.12105E+06         0.00000E+00
    0.12105E+06        -0.48740E+08         0.00000E+00
    0.00000E+00         0.00000E+00        -0.63053E+08
 
   -0.62050E+08         0.18170E+06         0.00000E+00
    0.18170E+06        -0.48707E+08         0.00000E+00
    0.00000E+00         0.00000E+00        -0.62935E+08
 
   -0.62071E+08         0.23817E+06         0.00000E+00
    0.23817E+06        -0.48672E+08         0.00000E+00
    0.00000E+00         0.00000E+00        -0.62811E+08
 
   -0.62082E+08         0.29042E+06         0.00000E+00
    0.29042E+06        -0.48635E+08         0.00000E+00
    0.00000E+00         0.00000E+00        -0.62686E+08
 
   -0.62081E+08         0.33953E+06         0.00000E+00
    0.33953E+06        -0.48595E+08         0.00000E+00
    0.00000E+00         0.00000E+00        -0.62561E+08
 
   -0.62069E+08         0.38454E+06         0.00000E+00
    0.38454E+06        -0.48554E+08         0.00000E+00
    0.00000E+00         0.00000E+00        -0.62438E+08
 
   -0.62047E+08         0.42602E+06         0.00000E+00
    0.42602E+06        -0.48512E+08         0.00000E+00
    0.00000E+00         0.00000E+00        -0.62319E+08
 
   -0.62015E+08         0.46565E+06         0.00000E+00
    0.46565E+06        -0.48469E+08         0.00000E+00
    0.00000E+00         0.00000E+00        -0.62206E+08
 
   -0.61974E+08         0.50532E+06         0.00000E+00
    0.50532E+06        -0.48427E+08         0.00000E+00
    0.00000E+00         0.00000E+00        -0.62100E+08
 
   -0.61925E+08         0.54485E+06         0.00000E+00
    0.54485E+06        -0.48385E+08         0.00000E+00
    0.00000E+00         0.00000E+00        -0.62002E+08
 
   -0.61872E+08         0.58505E+06         0.00000E+00
    0.58505E+06        -0.48345E+08         0.00000E+00
    0.00000E+00         0.00000E+00        -0.61910E+08
 
   -0.61814E+08         0.62658E+06         0.00000E+00
    0.62658E+06        -0.48306E+08         0.00000E+00
    0.00000E+00         0.00000E+00        -0.61825E+08
 
   -0.61754E+08         0.66965E+06         0.00000E+00
    0.66965E+06        -0.48268E+08         0.00000E+00
    0.00000E+00         0.00000E+00        -0.61746E+08
 
   -0.61692E+08         0.71324E+06         0.00000E+00
    0.71324E+06        -0.48233E+08         0.00000E+00
    0.00000E+00         0.00000E+00        -0.61672E+08
 
   -0.61629E+08         0.75717E+06         0.00000E+00
    0.75717E+06        -0.48199E+08         0.00000E+00
    0.00000E+00         0.00000E+00        -0.61605E+08
 
   -0.61562E+08         0.80451E+06         0.00000E+00
    0.80451E+06        -0.48166E+08         0.00000E+00
    0.00000E+00         0.00000E+00        -0.61541E+08
 
   -0.61492E+08         0.85148E+06         0.00000E+00
    0.85148E+06        -0.48134E+08         0.00000E+00
    0.00000E+00         0.00000E+00        -0.61478E+08
 
   -0.61421E+08         0.89961E+06         0.00000E+00
    0.89961E+06        -0.48102E+08         0.00000E+00
    0.00000E+00         0.00000E+00        -0.61416E+08
 
   -0.63569E+08         0.84591E+04         0.00000E+00
    0.84591E+04        -0.49996E+08         0.00000E+00
    0.00000E+00         0.00000E+00        -0.63563E+08
 
   -0.63357E+08         0.12934E+05         0.00000E+00
    0.12934E+05        -0.49995E+08         0.00000E+00
    0.00000E+00         0.00000E+00        -0.63563E+08
 
   -0.63154E+08         0.98215E+04         0.00000E+00
    0.98215E+04        -0.49989E+08         0.00000E+00
    0.00000E+00         0.00000E+00        -0.63563E+08
 
   -0.62960E+08         0.31447E+03         0.00000E+00
    0.31447E+03        -0.49977E+08         0.00000E+00
    0.00000E+00         0.00000E+00        -0.63563E+08
 
   -0.62778E+08        -0.14405E+05         0.00000E+00
   -0.14405E+05        -0.49959E+08         0.00000E+00
    0.00000E+00         0.00000E+00        -0.63562E+08
 
   -0.62608E+08        -0.33129E+05         0.00000E+00
   -0.33129E+05        -0.49935E+08         0.00000E+00
    0.00000E+00         0.00000E+00        -0.63561E+08
 
   -0.62452E+08        -0.54633E+05         0.00000E+00
   -0.54633E+05        -0.49904E+08         0.00000E+00
    0.00000E+00         0.00000E+00        -0.63561E+08
 
   -0.62308E+08        -0.77719E+05         0.00000E+00
   -0.77719E+05        -0.49867E+08         0.00000E+00
    0.00000E+00         0.00000E+00        -0.63560E+08
 
   -0.62178E+08        -0.10125E+06         0.00000E+00
   -0.10125E+06        -0.49824E+08         0.00000E+00
    0.00000E+00         0.00000E+00        -0.63559E+08
 
   -0.62060E+08        -0.12420E+06         0.00000E+00
   -0.12420E+06        -0.49776E+08         0.00000E+00
    0.00000E+00         0.00000E+00        -0.63558E+08
 
   -0.61954E+08        -0.14621E+06         0.00000E+00
   -0.14621E+06        -0.49726E+08         0.00000E+00
    0.00000E+00         0.00000E+00        -0.63557E+08
 
   -0.61860E+08        -0.16750E+06         0.00000E+00
   -0.16750E+06        -0.49671E+08         0.00000E+00
    0.00000E+00         0.00000E+00        -0.63556E+08
 
   -0.61777E+08        -0.18694E+06         0.00000E+00
   -0.18694E+06        -0.49611E+08         0.00000E+00
    0.00000E+00         0.00000E+00        -0.63555E+08
 
   -0.61704E+08        -0.20319E+06         0.00000E+00
   -0.20319E+06        -0.49546E+08         0.00000E+00
    0.00000E+00         0.00000E+00        -0.63553E+08
 
   -0.61639E+08        -0.21638E+06         0.00000E+00
   -0.21638E+06        -0.49480E+08         0.00000E+00
    0.00000E+00         0.00000E+00        -0.63552E+08
 
   -0.61584E+08        -0.22817E+06         0.00000E+00
   -0.22817E+06        -0.49411E+08         0.00000E+00
    0.00000E+00         0.00000E+00        -0.63551E+08
 
   -0.61537E+08        -0.23853E+06         0.00000E+00
   -0.23853E+06        -0.49341E+08         0.00000E+00
    0.00000E+00         0.00000E+00        -0.63549E+08
 
   -0.61500E+08        -0.24630E+06         0.00000E+00
   -0.24630E+06        -0.49269E+08         0.00000E+00
    0.00000E+00         0.00000E+00        -0.63548E+08
 
   -0.61471E+08        -0.25101E+06         0.00000E+00
   -0.25101E+06        -0.49197E+08         0.00000E+00
    0.00000E+00         0.00000E+00        -0.63546E+08
 
   -0.61450E+08        -0.25245E+06         0.00000E+00
   -0.25245E+06        -0.49126E+08         0.00000E+00
    0.00000E+00         0.00000E+00        -0.63545E+08
 
   -0.61436E+08        -0.25086E+06         0.00000E+00
   -0.25086E+06        -0.49037E+08         0.00000E+00
    0.00000E+00         0.00000E+00        -0.63543E+08
 
   -0.61429E+08        -0.24459E+06         0.00000E+00
   -0.24459E+06        -0.48950E+08         0.00000E+00
    0.00000E+00         0.00000E+00        -0.63541E+08
 
   -0.61430E+08        -0.23415E+06         0.00000E+00
   -0.23415E+06        -0.48868E+08         0.00000E+00
    0.00000E+00         0.00000E+00        -0.63539E+08
 
   -0.61438E+08        -0.22010E+06         0.00000E+00
   -0.22010E+06        -0.48793E+08         0.00000E+00
    0.00000E+00         0.00000E+00        -0.63534E+08
 
   -0.61442E+08        -0.19848E+06         0.00000E+00
   -0.19848E+06        -0.48728E+08         0.00000E+00
    0.00000E+00         0.00000E+00        -0.63502E+08
 
   -0.61456E+08        -0.16628E+06         0.00000E+00
   -0.16628E+06        -0.48667E+08         0.00000E+00
    0.00000E+00         0.00000E+00        -0.63474E+08
 
   -0.61479E+08        -0.12538E+06         0.00000E+00
   -0.12538E+06        -0.48612E+08         0.00000E+00
    0.00000E+00         0.00000E+00        -0.63448E+08
 
   -0.61510E+08        -0.76227E+05         0.00000E+00
   -0.76227E+05        -0.48561E+08         0.00000E+00
    0.00000E+00         0.00000E+00        -0.63423E+08
 
   -0.61538E+08        -0.19818E+05         0.00000E+00
   -0.19818E+05        -0.48532E+08         0.00000E+00
    0.00000E+00         0.00000E+00        -0.63371E+08
 
   -0.61570E+08         0.43192E+05         0.00000E+00
    0.43192E+05        -0.48514E+08         0.00000E+00
    0.00000E+00         0.00000E+00        -0.63309E+08
 
   -0.61610E+08         0.11341E+06         0.00000E+00
    0.11341E+06        -0.48499E+08         0.00000E+00
    0.00000E+00         0.00000E+00        -0.63244E+08
 
   -0.61648E+08         0.18845E+06         0.00000E+00
    0.18845E+06        -0.48476E+08         0.00000E+00
    0.00000E+00         0.00000E+00        -0.63157E+08
 
   -0.61687E+08         0.26325E+06         0.00000E+00
    0.26325E+06        -0.48451E+08         0.00000E+00
    0.00000E+00         0.00000E+00        -0.63058E+08
 
   -0.61731E+08         0.33651E+06         0.00000E+00
    0.33651E+06        -0.48427E+08         0.00000E+00
    0.00000E+00         0.00000E+00        -0.62954E+08
 
   -0.61771E+08         0.40762E+06         0.00000E+00
    0.40762E+06        -0.48401E+08         0.00000E+00
    0.00000E+00         0.00000E+00        -0.62843E+08
 
   -0.61801E+08         0.47588E+06         0.00000E+00
    0.47588E+06        -0.48370E+08         0.00000E+00
    0.00000E+00         0.00000E+00        -0.62717E+08
 
   -0.61822E+08         0.53737E+06         0.00000E+00
    0.53737E+06        -0.48334E+08         0.00000E+00
    0.00000E+00         0.00000E+00        -0.62584E+08
 
   -0.61833E+08         0.59321E+06         0.00000E+00
    0.59321E+06        -0.48297E+08         0.00000E+00
    0.00000E+00         0.00000E+00        -0.62450E+08
 
   -0.61828E+08         0.64473E+06         0.00000E+00
    0.64473E+06        -0.48255E+08         0.00000E+00
    0.00000E+00         0.00000E+00        -0.62312E+08
 
   -0.61808E+08         0.69039E+06         0.00000E+00
    0.69039E+06        -0.48209E+08         0.00000E+00
    0.00000E+00         0.00000E+00        -0.62172E+08
 
   -0.61776E+08         0.72975E+06         0.00000E+00
    0.72975E+06        -0.48161E+08         0.00000E+00
    0.00000E+00         0.00000E+00        -0.62038E+08
 
   -0.61732E+08         0.76646E+06         0.00000E+00
    0.76646E+06        -0.48113E+08         0.00000E+00
    0.00000E+00         0.00000E+00        -0.61911E+08
 
   -0.61679E+08         0.80049E+06         0.00000E+00
    0.80049E+06        -0.48064E+08         0.00000E+00
    0.00000E+00         0.00000E+00        -0.61792E+08
 
   -0.61620E+08         0.83348E+06         0.00000E+00
    0.83348E+06        -0.48017E+08         0.00000E+00
    0.00000E+00         0.00000E+00        -0.61684E+08
 
   -0.61555E+08         0.86792E+06         0.00000E+00
    0.86792E+06        -0.47973E+08         0.00000E+00
    0.00000E+00         0.00000E+00        -0.61585E+08
 
   -0.61486E+08         0.90429E+06         0.00000E+00
    0.90429E+06        -0.47929E+08         0.00000E+00
    0.00000E+00         0.00000E+00        -0.61494E+08
 
   -0.61412E+08         0.94371E+06         0.00000E+00
    0.94371E+06        -0.47888E+08         0.00000E+00
    0.00000E+00         0.00000E+00        -0.61409E+08
 
   -0.61335E+08         0.98333E+06         0.00000E+00
    0.98333E+06        -0.47847E+08         0.00000E+00
    0.00000E+00         0.00000E+00        -0.61328E+08
 
   -0.61259E+08         0.10250E+07         0.00000E+00
    0.10250E+07        -0.47808E+08         0.00000E+00
    0.00000E+00         0.00000E+00        -0.61251E+08
 
   -0.61182E+08         0.10701E+07         0.00000E+00
    0.10701E+07        -0.47772E+08         0.00000E+00
    0.00000E+00         0.00000E+00        -0.61178E+08
 
   -0.63496E+08         0.16599E+05         0.00000E+00
    0.16599E+05        -0.50000E+08         0.00000E+00
    0.00000E+00         0.00000E+00        -0.63026E+08
 
   -0.63308E+08         0.37325E+05         0.00000E+00
    0.37325E+05        -0.49996E+08         0.00000E+00
    0.00000E+00         0.00000E+00        -0.63026E+08
 
   -0.63129E+08         0.54630E+05         0.00000E+00
    0.54630E+05        -0.49989E+08         0.00000E+00
    0.00000E+00         0.00000E+00        -0.63026E+08
 
   -0.62957E+08         0.68363E+05         0.00000E+00
    0.68363E+05        -0.49979E+08         0.00000E+00
    0.00000E+00         0.00000E+00        -0.63025E+08
 
   -0.62794E+08         0.78702E+05         0.00000E+00
    0.78702E+05        -0.49964E+08         0.00000E+00
    0.00000E+00         0.00000E+00        -0.63025E+08
 
   -0.62640E+08         0.86001E+05         0.00000E+00
    0.86001E+05        -0.49945E+08         0.00000E+00
    0.00000E+00         0.00000E+00        -0.63024E+08
 
   -0.62495E+08         0.90708E+05         0.00000E+00
    0.90708E+05        -0.49922E+08         0.00000E+00
    0.00000E+00         0.00000E+00        -0.63023E+08
 
   -0.62359E+08         0.93304E+05         0.00000E+00
    0.93304E+05        -0.49894E+08         0.00000E+00
    0.00000E+00         0.00000E+00        -0.63023E+08
 
   -0.62232E+08         0.94256E+05         0.00000E+00
    0.94256E+05        -0.49862E+08         0.00000E+00
    0.00000E+00         0.00000E+00        -0.63022E+08
 
   -0.62116E+08         0.93984E+05         0.00000E+00
    0.93984E+05        -0.49825E+08         0.00000E+00
    0.00000E+00         0.00000E+00        -0.63021E+08
 
   -0.62008E+08         0.93143E+05         0.00000E+00
    0.93143E+05        -0.49784E+08         0.00000E+00
    0.00000E+00         0.00000E+00        -0.63020E+08
 
   -0.61910E+08         0.92469E+05         0.00000E+00
    0.92469E+05        -0.49739E+08         0.00000E+00
    0.00000E+00         0.00000E+00        -0.63019E+08
 
   -0.61820E+08         0.92135E+05         0.00000E+00
    0.92135E+05        -0.49690E+08         0.00000E+00
    0.00000E+00         0.00000E+00        -0.63017E+08
 
   -0.61740E+08         0.92131E+05         0.00000E+00
    0.92131E+05        -0.49638E+08         0.00000E+00
    0.00000E+00         0.00000E+00        -0.63016E+08
 
   -0.61667E+08         0.92737E+05         0.00000E+00
    0.92737E+05        -0.49583E+08         0.00000E+00
    0.00000E+00         0.00000E+00        -0.63015E+08
 
   -0.61603E+08         0.94605E+05         0.00000E+00
    0.94605E+05        -0.49525E+08         0.00000E+00
    0.00000E+00         0.00000E+00        -0.63013E+08
 
   -0.61547E+08         0.98007E+05         0.00000E+00
    0.98007E+05        -0.49463E+08         0.00000E+00
    0.00000E+00         0.00000E+00        -0.63012E+08
 
   -0.61499E+08         0.10308E+06         0.00000E+00
    0.10308E+06        -0.49398E+08         0.00000E+00
    0.00000E+00         0.00000E+00        -0.63011E+08
 
   -0.61457E+08         0.11022E+06         0.00000E+00
    0.11022E+06        -0.49330E+08         0.00000E+00
    0.00000E+00         0.00000E+00        -0.63009E+08
 
   -0.61422E+08         0.11991E+06         0.00000E+00
    0.11991E+06        -0.49259E+08         0.00000E+00
    0.00000E+00         0.00000E+00        -0.63007E+08
 
   -0.61392E+08         0.13189E+06         0.00000E+00
    0.13189E+06        -0.49191E+08         0.00000E+00
    0.00000E+00         0.00000E+00        -0.63006E+08
 
   -0.61368E+08         0.14554E+06         0.00000E+00
    0.14554E+06        -0.49119E+08         0.00000E+00
    0.00000E+00         0.00000E+00        -0.63004E+08
 
   -0.61350E+08         0.16182E+06         0.00000E+00
    0.16182E+06        -0.49044E+08         0.00000E+00
    0.00000E+00         0.00000E+00        -0.63002E+08
 
   -0.61334E+08         0.18168E+06         0.00000E+00
    0.18168E+06        -0.48966E+08         0.00000E+00
    0.00000E+00         0.00000E+00        -0.63001E+08
 
   -0.61321E+08         0.20270E+06         0.00000E+00
    0.20270E+06        -0.48891E+08         0.00000E+00
    0.00000E+00         0.00000E+00        -0.62999E+08
 
   -0.61312E+08         0.22286E+06         0.00000E+00
    0.22286E+06        -0.48815E+08         0.00000E+00
    0.00000E+00         0.00000E+00        -0.62997E+08
 
   -0.61308E+08         0.24369E+06         0.00000E+00
    0.24369E+06        -0.48738E+08         0.00000E+00
    0.00000E+00         0.00000E+00        -0.62995E+08
 
   -0.61309E+08         0.26576E+06         0.00000E+00
    0.26576E+06        -0.48663E+08         0.00000E+00
    0.00000E+00         0.00000E+00        -0.62993E+08
 
   -0.61315E+08         0.28993E+06         0.00000E+00
    0.28993E+06        -0.48571E+08         0.00000E+00
    0.00000E+00         0.00000E+00        -0.62991E+08
 
   -0.61327E+08         0.31695E+06         0.00000E+00
    0.31695E+06        -0.48475E+08         0.00000E+00
    0.00000E+00         0.00000E+00        -0.62989E+08
 
   -0.61347E+08         0.34622E+06         0.00000E+00
    0.34622E+06        -0.48385E+08         0.00000E+00
    0.00000E+00         0.00000E+00        -0.62986E+08
 
   -0.61362E+08         0.38048E+06         0.00000E+00
    0.38048E+06        -0.48306E+08         0.00000E+00
    0.00000E+00         0.00000E+00        -0.62959E+08
 
   -0.61380E+08         0.42523E+06         0.00000E+00
    0.42523E+06        -0.48234E+08         0.00000E+00
    0.00000E+00         0.00000E+00        -0.62919E+08
 
   -0.61409E+08         0.48103E+06         0.00000E+00
    0.48103E+06        -0.48169E+08         0.00000E+00
    0.00000E+00         0.00000E+00        -0.62882E+08
 
   -0.61444E+08         0.54622E+06         0.00000E+00
    0.54622E+06        -0.48119E+08         0.00000E+00
    0.00000E+00         0.00000E+00        -0.62831E+08
 
   -0.61468E+08         0.61740E+06         0.00000E+00
    0.61740E+06        -0.48100E+08         0.00000E+00
    0.00000E+00         0.00000E+00        -0.62743E+08
 
   -0.61502E+08         0.69568E+06         0.00000E+00
    0.69568E+06        -0.48084E+08         0.00000E+00
    0.00000E+00         0.00000E+00        -0.62650E+08
 
   -0.61525E+08         0.77683E+06         0.00000E+00
    0.77683E+06        -0.48056E+08         0.00000E+00
    0.00000E+00         0.00000E+00        -0.62525E+08
 
   -0.61546E+08         0.85222E+06         0.00000E+00
    0.85222E+06        -0.48024E+08         0.00000E+00
    0.00000E+00         0.00000E+00        -0.62386E+08
 
   -0.61564E+08         0.91832E+06         0.00000E+00
    0.91832E+06        -0.47990E+08         0.00000E+00
    0.00000E+00         0.00000E+00        -0.62242E+08
 
   -0.61562E+08         0.97540E+06         0.00000E+00
    0.97540E+06        -0.47946E+08         0.00000E+00
    0.00000E+00         0.00000E+00        -0.62084E+08
 
   -0.61543E+08         0.10192E+07         0.00000E+00
    0.10192E+07        -0.47895E+08         0.00000E+00
    0.00000E+00         0.00000E+00        -0.61924E+08
 
   -0.61510E+08         0.10542E+07         0.00000E+00
    0.10542E+07        -0.47844E+08         0.00000E+00
    0.00000E+00         0.00000E+00        -0.61775E+08
 
   -0.61455E+08         0.10853E+07         0.00000E+00
    0.10853E+07        -0.47787E+08         0.00000E+00
    0.00000E+00         0.00000E+00        -0.61628E+08
 
   -0.61388E+08         0.11120E+07         0.00000E+00
    0.11120E+07        -0.47729E+08         0.00000E+00
    0.00000E+00         0.00000E+00        -0.61491E+08
 
   -0.61313E+08         0.11394E+07         0.00000E+00
    0.11394E+07        -0.47674E+08         0.00000E+00
    0.00000E+00         0.00000E+00        -0.61368E+08
 
   -0.61232E+08         0.11675E+07         0.00000E+00
    0.11675E+07        -0.47621E+08         0.00000E+00
    0.00000E+00         0.00000E+00        -0.61257E+08
 
   -0.61152E+08         0.11977E+07         0.00000E+00
    0.11977E+07        -0.47573E+08         0.00000E+00
    0.00000E+00         0.00000E+00        -0.61158E+08
 
   -0.61068E+08         0.12318E+07         0.00000E+00
    0.12318E+07        -0.47527E+08         0.00000E+00
    0.00000E+00         0.00000E+00        -0.61067E+08
 
   -0.60981E+08         0.12663E+07         0.00000E+00
    0.12663E+07        -0.47483E+08         0.00000E+00
    0.00000E+00         0.00000E+00        -0.60980E+08
 
   -0.63338E+08         0.23308E+05         0.00000E+00
    0.23308E+05        -0.49999E+08         0.00000E+00
    0.00000E+00         0.00000E+00        -0.62499E+08
 
   -0.63168E+08         0.61429E+05         0.00000E+00
    0.61429E+05        -0.49996E+08         0.00000E+00
    0.00000E+00         0.00000E+00        -0.62499E+08
 
   -0.63006E+08         0.96280E+05         0.00000E+00
    0.96280E+05        -0.49990E+08         0.00000E+00
    0.00000E+00         0.00000E+00        -0.62499E+08
 
   -0.62850E+08         0.12817E+06         0.00000E+00
    0.12817E+06        -0.49980E+08         0.00000E+00
    0.00000E+00         0.00000E+00        -0.62498E+08
 
   -0.62701E+08         0.15734E+06         0.00000E+00
    0.15734E+06        -0.49967E+08         0.00000E+00
    0.00000E+00         0.00000E+00        -0.62498E+08
 
   -0.62560E+08         0.18400E+06         0.00000E+00
    0.18400E+06        -0.49951E+08         0.00000E+00
    0.00000E+00         0.00000E+00        -0.62497E+08
 
   -0.62426E+08         0.20840E+06         0.00000E+00
    0.20840E+06        -0.49931E+08         0.00000E+00
    0.00000E+00         0.00000E+00        -0.62497E+08
 
   -0.62299E+08         0.23083E+06         0.00000E+00
    0.23083E+06        -0.49907E+08         0.00000E+00
    0.00000E+00         0.00000E+00        -0.62496E+08
 
   -0.62180E+08         0.25158E+06         0.00000E+00
    0.25158E+06        -0.49880E+08         0.00000E+00
    0.00000E+00         0.00000E+00        -0.62495E+08
 
   -0.62068E+08         0.27099E+06         0.00000E+00
    0.27099E+06        -0.49849E+08         0.00000E+00
    0.00000E+00         0.00000E+00        -0.62494E+08
 
   -0.61964E+08         0.28934E+06         0.00000E+00
    0.28934E+06        -0.49815E+08         0.00000E+00
    0.00000E+00         0.00000E+00        -0.62493E+08
 
   -0.61867E+08         0.30682E+06         0.00000E+00
    0.30682E+06        -0.49778E+08         0.00000E+00
    0.00000E+00         0.00000E+00        -0.62492E+08
 
   -0.61777E+08         0.32381E+06         0.00000E+00
    0.32381E+06        -0.49737E+08         0.00000E+00
    0.00000E+00         0.00000E+00        -0.62491E+08
 
   -0.61695E+08         0.34066E+06         0.00000E+00
    0.34066E+06        -0.49692E+08         0.00000E+00
    0.00000E+00         0.00000E+00        -0.62490E+08
 
   -0.61620E+08         0.35768E+06         0.00000E+00
    0.35768E+06        -0.49645E+08         0.00000E+00
    0.00000E+00         0.00000E+00        -0.62489E+08
 
   -0.61552E+08         0.37504E+06         0.00000E+00
    0.37504E+06        -0.49594E+08         0.00000E+00
    0.00000E+00         0.00000E+00        -0.62487E+08
 
   -0.61490E+08         0.39300E+06         0.00000E+00
    0.39300E+06        -0.49541E+08         0.00000E+00
    0.00000E+00         0.00000E+00        -0.62486E+08
 
   -0.61434E+08         0.41178E+06         0.00000E+00
    0.41178E+06        -0.49484E+08         0.00000E+00
    0.00000E+00         0.00000E+00        -0.62485E+08
 
   -0.61385E+08         0.43148E+06         0.00000E+00
    0.43148E+06        -0.49426E+08         0.00000E+00
    0.00000E+00         0.00000E+00        -0.62483E+08
 
   -0.61341E+08         0.45214E+06         0.00000E+00
    0.45214E+06        -0.49365E+08         0.00000E+00
    0.00000E+00         0.00000E+00        -0.62482E+08
 
   -0.61303E+08         0.47405E+06         0.00000E+00
    0.47405E+06        -0.49301E+08         0.00000E+00
    0.00000E+00         0.00000E+00        -0.62480E+08
 
   -0.61270E+08         0.49758E+06         0.00000E+00
    0.49758E+06        -0.49234E+08         0.00000E+00
    0.00000E+00         0.00000E+00        -0.62478E+08
 
   -0.61242E+08         0.52243E+06         0.00000E+00
    0.52243E+06        -0.49167E+08         0.00000E+00
    0.00000E+00         0.00000E+00        -0.62477E+08
 
   -0.61219E+08         0.54817E+06         0.00000E+00
    0.54817E+06        -0.49098E+08         0.00000E+00
    0.00000E+00         0.00000E+00        -0.62475E+08
 
   -0.61200E+08         0.57527E+06         0.00000E+00
    0.57527E+06        -0.49026E+08         0.00000E+00
    0.00000E+00         0.00000E+00        -0.62473E+08
 
   -0.61185E+08         0.60420E+06         0.00000E+00
    0.60420E+06        -0.48953E+08         0.00000E+00
    0.00000E+00         0.00000E+00        -0.62472E+08
 
   -0.61174E+08         0.63474E+06         0.00000E+00
    0.63474E+06        -0.48877E+08         0.00000E+00
    0.00000E+00         0.00000E+00        -0.62470E+08
 
   -0.61167E+08         0.66722E+06         0.00000E+00
    0.66722E+06        -0.48799E+08         0.00000E+00
    0.00000E+00         0.00000E+00        -0.62468E+08
 
   -0.61162E+08         0.70122E+06         0.00000E+00
    0.70122E+06        -0.48723E+08         0.00000E+00
    0.00000E+00         0.00000E+00        -0.62466E+08
 
   -0.61160E+08         0.73624E+06         0.00000E+00
    0.73624E+06        -0.48646E+08         0.00000E+00
    0.00000E+00         0.00000E+00        -0.62464E+08
 
   -0.61159E+08         0.77343E+06         0.00000E+00
    0.77343E+06        -0.48566E+08         0.00000E+00
    0.00000E+00         0.00000E+00        -0.62462E+08
 
   -0.61158E+08         0.81109E+06         0.00000E+00
    0.81109E+06        -0.48488E+08         0.00000E+00
    0.00000E+00         0.00000E+00        -0.62460E+08
 
   -0.61158E+08         0.84565E+06         0.00000E+00
    0.84565E+06        -0.48410E+08         0.00000E+00
    0.00000E+00         0.00000E+00        -0.62458E+08
 
   -0.61163E+08         0.87717E+06         0.00000E+00
    0.87717E+06        -0.48333E+08         0.00000E+00
    0.00000E+00         0.00000E+00        -0.62456E+08
 
   -0.61172E+08         0.90772E+06         0.00000E+00
    0.90772E+06        -0.48246E+08         0.00000E+00
    0.00000E+00         0.00000E+00        -0.62453E+08
 
   -0.61189E+08         0.93982E+06         0.00000E+00
    0.93982E+06        -0.48134E+08         0.00000E+00
    0.00000E+00         0.00000E+00        -0.62451E+08
 
   -0.61217E+08         0.97191E+06         0.00000E+00
    0.97191E+06        -0.48027E+08         0.00000E+00
    0.00000E+00         0.00000E+00        -0.62449E+08
 
   -0.61235E+08         0.10084E+07         0.00000E+00
    0.10084E+07        -0.47932E+08         0.00000E+00
    0.00000E+00         0.00000E+00        -0.62408E+08
 
   -0.61257E+08         0.10576E+07         0.00000E+00
    0.10576E+07        -0.47846E+08         0.00000E+00
    0.00000E+00         0.00000E+00        -0.62355E+08
 
   -0.61292E+08         0.11195E+07         0.00000E+00
    0.11195E+07        -0.47770E+08         0.00000E+00
    0.00000E+00         0.00000E+00        -0.62298E+08
 
   -0.61300E+08         0.11852E+07         0.00000E+00
    0.11852E+07        -0.47745E+08         0.00000E+00
    0.00000E+00         0.00000E+00        -0.62180E+08
 
   -0.61316E+08         0.12570E+07         0.00000E+00
    0.12570E+07        -0.47723E+08         0.00000E+00
    0.00000E+00         0.00000E+00        -0.62058E+08
 
   -0.61301E+08         0.13276E+07         0.00000E+00
    0.13276E+07        -0.47678E+08         0.00000E+00
    0.00000E+00         0.00000E+00        -0.61886E+08
 
   -0.61285E+08         0.13810E+07         0.00000E+00
    0.13810E+07        -0.47629E+08         0.00000E+00
    0.00000E+00         0.00000E+00        -0.61712E+08
 
   -0.61245E+08         0.14186E+07         0.00000E+00
    0.14186E+07        -0.47569E+08         0.00000E+00
    0.00000E+00         0.00000E+00        -0.61531E+08
 
   -0.61184E+08         0.14396E+07         0.00000E+00
    0.14396E+07        -0.47499E+08         0.00000E+00
    0.00000E+00         0.00000E+00        -0.61354E+08
 
   -0.61109E+08         0.14512E+07         0.00000E+00
    0.14512E+07        -0.47431E+08         0.00000E+00
    0.00000E+00         0.00000E+00        -0.61200E+08
 
   -0.61013E+08         0.14668E+07         0.00000E+00
    0.14668E+07        -0.47362E+08         0.00000E+00
    0.00000E+00         0.00000E+00        -0.61056E+08
 
   -0.60914E+08         0.14856E+07         0.00000E+00
    0.14856E+07        -0.47299E+08         0.00000E+00
    0.00000E+00         0.00000E+00        -0.60931E+08
 
   -0.60814E+08         0.15112E+07         0.00000E+00
    0.15112E+07        -0.47242E+08         0.00000E+00
    0.00000E+00         0.00000E+00        -0.60818E+08
 
   -0.63102E+08         0.30692E+05         0.00000E+00
    0.30692E+05        -0.49999E+08         0.00000E+00
    0.00000E+00         0.00000E+00        -0.61983E+08
 
   -0.62948E+08         0.83718E+05         0.00000E+00
    0.83718E+05        -0.49996E+08         0.00000E+00
    0.00000E+00         0.00000E+00        -0.61983E+08
 
   -0.62799E+08         0.13395E+06         0.00000E+00
    0.13395E+06        -0.49991E+08         0.00000E+00
    0.00000E+00         0.00000E+00        -0.61983E+08
 
   -0.62657E+08         0.18151E+06         0.00000E+00
    0.18151E+06        -0.49982E+08         0.00000E+00
    0.00000E+00         0.00000E+00        -0.61982E+08
 
   -0.62521E+08         0.22654E+06         0.00000E+00
    0.22654E+06        -0.49971E+08         0.00000E+00
    0.00000E+00         0.00000E+00        -0.61982E+08
 
   -0.62391E+08         0.26925E+06         0.00000E+00
    0.26925E+06        -0.49956E+08         0.00000E+00
    0.00000E+00         0.00000E+00        -0.61982E+08
 
   -0.62267E+08         0.30985E+06         0.00000E+00
    0.30985E+06        -0.49939E+08         0.00000E+00
    0.00000E+00         0.00000E+00        -0.61981E+08
 
   -0.62149E+08         0.34855E+06         0.00000E+00
    0.34855E+06        -0.49919E+08         0.00000E+00
    0.00000E+00         0.00000E+00        -0.61980E+08
 
   -0.62038E+08         0.38556E+06         0.00000E+00
    0.38556E+06        -0.49895E+08         0.00000E+00
    0.00000E+00         0.00000E+00        -0.61980E+08
 
   -0.61932E+08         0.42110E+06         0.00000E+00
    0.42110E+06        -0.49869E+08         0.00000E+00
    0.00000E+00         0.00000E+00        -0.61979E+08
 
   -0.61833E+08         0.45541E+06         0.00000E+00
    0.45541E+06        -0.49840E+08         0.00000E+00
    0.00000E+00         0.00000E+00        -0.61978E+08
 
   -0.61740E+08         0.48874E+06         0.00000E+00
    0.48874E+06        -0.49808E+08         0.00000E+00
    0.00000E+00         0.00000E+00        -0.61977E+08
 
   -0.61653E+08         0.52130E+06         0.00000E+00
    0.52130E+06        -0.49773E+08         0.00000E+00
    0.00000E+00         0.00000E+00        -0.61976E+08
 
   -0.61572E+08         0.55330E+06         0.00000E+00
    0.55330E+06        -0.49735E+08         0.00000E+00
    0.00000E+00         0.00000E+00        -0.61975E+08
 
   -0.61497E+08         0.58495E+06         0.00000E+00
    0.58495E+06        -0.49695E+08         0.00000E+00
    0.00000E+00         0.00000E+00        -0.61974E+08
 
   -0.61428E+08         0.61647E+06         0.00000E+00
    0.61647E+06        -0.49651E+08         0.00000E+00
    0.00000E+00         0.00000E+00        -0.61972E+08
 
   -0.61364E+08         0.64803E+06         0.00000E+00
    0.64803E+06        -0.49605E+08         0.00000E+00
    0.00000E+00         0.00000E+00        -0.61971E+08
 
   -0.61306E+08         0.67981E+06         0.00000E+00
    0.67981E+06        -0.49557E+08         0.00000E+00
    0.00000E+00         0.00000E+00        -0.61970E+08
 
   -0.61253E+08         0.71197E+06         0.00000E+00
    0.71197E+06        -0.49506E+08         0.00000E+00
    0.00000E+00         0.00000E+00        -0.61968E+08
 
   -0.61205E+08         0.74472E+06         0.00000E+00
    0.74472E+06        -0.49453E+08         0.00000E+00
    0.00000E+00         0.00000E+00        -0.61967E+08
 
   -0.61162E+08         0.77810E+06         0.00000E+00
    0.77810E+06        -0.49397E+08         0.00000E+00
    0.00000E+00         0.00000E+00        -0.61966E+08
 
   -0.61124E+08         0.81214E+06         0.00000E+00
    0.81214E+06        -0.49340E+08         0.00000E+00
    0.00000E+00         0.00000E+00        -0.61964E+08
 
   -0.61090E+08         0.84702E+06         0.00000E+00
    0.84702E+06        -0.49280E+08         0.00000E+00
    0.00000E+00         0.00000E+00        -0.61962E+08
 
   -0.61061E+08         0.88295E+06         0.00000E+00
    0.88295E+06        -0.49218E+08         0.00000E+00
    0.00000E+00         0.00000E+00        -0.61961E+08
 
   -0.61036E+08         0.91991E+06         0.00000E+00
    0.91991E+06        -0.49154E+08         0.00000E+00
    0.00000E+00         0.00000E+00        -0.61959E+08
 
   -0.61015E+08         0.95785E+06         0.00000E+00
    0.95785E+06        -0.49088E+08         0.00000E+00
    0.00000E+00         0.00000E+00        -0.61958E+08
 
   -0.60997E+08         0.99683E+06         0.00000E+00
    0.99683E+06        -0.49020E+08         0.00000E+00
    0.00000E+00         0.00000E+00        -0.61956E+08
 
   -0.60983E+08         0.10367E+07         0.00000E+00
    0.10367E+07        -0.48951E+08         0.00000E+00
    0.00000E+00         0.00000E+00        -0.61954E+08
 
   -0.60973E+08         0.10775E+07         0.00000E+00
    0.10775E+07        -0.48880E+08         0.00000E+00
    0.00000E+00         0.00000E+00        -0.61952E+08
 
   -0.60965E+08         0.11195E+07         0.00000E+00
    0.11195E+07        -0.48806E+08         0.00000E+00
    0.00000E+00         0.00000E+00        -0.61951E+08
 
   -0.60961E+08         0.11619E+07         0.00000E+00
    0.11619E+07        -0.48732E+08         0.00000E+00
    0.00000E+00         0.00000E+00        -0.61949E+08
 
   -0.60960E+08         0.12050E+07         0.00000E+00
    0.12050E+07        -0.48656E+08         0.00000E+00
    0.00000E+00         0.00000E+00        -0.61947E+08
 
   -0.60962E+08         0.12493E+07         0.00000E+00
    0.12493E+07        -0.48577E+08         0.00000E+00
    0.00000E+00         0.00000E+00        -0.61945E+08
 
   -0.60966E+08         0.12950E+07         0.00000E+00
    0.12950E+07        -0.48496E+08         0.00000E+00
    0.00000E+00         0.00000E+00        -0.61943E+08
 
   -0.60972E+08         0.13418E+07         0.00000E+00
    0.13418E+07        -0.48414E+08         0.00000E+00
    0.00000E+00         0.00000E+00        -0.61941E+08
 
   -0.60979E+08         0.13888E+07         0.00000E+00
    0.13888E+07        -0.48335E+08         0.00000E+00
    0.00000E+00         0.00000E+00        -0.61939E+08
 
   -0.60986E+08         0.14368E+07         0.00000E+00
    0.14368E+07        -0.48252E+08         0.00000E+00
    0.00000E+00         0.00000E+00        -0.61937E+08
 
   -0.60992E+08         0.14824E+07         0.00000E+00
    0.14824E+07        -0.48173E+08         0.00000E+00
    0.00000E+00         0.00000E+00        -0.61935E+08
 
   -0.61000E+08         0.15202E+07         0.00000E+00
    0.15202E+07        -0.48094E+08         0.00000E+00
    0.00000E+00         0.00000E+00        -0.61933E+08
 
   -0.61014E+08         0.15512E+07         0.00000E+00
    0.15512E+07        -0.48010E+08         0.00000E+00
    0.00000E+00         0.00000E+00        -0.61931E+08
 
   -0.61038E+08         0.15831E+07         0.00000E+00
    0.15831E+07        -0.47876E+08         0.00000E+00
    0.00000E+00         0.00000E+00        -0.61929E+08
 
   -0.61082E+08         0.16108E+07         0.00000E+00
    0.16108E+07        -0.47746E+08         0.00000E+00
    0.00000E+00         0.00000E+00        -0.61927E+08
 
   -0.61095E+08         0.16422E+07         0.00000E+00
    0.16422E+07        -0.47629E+08         0.00000E+00
    0.00000E+00         0.00000E+00        -0.61859E+08
 
   -0.61121E+08         0.16899E+07         0.00000E+00
    0.16899E+07        -0.47520E+08         0.00000E+00
    0.00000E+00         0.00000E+00        -0.61791E+08
 
   -0.61112E+08         0.17389E+07         0.00000E+00
    0.17389E+07        -0.47467E+08         0.00000E+00
    0.00000E+00         0.00000E+00        -0.61660E+08
 
   -0.61092E+08         0.17891E+07         0.00000E+00
    0.17891E+07        -0.47430E+08         0.00000E+00
    0.00000E+00         0.00000E+00        -0.61512E+08
 
   -0.61020E+08         0.18348E+07         0.00000E+00
    0.18348E+07        -0.47358E+08         0.00000E+00
    0.00000E+00         0.00000E+00        -0.61303E+08
 
   -0.60944E+08         0.18511E+07         0.00000E+00
    0.18511E+07        -0.47277E+08         0.00000E+00
    0.00000E+00         0.00000E+00        -0.61102E+08
 
   -0.60836E+08         0.18497E+07         0.00000E+00
    0.18497E+07        -0.47182E+08         0.00000E+00
    0.00000E+00         0.00000E+00        -0.60902E+08
 
   -0.60717E+08         0.18382E+07         0.00000E+00
    0.18382E+07        -0.47089E+08         0.00000E+00
    0.00000E+00         0.00000E+00        -0.60731E+08
 
   -0.62795E+08         0.37366E+05         0.00000E+00
    0.37366E+05        -0.49999E+08         0.00000E+00
    0.00000E+00         0.00000E+00        -0.61478E+08
 
   -0.62656E+08         0.10371E+06         0.00000E+00
    0.10371E+06        -0.49997E+08         0.00000E+00
    0.00000E+00         0.00000E+00        -0.61478E+08
 
   -0.62521E+08         0.16723E+06         0.00000E+00
    0.16723E+06        -0.49992E+08         0.00000E+00
    0.00000E+00         0.00000E+00        -0.61478E+08
 
   -0.62391E+08         0.22811E+06         0.00000E+00
    0.22811E+06        -0.49985E+08         0.00000E+00
    0.00000E+00         0.00000E+00        -0.61477E+08
 
   -0.62267E+08         0.28653E+06         0.00000E+00
    0.28653E+06        -0.49975E+08         0.00000E+00
    0.00000E+00         0.00000E+00        -0.61477E+08
 
   -0.62148E+08         0.34269E+06         0.00000E+00
    0.34269E+06        -0.49963E+08         0.00000E+00
    0.00000E+00         0.00000E+00        -0.61476E+08
 
   -0.62034E+08         0.39676E+06         0.00000E+00
    0.39676E+06        -0.49948E+08         0.00000E+00
    0.00000E+00         0.00000E+00        -0.61476E+08
 
   -0.61925E+08         0.44894E+06         0.00000E+00
    0.44894E+06        -0.49931E+08         0.00000E+00
    0.00000E+00         0.00000E+00        -0.61475E+08
 
   -0.61822E+08         0.49941E+06         0.00000E+00
    0.49941E+06        -0.49911E+08         0.00000E+00
    0.00000E+00         0.00000E+00        -0.61475E+08
 
   -0.61723E+08         0.54839E+06         0.00000E+00
    0.54839E+06        -0.49889E+08         0.00000E+00
    0.00000E+00         0.00000E+00        -0.61474E+08
 
   -0.61630E+08         0.59605E+06         0.00000E+00
    0.59605E+06        -0.49865E+08         0.00000E+00
    0.00000E+00         0.00000E+00        -0.61473E+08
 
   -0.61542E+08         0.64258E+06         0.00000E+00
    0.64258E+06        -0.49838E+08         0.00000E+00
    0.00000E+00         0.00000E+00        -0.61472E+08
 
   -0.61459E+08         0.68817E+06         0.00000E+00
    0.68817E+06        -0.49809E+08         0.00000E+00
    0.00000E+00         0.00000E+00        -0.61471E+08
 
   -0.61380E+08         0.73301E+06         0.00000E+00
    0.73301E+06        -0.49777E+08         0.00000E+00
    0.00000E+00         0.00000E+00        -0.61470E+08
 
   -0.61307E+08         0.77728E+06         0.00000E+00
    0.77728E+06        -0.49743E+08         0.00000E+00
    0.00000E+00         0.00000E+00        -0.61469E+08
 
   -0.61239E+08         0.82114E+06         0.00000E+00
    0.82114E+06        -0.49707E+08         0.00000E+00
    0.00000E+00         0.00000E+00        -0.61468E+08
 
   -0.61175E+08         0.86476E+06         0.00000E+00
    0.86476E+06        -0.49669E+08         0.00000E+00
    0.00000E+00         0.00000E+00        -0.61467E+08
 
   -0.61116E+08         0.90830E+06         0.00000E+00
    0.90830E+06        -0.49628E+08         0.00000E+00
    0.00000E+00         0.00000E+00        -0.61466E+08
 
   -0.61062E+08         0.95191E+06         0.00000E+00
    0.95191E+06        -0.49586E+08         0.00000E+00
    0.00000E+00         0.00000E+00        -0.61465E+08
 
   -0.61012E+08         0.99569E+06         0.00000E+00
    0.99569E+06        -0.49541E+08         0.00000E+00
    0.00000E+00         0.00000E+00        -0.61463E+08
 
   -0.60966E+08         0.10398E+07         0.00000E+00
    0.10398E+07        -0.49494E+08         0.00000E+00
    0.00000E+00         0.00000E+00        -0.61462E+08
 
   -0.60925E+08         0.10844E+07         0.00000E+00
    0.10844E+07        -0.49445E+08         0.00000E+00
    0.00000E+00         0.00000E+00        -0.61461E+08
 
   -0.60888E+08         0.11295E+07         0.00000E+00
    0.11295E+07        -0.49394E+08         0.00000E+00
    0.00000E+00         0.00000E+00        -0.61459E+08
 
   -0.60854E+08         0.11752E+07         0.00000E+00
    0.11752E+07        -0.49341E+08         0.00000E+00
    0.00000E+00         0.00000E+00        -0.61458E+08
 
   -0.60825E+08         0.12217E+07         0.00000E+00
    0.12217E+07        -0.49287E+08         0.00000E+00
    0.00000E+00         0.00000E+00        -0.61456E+08
 
   -0.60800E+08         0.12689E+07         0.00000E+00
    0.12689E+07        -0.49230E+08         0.00000E+00
    0.00000E+00         0.00000E+00        -0.61455E+08
 
   -0.60778E+08         0.13169E+07         0.00000E+00
    0.13169E+07        -0.49172E+08         0.00000E+00
    0.00000E+00         0.00000E+00        -0.61453E+08
 
   -0.60759E+08         0.13658E+07         0.00000E+00
    0.13658E+07        -0.49112E+08         0.00000E+00
    0.00000E+00         0.00000E+00        -0.61452E+08
 
   -0.60744E+08         0.14156E+07         0.00000E+00
    0.14156E+07        -0.49050E+08         0.00000E+00
    0.00000E+00         0.00000E+00        -0.61450E+08
 
   -0.60732E+08         0.14662E+07         0.00000E+00
    0.14662E+07        -0.48987E+08         0.00000E+00
    0.00000E+00         0.00000E+00        -0.61449E+08
 
   -0.60724E+08         0.15179E+07         0.00000E+00
    0.15179E+07        -0.48922E+08         0.00000E+00
    0.00000E+00         0.00000E+00        -0.61447E+08
 
   -0.60718E+08         0.15705E+07         0.00000E+00
    0.15705E+07        -0.48855E+08         0.00000E+00
    0.00000E+00         0.00000E+00        -0.61445E+08
 
   -0.60715E+08         0.16239E+07         0.00000E+00
    0.16239E+07        -0.48786E+08         0.00000E+00
    0.00000E+00         0.00000E+00        -0.61444E+08
 
   -0.60716E+08         0.16780E+07         0.00000E+00
    0.16780E+07        -0.48716E+08         0.00000E+00
    0.00000E+00         0.00000E+00        -0.61442E+08
 
   -0.60719E+08         0.17325E+07         0.00000E+00
    0.17325E+07        -0.48643E+08         0.00000E+00
    0.00000E+00         0.00000E+00        -0.61440E+08
 
   -0.60725E+08         0.17879E+07         0.00000E+00
    0.17879E+07        -0.48568E+08         0.00000E+00
    0.00000E+00         0.00000E+00        -0.61439E+08
 
   -0.60734E+08         0.18434E+07         0.00000E+00
    0.18434E+07        -0.48491E+08         0.00000E+00
    0.00000E+00         0.00000E+00        -0.61437E+08
 
   -0.60747E+08         0.18993E+07         0.00000E+00
    0.18993E+07        -0.48411E+08         0.00000E+00
    0.00000E+00         0.00000E+00        -0.61435E+08
 
   -0.60762E+08         0.19569E+07         0.00000E+00
    0.19569E+07        -0.48327E+08         0.00000E+00
    0.00000E+00         0.00000E+00        -0.61434E+08
 
   -0.60780E+08         0.20165E+07         0.00000E+00
    0.20165E+07        -0.48240E+08         0.00000E+00
    0.00000E+00         0.00000E+00        -0.61432E+08
 
   -0.60798E+08         0.20753E+07         0.00000E+00
    0.20753E+07        -0.48160E+08         0.00000E+00
    0.00000E+00         0.00000E+00        -0.61430E+08
 
   -0.60815E+08         0.21352E+07         0.00000E+00
    0.21352E+07        -0.48073E+08         0.00000E+00
    0.00000E+00         0.00000E+00        -0.61428E+08
 
   -0.60831E+08         0.21871E+07         0.00000E+00
    0.21871E+07        -0.47995E+08         0.00000E+00
    0.00000E+00         0.00000E+00        -0.61427E+08
 
   -0.60855E+08         0.22239E+07         0.00000E+00
    0.22239E+07        -0.47912E+08         0.00000E+00
    0.00000E+00         0.00000E+00        -0.61425E+08
 
   -0.60893E+08         0.22585E+07         0.00000E+00
    0.22585E+07        -0.47767E+08         0.00000E+00
    0.00000E+00         0.00000E+00        -0.61423E+08
 
   -0.60956E+08         0.22844E+07         0.00000E+00
    0.22844E+07        -0.47605E+08         0.00000E+00
    0.00000E+00         0.00000E+00        -0.61419E+08
 
   -0.60967E+08         0.23092E+07         0.00000E+00
    0.23092E+07        -0.47453E+08         0.00000E+00
    0.00000E+00         0.00000E+00        -0.61330E+08
 
   -0.60970E+08         0.23445E+07         0.00000E+00
    0.23445E+07        -0.47322E+08         0.00000E+00
    0.00000E+00         0.00000E+00        -0.61226E+08
 
   -0.60902E+08         0.23631E+07         0.00000E+00
    0.23631E+07        -0.47256E+08         0.00000E+00
    0.00000E+00         0.00000E+00        -0.61049E+08
 
   -0.60776E+08         0.23740E+07         0.00000E+00
    0.23740E+07        -0.47155E+08         0.00000E+00
    0.00000E+00         0.00000E+00        -0.60823E+08
 
   -0.62428E+08         0.42990E+05         0.00000E+00
    0.42990E+05        -0.49999E+08         0.00000E+00
    0.00000E+00         0.00000E+00        -0.60983E+08
 
   -0.62302E+08         0.12038E+06         0.00000E+00
    0.12038E+06        -0.49998E+08         0.00000E+00
    0.00000E+00         0.00000E+00        -0.60983E+08
 
   -0.62181E+08         0.19492E+06         0.00000E+00
    0.19492E+06        -0.49994E+08         0.00000E+00
    0.00000E+00         0.00000E+00        -0.60983E+08
 
   -0.62065E+08         0.26682E+06         0.00000E+00
    0.26682E+06        -0.49988E+08         0.00000E+00
    0.00000E+00         0.00000E+00        -0.60983E+08
 
   -0.61952E+08         0.33625E+06         0.00000E+00
    0.33625E+06        -0.49980E+08         0.00000E+00
    0.00000E+00         0.00000E+00        -0.60983E+08
 
   -0.61844E+08         0.40340E+06         0.00000E+00
    0.40340E+06        -0.49970E+08         0.00000E+00
    0.00000E+00         0.00000E+00        -0.60982E+08
 
   -0.61740E+08         0.46847E+06         0.00000E+00
    0.46847E+06        -0.49958E+08         0.00000E+00
    0.00000E+00         0.00000E+00        -0.60982E+08
 
   -0.61640E+08         0.53164E+06         0.00000E+00
    0.53164E+06        -0.49944E+08         0.00000E+00
    0.00000E+00         0.00000E+00        -0.60981E+08
 
   -0.61545E+08         0.59308E+06         0.00000E+00
    0.59308E+06        -0.49929E+08         0.00000E+00
    0.00000E+00         0.00000E+00        -0.60981E+08
 
   -0.61454E+08         0.65297E+06         0.00000E+00
    0.65297E+06        -0.49911E+08         0.00000E+00
    0.00000E+00         0.00000E+00        -0.60980E+08
 
   -0.61367E+08         0.71148E+06         0.00000E+00
    0.71148E+06        -0.49892E+08         0.00000E+00
    0.00000E+00         0.00000E+00        -0.60979E+08
 
   -0.61284E+08         0.76879E+06         0.00000E+00
    0.76879E+06        -0.49870E+08         0.00000E+00
    0.00000E+00         0.00000E+00        -0.60978E+08
 
   -0.61205E+08         0.82505E+06         0.00000E+00
    0.82505E+06        -0.49847E+08         0.00000E+00
    0.00000E+00         0.00000E+00        -0.60978E+08
 
   -0.61131E+08         0.88044E+06         0.00000E+00
    0.88044E+06        -0.49821E+08         0.00000E+00
    0.00000E+00         0.00000E+00        -0.60977E+08
 
   -0.61060E+08         0.93511E+06         0.00000E+00
    0.93511E+06        -0.49794E+08         0.00000E+00
    0.00000E+00         0.00000E+00        -0.60976E+08
 
   -0.60994E+08         0.98921E+06         0.00000E+00
    0.98921E+06        -0.49765E+08         0.00000E+00
    0.00000E+00         0.00000E+00        -0.60975E+08
 
   -0.60932E+08         0.10429E+07         0.00000E+00
    0.10429E+07        -0.49734E+08         0.00000E+00
    0.00000E+00         0.00000E+00        -0.60974E+08
 
   -0.60873E+08         0.10963E+07         0.00000E+00
    0.10963E+07        -0.49702E+08         0.00000E+00
    0.00000E+00         0.00000E+00        -0.60973E+08
 
   -0.60819E+08         0.11496E+07         0.00000E+00
    0.11496E+07        -0.49667E+08         0.00000E+00
    0.00000E+00         0.00000E+00        -0.60972E+08
 
   -0.60768E+08         0.12028E+07         0.00000E+00
    0.12028E+07        -0.49631E+08         0.00000E+00
    0.00000E+00         0.00000E+00        -0.60971E+08
 
   -0.60721E+08         0.12562E+07         0.00000E+00
    0.12562E+07        -0.49593E+08         0.00000E+00
    0.00000E+00         0.00000E+00        -0.60970E+08
 
   -0.60678E+08         0.13098E+07         0.00000E+00
    0.13098E+07        -0.49554E+08         0.00000E+00
    0.00000E+00         0.00000E+00        -0.60968E+08
 
   -0.60638E+08         0.13637E+07         0.00000E+00
    0.13637E+07        -0.49513E+08         0.00000E+00
    0.00000E+00         0.00000E+00        -0.60967E+08
 
   -0.60602E+08         0.14180E+07         0.00000E+00
    0.14180E+07        -0.49470E+08         0.00000E+00
    0.00000E+00         0.00000E+00        -0.60966E+08
 
   -0.60570E+08         0.14729E+07         0.00000E+00
    0.14729E+07        -0.49426E+08         0.00000E+00
    0.00000E+00         0.00000E+00        -0.60965E+08
 
   -0.60541E+08         0.15284E+07         0.00000E+00
    0.15284E+07        -0.49381E+08         0.00000E+00
    0.00000E+00         0.00000E+00        -0.60963E+08
 
   -0.60515E+08         0.15846E+07         0.00000E+00
    0.15846E+07        -0.49334E+08         0.00000E+00
    0.00000E+00         0.00000E+00        -0.60962E+08
 
   -0.60492E+08         0.16416E+07         0.00000E+00
    0.16416E+07        -0.49285E+08         0.00000E+00
    0.00000E+00         0.00000E+00        -0.60961E+08
 
   -0.60473E+08         0.16993E+07         0.00000E+00
    0.16993E+07        -0.49235E+08         0.00000E+00
    0.00000E+00         0.00000E+00        -0.60959E+08
 
   -0.60456E+08         0.17580E+07         0.00000E+00
    0.17580E+07        -0.49184E+08         0.00000E+00
    0.00000E+00         0.00000E+00        -0.60958E+08
 
   -0.60443E+08         0.18176E+07         0.00000E+00
    0.18176E+07        -0.49132E+08         0.00000E+00
    0.00000E+00         0.00000E+00        -0.60957E+08
 
   -0.60433E+08         0.18782E+07         0.00000E+00
    0.18782E+07        -0.49078E+08         0.00000E+00
    0.00000E+00         0.00000E+00        -0.60955E+08
 
   -0.60426E+08         0.19397E+07         0.00000E+00
    0.19397E+07        -0.49022E+08         0.00000E+00
    0.00000E+00         0.00000E+00        -0.60954E+08
 
   -0.60422E+08         0.20024E+07         0.00000E+00
    0.20024E+07        -0.48965E+08         0.00000E+00
    0.00000E+00         0.00000E+00        -0.60953E+08
 
   -0.60421E+08         0.20662E+07         0.00000E+00
    0.20662E+07        -0.48907E+08         0.00000E+00
    0.00000E+00         0.00000E+00        -0.60951E+08
 
   -0.60422E+08         0.21312E+07         0.00000E+00
    0.21312E+07        -0.48848E+08         0.00000E+00
    0.00000E+00         0.00000E+00        -0.60950E+08
 
   -0.60427E+08         0.21974E+07         0.00000E+00
    0.21974E+07        -0.48786E+08         0.00000E+00
    0.00000E+00         0.00000E+00        -0.60948E+08
 
   -0.60435E+08         0.22649E+07         0.00000E+00
    0.22649E+07        -0.48723E+08         0.00000E+00
    0.00000E+00         0.00000E+00        -0.60947E+08
 
   -0.60445E+08         0.23333E+07         0.00000E+00
    0.23333E+07        -0.48659E+08         0.00000E+00
    0.00000E+00         0.00000E+00        -0.60946E+08
 
   -0.60459E+08         0.24026E+07         0.00000E+00
    0.24026E+07        -0.48594E+08         0.00000E+00
    0.00000E+00         0.00000E+00        -0.60944E+08
 
   -0.60477E+08         0.24732E+07         0.00000E+00
    0.24732E+07        -0.48524E+08         0.00000E+00
    0.00000E+00         0.00000E+00        -0.60943E+08
 
   -0.60498E+08         0.25446E+07         0.00000E+00
    0.25446E+07        -0.48454E+08         0.00000E+00
    0.00000E+00         0.00000E+00        -0.60942E+08
 
   -0.60525E+08         0.26187E+07         0.00000E+00
    0.26187E+07        -0.48378E+08         0.00000E+00
    0.00000E+00         0.00000E+00        -0.60940E+08
 
   -0.60554E+08         0.26979E+07         0.00000E+00
    0.26979E+07        -0.48298E+08         0.00000E+00
    0.00000E+00         0.00000E+00        -0.60939E+08
 
   -0.60585E+08         0.27785E+07         0.00000E+00
    0.27785E+07        -0.48227E+08         0.00000E+00
    0.00000E+00         0.00000E+00        -0.60938E+08
 
   -0.60615E+08         0.28627E+07         0.00000E+00
    0.28627E+07        -0.48153E+08         0.00000E+00
    0.00000E+00         0.00000E+00        -0.60937E+08
 
   -0.60648E+08         0.29355E+07         0.00000E+00
    0.29355E+07        -0.48093E+08         0.00000E+00
    0.00000E+00         0.00000E+00        -0.60936E+08
 
   -0.60697E+08         0.29936E+07         0.00000E+00
    0.29936E+07        -0.48004E+08         0.00000E+00
    0.00000E+00         0.00000E+00        -0.60935E+08
 
   -0.60776E+08         0.30535E+07         0.00000E+00
    0.30535E+07        -0.47831E+08         0.00000E+00
    0.00000E+00         0.00000E+00        -0.60934E+08
 
   -0.60807E+08         0.31052E+07         0.00000E+00
    0.31052E+07        -0.47660E+08         0.00000E+00
    0.00000E+00         0.00000E+00        -0.60860E+08
 
   -0.62011E+08         0.47245E+05         0.00000E+00
    0.47245E+05        -0.50000E+08         0.00000E+00
    0.00000E+00         0.00000E+00        -0.60500E+08
 
   -0.61900E+08         0.13319E+06         0.00000E+00
    0.13319E+06        -0.49998E+08         0.00000E+00
    0.00000E+00         0.00000E+00        -0.60499E+08
 
   -0.61793E+08         0.21630E+06         0.00000E+00
    0.21630E+06        -0.49995E+08         0.00000E+00
    0.00000E+00         0.00000E+00        -0.60499E+08
 
   -0.61689E+08         0.29678E+06         0.00000E+00
    0.29678E+06        -0.49991E+08         0.00000E+00
    0.00000E+00         0.00000E+00        -0.60499E+08
 
   -0.61588E+08         0.37482E+06         0.00000E+00
    0.37482E+06        -0.49985E+08         0.00000E+00
    0.00000E+00         0.00000E+00        -0.60499E+08
 
   -0.61491E+08         0.45061E+06         0.00000E+00
    0.45061E+06        -0.49978E+08         0.00000E+00
    0.00000E+00         0.00000E+00        -0.60498E+08
 
   -0.61397E+08         0.52431E+06         0.00000E+00
    0.52431E+06        -0.49969E+08         0.00000E+00
    0.00000E+00         0.00000E+00        -0.60498E+08
 
   -0.61307E+08         0.59610E+06         0.00000E+00
    0.59610E+06        -0.49959E+08         0.00000E+00
    0.00000E+00         0.00000E+00        -0.60498E+08
 
   -0.61219E+08         0.66615E+06         0.00000E+00
    0.66615E+06        -0.49947E+08         0.00000E+00
    0.00000E+00         0.00000E+00        -0.60497E+08
 
   -0.61136E+08         0.73462E+06         0.00000E+00
    0.73462E+06        -0.49933E+08         0.00000E+00
    0.00000E+00         0.00000E+00        -0.60497E+08
 
   -0.61055E+08         0.80167E+06         0.00000E+00
    0.80167E+06        -0.49919E+08         0.00000E+00
    0.00000E+00         0.00000E+00        -0.60496E+08
 
   -0.60978E+08         0.86745E+06         0.00000E+00
    0.86745E+06        -0.49902E+08         0.00000E+00
    0.00000E+00         0.00000E+00        -0.60495E+08
 
   -0.60905E+08         0.93212E+06         0.00000E+00
    0.93212E+06        -0.49885E+08         0.00000E+00
    0.00000E+00         0.00000E+00        -0.60495E+08
 
   -0.60834E+08         0.99581E+06         0.00000E+00
    0.99581E+06        -0.49865E+08         0.00000E+00
    0.00000E+00         0.00000E+00        -0.60494E+08
 
   -0.60767E+08         0.10587E+07         0.00000E+00
    0.10587E+07        -0.49845E+08         0.00000E+00
    0.00000E+00         0.00000E+00        -0.60493E+08
 
   -0.60704E+08         0.11209E+07         0.00000E+00
    0.11209E+07        -0.49823E+08         0.00000E+00
    0.00000E+00         0.00000E+00        -0.60492E+08
 
   -0.60644E+08         0.11825E+07         0.00000E+00
    0.11825E+07        -0.49799E+08         0.00000E+00
    0.00000E+00         0.00000E+00        -0.60492E+08
 
   -0.60587E+08         0.12437E+07         0.00000E+00
    0.12437E+07        -0.49774E+08         0.00000E+00
    0.00000E+00         0.00000E+00        -0.60491E+08
 
   -0.60533E+08         0.13045E+07         0.00000E+00
    0.13045E+07        -0.49748E+08         0.00000E+00
    0.00000E+00         0.00000E+00        -0.60490E+08
 
   -0.60483E+08         0.13652E+07         0.00000E+00
    0.13652E+07        -0.49721E+08         0.00000E+00
    0.00000E+00         0.00000E+00        -0.60489E+08
 
   -0.60435E+08         0.14258E+07         0.00000E+00
    0.14258E+07        -0.49692E+08         0.00000E+00
    0.00000E+00         0.00000E+00        -0.60488E+08
 
   -0.60391E+08         0.14865E+07         0.00000E+00
    0.14865E+07        -0.49662E+08         0.00000E+00
    0.00000E+00         0.00000E+00        -0.60487E+08
 
   -0.60350E+08         0.15473E+07         0.00000E+00
    0.15473E+07        -0.49631E+08         0.00000E+00
    0.00000E+00         0.00000E+00        -0.60486E+08
 
   -0.60312E+08         0.16083E+07         0.00000E+00
    0.16083E+07        -0.49599E+08         0.00000E+00
    0.00000E+00         0.00000E+00        -0.60485E+08
 
   -0.60278E+08         0.16696E+07         0.00000E+00
    0.16696E+07        -0.49565E+08         0.00000E+00
    0.00000E+00         0.00000E+00        -0.60484E+08
 
   -0.60246E+08         0.17314E+07         0.00000E+00
    0.17314E+07        -0.49531E+08         0.00000E+00
    0.00000E+00         0.00000E+00        -0.60483E+08
 
   -0.60217E+08         0.17937E+07         0.00000E+00
    0.17937E+07        -0.49495E+08         0.00000E+00
    0.00000E+00         0.00000E+00        -0.60482E+08
 
   -0.60191E+08         0.18565E+07         0.00000E+00
    0.18565E+07        -0.49459E+08         0.00000E+00
    0.00000E+00         0.00000E+00        -0.60481E+08
 
   -0.60167E+08         0.19200E+07         0.00000E+00
    0.19200E+07        -0.49422E+08         0.00000E+00
    0.00000E+00         0.00000E+00        -0.60480E+08
 
   -0.60147E+08         0.19842E+07         0.00000E+00
    0.19842E+07        -0.49383E+08         0.00000E+00
    0.00000E+00         0.00000E+00        -0.60478E+08
 
   -0.60129E+08         0.20492E+07         0.00000E+00
    0.20492E+07        -0.49344E+08         0.00000E+00
    0.00000E+00         0.00000E+00        -0.60477E+08
 
   -0.60114E+08         0.21151E+07         0.00000E+00
    0.21151E+07        -0.49305E+08         0.00000E+00
    0.00000E+00         0.00000E+00        -0.60476E+08
 
   -0.60102E+08         0.21819E+07         0.00000E+00
    0.21819E+07        -0.49264E+08         0.00000E+00
    0.00000E+00         0.00000E+00        -0.60475E+08
 
   -0.60093E+08         0.22496E+07         0.00000E+00
    0.22496E+07        -0.49223E+08         0.00000E+00
    0.00000E+00         0.00000E+00        -0.60474E+08
 
   -0.60086E+08         0.23183E+07         0.00000E+00
    0.23183E+07        -0.49181E+08         0.00000E+00
    0.00000E+00         0.00000E+00        -0.60473E+08
 
   -0.60082E+08         0.23882E+07         0.00000E+00
    0.23882E+07        -0.49139E+08         0.00000E+00
    0.00000E+00         0.00000E+00        -0.60472E+08
 
   -0.60081E+08         0.24591E+07         0.00000E+00
    0.24591E+07        -0.49096E+08         0.00000E+00
    0.00000E+00         0.00000E+00        -0.60471E+08
 
   -0.60083E+08         0.25311E+07         0.00000E+00
    0.25311E+07        -0.49053E+08         0.00000E+00
    0.00000E+00         0.00000E+00        -0.60470E+08
 
   -0.60088E+08         0.26044E+07         0.00000E+00
    0.26044E+07        -0.49009E+08         0.00000E+00
    0.00000E+00         0.00000E+00        -0.60469E+08
 
   -0.60096E+08         0.26790E+07         0.00000E+00
    0.26790E+07        -0.48965E+08         0.00000E+00
    0.00000E+00         0.00000E+00        -0.60468E+08
 
   -0.60107E+08         0.27548E+07         0.00000E+00
    0.27548E+07        -0.48921E+08         0.00000E+00
    0.00000E+00         0.00000E+00        -0.60467E+08
 
   -0.60121E+08         0.28321E+07         0.00000E+00
    0.28321E+07        -0.48877E+08         0.00000E+00
    0.00000E+00         0.00000E+00        -0.60466E+08
 
   -0.60138E+08         0.29106E+07         0.00000E+00
    0.29106E+07        -0.48834E+08         0.00000E+00
    0.00000E+00         0.00000E+00        -0.60465E+08
 
   -0.60159E+08         0.29893E+07         0.00000E+00
    0.29893E+07        -0.48792E+08         0.00000E+00
    0.00000E+00         0.00000E+00        -0.60464E+08
 
   -0.60186E+08         0.30691E+07         0.00000E+00
    0.30691E+07        -0.48747E+08         0.00000E+00
    0.00000E+00         0.00000E+00        -0.60463E+08
 
   -0.60219E+08         0.31491E+07         0.00000E+00
    0.31491E+07        -0.48704E+08         0.00000E+00
    0.00000E+00         0.00000E+00        -0.60463E+08
 
   -0.60259E+08         0.32328E+07         0.00000E+00
    0.32328E+07        -0.48658E+08         0.00000E+00
    0.00000E+00         0.00000E+00        -0.60462E+08
 
   -0.60305E+08         0.33215E+07         0.00000E+00
    0.33215E+07        -0.48616E+08         0.00000E+00
    0.00000E+00         0.00000E+00        -0.60462E+08
 
   -0.60356E+08         0.34100E+07         0.00000E+00
    0.34100E+07        -0.48592E+08         0.00000E+00
    0.00000E+00         0.00000E+00        -0.60462E+08
 
   -0.60422E+08         0.34839E+07         0.00000E+00
    0.34839E+07        -0.48588E+08         0.00000E+00
    0.00000E+00         0.00000E+00        -0.60462E+08
 
   -0.61558E+08         0.50064E+05         0.00000E+00
    0.50064E+05        -0.50000E+08         0.00000E+00
    0.00000E+00         0.00000E+00        -0.60026E+08
 
   -0.61462E+08         0.14201E+06         0.00000E+00
    0.14201E+06        -0.49999E+08         0.00000E+00
    0.00000E+00         0.00000E+00        -0.60026E+08
 
   -0.61368E+08         0.23124E+06         0.00000E+00
    0.23124E+06        -0.49997E+08         0.00000E+00
    0.00000E+00         0.00000E+00        -0.60026E+08
 
   -0.61276E+08         0.31794E+06         0.00000E+00
    0.31794E+06        -0.49994E+08         0.00000E+00
    0.00000E+00         0.00000E+00        -0.60026E+08
 
   -0.61187E+08         0.40227E+06         0.00000E+00
    0.40227E+06        -0.49990E+08         0.00000E+00
    0.00000E+00         0.00000E+00        -0.60026E+08
 
   -0.61101E+08         0.48440E+06         0.00000E+00
    0.48440E+06        -0.49985E+08         0.00000E+00
    0.00000E+00         0.00000E+00        -0.60025E+08
 
   -0.61017E+08         0.56450E+06         0.00000E+00
    0.56450E+06        -0.49979E+08         0.00000E+00
    0.00000E+00         0.00000E+00        -0.60025E+08
 
   -0.60935E+08         0.64272E+06         0.00000E+00
    0.64272E+06        -0.49972E+08         0.00000E+00
    0.00000E+00         0.00000E+00        -0.60025E+08
 
   -0.60856E+08         0.71921E+06         0.00000E+00
    0.71921E+06        -0.49964E+08         0.00000E+00
    0.00000E+00         0.00000E+00        -0.60024E+08
 
   -0.60780E+08         0.79411E+06         0.00000E+00
    0.79411E+06        -0.49955E+08         0.00000E+00
    0.00000E+00         0.00000E+00        -0.60024E+08
 
   -0.60706E+08         0.86758E+06         0.00000E+00
    0.86758E+06        -0.49944E+08         0.00000E+00
    0.00000E+00         0.00000E+00        -0.60023E+08
 
   -0.60636E+08         0.93973E+06         0.00000E+00
    0.93973E+06        -0.49933E+08         0.00000E+00
    0.00000E+00         0.00000E+00        -0.60023E+08
 
   -0.60567E+08         0.10107E+07         0.00000E+00
    0.10107E+07        -0.49920E+08         0.00000E+00
    0.00000E+00         0.00000E+00        -0.60022E+08
 
   -0.60502E+08         0.10807E+07         0.00000E+00
    0.10807E+07        -0.49907E+08         0.00000E+00
    0.00000E+00         0.00000E+00        -0.60022E+08
 
   -0.60439E+08         0.11497E+07         0.00000E+00
    0.11497E+07        -0.49892E+08         0.00000E+00
    0.00000E+00         0.00000E+00        -0.60021E+08
 
   -0.60379E+08         0.12179E+07         0.00000E+00
    0.12179E+07        -0.49877E+08         0.00000E+00
    0.00000E+00         0.00000E+00        -0.60020E+08
 
   -0.60322E+08         0.12855E+07         0.00000E+00
    0.12855E+07        -0.49860E+08         0.00000E+00
    0.00000E+00         0.00000E+00        -0.60020E+08
 
   -0.60267E+08         0.13524E+07         0.00000E+00
    0.13524E+07        -0.49842E+08         0.00000E+00
    0.00000E+00         0.00000E+00        -0.60019E+08
 
   -0.60215E+08         0.14189E+07         0.00000E+00
    0.14189E+07        -0.49824E+08         0.00000E+00
    0.00000E+00         0.00000E+00        -0.60018E+08
 
   -0.60166E+08         0.14851E+07         0.00000E+00
    0.14851E+07        -0.49804E+08         0.00000E+00
    0.00000E+00         0.00000E+00        -0.60018E+08
 
   -0.60119E+08         0.15510E+07         0.00000E+00
    0.15510E+07        -0.49783E+08         0.00000E+00
    0.00000E+00         0.00000E+00        -0.60017E+08
 
   -0.60075E+08         0.16167E+07         0.00000E+00
    0.16167E+07        -0.49762E+08         0.00000E+00
    0.00000E+00         0.00000E+00        -0.60016E+08
 
   -0.60034E+08         0.16824E+07         0.00000E+00
    0.16824E+07        -0.49740E+08         0.00000E+00
    0.00000E+00         0.00000E+00        -0.60015E+08
 
   -0.59995E+08         0.17481E+07         0.00000E+00
    0.17481E+07        -0.49717E+08         0.00000E+00
    0.00000E+00         0.00000E+00        -0.60014E+08
 
   -0.59959E+08         0.18138E+07         0.00000E+00
    0.18138E+07        -0.49693E+08         0.00000E+00
    0.00000E+00         0.00000E+00        -0.60014E+08
 
   -0.59925E+08         0.18798E+07         0.00000E+00
    0.18798E+07        -0.49669E+08         0.00000E+00
    0.00000E+00         0.00000E+00        -0.60013E+08
 
   -0.59894E+08         0.19460E+07         0.00000E+00
    0.19460E+07        -0.49644E+08         0.00000E+00
    0.00000E+00         0.00000E+00        -0.60012E+08
 
   -0.59866E+08         0.20125E+07         0.00000E+00
    0.20125E+07        -0.49618E+08         0.00000E+00
    0.00000E+00         0.00000E+00        -0.60011E+08
 
   -0.59840E+08         0.20794E+07         0.00000E+00
    0.20794E+07        -0.49592E+08         0.00000E+00
    0.00000E+00         0.00000E+00        -0.60010E+08
 
   -0.59816E+08         0.21467E+07         0.00000E+00
    0.21467E+07        -0.49566E+08         0.00000E+00
    0.00000E+00         0.00000E+00        -0.60009E+08
 
   -0.59795E+08         0.22146E+07         0.00000E+00
    0.22146E+07        -0.49539E+08         0.00000E+00
    0.00000E+00         0.00000E+00        -0.60009E+08
 
   -0.59777E+08         0.22829E+07         0.00000E+00
    0.22829E+07        -0.49511E+08         0.00000E+00
    0.00000E+00         0.00000E+00        -0.60008E+08
 
   -0.59761E+08         0.23519E+07         0.00000E+00
    0.23519E+07        -0.49484E+08         0.00000E+00
    0.00000E+00         0.00000E+00        -0.60007E+08
 
   -0.59747E+08         0.24214E+07         0.00000E+00
    0.24214E+07        -0.49456E+08         0.00000E+00
    0.00000E+00         0.00000E+00        -0.60006E+08
 
   -0.59736E+08         0.24917E+07         0.00000E+00
    0.24917E+07        -0.49428E+08         0.00000E+00
    0.00000E+00         0.00000E+00        -0.60005E+08
 
   -0.59728E+08         0.25626E+07         0.00000E+00
    0.25626E+07        -0.49400E+08         0.00000E+00
    0.00000E+00         0.00000E+00        -0.60005E+08
 
   -0.59722E+08         0.26342E+07         0.00000E+00
    0.26342E+07        -0.49372E+08         0.00000E+00
    0.00000E+00         0.00000E+00        -0.60004E+08
 
   -0.59720E+08         0.27066E+07         0.00000E+00
    0.27066E+07        -0.49344E+08         0.00000E+00
    0.00000E+00         0.00000E+00        -0.60003E+08
 
   -0.59719E+08         0.27796E+07         0.00000E+00
    0.27796E+07        -0.49316E+08         0.00000E+00
    0.00000E+00         0.00000E+00        -0.60002E+08
 
   -0.59722E+08         0.28534E+07         0.00000E+00
    0.28534E+07        -0.49288E+08         0.00000E+00
    0.00000E+00         0.00000E+00        -0.60002E+08
 
   -0.59728E+08         0.29279E+07         0.00000E+00
    0.29279E+07        -0.49261E+08         0.00000E+00
    0.00000E+00         0.00000E+00        -0.60001E+08
 
   -0.59738E+08         0.30030E+07         0.00000E+00
    0.30030E+07        -0.49234E+08         0.00000E+00
    0.00000E+00         0.00000E+00        -0.60000E+08
 
   -0.59751E+08         0.30789E+07         0.00000E+00
    0.30789E+07        -0.49208E+08         0.00000E+00
    0.00000E+00         0.00000E+00        -0.60000E+08
 
   -0.59768E+08         0.31557E+07         0.00000E+00
    0.31557E+07        -0.49181E+08         0.00000E+00
    0.00000E+00         0.00000E+00        -0.59999E+08
 
   -0.59789E+08         0.32333E+07         0.00000E+00
    0.32333E+07        -0.49156E+08         0.00000E+00
    0.00000E+00         0.00000E+00        -0.59999E+08
 
   -0.59814E+08         0.33121E+07         0.00000E+00
    0.33121E+07        -0.49130E+08         0.00000E+00
    0.00000E+00         0.00000E+00        -0.59999E+08
 
   -0.59845E+08         0.33916E+07         0.00000E+00
    0.33916E+07        -0.49106E+08         0.00000E+00
    0.00000E+00         0.00000E+00        -0.59998E+08
 
   -0.59882E+08         0.34716E+07         0.00000E+00
    0.34716E+07        -0.49081E+08         0.00000E+00
    0.00000E+00         0.00000E+00        -0.59998E+08
 
   -0.59926E+08         0.35543E+07         0.00000E+00
    0.35543E+07        -0.49052E+08         0.00000E+00
    0.00000E+00         0.00000E+00        -0.59998E+08
 
   -0.59974E+08         0.36457E+07         0.00000E+00
    0.36457E+07        -0.49018E+08         0.00000E+00
    0.00000E+00         0.00000E+00        -0.59998E+08
 
   -0.61081E+08         0.51560E+05         0.00000E+00
    0.51560E+05        -0.50000E+08         0.00000E+00
    0.00000E+00         0.00000E+00        -0.59563E+08
 
   -0.60999E+08         0.14717E+06         0.00000E+00
    0.14717E+06        -0.49999E+08         0.00000E+00
    0.00000E+00         0.00000E+00        -0.59563E+08
 
   -0.60917E+08         0.24026E+06         0.00000E+00
    0.24026E+06        -0.49998E+08         0.00000E+00
    0.00000E+00         0.00000E+00        -0.59563E+08
 
   -0.60838E+08         0.33099E+06         0.00000E+00
    0.33099E+06        -0.49997E+08         0.00000E+00
    0.00000E+00         0.00000E+00        -0.59563E+08
 
   -0.60760E+08         0.41950E+06         0.00000E+00
    0.41950E+06        -0.49995E+08         0.00000E+00
    0.00000E+00         0.00000E+00        -0.59563E+08
 
   -0.60684E+08         0.50593E+06         0.00000E+00
    0.50593E+06        -0.49992E+08         0.00000E+00
    0.00000E+00         0.00000E+00        -0.59563E+08
 
   -0.60609E+08         0.59043E+06         0.00000E+00
    0.59043E+06        -0.49988E+08         0.00000E+00
    0.00000E+00         0.00000E+00        -0.59563E+08
 
   -0.60537E+08         0.67311E+06         0.00000E+00
    0.67311E+06        -0.49984E+08         0.00000E+00
    0.00000E+00         0.00000E+00        -0.59562E+08
 
   -0.60466E+08         0.75412E+06         0.00000E+00
    0.75412E+06        -0.49979E+08         0.00000E+00
    0.00000E+00         0.00000E+00        -0.59562E+08
 
   -0.60397E+08         0.83358E+06         0.00000E+00
    0.83358E+06        -0.49973E+08         0.00000E+00
    0.00000E+00         0.00000E+00        -0.59562E+08
 
   -0.60330E+08         0.91160E+06         0.00000E+00
    0.91160E+06        -0.49967E+08         0.00000E+00
    0.00000E+00         0.00000E+00        -0.59561E+08
 
   -0.60266E+08         0.98832E+06         0.00000E+00
    0.98832E+06        -0.49960E+08         0.00000E+00
    0.00000E+00         0.00000E+00        -0.59561E+08
 
   -0.60203E+08         0.10638E+07         0.00000E+00
    0.10638E+07        -0.49952E+08         0.00000E+00
    0.00000E+00         0.00000E+00        -0.59560E+08
 
   -0.60143E+08         0.11382E+07         0.00000E+00
    0.11382E+07        -0.49943E+08         0.00000E+00
    0.00000E+00         0.00000E+00        -0.59560E+08
 
   -0.60084E+08         0.12117E+07         0.00000E+00
    0.12117E+07        -0.49934E+08         0.00000E+00
    0.00000E+00         0.00000E+00        -0.59559E+08
 
   -0.60028E+08         0.12842E+07         0.00000E+00
    0.12842E+07        -0.49923E+08         0.00000E+00
    0.00000E+00         0.00000E+00        -0.59559E+08
 
   -0.59974E+08         0.13560E+07         0.00000E+00
    0.13560E+07        -0.49912E+08         0.00000E+00
    0.00000E+00         0.00000E+00        -0.59558E+08
 
   -0.59923E+08         0.14271E+07         0.00000E+00
    0.14271E+07        -0.49901E+08         0.00000E+00
    0.00000E+00         0.00000E+00        -0.59558E+08
 
   -0.59873E+08         0.14976E+07         0.00000E+00
    0.14976E+07        -0.49889E+08         0.00000E+00
    0.00000E+00         0.00000E+00        -0.59557E+08
 
   -0.59826E+08         0.15676E+07         0.00000E+00
    0.15676E+07        -0.49876E+08         0.00000E+00
    0.00000E+00         0.00000E+00        -0.59557E+08
 
   -0.59780E+08         0.16372E+07         0.00000E+00
    0.16372E+07        -0.49862E+08         0.00000E+00
    0.00000E+00         0.00000E+00        -0.59556E+08
 
   -0.59738E+08         0.17064E+07         0.00000E+00
    0.17064E+07        -0.49848E+08         0.00000E+00
    0.00000E+00         0.00000E+00        -0.59556E+08
 
   -0.59697E+08         0.17754E+07         0.00000E+00
    0.17754E+07        -0.49833E+08         0.00000E+00
    0.00000E+00         0.00000E+00        -0.59555E+08
 
   -0.59658E+08         0.18442E+07         0.00000E+00
    0.18442E+07        -0.49818E+08         0.00000E+00
    0.00000E+00         0.00000E+00        -0.59554E+08
 
   -0.59622E+08         0.19129E+07         0.00000E+00
    0.19129E+07        -0.49803E+08         0.00000E+00
    0.00000E+00         0.00000E+00        -0.59554E+08
 
   -0.59588E+08         0.19815E+07         0.00000E+00
    0.19815E+07        -0.49786E+08         0.00000E+00
    0.00000E+00         0.00000E+00        -0.59553E+08
 
   -0.59556E+08         0.20501E+07         0.00000E+00
    0.20501E+07        -0.49770E+08         0.00000E+00
    0.00000E+00         0.00000E+00        -0.59553E+08
 
   -0.59527E+08         0.21188E+07         0.00000E+00
    0.21188E+07        -0.49753E+08         0.00000E+00
    0.00000E+00         0.00000E+00        -0.59552E+08
 
   -0.59499E+08         0.21877E+07         0.00000E+00
    0.21877E+07        -0.49736E+08         0.00000E+00
    0.00000E+00         0.00000E+00        -0.59551E+08
 
   -0.59474E+08         0.22567E+07         0.00000E+00
    0.22567E+07        -0.49718E+08         0.00000E+00
    0.00000E+00         0.00000E+00        -0.59551E+08
 
   -0.59451E+08         0.23259E+07         0.00000E+00
    0.23259E+07        -0.49700E+08         0.00000E+00
    0.00000E+00         0.00000E+00        -0.59550E+08
 
   -0.59431E+08         0.23954E+07         0.00000E+00
    0.23954E+07        -0.49682E+08         0.00000E+00
    0.00000E+00         0.00000E+00        -0.59550E+08
 
   -0.59412E+08         0.24652E+07         0.00000E+00
    0.24652E+07        -0.49664E+08         0.00000E+00
    0.00000E+00         0.00000E+00        -0.59549E+08
 
   -0.59397E+08         0.25353E+07         0.00000E+00
    0.25353E+07        -0.49646E+08         0.00000E+00
    0.00000E+00         0.00000E+00        -0.59548E+08
 
   -0.59383E+08         0.26059E+07         0.00000E+00
    0.26059E+07        -0.49628E+08         0.00000E+00
    0.00000E+00         0.00000E+00        -0.59548E+08
 
   -0.59372E+08         0.26768E+07         0.00000E+00
    0.26768E+07        -0.49610E+08         0.00000E+00
    0.00000E+00         0.00000E+00        -0.59547E+08
 
   -0.59363E+08         0.27482E+07         0.00000E+00
    0.27482E+07        -0.49591E+08         0.00000E+00
    0.00000E+00         0.00000E+00        -0.59547E+08
 
   -0.59357E+08         0.28201E+07         0.00000E+00
    0.28201E+07        -0.49573E+08         0.00000E+00
    0.00000E+00         0.00000E+00        -0.59546E+08
 
   -0.59354E+08         0.28925E+07         0.00000E+00
    0.28925E+07        -0.49555E+08         0.00000E+00
    0.00000E+00         0.00000E+00        -0.59546E+08
 
   -0.59353E+08         0.29655E+07         0.00000E+00
    0.29655E+07        -0.49536E+08         0.00000E+00
    0.00000E+00         0.00000E+00        -0.59545E+08
 
   -0.59356E+08         0.30391E+07         0.00000E+00
    0.30391E+07        -0.49518E+08         0.00000E+00
    0.00000E+00         0.00000E+00        -0.59545E+08
 
   -0.59361E+08         0.31135E+07         0.00000E+00
    0.31135E+07        -0.49500E+08         0.00000E+00
    0.00000E+00         0.00000E+00        -0.59545E+08
 
   -0.59370E+08         0.31887E+07         0.00000E+00
    0.31887E+07        -0.49482E+08         0.00000E+00
    0.00000E+00         0.00000E+00        -0.59544E+08
 
   -0.59382E+08         0.32649E+07         0.00000E+00
    0.32649E+07        -0.49464E+08         0.00000E+00
    0.00000E+00         0.00000E+00        -0.59544E+08
 
   -0.59397E+08         0.33423E+07         0.00000E+00
    0.33423E+07        -0.49446E+08         0.00000E+00
    0.00000E+00         0.00000E+00        -0.59544E+08
 
   -0.59416E+08         0.34211E+07         0.00000E+00
    0.34211E+07        -0.49427E+08         0.00000E+00
    0.00000E+00         0.00000E+00        -0.59544E+08
 
   -0.59439E+08         0.35017E+07         0.00000E+00
    0.35017E+07        -0.49409E+08         0.00000E+00
    0.00000E+00         0.00000E+00        -0.59544E+08
 
   -0.59465E+08         0.35846E+07         0.00000E+00
    0.35846E+07        -0.49390E+08         0.00000E+00
    0.00000E+00         0.00000E+00        -0.59543E+08
 
   -0.59494E+08         0.36699E+07         0.00000E+00
    0.36699E+07        -0.49371E+08         0.00000E+00
    0.00000E+00         0.00000E+00        -0.59543E+08
 
   -0.59526E+08         0.37561E+07         0.00000E+00
    0.37561E+07        -0.49355E+08         0.00000E+00
    0.00000E+00         0.00000E+00        -0.59543E+08
 
   -0.60592E+08         0.51968E+05         0.00000E+00
    0.51968E+05        -0.50000E+08         0.00000E+00
    0.00000E+00         0.00000E+00        -0.59111E+08
 
   -0.60522E+08         0.14927E+06         0.00000E+00
    0.14927E+06        -0.50000E+08         0.00000E+00
    0.00000E+00         0.00000E+00        -0.59111E+08
 
   -0.60452E+08         0.24432E+06         0.00000E+00
    0.24432E+06        -0.50000E+08         0.00000E+00
    0.00000E+00         0.00000E+00        -0.59111E+08
 
   -0.60383E+08         0.33723E+06         0.00000E+00
    0.33723E+06        -0.49999E+08         0.00000E+00
    0.00000E+00         0.00000E+00        -0.59111E+08
 
   -0.60316E+08         0.42813E+06         0.00000E+00
    0.42813E+06        -0.49998E+08         0.00000E+00
    0.00000E+00         0.00000E+00        -0.59111E+08
 
   -0.60249E+08         0.51712E+06         0.00000E+00
    0.51712E+06        -0.49997E+08         0.00000E+00
    0.00000E+00         0.00000E+00        -0.59110E+08
 
   -0.60184E+08         0.60432E+06         0.00000E+00
    0.60432E+06        -0.49996E+08         0.00000E+00
    0.00000E+00         0.00000E+00        -0.59110E+08
 
   -0.60120E+08         0.68982E+06         0.00000E+00
    0.68982E+06        -0.49994E+08         0.00000E+00
    0.00000E+00         0.00000E+00        -0.59110E+08
 
   -0.60057E+08         0.77374E+06         0.00000E+00
    0.77374E+06        -0.49991E+08         0.00000E+00
    0.00000E+00         0.00000E+00        -0.59110E+08
 
   -0.59995E+08         0.85618E+06         0.00000E+00
    0.85618E+06        -0.49988E+08         0.00000E+00
    0.00000E+00         0.00000E+00        -0.59110E+08
 
   -0.59936E+08         0.93724E+06         0.00000E+00
    0.93724E+06        -0.49985E+08         0.00000E+00
    0.00000E+00         0.00000E+00        -0.59109E+08
 
   -0.59877E+08         0.10170E+07         0.00000E+00
    0.10170E+07        -0.49981E+08         0.00000E+00
    0.00000E+00         0.00000E+00        -0.59109E+08
 
   -0.59820E+08         0.10956E+07         0.00000E+00
    0.10956E+07        -0.49977E+08         0.00000E+00
    0.00000E+00         0.00000E+00        -0.59109E+08
 
   -0.59765E+08         0.11731E+07         0.00000E+00
    0.11731E+07        -0.49972E+08         0.00000E+00
    0.00000E+00         0.00000E+00        -0.59108E+08
 
   -0.59712E+08         0.12495E+07         0.00000E+00
    0.12495E+07        -0.49967E+08         0.00000E+00
    0.00000E+00         0.00000E+00        -0.59108E+08
 
   -0.59660E+08         0.13251E+07         0.00000E+00
    0.13251E+07        -0.49961E+08         0.00000E+00
    0.00000E+00         0.00000E+00        -0.59108E+08
 
   -0.59610E+08         0.13998E+07         0.00000E+00
    0.13998E+07        -0.49955E+08         0.00000E+00
    0.00000E+00         0.00000E+00        -0.59107E+08
 
   -0.59561E+08         0.14737E+07         0.00000E+00
    0.14737E+07        -0.49948E+08         0.00000E+00
    0.00000E+00         0.00000E+00        -0.59107E+08
 
   -0.59515E+08         0.15470E+07         0.00000E+00
    0.15470E+07        -0.49941E+08         0.00000E+00
    0.00000E+00         0.00000E+00        -0.59107E+08
 
   -0.59470E+08         0.16196E+07         0.00000E+00
    0.16196E+07        -0.49933E+08         0.00000E+00
    0.00000E+00         0.00000E+00        -0.59106E+08
 
   -0.59427E+08         0.16918E+07         0.00000E+00
    0.16918E+07        -0.49925E+08         0.00000E+00
    0.00000E+00         0.00000E+00        -0.59106E+08
 
   -0.59386E+08         0.17634E+07         0.00000E+00
    0.17634E+07        -0.49917E+08         0.00000E+00
    0.00000E+00         0.00000E+00        -0.59105E+08
 
   -0.59347E+08         0.18347E+07         0.00000E+00
    0.18347E+07        -0.49908E+08         0.00000E+00
    0.00000E+00         0.00000E+00        -0.59105E+08
 
   -0.59309E+08         0.19056E+07         0.00000E+00
    0.19056E+07        -0.49899E+08         0.00000E+00
    0.00000E+00         0.00000E+00        -0.59105E+08
 
   -0.59274E+08         0.19762E+07         0.00000E+00
    0.19762E+07        -0.49889E+08         0.00000E+00
    0.00000E+00         0.00000E+00        -0.59104E+08
 
   -0.59240E+08         0.20467E+07         0.00000E+00
    0.20467E+07        -0.49879E+08         0.00000E+00
    0.00000E+00         0.00000E+00        -0.59104E+08
 
   -0.59209E+08         0.21170E+07         0.00000E+00
    0.21170E+07        -0.49869E+08         0.00000E+00
    0.00000E+00         0.00000E+00        -0.59103E+08
 
   -0.59179E+08         0.21871E+07         0.00000E+00
    0.21871E+07        -0.49859E+08         0.00000E+00
    0.00000E+00         0.00000E+00        -0.59103E+08
 
   -0.59151E+08         0.22573E+07         0.00000E+00
    0.22573E+07        -0.49848E+08         0.00000E+00
    0.00000E+00         0.00000E+00        -0.59103E+08
 
   -0.59126E+08         0.23274E+07         0.00000E+00
    0.23274E+07        -0.49837E+08         0.00000E+00
    0.00000E+00         0.00000E+00        -0.59102E+08
 
   -0.59102E+08         0.23976E+07         0.00000E+00
    0.23976E+07        -0.49826E+08         0.00000E+00
    0.00000E+00         0.00000E+00        -0.59102E+08
 
   -0.59080E+08         0.24679E+07         0.00000E+00
    0.24679E+07        -0.49815E+08         0.00000E+00
    0.00000E+00         0.00000E+00        -0.59101E+08
 
   -0.59061E+08         0.25384E+07         0.00000E+00
    0.25384E+07        -0.49803E+08         0.00000E+00
    0.00000E+00         0.00000E+00        -0.59101E+08
 
   -0.59044E+08         0.26090E+07         0.00000E+00
    0.26090E+07        -0.49792E+08         0.00000E+00
    0.00000E+00         0.00000E+00        -0.59101E+08
 
   -0.59028E+08         0.26799E+07         0.00000E+00
    0.26799E+07        -0.49780E+08         0.00000E+00
    0.00000E+00         0.00000E+00        -0.59100E+08
 
   -0.59015E+08         0.27512E+07         0.00000E+00
    0.27512E+07        -0.49768E+08         0.00000E+00
    0.00000E+00         0.00000E+00        -0.59100E+08
 
   -0.59004E+08         0.28228E+07         0.00000E+00
    0.28228E+07        -0.49756E+08         0.00000E+00
    0.00000E+00         0.00000E+00        -0.59100E+08
 
   -0.58996E+08         0.28948E+07         0.00000E+00
    0.28948E+07        -0.49744E+08         0.00000E+00
    0.00000E+00         0.00000E+00        -0.59099E+08
 
   -0.58990E+08         0.29673E+07         0.00000E+00
    0.29673E+07        -0.49732E+08         0.00000E+00
    0.00000E+00         0.00000E+00        -0.59099E+08
 
   -0.58986E+08         0.30405E+07         0.00000E+00
    0.30405E+07        -0.49720E+08         0.00000E+00
    0.00000E+00         0.00000E+00        -0.59099E+08
 
   -0.58985E+08         0.31143E+07         0.00000E+00
    0.31143E+07        -0.49708E+08         0.00000E+00
    0.00000E+00         0.00000E+00        -0.59099E+08
 
   -0.58986E+08         0.31889E+07         0.00000E+00
    0.31889E+07        -0.49696E+08         0.00000E+00
    0.00000E+00         0.00000E+00        -0.59098E+08
 
   -0.58990E+08         0.32644E+07         0.00000E+00
    0.32644E+07        -0.49683E+08         0.00000E+00
    0.00000E+00         0.00000E+00        -0.59098E+08
 
   -0.58996E+08         0.33410E+07         0.00000E+00
    0.33410E+07        -0.49671E+08         0.00000E+00
    0.00000E+00         0.00000E+00        -0.59098E+08
 
   -0.59005E+08         0.34188E+07         0.00000E+00
    0.34188E+07        -0.49659E+08         0.00000E+00
    0.00000E+00         0.00000E+00        -0.59098E+08
 
   -0.59016E+08         0.34979E+07         0.00000E+00
    0.34979E+07        -0.49646E+08         0.00000E+00
    0.00000E+00         0.00000E+00        -0.59098E+08
 
   -0.59030E+08         0.35785E+07         0.00000E+00
    0.35785E+07        -0.49634E+08         0.00000E+00
    0.00000E+00         0.00000E+00        -0.59098E+08
 
   -0.59047E+08         0.36606E+07         0.00000E+00
    0.36606E+07        -0.49622E+08         0.00000E+00
    0.00000E+00         0.00000E+00        -0.59098E+08
 
   -0.59066E+08         0.37444E+07         0.00000E+00
    0.37444E+07        -0.49609E+08         0.00000E+00
    0.00000E+00         0.00000E+00        -0.59098E+08
 
   -0.59087E+08         0.38306E+07         0.00000E+00
    0.38306E+07        -0.49597E+08         0.00000E+00
    0.00000E+00         0.00000E+00        -0.59098E+08
 
   -0.60099E+08         0.51570E+05         0.00000E+00
    0.51570E+05        -0.50000E+08         0.00000E+00
    0.00000E+00         0.00000E+00        -0.58668E+08
 
   -0.60039E+08         0.14904E+06         0.00000E+00
    0.14904E+06        -0.50000E+08         0.00000E+00
    0.00000E+00         0.00000E+00        -0.58668E+08
 
   -0.59980E+08         0.24456E+06         0.00000E+00
    0.24456E+06        -0.50000E+08         0.00000E+00
    0.00000E+00         0.00000E+00        -0.58668E+08
 
   -0.59921E+08         0.33821E+06         0.00000E+00
    0.33821E+06        -0.50001E+08         0.00000E+00
    0.00000E+00         0.00000E+00        -0.58668E+08
 
   -0.59863E+08         0.43008E+06         0.00000E+00
    0.43008E+06        -0.50001E+08         0.00000E+00
    0.00000E+00         0.00000E+00        -0.58668E+08
 
   -0.59805E+08         0.52025E+06         0.00000E+00
    0.52025E+06        -0.50001E+08         0.00000E+00
    0.00000E+00         0.00000E+00        -0.58668E+08
 
   -0.59748E+08         0.60879E+06         0.00000E+00
    0.60879E+06        -0.50001E+08         0.00000E+00
    0.00000E+00         0.00000E+00        -0.58668E+08
 
   -0.59692E+08         0.69581E+06         0.00000E+00
    0.69581E+06        -0.50001E+08         0.00000E+00
    0.00000E+00         0.00000E+00        -0.58668E+08
 
   -0.59636E+08         0.78136E+06         0.00000E+00
    0.78136E+06        -0.50000E+08         0.00000E+00
    0.00000E+00         0.00000E+00        -0.58668E+08
 
   -0.59582E+08         0.86554E+06         0.00000E+00
    0.86554E+06        -0.50000E+08         0.00000E+00
    0.00000E+00         0.00000E+00        -0.58668E+08
 
   -0.59528E+08         0.94843E+06         0.00000E+00
    0.94843E+06        -0.49999E+08         0.00000E+00
    0.00000E+00         0.00000E+00        -0.58668E+08
 
   -0.59476E+08         0.10301E+07         0.00000E+00
    0.10301E+07        -0.49997E+08         0.00000E+00
    0.00000E+00         0.00000E+00        -0.58667E+08
 
   -0.59425E+08         0.11106E+07         0.00000E+00
    0.11106E+07        -0.49996E+08         0.00000E+00
    0.00000E+00         0.00000E+00        -0.58667E+08
 
   -0.59375E+08         0.11901E+07         0.00000E+00
    0.11901E+07        -0.49994E+08         0.00000E+00
    0.00000E+00         0.00000E+00        -0.58667E+08
 
   -0.59326E+08         0.12685E+07         0.00000E+00
    0.12685E+07        -0.49992E+08         0.00000E+00
    0.00000E+00         0.00000E+00        -0.58667E+08
 
   -0.59279E+08         0.13460E+07         0.00000E+00
    0.13460E+07        -0.49990E+08         0.00000E+00
    0.00000E+00         0.00000E+00        -0.58667E+08
 
   -0.59233E+08         0.14227E+07         0.00000E+00
    0.14227E+07        -0.49987E+08         0.00000E+00
    0.00000E+00         0.00000E+00        -0.58666E+08
 
   -0.59188E+08         0.14986E+07         0.00000E+00
    0.14986E+07        -0.49984E+08         0.00000E+00
    0.00000E+00         0.00000E+00        -0.58666E+08
 
   -0.59145E+08         0.15737E+07         0.00000E+00
    0.15737E+07        -0.49981E+08         0.00000E+00
    0.00000E+00         0.00000E+00        -0.58666E+08
 
   -0.59103E+08         0.16482E+07         0.00000E+00
    0.16482E+07        -0.49977E+08         0.00000E+00
    0.00000E+00         0.00000E+00        -0.58666E+08
 
   -0.59063E+08         0.17221E+07         0.00000E+00
    0.17221E+07        -0.49973E+08         0.00000E+00
    0.00000E+00         0.00000E+00        -0.58665E+08
 
   -0.59024E+08         0.17955E+07         0.00000E+00
    0.17955E+07        -0.49969E+08         0.00000E+00
    0.00000E+00         0.00000E+00        -0.58665E+08
 
   -0.58987E+08         0.18684E+07         0.00000E+00
    0.18684E+07        -0.49964E+08         0.00000E+00
    0.00000E+00         0.00000E+00        -0.58665E+08
 
   -0.58951E+08         0.19408E+07         0.00000E+00
    0.19408E+07        -0.49959E+08         0.00000E+00
    0.00000E+00         0.00000E+00        -0.58665E+08
 
   -0.58917E+08         0.20129E+07         0.00000E+00
    0.20129E+07        -0.49954E+08         0.00000E+00
    0.00000E+00         0.00000E+00        -0.58664E+08
 
   -0.58885E+08         0.20847E+07         0.00000E+00
    0.20847E+07        -0.49949E+08         0.00000E+00
    0.00000E+00         0.00000E+00        -0.58664E+08
 
   -0.58854E+08         0.21563E+07         0.00000E+00
    0.21563E+07        -0.49944E+08         0.00000E+00
    0.00000E+00         0.00000E+00        -0.58664E+08
 
   -0.58825E+08         0.22277E+07         0.00000E+00
    0.22277E+07        -0.49938E+08         0.00000E+00
    0.00000E+00         0.00000E+00        -0.58664E+08
 
   -0.58798E+08         0.22989E+07         0.00000E+00
    0.22989E+07        -0.49932E+08         0.00000E+00
    0.00000E+00         0.00000E+00        -0.58663E+08
 
   -0.58772E+08         0.23700E+07         0.00000E+00
    0.23700E+07        -0.49926E+08         0.00000E+00
    0.00000E+00         0.00000E+00        -0.58663E+08
 
   -0.58748E+08         0.24411E+07         0.00000E+00
    0.24411E+07        -0.49919E+08         0.00000E+00
    0.00000E+00         0.00000E+00        -0.58663E+08
 
   -0.58726E+08         0.25122E+07         0.00000E+00
    0.25122E+07        -0.49913E+08         0.00000E+00
    0.00000E+00         0.00000E+00        -0.58663E+08
 
   -0.58706E+08         0.25834E+07         0.00000E+00
    0.25834E+07        -0.49906E+08         0.00000E+00
    0.00000E+00         0.00000E+00        -0.58663E+08
 
   -0.58688E+08         0.26548E+07         0.00000E+00
    0.26548E+07        -0.49899E+08         0.00000E+00
    0.00000E+00         0.00000E+00        -0.58662E+08
 
   -0.58671E+08         0.27263E+07         0.00000E+00
    0.27263E+07        -0.49892E+08         0.00000E+00
    0.00000E+00         0.00000E+00        -0.58662E+08
 
   -0.58657E+08         0.27981E+07         0.00000E+00
    0.27981E+07        -0.49885E+08         0.00000E+00
    0.00000E+00         0.00000E+00        -0.58662E+08
 
   -0.58644E+08         0.28702E+07         0.00000E+00
    0.28702E+07        -0.49878E+08         0.00000E+00
    0.00000E+00         0.00000E+00        -0.58662E+08
 
   -0.58633E+08         0.29428E+07         0.00000E+00
    0.29428E+07        -0.49870E+08         0.00000E+00
    0.00000E+00         0.00000E+00        -0.58662E+08
 
   -0.58624E+08         0.30158E+07         0.00000E+00
    0.30158E+07        -0.49863E+08         0.00000E+00
    0.00000E+00         0.00000E+00        -0.58662E+08
 
   -0.58617E+08         0.30893E+07         0.00000E+00
    0.30893E+07        -0.49855E+08         0.00000E+00
    0.00000E+00         0.00000E+00        -0.58662E+08
 
   -0.58612E+08         0.31636E+07         0.00000E+00
    0.31636E+07        -0.49848E+08         0.00000E+00
    0.00000E+00         0.00000E+00        -0.58661E+08
 
   -0.58609E+08         0.32385E+07         0.00000E+00
    0.32385E+07        -0.49840E+08         0.00000E+00
    0.00000E+00         0.00000E+00        -0.58661E+08
 
   -0.58609E+08         0.33143E+07         0.00000E+00
    0.33143E+07        -0.49832E+08         0.00000E+00
    0.00000E+00         0.00000E+00        -0.58661E+08
 
   -0.58610E+08         0.33910E+07         0.00000E+00
    0.33910E+07        -0.49825E+08         0.00000E+00
    0.00000E+00         0.00000E+00        -0.58661E+08
 
   -0.58613E+08         0.34688E+07         0.00000E+00
    0.34688E+07        -0.49817E+08         0.00000E+00
    0.00000E+00         0.00000E+00        -0.58661E+08
 
   -0.58617E+08         0.35477E+07         0.00000E+00
    0.35477E+07        -0.49809E+08         0.00000E+00
    0.00000E+00         0.00000E+00        -0.58661E+08
 
   -0.58624E+08         0.36279E+07         0.00000E+00
    0.36279E+07        -0.49801E+08         0.00000E+00
    0.00000E+00         0.00000E+00        -0.58661E+08
 
   -0.58633E+08         0.37095E+07         0.00000E+00
    0.37095E+07        -0.49794E+08         0.00000E+00
    0.00000E+00         0.00000E+00        -0.58661E+08
 
   -0.58643E+08         0.37926E+07         0.00000E+00
    0.37926E+07        -0.49787E+08         0.00000E+00
    0.00000E+00         0.00000E+00        -0.58661E+08
 
   -0.58655E+08         0.38772E+07         0.00000E+00
    0.38772E+07        -0.49780E+08         0.00000E+00
    0.00000E+00         0.00000E+00        -0.58661E+08
 
   -0.59609E+08         0.50642E+05         0.00000E+00
    0.50642E+05        -0.50000E+08         0.00000E+00
    0.00000E+00         0.00000E+00        -0.58236E+08
 
   -0.59559E+08         0.14721E+06         0.00000E+00
    0.14721E+06        -0.50000E+08         0.00000E+00
    0.00000E+00         0.00000E+00        -0.58236E+08
 
   -0.59508E+08         0.24213E+06         0.00000E+00
    0.24213E+06        -0.50001E+08         0.00000E+00
    0.00000E+00         0.00000E+00        -0.58236E+08
 
   -0.59458E+08         0.33546E+06         0.00000E+00
    0.33546E+06        -0.50002E+08         0.00000E+00
    0.00000E+00         0.00000E+00        -0.58236E+08
 
   -0.59407E+08         0.42725E+06         0.00000E+00
    0.42725E+06        -0.50003E+08         0.00000E+00
    0.00000E+00         0.00000E+00        -0.58236E+08
 
   -0.59357E+08         0.51757E+06         0.00000E+00
    0.51757E+06        -0.50004E+08         0.00000E+00
    0.00000E+00         0.00000E+00        -0.58236E+08
 
   -0.59308E+08         0.60646E+06         0.00000E+00
    0.60646E+06        -0.50005E+08         0.00000E+00
    0.00000E+00         0.00000E+00        -0.58236E+08
 
   -0.59259E+08         0.69398E+06         0.00000E+00
    0.69398E+06        -0.50006E+08         0.00000E+00
    0.00000E+00         0.00000E+00        -0.58236E+08
 
   -0.59210E+08         0.78021E+06         0.00000E+00
    0.78021E+06        -0.50007E+08         0.00000E+00
    0.00000E+00         0.00000E+00        -0.58236E+08
 
   -0.59162E+08         0.86519E+06         0.00000E+00
    0.86519E+06        -0.50007E+08         0.00000E+00
    0.00000E+00         0.00000E+00        -0.58236E+08
 
   -0.59114E+08         0.94899E+06         0.00000E+00
    0.94899E+06        -0.50008E+08         0.00000E+00
    0.00000E+00         0.00000E+00        -0.58236E+08
 
   -0.59068E+08         0.10317E+07         0.00000E+00
    0.10317E+07        -0.50009E+08         0.00000E+00
    0.00000E+00         0.00000E+00        -0.58236E+08
 
   -0.59022E+08         0.11133E+07         0.00000E+00
    0.11133E+07        -0.50009E+08         0.00000E+00
    0.00000E+00         0.00000E+00        -0.58236E+08
 
   -0.58977E+08         0.11939E+07         0.00000E+00
    0.11939E+07        -0.50010E+08         0.00000E+00
    0.00000E+00         0.00000E+00        -0.58235E+08
 
   -0.58933E+08         0.12735E+07         0.00000E+00
    0.12735E+07        -0.50010E+08         0.00000E+00
    0.00000E+00         0.00000E+00        -0.58235E+08
 
   -0.58890E+08         0.13523E+07         0.00000E+00
    0.13523E+07        -0.50010E+08         0.00000E+00
    0.00000E+00         0.00000E+00        -0.58235E+08
 
   -0.58848E+08         0.14302E+07         0.00000E+00
    0.14302E+07        -0.50010E+08         0.00000E+00
    0.00000E+00         0.00000E+00        -0.58235E+08
 
   -0.58807E+08         0.15073E+07         0.00000E+00
    0.15073E+07        -0.50009E+08         0.00000E+00
    0.00000E+00         0.00000E+00        -0.58235E+08
 
   -0.58767E+08         0.15838E+07         0.00000E+00
    0.15838E+07        -0.50009E+08         0.00000E+00
    0.00000E+00         0.00000E+00        -0.58235E+08
 
   -0.58729E+08         0.16595E+07         0.00000E+00
    0.16595E+07        -0.50008E+08         0.00000E+00
    0.00000E+00         0.00000E+00        -0.58235E+08
 
   -0.58691E+08         0.17347E+07         0.00000E+00
    0.17347E+07        -0.50007E+08         0.00000E+00
    0.00000E+00         0.00000E+00        -0.58235E+08
 
   -0.58655E+08         0.18093E+07         0.00000E+00
    0.18093E+07        -0.50006E+08         0.00000E+00
    0.00000E+00         0.00000E+00        -0.58235E+08
 
   -0.58620E+08         0.18834E+07         0.00000E+00
    0.18834E+07        -0.50004E+08         0.00000E+00
    0.00000E+00         0.00000E+00        -0.58235E+08
 
   -0.58587E+08         0.19570E+07         0.00000E+00
    0.19570E+07        -0.50003E+08         0.00000E+00
    0.00000E+00         0.00000E+00        -0.58234E+08
 
   -0.58555E+08         0.20302E+07         0.00000E+00
    0.20302E+07        -0.50001E+08         0.00000E+00
    0.00000E+00         0.00000E+00        -0.58234E+08
 
   -0.58524E+08         0.21031E+07         0.00000E+00
    0.21031E+07        -0.49999E+08         0.00000E+00
    0.00000E+00         0.00000E+00        -0.58234E+08
 
   -0.58494E+08         0.21757E+07         0.00000E+00
    0.21757E+07        -0.49997E+08         0.00000E+00
    0.00000E+00         0.00000E+00        -0.58234E+08
 
   -0.58466E+08         0.22481E+07         0.00000E+00
    0.22481E+07        -0.49994E+08         0.00000E+00
    0.00000E+00         0.00000E+00        -0.58234E+08
 
   -0.58439E+08         0.23202E+07         0.00000E+00
    0.23202E+07        -0.49992E+08         0.00000E+00
    0.00000E+00         0.00000E+00        -0.58234E+08
 
   -0.58414E+08         0.23923E+07         0.00000E+00
    0.23923E+07        -0.49989E+08         0.00000E+00
    0.00000E+00         0.00000E+00        -0.58234E+08
 
   -0.58391E+08         0.24642E+07         0.00000E+00
    0.24642E+07        -0.49986E+08         0.00000E+00
    0.00000E+00         0.00000E+00        -0.58234E+08
 
   -0.58368E+08         0.25362E+07         0.00000E+00
    0.25362E+07        -0.49983E+08         0.00000E+00
    0.00000E+00         0.00000E+00        -0.58234E+08
 
   -0.58348E+08         0.26081E+07         0.00000E+00
    0.26081E+07        -0.49980E+08         0.00000E+00
    0.00000E+00         0.00000E+00        -0.58234E+08
 
   -0.58329E+08         0.26802E+07         0.00000E+00
    0.26802E+07        -0.49977E+08         0.00000E+00
    0.00000E+00         0.00000E+00        -0.58234E+08
 
   -0.58311E+08         0.27524E+07         0.00000E+00
    0.27524E+07        -0.49973E+08         0.00000E+00
    0.00000E+00         0.00000E+00        -0.58234E+08
 
   -0.58295E+08         0.28248E+07         0.00000E+00
    0.28248E+07        -0.49970E+08         0.00000E+00
    0.00000E+00         0.00000E+00        -0.58234E+08
 
   -0.58280E+08         0.28975E+07         0.00000E+00
    0.28975E+07        -0.49966E+08         0.00000E+00
    0.00000E+00         0.00000E+00        -0.58234E+08
 
   -0.58268E+08         0.29706E+07         0.00000E+00
    0.29706E+07        -0.49962E+08         0.00000E+00
    0.00000E+00         0.00000E+00        -0.58233E+08
 
   -0.58256E+08         0.30440E+07         0.00000E+00
    0.30440E+07        -0.49958E+08         0.00000E+00
    0.00000E+00         0.00000E+00        -0.58233E+08
 
   -0.58247E+08         0.31180E+07         0.00000E+00
    0.31180E+07        -0.49954E+08         0.00000E+00
    0.00000E+00         0.00000E+00        -0.58233E+08
 
   -0.58238E+08         0.31925E+07         0.00000E+00
    0.31925E+07        -0.49950E+08         0.00000E+00
    0.00000E+00         0.00000E+00        -0.58233E+08
 
   -0.58232E+08         0.32677E+07         0.00000E+00
    0.32677E+07        -0.49946E+08         0.00000E+00
    0.00000E+00         0.00000E+00        -0.58233E+08
 
   -0.58227E+08         0.33436E+07         0.00000E+00
    0.33436E+07        -0.49942E+08         0.00000E+00
    0.00000E+00         0.00000E+00        -0.58233E+08
 
   -0.58223E+08         0.34202E+07         0.00000E+00
    0.34202E+07        -0.49938E+08         0.00000E+00
    0.00000E+00         0.00000E+00        -0.58233E+08
 
   -0.58221E+08         0.34978E+07         0.00000E+00
    0.34978E+07        -0.49934E+08         0.00000E+00
    0.00000E+00         0.00000E+00        -0.58233E+08
 
   -0.58221E+08         0.35763E+07         0.00000E+00
    0.35763E+07        -0.49930E+08         0.00000E+00
    0.00000E+00         0.00000E+00        -0.58234E+08
 
   -0.58221E+08         0.36559E+07         0.00000E+00
    0.36559E+07        -0.49926E+08         0.00000E+00
    0.00000E+00         0.00000E+00        -0.58234E+08
 
   -0.58223E+08         0.37366E+07         0.00000E+00
    0.37366E+07        -0.49923E+08         0.00000E+00
    0.00000E+00         0.00000E+00        -0.58234E+08
 
   -0.58227E+08         0.38185E+07         0.00000E+00
    0.38185E+07        -0.49919E+08         0.00000E+00
    0.00000E+00         0.00000E+00        -0.58234E+08
 
   -0.58231E+08         0.39017E+07         0.00000E+00
    0.39017E+07        -0.49916E+08         0.00000E+00
    0.00000E+00         0.00000E+00        -0.58234E+08
 
   -0.59126E+08         0.49414E+05         0.00000E+00
    0.49414E+05        -0.50000E+08         0.00000E+00
    0.00000E+00         0.00000E+00        -0.57813E+08
 
   -0.59083E+08         0.14440E+06         0.00000E+00
    0.14440E+06        -0.50001E+08         0.00000E+00
    0.00000E+00         0.00000E+00        -0.57813E+08
 
   -0.59040E+08         0.23803E+06         0.00000E+00
    0.23803E+06        -0.50001E+08         0.00000E+00
    0.00000E+00         0.00000E+00        -0.57813E+08
 
   -0.58997E+08         0.33032E+06         0.00000E+00
    0.33032E+06        -0.50002E+08         0.00000E+00
    0.00000E+00         0.00000E+00        -0.57813E+08
 
   -0.58954E+08         0.42132E+06         0.00000E+00
    0.42132E+06        -0.50004E+08         0.00000E+00
    0.00000E+00         0.00000E+00        -0.57813E+08
 
   -0.58910E+08         0.51106E+06         0.00000E+00
    0.51106E+06        -0.50005E+08         0.00000E+00
    0.00000E+00         0.00000E+00        -0.57814E+08
 
   -0.58867E+08         0.59958E+06         0.00000E+00
    0.59958E+06        -0.50007E+08         0.00000E+00
    0.00000E+00         0.00000E+00        -0.57814E+08
 
   -0.58824E+08         0.68691E+06         0.00000E+00
    0.68691E+06        -0.50009E+08         0.00000E+00
    0.00000E+00         0.00000E+00        -0.57814E+08
 
   -0.58781E+08         0.77310E+06         0.00000E+00
    0.77310E+06        -0.50010E+08         0.00000E+00
    0.00000E+00         0.00000E+00        -0.57814E+08
 
   -0.58739E+08         0.85820E+06         0.00000E+00
    0.85820E+06        -0.50012E+08         0.00000E+00
    0.00000E+00         0.00000E+00        -0.57814E+08
 
   -0.58697E+08         0.94224E+06         0.00000E+00
    0.94224E+06        -0.50014E+08         0.00000E+00
    0.00000E+00         0.00000E+00        -0.57814E+08
 
   -0.58656E+08         0.10253E+07         0.00000E+00
    0.10253E+07        -0.50016E+08         0.00000E+00
    0.00000E+00         0.00000E+00        -0.57814E+08
 
   -0.58615E+08         0.11073E+07         0.00000E+00
    0.11073E+07        -0.50018E+08         0.00000E+00
    0.00000E+00         0.00000E+00        -0.57814E+08
 
   -0.58575E+08         0.11885E+07         0.00000E+00
    0.11885E+07        -0.50020E+08         0.00000E+00
    0.00000E+00         0.00000E+00        -0.57814E+08
 
   -0.58535E+08         0.12687E+07         0.00000E+00
    0.12687E+07        -0.50021E+08         0.00000E+00
    0.00000E+00         0.00000E+00        -0.57814E+08
 
   -0.58496E+08         0.13482E+07         0.00000E+00
    0.13482E+07        -0.50023E+08         0.00000E+00
    0.00000E+00         0.00000E+00        -0.57814E+08
 
   -0.58458E+08         0.14268E+07         0.00000E+00
    0.14268E+07        -0.50025E+08         0.00000E+00
    0.00000E+00         0.00000E+00        -0.57814E+08
 
   -0.58421E+08         0.15048E+07         0.00000E+00
    0.15048E+07        -0.50026E+08         0.00000E+00
    0.00000E+00         0.00000E+00        -0.57814E+08
 
   -0.58385E+08         0.15820E+07         0.00000E+00
    0.15820E+07        -0.50027E+08         0.00000E+00
    0.00000E+00         0.00000E+00        -0.57814E+08
 
   -0.58349E+08         0.16586E+07         0.00000E+00
    0.16586E+07        -0.50029E+08         0.00000E+00
    0.00000E+00         0.00000E+00        -0.57814E+08
 
   -0.58315E+08         0.17346E+07         0.00000E+00
    0.17346E+07        -0.50030E+08         0.00000E+00
    0.00000E+00         0.00000E+00        -0.57814E+08
 
   -0.58281E+08         0.18100E+07         0.00000E+00
    0.18100E+07        -0.50031E+08         0.00000E+00
    0.00000E+00         0.00000E+00        -0.57814E+08
 
   -0.58249E+08         0.18850E+07         0.00000E+00
    0.18850E+07        -0.50031E+08         0.00000E+00
    0.00000E+00         0.00000E+00        -0.57814E+08
 
   -0.58217E+08         0.19595E+07         0.00000E+00
    0.19595E+07        -0.50032E+08         0.00000E+00
    0.00000E+00         0.00000E+00        -0.57814E+08
 
   -0.58187E+08         0.20336E+07         0.00000E+00
    0.20336E+07        -0.50033E+08         0.00000E+00
    0.00000E+00         0.00000E+00        -0.57814E+08
 
   -0.58158E+08         0.21073E+07         0.00000E+00
    0.21073E+07        -0.50033E+08         0.00000E+00
    0.00000E+00         0.00000E+00        -0.57814E+08
 
   -0.58129E+08         0.21807E+07         0.00000E+00
    0.21807E+07        -0.50033E+08         0.00000E+00
    0.00000E+00         0.00000E+00        -0.57814E+08
 
   -0.58103E+08         0.22539E+07         0.00000E+00
    0.22539E+07        -0.50033E+08         0.00000E+00
    0.00000E+00         0.00000E+00        -0.57814E+08
 
   -0.58077E+08         0.23268E+07         0.00000E+00
    0.23268E+07        -0.50033E+08         0.00000E+00
    0.00000E+00         0.00000E+00        -0.57814E+08
 
   -0.58052E+08         0.23996E+07         0.00000E+00
    0.23996E+07        -0.50033E+08         0.00000E+00
    0.00000E+00         0.00000E+00        -0.57814E+08
 
   -0.58029E+08         0.24723E+07         0.00000E+00
    0.24723E+07        -0.50033E+08         0.00000E+00
    0.00000E+00         0.00000E+00        -0.57814E+08
 
   -0.58007E+08         0.25450E+07         0.00000E+00
    0.25450E+07        -0.50032E+08         0.00000E+00
    0.00000E+00         0.00000E+00        -0.57814E+08
 
   -0.57986E+08         0.26176E+07         0.00000E+00
    0.26176E+07        -0.50032E+08         0.00000E+00
    0.00000E+00         0.00000E+00        -0.57814E+08
 
   -0.57966E+08         0.26903E+07         0.00000E+00
    0.26903E+07        -0.50031E+08         0.00000E+00
    0.00000E+00         0.00000E+00        -0.57814E+08
 
   -0.57948E+08         0.27630E+07         0.00000E+00
    0.27630E+07        -0.50030E+08         0.00000E+00
    0.00000E+00         0.00000E+00        -0.57814E+08
 
   -0.57931E+08         0.28360E+07         0.00000E+00
    0.28360E+07        -0.50029E+08         0.00000E+00
    0.00000E+00         0.00000E+00        -0.57814E+08
 
   -0.57915E+08         0.29092E+07         0.00000E+00
    0.29092E+07        -0.50028E+08         0.00000E+00
    0.00000E+00         0.00000E+00        -0.57814E+08
 
   -0.57900E+08         0.29826E+07         0.00000E+00
    0.29826E+07        -0.50027E+08         0.00000E+00
    0.00000E+00         0.00000E+00        -0.57814E+08
 
   -0.57887E+08         0.30564E+07         0.00000E+00
    0.30564E+07        -0.50026E+08         0.00000E+00
    0.00000E+00         0.00000E+00        -0.57814E+08
 
   -0.57875E+08         0.31306E+07         0.00000E+00
    0.31306E+07        -0.50025E+08         0.00000E+00
    0.00000E+00         0.00000E+00        -0.57814E+08
 
   -0.57864E+08         0.32052E+07         0.00000E+00
    0.32052E+07        -0.50024E+08         0.00000E+00
    0.00000E+00         0.00000E+00        -0.57815E+08
 
   -0.57854E+08         0.32804E+07         0.00000E+00
    0.32804E+07        -0.50023E+08         0.00000E+00
    0.00000E+00         0.00000E+00        -0.57815E+08
 
   -0.57846E+08         0.33562E+07         0.00000E+00
    0.33562E+07        -0.50022E+08         0.00000E+00
    0.00000E+00         0.00000E+00        -0.57815E+08
 
   -0.57838E+08         0.34326E+07         0.00000E+00
    0.34326E+07        -0.50021E+08         0.00000E+00
    0.00000E+00         0.00000E+00        -0.57815E+08
 
   -0.57832E+08         0.35098E+07         0.00000E+00
    0.35098E+07        -0.50020E+08         0.00000E+00
    0.00000E+00         0.00000E+00        -0.57815E+08
 
   -0.57827E+08         0.35877E+07         0.00000E+00
    0.35877E+07        -0.50019E+08         0.00000E+00
    0.00000E+00         0.00000E+00        -0.57815E+08
 
   -0.57823E+08         0.36665E+07         0.00000E+00
    0.36665E+07        -0.50018E+08         0.00000E+00
    0.00000E+00         0.00000E+00        -0.57815E+08
 
   -0.57819E+08         0.37462E+07         0.00000E+00
    0.37462E+07        -0.50017E+08         0.00000E+00
    0.00000E+00         0.00000E+00        -0.57815E+08
 
   -0.57817E+08         0.38269E+07         0.00000E+00
    0.38269E+07        -0.50017E+08         0.00000E+00
    0.00000E+00         0.00000E+00        -0.57815E+08
 
   -0.57815E+08         0.39086E+07         0.00000E+00
    0.39086E+07        -0.50017E+08         0.00000E+00
    0.00000E+00         0.00000E+00        -0.57815E+08
 
   -0.58653E+08         0.48058E+05         0.00000E+00
    0.48058E+05        -0.50000E+08         0.00000E+00
    0.00000E+00         0.00000E+00        -0.57400E+08
 
   -0.58616E+08         0.14109E+06         0.00000E+00
    0.14109E+06        -0.50001E+08         0.00000E+00
    0.00000E+00         0.00000E+00        -0.57401E+08
 
   -0.58579E+08         0.23302E+06         0.00000E+00
    0.23302E+06        -0.50001E+08         0.00000E+00
    0.00000E+00         0.00000E+00        -0.57401E+08
 
   -0.58542E+08         0.32385E+06         0.00000E+00
    0.32385E+06        -0.50003E+08         0.00000E+00
    0.00000E+00         0.00000E+00        -0.57401E+08
 
   -0.58505E+08         0.41361E+06         0.00000E+00
    0.41361E+06        -0.50004E+08         0.00000E+00
    0.00000E+00         0.00000E+00        -0.57401E+08
 
   -0.58467E+08         0.50230E+06         0.00000E+00
    0.50230E+06        -0.50006E+08         0.00000E+00
    0.00000E+00         0.00000E+00        -0.57401E+08
 
   -0.58429E+08         0.58997E+06         0.00000E+00
    0.58997E+06        -0.50008E+08         0.00000E+00
    0.00000E+00         0.00000E+00        -0.57401E+08
 
   -0.58392E+08         0.67662E+06         0.00000E+00
    0.67662E+06        -0.50010E+08         0.00000E+00
    0.00000E+00         0.00000E+00        -0.57401E+08
 
   -0.58354E+08         0.76230E+06         0.00000E+00
    0.76230E+06        -0.50012E+08         0.00000E+00
    0.00000E+00         0.00000E+00        -0.57401E+08
 
   -0.58317E+08         0.84702E+06         0.00000E+00
    0.84702E+06        -0.50015E+08         0.00000E+00
    0.00000E+00         0.00000E+00        -0.57401E+08
 
   -0.58280E+08         0.93083E+06         0.00000E+00
    0.93083E+06        -0.50018E+08         0.00000E+00
    0.00000E+00         0.00000E+00        -0.57401E+08
 
   -0.58243E+08         0.10137E+07         0.00000E+00
    0.10137E+07        -0.50020E+08         0.00000E+00
    0.00000E+00         0.00000E+00        -0.57401E+08
 
   -0.58207E+08         0.10958E+07         0.00000E+00
    0.10958E+07        -0.50023E+08         0.00000E+00
    0.00000E+00         0.00000E+00        -0.57401E+08
 
   -0.58171E+08         0.11770E+07         0.00000E+00
    0.11770E+07        -0.50026E+08         0.00000E+00
    0.00000E+00         0.00000E+00        -0.57401E+08
 
   -0.58135E+08         0.12575E+07         0.00000E+00
    0.12575E+07        -0.50028E+08         0.00000E+00
    0.00000E+00         0.00000E+00        -0.57401E+08
 
   -0.58100E+08         0.13372E+07         0.00000E+00
    0.13372E+07        -0.50031E+08         0.00000E+00
    0.00000E+00         0.00000E+00        -0.57401E+08
 
   -0.58066E+08         0.14162E+07         0.00000E+00
    0.14162E+07        -0.50034E+08         0.00000E+00
    0.00000E+00         0.00000E+00        -0.57401E+08
 
   -0.58032E+08         0.14945E+07         0.00000E+00
    0.14945E+07        -0.50036E+08         0.00000E+00
    0.00000E+00         0.00000E+00        -0.57402E+08
 
   -0.57999E+08         0.15721E+07         0.00000E+00
    0.15721E+07        -0.50039E+08         0.00000E+00
    0.00000E+00         0.00000E+00        -0.57402E+08
 
   -0.57966E+08         0.16492E+07         0.00000E+00
    0.16492E+07        -0.50041E+08         0.00000E+00
    0.00000E+00         0.00000E+00        -0.57402E+08
 
   -0.57935E+08         0.17257E+07         0.00000E+00
    0.17257E+07        -0.50044E+08         0.00000E+00
    0.00000E+00         0.00000E+00        -0.57402E+08
 
   -0.57904E+08         0.18017E+07         0.00000E+00
    0.18017E+07        -0.50046E+08         0.00000E+00
    0.00000E+00         0.00000E+00        -0.57402E+08
 
   -0.57873E+08         0.18772E+07         0.00000E+00
    0.18772E+07        -0.50049E+08         0.00000E+00
    0.00000E+00         0.00000E+00        -0.57402E+08
 
   -0.57844E+08         0.19523E+07         0.00000E+00
    0.19523E+07        -0.50051E+08         0.00000E+00
    0.00000E+00         0.00000E+00        -0.57402E+08
 
   -0.57816E+08         0.20270E+07         0.00000E+00
    0.20270E+07        -0.50053E+08         0.00000E+00
    0.00000E+00         0.00000E+00        -0.57402E+08
 
   -0.57788E+08         0.21013E+07         0.00000E+00
    0.21013E+07        -0.50055E+08         0.00000E+00
    0.00000E+00         0.00000E+00        -0.57403E+08
 
   -0.57761E+08         0.21754E+07         0.00000E+00
    0.21754E+07        -0.50057E+08         0.00000E+00
    0.00000E+00         0.00000E+00        -0.57403E+08
 
   -0.57736E+08         0.22491E+07         0.00000E+00
    0.22491E+07        -0.50059E+08         0.00000E+00
    0.00000E+00         0.00000E+00        -0.57403E+08
 
   -0.57711E+08         0.23227E+07         0.00000E+00
    0.23227E+07        -0.50061E+08         0.00000E+00
    0.00000E+00         0.00000E+00        -0.57403E+08
 
   -0.57687E+08         0.23960E+07         0.00000E+00
    0.23960E+07        -0.50062E+08         0.00000E+00
    0.00000E+00         0.00000E+00        -0.57403E+08
 
   -0.57664E+08         0.24693E+07         0.00000E+00
    0.24693E+07        -0.50064E+08         0.00000E+00
    0.00000E+00         0.00000E+00        -0.57403E+08
 
   -0.57642E+08         0.25424E+07         0.00000E+00
    0.25424E+07        -0.50065E+08         0.00000E+00
    0.00000E+00         0.00000E+00        -0.57403E+08
 
   -0.57621E+08         0.26155E+07         0.00000E+00
    0.26155E+07        -0.50067E+08         0.00000E+00
    0.00000E+00         0.00000E+00        -0.57403E+08
 
   -0.57601E+08         0.26887E+07         0.00000E+00
    0.26887E+07        -0.50068E+08         0.00000E+00
    0.00000E+00         0.00000E+00        -0.57404E+08
 
   -0.57582E+08         0.27619E+07         0.00000E+00
    0.27619E+07        -0.50069E+08         0.00000E+00
    0.00000E+00         0.00000E+00        -0.57404E+08
 
   -0.57564E+08         0.28352E+07         0.00000E+00
    0.28352E+07        -0.50070E+08         0.00000E+00
    0.00000E+00         0.00000E+00        -0.57404E+08
 
   -0.57547E+08         0.29086E+07         0.00000E+00
    0.29086E+07        -0.50072E+08         0.00000E+00
    0.00000E+00         0.00000E+00        -0.57404E+08
 
   -0.57531E+08         0.29823E+07         0.00000E+00
    0.29823E+07        -0.50073E+08         0.00000E+00
    0.00000E+00         0.00000E+00        -0.57404E+08
 
   -0.57516E+08         0.30562E+07         0.00000E+00
    0.30562E+07        -0.50074E+08         0.00000E+00
    0.00000E+00         0.00000E+00        -0.57404E+08
 
   -0.57502E+08         0.31304E+07         0.00000E+00
    0.31304E+07        -0.50075E+08         0.00000E+00
    0.00000E+00         0.00000E+00        -0.57404E+08
 
   -0.57489E+08         0.32050E+07         0.00000E+00
    0.32050E+07        -0.50076E+08         0.00000E+00
    0.00000E+00         0.00000E+00        -0.57404E+08
 
   -0.57477E+08         0.32801E+07         0.00000E+00
    0.32801E+07        -0.50077E+08         0.00000E+00
    0.00000E+00         0.00000E+00        -0.57405E+08
 
   -0.57466E+08         0.33556E+07         0.00000E+00
    0.33556E+07        -0.50078E+08         0.00000E+00
    0.00000E+00         0.00000E+00        -0.57405E+08
 
   -0.57455E+08         0.34316E+07         0.00000E+00
    0.34316E+07        -0.50080E+08         0.00000E+00
    0.00000E+00         0.00000E+00        -0.57405E+08
 
   -0.57446E+08         0.35081E+07         0.00000E+00
    0.35081E+07        -0.50081E+08         0.00000E+00
    0.00000E+00         0.00000E+00        -0.57405E+08
 
   -0.57437E+08         0.35853E+07         0.00000E+00
    0.35853E+07        -0.50083E+08         0.00000E+00
    0.00000E+00         0.00000E+00        -0.57405E+08
 
   -0.57429E+08         0.36632E+07         0.00000E+00
    0.36632E+07        -0.50084E+08         0.00000E+00
    0.00000E+00         0.00000E+00        -0.57405E+08
 
   -0.57421E+08         0.37418E+07         0.00000E+00
    0.37418E+07        -0.50086E+08         0.00000E+00
    0.00000E+00         0.00000E+00        -0.57405E+08
 
   -0.57414E+08         0.38212E+07         0.00000E+00
    0.38212E+07        -0.50089E+08         0.00000E+00
    0.00000E+00         0.00000E+00        -0.57405E+08
 
   -0.57408E+08         0.39014E+07         0.00000E+00
    0.39014E+07        -0.50091E+08         0.00000E+00
    0.00000E+00         0.00000E+00        -0.57405E+08
 
   -0.58190E+08         0.46691E+05         0.00000E+00
    0.46691E+05        -0.50000E+08         0.00000E+00
    0.00000E+00         0.00000E+00        -0.56997E+08
 
   -0.58159E+08         0.13762E+06         0.00000E+00
    0.13762E+06        -0.50001E+08         0.00000E+00
    0.00000E+00         0.00000E+00        -0.56997E+08
 
   -0.58127E+08         0.22766E+06         0.00000E+00
    0.22766E+06        -0.50001E+08         0.00000E+00
    0.00000E+00         0.00000E+00        -0.56997E+08
 
   -0.58094E+08         0.31681E+06         0.00000E+00
    0.31681E+06        -0.50003E+08         0.00000E+00
    0.00000E+00         0.00000E+00        -0.56997E+08
 
   -0.58062E+08         0.40507E+06         0.00000E+00
    0.40507E+06        -0.50004E+08         0.00000E+00
    0.00000E+00         0.00000E+00        -0.56997E+08
 
   -0.58029E+08         0.49245E+06         0.00000E+00
    0.49245E+06        -0.50006E+08         0.00000E+00
    0.00000E+00         0.00000E+00        -0.56997E+08
 
   -0.57996E+08         0.57897E+06         0.00000E+00
    0.57897E+06        -0.50008E+08         0.00000E+00
    0.00000E+00         0.00000E+00        -0.56997E+08
 
   -0.57963E+08         0.66465E+06         0.00000E+00
    0.66465E+06        -0.50011E+08         0.00000E+00
    0.00000E+00         0.00000E+00        -0.56997E+08
 
   -0.57930E+08         0.74949E+06         0.00000E+00
    0.74949E+06        -0.50013E+08         0.00000E+00
    0.00000E+00         0.00000E+00        -0.56997E+08
 
   -0.57897E+08         0.83352E+06         0.00000E+00
    0.83352E+06        -0.50016E+08         0.00000E+00
    0.00000E+00         0.00000E+00        -0.56998E+08
 
   -0.57864E+08         0.91675E+06         0.00000E+00
    0.91675E+06        -0.50019E+08         0.00000E+00
    0.00000E+00         0.00000E+00        -0.56998E+08
 
   -0.57831E+08         0.99921E+06         0.00000E+00
    0.99921E+06        -0.50022E+08         0.00000E+00
    0.00000E+00         0.00000E+00        -0.56998E+08
 
   -0.57799E+08         0.10809E+07         0.00000E+00
    0.10809E+07        -0.50025E+08         0.00000E+00
    0.00000E+00         0.00000E+00        -0.56998E+08
 
   -0.57767E+08         0.11619E+07         0.00000E+00
    0.11619E+07        -0.50028E+08         0.00000E+00
    0.00000E+00         0.00000E+00        -0.56998E+08
 
   -0.57735E+08         0.12422E+07         0.00000E+00
    0.12422E+07        -0.50032E+08         0.00000E+00
    0.00000E+00         0.00000E+00        -0.56998E+08
 
   -0.57703E+08         0.13219E+07         0.00000E+00
    0.13219E+07        -0.50035E+08         0.00000E+00
    0.00000E+00         0.00000E+00        -0.56998E+08
 
   -0.57672E+08         0.14008E+07         0.00000E+00
    0.14008E+07        -0.50038E+08         0.00000E+00
    0.00000E+00         0.00000E+00        -0.56999E+08
 
   -0.57641E+08         0.14792E+07         0.00000E+00
    0.14792E+07        -0.50042E+08         0.00000E+00
    0.00000E+00         0.00000E+00        -0.56999E+08
 
   -0.57611E+08         0.15570E+07         0.00000E+00
    0.15570E+07        -0.50045E+08         0.00000E+00
    0.00000E+00         0.00000E+00        -0.56999E+08
 
   -0.57582E+08         0.16343E+07         0.00000E+00
    0.16343E+07        -0.50049E+08         0.00000E+00
    0.00000E+00         0.00000E+00        -0.56999E+08
 
   -0.57552E+08         0.17110E+07         0.00000E+00
    0.17110E+07        -0.50052E+08         0.00000E+00
    0.00000E+00         0.00000E+00        -0.56999E+08
 
   -0.57524E+08         0.17873E+07         0.00000E+00
    0.17873E+07        -0.50055E+08         0.00000E+00
    0.00000E+00         0.00000E+00        -0.57000E+08
 
   -0.57496E+08         0.18631E+07         0.00000E+00
    0.18631E+07        -0.50059E+08         0.00000E+00
    0.00000E+00         0.00000E+00        -0.57000E+08
 
   -0.57469E+08         0.19385E+07         0.00000E+00
    0.19385E+07        -0.50062E+08         0.00000E+00
    0.00000E+00         0.00000E+00        -0.57000E+08
 
   -0.57442E+08         0.20136E+07         0.00000E+00
    0.20136E+07        -0.50065E+08         0.00000E+00
    0.00000E+00         0.00000E+00        -0.57000E+08
 
   -0.57416E+08         0.20883E+07         0.00000E+00
    0.20883E+07        -0.50068E+08         0.00000E+00
    0.00000E+00         0.00000E+00        -0.57000E+08
 
   -0.57391E+08         0.21627E+07         0.00000E+00
    0.21627E+07        -0.50071E+08         0.00000E+00
    0.00000E+00         0.00000E+00        -0.57001E+08
 
   -0.57366E+08         0.22368E+07         0.00000E+00
    0.22368E+07        -0.50075E+08         0.00000E+00
    0.00000E+00         0.00000E+00        -0.57001E+08
 
   -0.57342E+08         0.23107E+07         0.00000E+00
    0.23107E+07        -0.50078E+08         0.00000E+00
    0.00000E+00         0.00000E+00        -0.57001E+08
 
   -0.57319E+08         0.23844E+07         0.00000E+00
    0.23844E+07        -0.50081E+08         0.00000E+00
    0.00000E+00         0.00000E+00        -0.57001E+08
 
   -0.57297E+08         0.24580E+07         0.00000E+00
    0.24580E+07        -0.50083E+08         0.00000E+00
    0.00000E+00         0.00000E+00        -0.57001E+08
 
   -0.57275E+08         0.25315E+07         0.00000E+00
    0.25315E+07        -0.50086E+08         0.00000E+00
    0.00000E+00         0.00000E+00        -0.57002E+08
 
   -0.57255E+08         0.26049E+07         0.00000E+00
    0.26049E+07        -0.50089E+08         0.00000E+00
    0.00000E+00         0.00000E+00        -0.57002E+08
 
   -0.57235E+08         0.26783E+07         0.00000E+00
    0.26783E+07        -0.50092E+08         0.00000E+00
    0.00000E+00         0.00000E+00        -0.57002E+08
 
   -0.57215E+08         0.27516E+07         0.00000E+00
    0.27516E+07        -0.50095E+08         0.00000E+00
    0.00000E+00         0.00000E+00        -0.57002E+08
 
   -0.57197E+08         0.28251E+07         0.00000E+00
    0.28251E+07        -0.50098E+08         0.00000E+00
    0.00000E+00         0.00000E+00        -0.57002E+08
 
   -0.57179E+08         0.28986E+07         0.00000E+00
    0.28986E+07        -0.50100E+08         0.00000E+00
    0.00000E+00         0.00000E+00        -0.57003E+08
 
   -0.57162E+08         0.29723E+07         0.00000E+00
    0.29723E+07        -0.50103E+08         0.00000E+00
    0.00000E+00         0.00000E+00        -0.57003E+08
 
   -0.57146E+08         0.30462E+07         0.00000E+00
    0.30462E+07        -0.50106E+08         0.00000E+00
    0.00000E+00         0.00000E+00        -0.57003E+08
 
   -0.57130E+08         0.31203E+07         0.00000E+00
    0.31203E+07        -0.50109E+08         0.00000E+00
    0.00000E+00         0.00000E+00        -0.57003E+08
 
   -0.57116E+08         0.31947E+07         0.00000E+00
    0.31947E+07        -0.50112E+08         0.00000E+00
    0.00000E+00         0.00000E+00        -0.57003E+08
 
   -0.57102E+08         0.32694E+07         0.00000E+00
    0.32694E+07        -0.50115E+08         0.00000E+00
    0.00000E+00         0.00000E+00        -0.57003E+08
 
   -0.57088E+08         0.33444E+07         0.00000E+00
    0.33444E+07        -0.50118E+08         0.00000E+00
    0.00000E+00         0.00000E+00        -0.57004E+08
 
   -0.57075E+08         0.34199E+07         0.00000E+00
    0.34199E+07        -0.50121E+08         0.00000E+00
    0.00000E+00         0.00000E+00        -0.57004E+08
 
   -0.57063E+08         0.34957E+07         0.00000E+00
    0.34957E+07        -0.50124E+08         0.00000E+00
    0.00000E+00         0.00000E+00        -0.57004E+08
 
   -0.57051E+08         0.35721E+07         0.00000E+00
    0.35721E+07        -0.50128E+08         0.00000E+00
    0.00000E+00         0.00000E+00        -0.57004E+08
 
   -0.57040E+08         0.36490E+07         0.00000E+00
    0.36490E+07        -0.50131E+08         0.00000E+00
    0.00000E+00         0.00000E+00        -0.57004E+08
 
   -0.57029E+08         0.37264E+07         0.00000E+00
    0.37264E+07        -0.50135E+08         0.00000E+00
    0.00000E+00         0.00000E+00        -0.57004E+08
 
   -0.57019E+08         0.38044E+07         0.00000E+00
    0.38044E+07        -0.50139E+08         0.00000E+00
    0.00000E+00         0.00000E+00        -0.57004E+08
 
   -0.57009E+08         0.38830E+07         0.00000E+00
    0.38830E+07        -0.50144E+08         0.00000E+00
    0.00000E+00         0.00000E+00        -0.57004E+08
 
   -0.57739E+08         0.45386E+05         0.00000E+00
    0.45386E+05        -0.50000E+08         0.00000E+00
    0.00000E+00         0.00000E+00        -0.56603E+08
 
   -0.57711E+08         0.13421E+06         0.00000E+00
    0.13421E+06        -0.50001E+08         0.00000E+00
    0.00000E+00         0.00000E+00        -0.56603E+08
 
   -0.57683E+08         0.22232E+06         0.00000E+00
    0.22232E+06        -0.50001E+08         0.00000E+00
    0.00000E+00         0.00000E+00        -0.56603E+08
 
   -0.57655E+08         0.30970E+06         0.00000E+00
    0.30970E+06        -0.50003E+08         0.00000E+00
    0.00000E+00         0.00000E+00        -0.56603E+08
 
   -0.57626E+08         0.39637E+06         0.00000E+00
    0.39637E+06        -0.50004E+08         0.00000E+00
    0.00000E+00         0.00000E+00        -0.56603E+08
 
   -0.57598E+08         0.48231E+06         0.00000E+00
    0.48231E+06        -0.50006E+08         0.00000E+00
    0.00000E+00         0.00000E+00        -0.56603E+08
 
   -0.57569E+08         0.56753E+06         0.00000E+00
    0.56753E+06        -0.50008E+08         0.00000E+00
    0.00000E+00         0.00000E+00        -0.56603E+08
 
   -0.57539E+08         0.65204E+06         0.00000E+00
    0.65204E+06        -0.50011E+08         0.00000E+00
    0.00000E+00         0.00000E+00        -0.56603E+08
 
   -0.57510E+08         0.73586E+06         0.00000E+00
    0.73586E+06        -0.50013E+08         0.00000E+00
    0.00000E+00         0.00000E+00        -0.56603E+08
 
   -0.57481E+08         0.81898E+06         0.00000E+00
    0.81898E+06        -0.50016E+08         0.00000E+00
    0.00000E+00         0.00000E+00        -0.56603E+08
 
   -0.57452E+08         0.90143E+06         0.00000E+00
    0.90143E+06        -0.50019E+08         0.00000E+00
    0.00000E+00         0.00000E+00        -0.56604E+08
 
   -0.57422E+08         0.98322E+06         0.00000E+00
    0.98322E+06        -0.50022E+08         0.00000E+00
    0.00000E+00         0.00000E+00        -0.56604E+08
 
   -0.57393E+08         0.10644E+07         0.00000E+00
    0.10644E+07        -0.50026E+08         0.00000E+00
    0.00000E+00         0.00000E+00        -0.56604E+08
 
   -0.57365E+08         0.11449E+07         0.00000E+00
    0.11449E+07        -0.50029E+08         0.00000E+00
    0.00000E+00         0.00000E+00        -0.56604E+08
 
   -0.57336E+08         0.12248E+07         0.00000E+00
    0.12248E+07        -0.50033E+08         0.00000E+00
    0.00000E+00         0.00000E+00        -0.56604E+08
 
   -0.57307E+08         0.13041E+07         0.00000E+00
    0.13041E+07        -0.50036E+08         0.00000E+00
    0.00000E+00         0.00000E+00        -0.56605E+08
 
   -0.57279E+08         0.13829E+07         0.00000E+00
    0.13829E+07        -0.50040E+08         0.00000E+00
    0.00000E+00         0.00000E+00        -0.56605E+08
 
   -0.57251E+08         0.14611E+07         0.00000E+00
    0.14611E+07        -0.50044E+08         0.00000E+00
    0.00000E+00         0.00000E+00        -0.56605E+08
 
   -0.57224E+08         0.15388E+07         0.00000E+00
    0.15388E+07        -0.50048E+08         0.00000E+00
    0.00000E+00         0.00000E+00        -0.56605E+08
 
   -0.57197E+08         0.16160E+07         0.00000E+00
    0.16160E+07        -0.50052E+08         0.00000E+00
    0.00000E+00         0.00000E+00        -0.56605E+08
 
   -0.57170E+08         0.16927E+07         0.00000E+00
    0.16927E+07        -0.50056E+08         0.00000E+00
    0.00000E+00         0.00000E+00        -0.56606E+08
 
   -0.57143E+08         0.17690E+07         0.00000E+00
    0.17690E+07        -0.50059E+08         0.00000E+00
    0.00000E+00         0.00000E+00        -0.56606E+08
 
   -0.57118E+08         0.18449E+07         0.00000E+00
    0.18449E+07        -0.50063E+08         0.00000E+00
    0.00000E+00         0.00000E+00        -0.56606E+08
 
   -0.57092E+08         0.19204E+07         0.00000E+00
    0.19204E+07        -0.50067E+08         0.00000E+00
    0.00000E+00         0.00000E+00        -0.56607E+08
 
   -0.57067E+08         0.19955E+07         0.00000E+00
    0.19955E+07        -0.50071E+08         0.00000E+00
    0.00000E+00         0.00000E+00        -0.56607E+08
 
   -0.57043E+08         0.20704E+07         0.00000E+00
    0.20704E+07        -0.50075E+08         0.00000E+00
    0.00000E+00         0.00000E+00        -0.56607E+08
 
   -0.57019E+08         0.21449E+07         0.00000E+00
    0.21449E+07        -0.50079E+08         0.00000E+00
    0.00000E+00         0.00000E+00        -0.56607E+08
 
   -0.56996E+08         0.22192E+07         0.00000E+00
    0.22192E+07        -0.50083E+08         0.00000E+00
    0.00000E+00         0.00000E+00        -0.56608E+08
 
   -0.56973E+08         0.22933E+07         0.00000E+00
    0.22933E+07        -0.50087E+08         0.00000E+00
    0.00000E+00         0.00000E+00        -0.56608E+08
 
   -0.56951E+08         0.23671E+07         0.00000E+00
    0.23671E+07        -0.50091E+08         0.00000E+00
    0.00000E+00         0.00000E+00        -0.56608E+08
 
   -0.56929E+08         0.24408E+07         0.00000E+00
    0.24408E+07        -0.50095E+08         0.00000E+00
    0.00000E+00         0.00000E+00        -0.56608E+08
 
   -0.56908E+08         0.25144E+07         0.00000E+00
    0.25144E+07        -0.50099E+08         0.00000E+00
    0.00000E+00         0.00000E+00        -0.56609E+08
 
   -0.56887E+08         0.25879E+07         0.00000E+00
    0.25879E+07        -0.50103E+08         0.00000E+00
    0.00000E+00         0.00000E+00        -0.56609E+08
 
   -0.56867E+08         0.26613E+07         0.00000E+00
    0.26613E+07        -0.50107E+08         0.00000E+00
    0.00000E+00         0.00000E+00        -0.56609E+08
 
   -0.56848E+08         0.27347E+07         0.00000E+00
    0.27347E+07        -0.50111E+08         0.00000E+00
    0.00000E+00         0.00000E+00        -0.56609E+08
 
   -0.56829E+08         0.28081E+07         0.00000E+00
    0.28081E+07        -0.50114E+08         0.00000E+00
    0.00000E+00         0.00000E+00        -0.56610E+08
 
   -0.56811E+08         0.28815E+07         0.00000E+00
    0.28815E+07        -0.50118E+08         0.00000E+00
    0.00000E+00         0.00000E+00        -0.56610E+08
 
   -0.56794E+08         0.29551E+07         0.00000E+00
    0.29551E+07        -0.50122E+08         0.00000E+00
    0.00000E+00         0.00000E+00        -0.56610E+08
 
   -0.56777E+08         0.30287E+07         0.00000E+00
    0.30287E+07        -0.50127E+08         0.00000E+00
    0.00000E+00         0.00000E+00        -0.56610E+08
 
   -0.56760E+08         0.31025E+07         0.00000E+00
    0.31025E+07        -0.50131E+08         0.00000E+00
    0.00000E+00         0.00000E+00        -0.56610E+08
 
   -0.56744E+08         0.31765E+07         0.00000E+00
    0.31765E+07        -0.50135E+08         0.00000E+00
    0.00000E+00         0.00000E+00        -0.56611E+08
 
   -0.56728E+08         0.32507E+07         0.00000E+00
    0.32507E+07        -0.50139E+08         0.00000E+00
    0.00000E+00         0.00000E+00        -0.56611E+08
 
   -0.56713E+08         0.33252E+07         0.00000E+00
    0.33252E+07        -0.50144E+08         0.00000E+00
    0.00000E+00         0.00000E+00        -0.56611E+08
 
   -0.56699E+08         0.33999E+07         0.00000E+00
    0.33999E+07        -0.50148E+08         0.00000E+00
    0.00000E+00         0.00000E+00        -0.56611E+08
 
   -0.56684E+08         0.34750E+07         0.00000E+00
    0.34750E+07        -0.50153E+08         0.00000E+00
    0.00000E+00         0.00000E+00        -0.56611E+08
 
   -0.56670E+08         0.35504E+07         0.00000E+00
    0.35504E+07        -0.50158E+08         0.00000E+00
    0.00000E+00         0.00000E+00        -0.56611E+08
 
   -0.56657E+08         0.36262E+07         0.00000E+00
    0.36262E+07        -0.50163E+08         0.00000E+00
    0.00000E+00         0.00000E+00        -0.56612E+08
 
   -0.56644E+08         0.37024E+07         0.00000E+00
    0.37024E+07        -0.50169E+08         0.00000E+00
    0.00000E+00         0.00000E+00        -0.56612E+08
 
   -0.56631E+08         0.37790E+07         0.00000E+00
    0.37790E+07        -0.50174E+08         0.00000E+00
    0.00000E+00         0.00000E+00        -0.56612E+08
 
   -0.56618E+08         0.38562E+07         0.00000E+00
    0.38562E+07        -0.50180E+08         0.00000E+00
    0.00000E+00         0.00000E+00        -0.56612E+08
 
   -0.57298E+08         0.44180E+05         0.00000E+00
    0.44180E+05        -0.50000E+08         0.00000E+00
    0.00000E+00         0.00000E+00        -0.56217E+08
 
   -0.57274E+08         0.13099E+06         0.00000E+00
    0.13099E+06        -0.50001E+08         0.00000E+00
    0.00000E+00         0.00000E+00        -0.56217E+08
 
   -0.57249E+08         0.21722E+06         0.00000E+00
    0.21722E+06        -0.50001E+08         0.00000E+00
    0.00000E+00         0.00000E+00        -0.56217E+08
 
   -0.57224E+08         0.30287E+06         0.00000E+00
    0.30287E+06        -0.50002E+08         0.00000E+00
    0.00000E+00         0.00000E+00        -0.56217E+08
 
   -0.57199E+08         0.38792E+06         0.00000E+00
    0.38792E+06        -0.50004E+08         0.00000E+00
    0.00000E+00         0.00000E+00        -0.56217E+08
 
   -0.57173E+08         0.47238E+06         0.00000E+00
    0.47238E+06        -0.50006E+08         0.00000E+00
    0.00000E+00         0.00000E+00        -0.56217E+08
 
   -0.57147E+08         0.55625E+06         0.00000E+00
    0.55625E+06        -0.50008E+08         0.00000E+00
    0.00000E+00         0.00000E+00        -0.56218E+08
 
   -0.57122E+08         0.63952E+06         0.00000E+00
    0.63952E+06        -0.50010E+08         0.00000E+00
    0.00000E+00         0.00000E+00        -0.56218E+08
 
   -0.57095E+08         0.72221E+06         0.00000E+00
    0.72221E+06        -0.50013E+08         0.00000E+00
    0.00000E+00         0.00000E+00        -0.56218E+08
 
   -0.57069E+08         0.80431E+06         0.00000E+00
    0.80431E+06        -0.50016E+08         0.00000E+00
    0.00000E+00         0.00000E+00        -0.56218E+08
 
   -0.57043E+08         0.88584E+06         0.00000E+00
    0.88584E+06        -0.50019E+08         0.00000E+00
    0.00000E+00         0.00000E+00        -0.56218E+08
 
   -0.57017E+08         0.96680E+06         0.00000E+00
    0.96680E+06        -0.50022E+08         0.00000E+00
    0.00000E+00         0.00000E+00        -0.56218E+08
 
   -0.56991E+08         0.10472E+07         0.00000E+00
    0.10472E+07        -0.50025E+08         0.00000E+00
    0.00000E+00         0.00000E+00        -0.56219E+08
 
   -0.56965E+08         0.11271E+07         0.00000E+00
    0.11271E+07        -0.50029E+08         0.00000E+00
    0.00000E+00         0.00000E+00        -0.56219E+08
 
   -0.56939E+08         0.12064E+07         0.00000E+00
    0.12064E+07        -0.50032E+08         0.00000E+00
    0.00000E+00         0.00000E+00        -0.56219E+08
 
   -0.56913E+08         0.12852E+07         0.00000E+00
    0.12852E+07        -0.50036E+08         0.00000E+00
    0.00000E+00         0.00000E+00        -0.56219E+08
 
   -0.56888E+08         0.13636E+07         0.00000E+00
    0.13636E+07        -0.50040E+08         0.00000E+00
    0.00000E+00         0.00000E+00        -0.56220E+08
 
   -0.56862E+08         0.14414E+07         0.00000E+00
    0.14414E+07        -0.50044E+08         0.00000E+00
    0.00000E+00         0.00000E+00        -0.56220E+08
 
   -0.56837E+08         0.15188E+07         0.00000E+00
    0.15188E+07        -0.50048E+08         0.00000E+00
    0.00000E+00         0.00000E+00        -0.56220E+08
 
   -0.56812E+08         0.15957E+07         0.00000E+00
    0.15957E+07        -0.50052E+08         0.00000E+00
    0.00000E+00         0.00000E+00        -0.56221E+08
 
   -0.56788E+08         0.16723E+07         0.00000E+00
    0.16723E+07        -0.50056E+08         0.00000E+00
    0.00000E+00         0.00000E+00        -0.56221E+08
 
   -0.56763E+08         0.17484E+07         0.00000E+00
    0.17484E+07        -0.50060E+08         0.00000E+00
    0.00000E+00         0.00000E+00        -0.56221E+08
 
   -0.56739E+08         0.18241E+07         0.00000E+00
    0.18241E+07        -0.50065E+08         0.00000E+00
    0.00000E+00         0.00000E+00        -0.56221E+08
 
   -0.56716E+08         0.18995E+07         0.00000E+00
    0.18995E+07        -0.50069E+08         0.00000E+00
    0.00000E+00         0.00000E+00        -0.56222E+08
 
   -0.56692E+08         0.19746E+07         0.00000E+00
    0.19746E+07        -0.50073E+08         0.00000E+00
    0.00000E+00         0.00000E+00        -0.56222E+08
 
   -0.56669E+08         0.20493E+07         0.00000E+00
    0.20493E+07        -0.50078E+08         0.00000E+00
    0.00000E+00         0.00000E+00        -0.56222E+08
 
   -0.56647E+08         0.21238E+07         0.00000E+00
    0.21238E+07        -0.50082E+08         0.00000E+00
    0.00000E+00         0.00000E+00        -0.56223E+08
 
   -0.56625E+08         0.21981E+07         0.00000E+00
    0.21981E+07        -0.50087E+08         0.00000E+00
    0.00000E+00         0.00000E+00        -0.56223E+08
 
   -0.56603E+08         0.22721E+07         0.00000E+00
    0.22721E+07        -0.50091E+08         0.00000E+00
    0.00000E+00         0.00000E+00        -0.56223E+08
 
   -0.56582E+08         0.23459E+07         0.00000E+00
    0.23459E+07        -0.50096E+08         0.00000E+00
    0.00000E+00         0.00000E+00        -0.56224E+08
 
   -0.56561E+08         0.24195E+07         0.00000E+00
    0.24195E+07        -0.50100E+08         0.00000E+00
    0.00000E+00         0.00000E+00        -0.56224E+08
 
   -0.56540E+08         0.24930E+07         0.00000E+00
    0.24930E+07        -0.50105E+08         0.00000E+00
    0.00000E+00         0.00000E+00        -0.56224E+08
 
   -0.56520E+08         0.25664E+07         0.00000E+00
    0.25664E+07        -0.50110E+08         0.00000E+00
    0.00000E+00         0.00000E+00        -0.56225E+08
 
   -0.56501E+08         0.26396E+07         0.00000E+00
    0.26396E+07        -0.50114E+08         0.00000E+00
    0.00000E+00         0.00000E+00        -0.56225E+08
 
   -0.56482E+08         0.27128E+07         0.00000E+00
    0.27128E+07        -0.50119E+08         0.00000E+00
    0.00000E+00         0.00000E+00        -0.56225E+08
 
   -0.56463E+08         0.27860E+07         0.00000E+00
    0.27860E+07        -0.50124E+08         0.00000E+00
    0.00000E+00         0.00000E+00        -0.56225E+08
 
   -0.56444E+08         0.28592E+07         0.00000E+00
    0.28592E+07        -0.50129E+08         0.00000E+00
    0.00000E+00         0.00000E+00        -0.56226E+08
 
   -0.56426E+08         0.29324E+07         0.00000E+00
    0.29324E+07        -0.50134E+08         0.00000E+00
    0.00000E+00         0.00000E+00        -0.56226E+08
 
   -0.56409E+08         0.30057E+07         0.00000E+00
    0.30057E+07        -0.50139E+08         0.00000E+00
    0.00000E+00         0.00000E+00        -0.56226E+08
 
   -0.56392E+08         0.30790E+07         0.00000E+00
    0.30790E+07        -0.50144E+08         0.00000E+00
    0.00000E+00         0.00000E+00        -0.56226E+08
 
   -0.56375E+08         0.31525E+07         0.00000E+00
    0.31525E+07        -0.50149E+08         0.00000E+00
    0.00000E+00         0.00000E+00        -0.56227E+08
 
   -0.56358E+08         0.32261E+07         0.00000E+00
    0.32261E+07        -0.50154E+08         0.00000E+00
    0.00000E+00         0.00000E+00        -0.56227E+08
 
   -0.56342E+08         0.32998E+07         0.00000E+00
    0.32998E+07        -0.50160E+08         0.00000E+00
    0.00000E+00         0.00000E+00        -0.56227E+08
 
   -0.56326E+08         0.33738E+07         0.00000E+00
    0.33738E+07        -0.50165E+08         0.00000E+00
    0.00000E+00         0.00000E+00        -0.56227E+08
 
   -0.56310E+08         0.34479E+07         0.00000E+00
    0.34479E+07        -0.50171E+08         0.00000E+00
    0.00000E+00         0.00000E+00        -0.56227E+08
 
   -0.56295E+08         0.35223E+07         0.00000E+00
    0.35223E+07        -0.50177E+08         0.00000E+00
    0.00000E+00         0.00000E+00        -0.56227E+08
 
   -0.56280E+08         0.35970E+07         0.00000E+00
    0.35970E+07        -0.50183E+08         0.00000E+00
    0.00000E+00         0.00000E+00        -0.56228E+08
 
   -0.56265E+08         0.36720E+07         0.00000E+00
    0.36720E+07        -0.50190E+08         0.00000E+00
    0.00000E+00         0.00000E+00        -0.56228E+08
 
   -0.56250E+08         0.37472E+07         0.00000E+00
    0.37472E+07        -0.50197E+08         0.00000E+00
    0.00000E+00         0.00000E+00        -0.56228E+08
 
   -0.56235E+08         0.38228E+07         0.00000E+00
    0.38228E+07        -0.50204E+08         0.00000E+00
    0.00000E+00         0.00000E+00        -0.56228E+08
 
   -0.56868E+08         0.43092E+05         0.00000E+00
    0.43092E+05        -0.50000E+08         0.00000E+00
    0.00000E+00         0.00000E+00        -0.55840E+08
 
   -0.56846E+08         0.12803E+06         0.00000E+00
    0.12803E+06        -0.50000E+08         0.00000E+00
    0.00000E+00         0.00000E+00        -0.55840E+08
 
   -0.56824E+08         0.21249E+06         0.00000E+00
    0.21249E+06        -0.50001E+08         0.00000E+00
    0.00000E+00         0.00000E+00        -0.55840E+08
 
   -0.56801E+08         0.29648E+06         0.00000E+00
    0.29648E+06        -0.50002E+08         0.00000E+00
    0.00000E+00         0.00000E+00        -0.55840E+08
 
   -0.56779E+08         0.37998E+06         0.00000E+00
    0.37998E+06        -0.50004E+08         0.00000E+00
    0.00000E+00         0.00000E+00        -0.55840E+08
 
   -0.56756E+08         0.46298E+06         0.00000E+00
    0.46298E+06        -0.50005E+08         0.00000E+00
    0.00000E+00         0.00000E+00        -0.55841E+08
 
   -0.56733E+08         0.54549E+06         0.00000E+00
    0.54549E+06        -0.50007E+08         0.00000E+00
    0.00000E+00         0.00000E+00        -0.55841E+08
 
   -0.56710E+08         0.62751E+06         0.00000E+00
    0.62751E+06        -0.50009E+08         0.00000E+00
    0.00000E+00         0.00000E+00        -0.55841E+08
 
   -0.56686E+08         0.70903E+06         0.00000E+00
    0.70903E+06        -0.50012E+08         0.00000E+00
    0.00000E+00         0.00000E+00        -0.55841E+08
 
   -0.56663E+08         0.79005E+06         0.00000E+00
    0.79005E+06        -0.50015E+08         0.00000E+00
    0.00000E+00         0.00000E+00        -0.55841E+08
 
   -0.56639E+08         0.87059E+06         0.00000E+00
    0.87059E+06        -0.50017E+08         0.00000E+00
    0.00000E+00         0.00000E+00        -0.55842E+08
 
   -0.56616E+08         0.95064E+06         0.00000E+00
    0.95064E+06        -0.50021E+08         0.00000E+00
    0.00000E+00         0.00000E+00        -0.55842E+08
 
   -0.56592E+08         0.10302E+07         0.00000E+00
    0.10302E+07        -0.50024E+08         0.00000E+00
    0.00000E+00         0.00000E+00        -0.55842E+08
 
   -0.56569E+08         0.11093E+07         0.00000E+00
    0.11093E+07        -0.50027E+08         0.00000E+00
    0.00000E+00         0.00000E+00        -0.55842E+08
 
   -0.56545E+08         0.11880E+07         0.00000E+00
    0.11880E+07        -0.50031E+08         0.00000E+00
    0.00000E+00         0.00000E+00        -0.55843E+08
 
   -0.56522E+08         0.12662E+07         0.00000E+00
    0.12662E+07        -0.50035E+08         0.00000E+00
    0.00000E+00         0.00000E+00        -0.55843E+08
 
   -0.56498E+08         0.13439E+07         0.00000E+00
    0.13439E+07        -0.50038E+08         0.00000E+00
    0.00000E+00         0.00000E+00        -0.55843E+08
 
   -0.56475E+08         0.14212E+07         0.00000E+00
    0.14212E+07        -0.50042E+08         0.00000E+00
    0.00000E+00         0.00000E+00        -0.55844E+08
 
   -0.56452E+08         0.14982E+07         0.00000E+00
    0.14982E+07        -0.50046E+08         0.00000E+00
    0.00000E+00         0.00000E+00        -0.55844E+08
 
   -0.56429E+08         0.15747E+07         0.00000E+00
    0.15747E+07        -0.50051E+08         0.00000E+00
    0.00000E+00         0.00000E+00        -0.55844E+08
 
   -0.56407E+08         0.16508E+07         0.00000E+00
    0.16508E+07        -0.50055E+08         0.00000E+00
    0.00000E+00         0.00000E+00        -0.55844E+08
 
   -0.56384E+08         0.17266E+07         0.00000E+00
    0.17266E+07        -0.50059E+08         0.00000E+00
    0.00000E+00         0.00000E+00        -0.55845E+08
 
   -0.56362E+08         0.18021E+07         0.00000E+00
    0.18021E+07        -0.50064E+08         0.00000E+00
    0.00000E+00         0.00000E+00        -0.55845E+08
 
   -0.56340E+08         0.18772E+07         0.00000E+00
    0.18772E+07        -0.50068E+08         0.00000E+00
    0.00000E+00         0.00000E+00        -0.55845E+08
 
   -0.56318E+08         0.19520E+07         0.00000E+00
    0.19520E+07        -0.50073E+08         0.00000E+00
    0.00000E+00         0.00000E+00        -0.55846E+08
 
   -0.56297E+08         0.20265E+07         0.00000E+00
    0.20265E+07        -0.50077E+08         0.00000E+00
    0.00000E+00         0.00000E+00        -0.55846E+08
 
   -0.56276E+08         0.21007E+07         0.00000E+00
    0.21007E+07        -0.50082E+08         0.00000E+00
    0.00000E+00         0.00000E+00        -0.55847E+08
 
   -0.56255E+08         0.21747E+07         0.00000E+00
    0.21747E+07        -0.50087E+08         0.00000E+00
    0.00000E+00         0.00000E+00        -0.55847E+08
 
   -0.56234E+08         0.22485E+07         0.00000E+00
    0.22485E+07        -0.50092E+08         0.00000E+00
    0.00000E+00         0.00000E+00        -0.55847E+08
 
   -0.56214E+08         0.23221E+07         0.00000E+00
    0.23221E+07        -0.50097E+08         0.00000E+00
    0.00000E+00         0.00000E+00        -0.55848E+08
 
   -0.56194E+08         0.23955E+07         0.00000E+00
    0.23955E+07        -0.50102E+08         0.00000E+00
    0.00000E+00         0.00000E+00        -0.55848E+08
 
   -0.56174E+08         0.24687E+07         0.00000E+00
    0.24687E+07        -0.50107E+08         0.00000E+00
    0.00000E+00         0.00000E+00        -0.55848E+08
 
   -0.56154E+08         0.25418E+07         0.00000E+00
    0.25418E+07        -0.50112E+08         0.00000E+00
    0.00000E+00         0.00000E+00        -0.55849E+08
 
   -0.56135E+08         0.26148E+07         0.00000E+00
    0.26148E+07        -0.50117E+08         0.00000E+00
    0.00000E+00         0.00000E+00        -0.55849E+08
 
   -0.56116E+08         0.26876E+07         0.00000E+00
    0.26876E+07        -0.50122E+08         0.00000E+00
    0.00000E+00         0.00000E+00        -0.55849E+08
 
   -0.56098E+08         0.27605E+07         0.00000E+00
    0.27605E+07        -0.50128E+08         0.00000E+00
    0.00000E+00         0.00000E+00        -0.55849E+08
 
   -0.56079E+08         0.28332E+07         0.00000E+00
    0.28332E+07        -0.50133E+08         0.00000E+00
    0.00000E+00         0.00000E+00        -0.55850E+08
 
   -0.56061E+08         0.29060E+07         0.00000E+00
    0.29060E+07        -0.50138E+08         0.00000E+00
    0.00000E+00         0.00000E+00        -0.55850E+08
 
   -0.56044E+08         0.29787E+07         0.00000E+00
    0.29787E+07        -0.50144E+08         0.00000E+00
    0.00000E+00         0.00000E+00        -0.55850E+08
 
   -0.56026E+08         0.30515E+07         0.00000E+00
    0.30515E+07        -0.50150E+08         0.00000E+00
    0.00000E+00         0.00000E+00        -0.55850E+08
 
   -0.56009E+08         0.31243E+07         0.00000E+00
    0.31243E+07        -0.50156E+08         0.00000E+00
    0.00000E+00         0.00000E+00        -0.55851E+08
 
   -0.55992E+08         0.31971E+07         0.00000E+00
    0.31971E+07        -0.50162E+08         0.00000E+00
    0.00000E+00         0.00000E+00        -0.55851E+08
 
   -0.55975E+08         0.32701E+07         0.00000E+00
    0.32701E+07        -0.50168E+08         0.00000E+00
    0.00000E+00         0.00000E+00        -0.55851E+08
 
   -0.55958E+08         0.33432E+07         0.00000E+00
    0.33432E+07        -0.50174E+08         0.00000E+00
    0.00000E+00         0.00000E+00        -0.55851E+08
 
   -0.55941E+08         0.34164E+07         0.00000E+00
    0.34164E+07        -0.50181E+08         0.00000E+00
    0.00000E+00         0.00000E+00        -0.55851E+08
 
   -0.55925E+08         0.34897E+07         0.00000E+00
    0.34897E+07        -0.50188E+08         0.00000E+00
    0.00000E+00         0.00000E+00        -0.55852E+08
 
   -0.55909E+08         0.35632E+07         0.00000E+00
    0.35632E+07        -0.50195E+08         0.00000E+00
    0.00000E+00         0.00000E+00        -0.55852E+08
 
   -0.55892E+08         0.36369E+07         0.00000E+00
    0.36369E+07        -0.50202E+08         0.00000E+00
    0.00000E+00         0.00000E+00        -0.55852E+08
 
   -0.55876E+08         0.37108E+07         0.00000E+00
    0.37108E+07        -0.50209E+08         0.00000E+00
    0.00000E+00         0.00000E+00        -0.55852E+08
 
   -0.55860E+08         0.37849E+07         0.00000E+00
    0.37849E+07        -0.50217E+08         0.00000E+00
    0.00000E+00         0.00000E+00        -0.55852E+08
 
   -0.56446E+08         0.42124E+05         0.00000E+00
    0.42124E+05        -0.50000E+08         0.00000E+00
    0.00000E+00         0.00000E+00        -0.55472E+08
 
   -0.56427E+08         0.12535E+06         0.00000E+00
    0.12535E+06        -0.50000E+08         0.00000E+00
    0.00000E+00         0.00000E+00        -0.55472E+08
 
   -0.56407E+08         0.20818E+06         0.00000E+00
    0.20818E+06        -0.50001E+08         0.00000E+00
    0.00000E+00         0.00000E+00        -0.55472E+08
 
   -0.56387E+08         0.29062E+06         0.00000E+00
    0.29062E+06        -0.50002E+08         0.00000E+00
    0.00000E+00         0.00000E+00        -0.55472E+08
 
   -0.56366E+08         0.37265E+06         0.00000E+00
    0.37265E+06        -0.50003E+08         0.00000E+00
    0.00000E+00         0.00000E+00        -0.55472E+08
 
   -0.56346E+08         0.45427E+06         0.00000E+00
    0.45427E+06        -0.50005E+08         0.00000E+00
    0.00000E+00         0.00000E+00        -0.55472E+08
 
   -0.56325E+08         0.53548E+06         0.00000E+00
    0.53548E+06        -0.50007E+08         0.00000E+00
    0.00000E+00         0.00000E+00        -0.55472E+08
 
   -0.56304E+08         0.61626E+06         0.00000E+00
    0.61626E+06        -0.50009E+08         0.00000E+00
    0.00000E+00         0.00000E+00        -0.55472E+08
 
   -0.56283E+08         0.69662E+06         0.00000E+00
    0.69662E+06        -0.50011E+08         0.00000E+00
    0.00000E+00         0.00000E+00        -0.55473E+08
 
   -0.56262E+08         0.77656E+06         0.00000E+00
    0.77656E+06        -0.50013E+08         0.00000E+00
    0.00000E+00         0.00000E+00        -0.55473E+08
 
   -0.56240E+08         0.85608E+06         0.00000E+00
    0.85608E+06        -0.50016E+08         0.00000E+00
    0.00000E+00         0.00000E+00        -0.55473E+08
 
   -0.56219E+08         0.93518E+06         0.00000E+00
    0.93518E+06        -0.50019E+08         0.00000E+00
    0.00000E+00         0.00000E+00        -0.55473E+08
 
   -0.56198E+08         0.10139E+07         0.00000E+00
    0.10139E+07        -0.50022E+08         0.00000E+00
    0.00000E+00         0.00000E+00        -0.55474E+08
 
   -0.56176E+08         0.10921E+07         0.00000E+00
    0.10921E+07        -0.50025E+08         0.00000E+00
    0.00000E+00         0.00000E+00        -0.55474E+08
 
   -0.56155E+08         0.11700E+07         0.00000E+00
    0.11700E+07        -0.50029E+08         0.00000E+00
    0.00000E+00         0.00000E+00        -0.55474E+08
 
   -0.56134E+08         0.12475E+07         0.00000E+00
    0.12475E+07        -0.50032E+08         0.00000E+00
    0.00000E+00         0.00000E+00        -0.55475E+08
 
   -0.56112E+08         0.13246E+07         0.00000E+00
    0.13246E+07        -0.50036E+08         0.00000E+00
    0.00000E+00         0.00000E+00        -0.55475E+08
 
   -0.56091E+08         0.14013E+07         0.00000E+00
    0.14013E+07        -0.50040E+08         0.00000E+00
    0.00000E+00         0.00000E+00        -0.55475E+08
 
   -0.56070E+08         0.14776E+07         0.00000E+00
    0.14776E+07        -0.50044E+08         0.00000E+00
    0.00000E+00         0.00000E+00        -0.55476E+08
 
   -0.56049E+08         0.15536E+07         0.00000E+00
    0.15536E+07        -0.50048E+08         0.00000E+00
    0.00000E+00         0.00000E+00        -0.55476E+08
 
   -0.56028E+08         0.16293E+07         0.00000E+00
    0.16293E+07        -0.50052E+08         0.00000E+00
    0.00000E+00         0.00000E+00        -0.55476E+08
 
   -0.56007E+08         0.17046E+07         0.00000E+00
    0.17046E+07        -0.50057E+08         0.00000E+00
    0.00000E+00         0.00000E+00        -0.55477E+08
 
   -0.55987E+08         0.17796E+07         0.00000E+00
    0.17796E+07        -0.50061E+08         0.00000E+00
    0.00000E+00         0.00000E+00        -0.55477E+08
 
   -0.55966E+08         0.18543E+07         0.00000E+00
    0.18543E+07        -0.50066E+08         0.00000E+00
    0.00000E+00         0.00000E+00        -0.55477E+08
 
   -0.55946E+08         0.19287E+07         0.00000E+00
    0.19287E+07        -0.50070E+08         0.00000E+00
    0.00000E+00         0.00000E+00        -0.55478E+08
 
   -0.55926E+08         0.20028E+07         0.00000E+00
    0.20028E+07        -0.50075E+08         0.00000E+00
    0.00000E+00         0.00000E+00        -0.55478E+08
 
   -0.55906E+08         0.20767E+07         0.00000E+00
    0.20767E+07        -0.50080E+08         0.00000E+00
    0.00000E+00         0.00000E+00        -0.55478E+08
 
   -0.55886E+08         0.21503E+07         0.00000E+00
    0.21503E+07        -0.50085E+08         0.00000E+00
    0.00000E+00         0.00000E+00        -0.55479E+08
 
   -0.55866E+08         0.22237E+07         0.00000E+00
    0.22237E+07        -0.50090E+08         0.00000E+00
    0.00000E+00         0.00000E+00        -0.55479E+08
 
   -0.55847E+08         0.22969E+07         0.00000E+00
    0.22969E+07        -0.50095E+08         0.00000E+00
    0.00000E+00         0.00000E+00        -0.55480E+08
 
   -0.55828E+08         0.23699E+07         0.00000E+00
    0.23699E+07        -0.50100E+08         0.00000E+00
    0.00000E+00         0.00000E+00        -0.55480E+08
 
   -0.55809E+08         0.24427E+07         0.00000E+00
    0.24427E+07        -0.50105E+08         0.00000E+00
    0.00000E+00         0.00000E+00        -0.55480E+08
 
   -0.55790E+08         0.25154E+07         0.00000E+00
    0.25154E+07        -0.50111E+08         0.00000E+00
    0.00000E+00         0.00000E+00        -0.55481E+08
 
   -0.55772E+08         0.25879E+07         0.00000E+00
    0.25879E+07        -0.50116E+08         0.00000E+00
    0.00000E+00         0.00000E+00        -0.55481E+08
 
   -0.55753E+08         0.26603E+07         0.00000E+00
    0.26603E+07        -0.50122E+08         0.00000E+00
    0.00000E+00         0.00000E+00        -0.55481E+08
 
   -0.55735E+08         0.27326E+07         0.00000E+00
    0.27326E+07        -0.50127E+08         0.00000E+00
    0.00000E+00         0.00000E+00        -0.55481E+08
 
   -0.55717E+08         0.28049E+07         0.00000E+00
    0.28049E+07        -0.50133E+08         0.00000E+00
    0.00000E+00         0.00000E+00        -0.55482E+08
 
   -0.55699E+08         0.28770E+07         0.00000E+00
    0.28770E+07        -0.50139E+08         0.00000E+00
    0.00000E+00         0.00000E+00        -0.55482E+08
 
   -0.55681E+08         0.29491E+07         0.00000E+00
    0.29491E+07        -0.50145E+08         0.00000E+00
    0.00000E+00         0.00000E+00        -0.55482E+08
 
   -0.55664E+08         0.30212E+07         0.00000E+00
    0.30212E+07        -0.50151E+08         0.00000E+00
    0.00000E+00         0.00000E+00        -0.55483E+08
 
   -0.55646E+08         0.30933E+07         0.00000E+00
    0.30933E+07        -0.50158E+08         0.00000E+00
    0.00000E+00         0.00000E+00        -0.55483E+08
 
   -0.55629E+08         0.31653E+07         0.00000E+00
    0.31653E+07        -0.50164E+08         0.00000E+00
    0.00000E+00         0.00000E+00        -0.55483E+08
 
   -0.55612E+08         0.32374E+07         0.00000E+00
    0.32374E+07        -0.50171E+08         0.00000E+00
    0.00000E+00         0.00000E+00        -0.55483E+08
 
   -0.55595E+08         0.33096E+07         0.00000E+00
    0.33096E+07        -0.50177E+08         0.00000E+00
    0.00000E+00         0.00000E+00        -0.55483E+08
 
   -0.55578E+08         0.33817E+07         0.00000E+00
    0.33817E+07        -0.50185E+08         0.00000E+00
    0.00000E+00         0.00000E+00        -0.55484E+08
 
   -0.55561E+08         0.34540E+07         0.00000E+00
    0.34540E+07        -0.50192E+08         0.00000E+00
    0.00000E+00         0.00000E+00        -0.55484E+08
 
   -0.55544E+08         0.35263E+07         0.00000E+00
    0.35263E+07        -0.50199E+08         0.00000E+00
    0.00000E+00         0.00000E+00        -0.55484E+08
 
   -0.55527E+08         0.35987E+07         0.00000E+00
    0.35987E+07        -0.50207E+08         0.00000E+00
    0.00000E+00         0.00000E+00        -0.55484E+08
 
   -0.55510E+08         0.36712E+07         0.00000E+00
    0.36712E+07        -0.50215E+08         0.00000E+00
    0.00000E+00         0.00000E+00        -0.55484E+08
 
   -0.55493E+08         0.37439E+07         0.00000E+00
    0.37439E+07        -0.50223E+08         0.00000E+00
    0.00000E+00         0.00000E+00        -0.55484E+08
 
   -0.56033E+08         0.41272E+05         0.00000E+00
    0.41272E+05        -0.50000E+08         0.00000E+00
    0.00000E+00         0.00000E+00        -0.55111E+08
 
   -0.56015E+08         0.12296E+06         0.00000E+00
    0.12296E+06        -0.50000E+08         0.00000E+00
    0.00000E+00         0.00000E+00        -0.55111E+08
 
   -0.55997E+08         0.20431E+06         0.00000E+00
    0.20431E+06        -0.50001E+08         0.00000E+00
    0.00000E+00         0.00000E+00        -0.55111E+08
 
   -0.55979E+08         0.28533E+06         0.00000E+00
    0.28533E+06        -0.50002E+08         0.00000E+00
    0.00000E+00         0.00000E+00        -0.55111E+08
 
   -0.55960E+08         0.36600E+06         0.00000E+00
    0.36600E+06        -0.50003E+08         0.00000E+00
    0.00000E+00         0.00000E+00        -0.55112E+08
 
   -0.55942E+08         0.44632E+06         0.00000E+00
    0.44632E+06        -0.50004E+08         0.00000E+00
    0.00000E+00         0.00000E+00        -0.55112E+08
 
   -0.55923E+08         0.52628E+06         0.00000E+00
    0.52628E+06        -0.50006E+08         0.00000E+00
    0.00000E+00         0.00000E+00        -0.55112E+08
 
   -0.55904E+08         0.60589E+06         0.00000E+00
    0.60589E+06        -0.50008E+08         0.00000E+00
    0.00000E+00         0.00000E+00        -0.55112E+08
 
   -0.55885E+08         0.68513E+06         0.00000E+00
    0.68513E+06        -0.50010E+08         0.00000E+00
    0.00000E+00         0.00000E+00        -0.55112E+08
 
   -0.55865E+08         0.76400E+06         0.00000E+00
    0.76400E+06        -0.50012E+08         0.00000E+00
    0.00000E+00         0.00000E+00        -0.55112E+08
 
   -0.55846E+08         0.84251E+06         0.00000E+00
    0.84251E+06        -0.50015E+08         0.00000E+00
    0.00000E+00         0.00000E+00        -0.55113E+08
 
   -0.55827E+08         0.92065E+06         0.00000E+00
    0.92065E+06        -0.50017E+08         0.00000E+00
    0.00000E+00         0.00000E+00        -0.55113E+08
 
   -0.55807E+08         0.99844E+06         0.00000E+00
    0.99844E+06        -0.50020E+08         0.00000E+00
    0.00000E+00         0.00000E+00        -0.55113E+08
 
   -0.55788E+08         0.10759E+07         0.00000E+00
    0.10759E+07        -0.50023E+08         0.00000E+00
    0.00000E+00         0.00000E+00        -0.55114E+08
 
   -0.55768E+08         0.11529E+07         0.00000E+00
    0.11529E+07        -0.50027E+08         0.00000E+00
    0.00000E+00         0.00000E+00        -0.55114E+08
 
   -0.55749E+08         0.12296E+07         0.00000E+00
    0.12296E+07        -0.50030E+08         0.00000E+00
    0.00000E+00         0.00000E+00        -0.55114E+08
 
   -0.55730E+08         0.13060E+07         0.00000E+00
    0.13060E+07        -0.50034E+08         0.00000E+00
    0.00000E+00         0.00000E+00        -0.55115E+08
 
   -0.55710E+08         0.13820E+07         0.00000E+00
    0.13820E+07        -0.50037E+08         0.00000E+00
    0.00000E+00         0.00000E+00        -0.55115E+08
 
   -0.55691E+08         0.14577E+07         0.00000E+00
    0.14577E+07        -0.50041E+08         0.00000E+00
    0.00000E+00         0.00000E+00        -0.55115E+08
 
   -0.55671E+08         0.15331E+07         0.00000E+00
    0.15331E+07        -0.50045E+08         0.00000E+00
    0.00000E+00         0.00000E+00        -0.55116E+08
 
   -0.55652E+08         0.16081E+07         0.00000E+00
    0.16081E+07        -0.50049E+08         0.00000E+00
    0.00000E+00         0.00000E+00        -0.55116E+08
 
   -0.55633E+08         0.16829E+07         0.00000E+00
    0.16829E+07        -0.50053E+08         0.00000E+00
    0.00000E+00         0.00000E+00        -0.55116E+08
 
   -0.55614E+08         0.17573E+07         0.00000E+00
    0.17573E+07        -0.50058E+08         0.00000E+00
    0.00000E+00         0.00000E+00        -0.55117E+08
 
   -0.55595E+08         0.18315E+07         0.00000E+00
    0.18315E+07        -0.50062E+08         0.00000E+00
    0.00000E+00         0.00000E+00        -0.55117E+08
 
   -0.55576E+08         0.19054E+07         0.00000E+00
    0.19054E+07        -0.50067E+08         0.00000E+00
    0.00000E+00         0.00000E+00        -0.55117E+08
 
   -0.55557E+08         0.19790E+07         0.00000E+00
    0.19790E+07        -0.50071E+08         0.00000E+00
    0.00000E+00         0.00000E+00        -0.55118E+08
 
   -0.55538E+08         0.20524E+07         0.00000E+00
    0.20524E+07        -0.50076E+08         0.00000E+00
    0.00000E+00         0.00000E+00        -0.55118E+08
 
   -0.55520E+08         0.21255E+07         0.00000E+00
    0.21255E+07        -0.50081E+08         0.00000E+00
    0.00000E+00         0.00000E+00        -0.55119E+08
 
   -0.55501E+08         0.21984E+07         0.00000E+00
    0.21984E+07        -0.50086E+08         0.00000E+00
    0.00000E+00         0.00000E+00        -0.55119E+08
 
   -0.55483E+08         0.22711E+07         0.00000E+00
    0.22711E+07        -0.50091E+08         0.00000E+00
    0.00000E+00         0.00000E+00        -0.55119E+08
 
   -0.55465E+08         0.23436E+07         0.00000E+00
    0.23436E+07        -0.50096E+08         0.00000E+00
    0.00000E+00         0.00000E+00        -0.55120E+08
 
   -0.55446E+08         0.24159E+07         0.00000E+00
    0.24159E+07        -0.50102E+08         0.00000E+00
    0.00000E+00         0.00000E+00        -0.55120E+08
 
   -0.55428E+08         0.24881E+07         0.00000E+00
    0.24881E+07        -0.50107E+08         0.00000E+00
    0.00000E+00         0.00000E+00        -0.55120E+08
 
   -0.55411E+08         0.25601E+07         0.00000E+00
    0.25601E+07        -0.50113E+08         0.00000E+00
    0.00000E+00         0.00000E+00        -0.55121E+08
 
   -0.55393E+08         0.26319E+07         0.00000E+00
    0.26319E+07        -0.50118E+08         0.00000E+00
    0.00000E+00         0.00000E+00        -0.55121E+08
 
   -0.55375E+08         0.27036E+07         0.00000E+00
    0.27036E+07        -0.50124E+08         0.00000E+00
    0.00000E+00         0.00000E+00        -0.55121E+08
 
   -0.55358E+08         0.27752E+07         0.00000E+00
    0.27752E+07        -0.50130E+08         0.00000E+00
    0.00000E+00         0.00000E+00        -0.55122E+08
 
   -0.55340E+08         0.28467E+07         0.00000E+00
    0.28467E+07        -0.50136E+08         0.00000E+00
    0.00000E+00         0.00000E+00        -0.55122E+08
 
   -0.55323E+08         0.29181E+07         0.00000E+00
    0.29181E+07        -0.50143E+08         0.00000E+00
    0.00000E+00         0.00000E+00        -0.55122E+08
 
   -0.55305E+08         0.29894E+07         0.00000E+00
    0.29894E+07        -0.50149E+08         0.00000E+00
    0.00000E+00         0.00000E+00        -0.55122E+08
 
   -0.55288E+08         0.30606E+07         0.00000E+00
    0.30606E+07        -0.50155E+08         0.00000E+00
    0.00000E+00         0.00000E+00        -0.55123E+08
 
   -0.55271E+08         0.31319E+07         0.00000E+00
    0.31319E+07        -0.50162E+08         0.00000E+00
    0.00000E+00         0.00000E+00        -0.55123E+08
 
   -0.55254E+08         0.32030E+07         0.00000E+00
    0.32030E+07        -0.50169E+08         0.00000E+00
    0.00000E+00         0.00000E+00        -0.55123E+08
 
   -0.55237E+08         0.32742E+07         0.00000E+00
    0.32742E+07        -0.50176E+08         0.00000E+00
    0.00000E+00         0.00000E+00        -0.55123E+08
 
   -0.55219E+08         0.33453E+07         0.00000E+00
    0.33453E+07        -0.50183E+08         0.00000E+00
    0.00000E+00         0.00000E+00        -0.55124E+08
 
   -0.55202E+08         0.34164E+07         0.00000E+00
    0.34164E+07        -0.50191E+08         0.00000E+00
    0.00000E+00         0.00000E+00        -0.55124E+08
 
   -0.55185E+08         0.34876E+07         0.00000E+00
    0.34876E+07        -0.50199E+08         0.00000E+00
    0.00000E+00         0.00000E+00        -0.55124E+08
 
   -0.55168E+08         0.35587E+07         0.00000E+00
    0.35587E+07        -0.50207E+08         0.00000E+00
    0.00000E+00         0.00000E+00        -0.55124E+08
 
   -0.55150E+08         0.36299E+07         0.00000E+00
    0.36299E+07        -0.50215E+08         0.00000E+00
    0.00000E+00         0.00000E+00        -0.55124E+08
 
   -0.55133E+08         0.37011E+07         0.00000E+00
    0.37011E+07        -0.50223E+08         0.00000E+00
    0.00000E+00         0.00000E+00        -0.55124E+08
 
   -0.55627E+08         0.40527E+05         0.00000E+00
    0.40527E+05        -0.50000E+08         0.00000E+00
    0.00000E+00         0.00000E+00        -0.54758E+08
 
   -0.55611E+08         0.12083E+06         0.00000E+00
    0.12083E+06        -0.50000E+08         0.00000E+00
    0.00000E+00         0.00000E+00        -0.54758E+08
 
   -0.55595E+08         0.20086E+06         0.00000E+00
    0.20086E+06        -0.50001E+08         0.00000E+00
    0.00000E+00         0.00000E+00        -0.54759E+08
 
   -0.55578E+08         0.28059E+06         0.00000E+00
    0.28059E+06        -0.50002E+08         0.00000E+00
    0.00000E+00         0.00000E+00        -0.54759E+08
 
   -0.55561E+08         0.36001E+06         0.00000E+00
    0.36001E+06        -0.50003E+08         0.00000E+00
    0.00000E+00         0.00000E+00        -0.54759E+08
 
   -0.55544E+08         0.43914E+06         0.00000E+00
    0.43914E+06        -0.50004E+08         0.00000E+00
    0.00000E+00         0.00000E+00        -0.54759E+08
 
   -0.55527E+08         0.51795E+06         0.00000E+00
    0.51795E+06        -0.50005E+08         0.00000E+00
    0.00000E+00         0.00000E+00        -0.54759E+08
 
   -0.55509E+08         0.59644E+06         0.00000E+00
    0.59644E+06        -0.50007E+08         0.00000E+00
    0.00000E+00         0.00000E+00        -0.54759E+08
 
   -0.55492E+08         0.67462E+06         0.00000E+00
    0.67462E+06        -0.50009E+08         0.00000E+00
    0.00000E+00         0.00000E+00        -0.54759E+08
 
   -0.55475E+08         0.75247E+06         0.00000E+00
    0.75247E+06        -0.50011E+08         0.00000E+00
    0.00000E+00         0.00000E+00        -0.54760E+08
 
   -0.55457E+08         0.83000E+06         0.00000E+00
    0.83000E+06        -0.50013E+08         0.00000E+00
    0.00000E+00         0.00000E+00        -0.54760E+08
 
   -0.55439E+08         0.90720E+06         0.00000E+00
    0.90720E+06        -0.50016E+08         0.00000E+00
    0.00000E+00         0.00000E+00        -0.54760E+08
 
   -0.55422E+08         0.98409E+06         0.00000E+00
    0.98409E+06        -0.50019E+08         0.00000E+00
    0.00000E+00         0.00000E+00        -0.54760E+08
 
   -0.55404E+08         0.10606E+07         0.00000E+00
    0.10606E+07        -0.50021E+08         0.00000E+00
    0.00000E+00         0.00000E+00        -0.54761E+08
 
   -0.55386E+08         0.11369E+07         0.00000E+00
    0.11369E+07        -0.50024E+08         0.00000E+00
    0.00000E+00         0.00000E+00        -0.54761E+08
 
   -0.55368E+08         0.12128E+07         0.00000E+00
    0.12128E+07        -0.50028E+08         0.00000E+00
    0.00000E+00         0.00000E+00        -0.54761E+08
 
   -0.55350E+08         0.12884E+07         0.00000E+00
    0.12884E+07        -0.50031E+08         0.00000E+00
    0.00000E+00         0.00000E+00        -0.54762E+08
 
   -0.55333E+08         0.13637E+07         0.00000E+00
    0.13637E+07        -0.50034E+08         0.00000E+00
    0.00000E+00         0.00000E+00        -0.54762E+08
 
   -0.55315E+08         0.14387E+07         0.00000E+00
    0.14387E+07        -0.50038E+08         0.00000E+00
    0.00000E+00         0.00000E+00        -0.54762E+08
 
   -0.55297E+08         0.15134E+07         0.00000E+00
    0.15134E+07        -0.50042E+08         0.00000E+00
    0.00000E+00         0.00000E+00        -0.54763E+08
 
   -0.55279E+08         0.15878E+07         0.00000E+00
    0.15878E+07        -0.50046E+08         0.00000E+00
    0.00000E+00         0.00000E+00        -0.54763E+08
 
   -0.55261E+08         0.16619E+07         0.00000E+00
    0.16619E+07        -0.50050E+08         0.00000E+00
    0.00000E+00         0.00000E+00        -0.54764E+08
 
   -0.55244E+08         0.17357E+07         0.00000E+00
    0.17357E+07        -0.50054E+08         0.00000E+00
    0.00000E+00         0.00000E+00        -0.54764E+08
 
   -0.55226E+08         0.18093E+07         0.00000E+00
    0.18093E+07        -0.50058E+08         0.00000E+00
    0.00000E+00         0.00000E+00        -0.54764E+08
 
   -0.55208E+08         0.18826E+07         0.00000E+00
    0.18826E+07        -0.50063E+08         0.00000E+00
    0.00000E+00         0.00000E+00        -0.54765E+08
 
   -0.55191E+08         0.19557E+07         0.00000E+00
    0.19557E+07        -0.50067E+08         0.00000E+00
    0.00000E+00         0.00000E+00        -0.54765E+08
 
   -0.55173E+08         0.20285E+07         0.00000E+00
    0.20285E+07        -0.50072E+08         0.00000E+00
    0.00000E+00         0.00000E+00        -0.54765E+08
 
   -0.55156E+08         0.21010E+07         0.00000E+00
    0.21010E+07        -0.50076E+08         0.00000E+00
    0.00000E+00         0.00000E+00        -0.54766E+08
 
   -0.55139E+08         0.21733E+07         0.00000E+00
    0.21733E+07        -0.50081E+08         0.00000E+00
    0.00000E+00         0.00000E+00        -0.54766E+08
 
   -0.55121E+08         0.22455E+07         0.00000E+00
    0.22455E+07        -0.50086E+08         0.00000E+00
    0.00000E+00         0.00000E+00        -0.54767E+08
 
   -0.55104E+08         0.23174E+07         0.00000E+00
    0.23174E+07        -0.50092E+08         0.00000E+00
    0.00000E+00         0.00000E+00        -0.54767E+08
 
   -0.55087E+08         0.23891E+07         0.00000E+00
    0.23891E+07        -0.50097E+08         0.00000E+00
    0.00000E+00         0.00000E+00        -0.54767E+08
 
   -0.55070E+08         0.24606E+07         0.00000E+00
    0.24606E+07        -0.50102E+08         0.00000E+00
    0.00000E+00         0.00000E+00        -0.54768E+08
 
   -0.55053E+08         0.25320E+07         0.00000E+00
    0.25320E+07        -0.50108E+08         0.00000E+00
    0.00000E+00         0.00000E+00        -0.54768E+08
 
   -0.55036E+08         0.26031E+07         0.00000E+00
    0.26031E+07        -0.50113E+08         0.00000E+00
    0.00000E+00         0.00000E+00        -0.54768E+08
 
   -0.55019E+08         0.26742E+07         0.00000E+00
    0.26742E+07        -0.50119E+08         0.00000E+00
    0.00000E+00         0.00000E+00        -0.54769E+08
 
   -0.55002E+08         0.27451E+07         0.00000E+00
    0.27451E+07        -0.50125E+08         0.00000E+00
    0.00000E+00         0.00000E+00        -0.54769E+08
 
   -0.54985E+08         0.28158E+07         0.00000E+00
    0.28158E+07        -0.50131E+08         0.00000E+00
    0.00000E+00         0.00000E+00        -0.54769E+08
 
   -0.54968E+08         0.28864E+07         0.00000E+00
    0.28864E+07        -0.50138E+08         0.00000E+00
    0.00000E+00         0.00000E+00        -0.54770E+08
 
   -0.54951E+08         0.29569E+07         0.00000E+00
    0.29569E+07        -0.50144E+08         0.00000E+00
    0.00000E+00         0.00000E+00        -0.54770E+08
 
   -0.54934E+08         0.30273E+07         0.00000E+00
    0.30273E+07        -0.50151E+08         0.00000E+00
    0.00000E+00         0.00000E+00        -0.54770E+08
 
   -0.54917E+08         0.30977E+07         0.00000E+00
    0.30977E+07        -0.50157E+08         0.00000E+00
    0.00000E+00         0.00000E+00        -0.54770E+08
 
   -0.54900E+08         0.31679E+07         0.00000E+00
    0.31679E+07        -0.50164E+08         0.00000E+00
    0.00000E+00         0.00000E+00        -0.54770E+08
 
   -0.54883E+08         0.32380E+07         0.00000E+00
    0.32380E+07        -0.50171E+08         0.00000E+00
    0.00000E+00         0.00000E+00        -0.54771E+08
 
   -0.54866E+08         0.33081E+07         0.00000E+00
    0.33081E+07        -0.50179E+08         0.00000E+00
    0.00000E+00         0.00000E+00        -0.54771E+08
 
   -0.54849E+08         0.33781E+07         0.00000E+00
    0.33781E+07        -0.50186E+08         0.00000E+00
    0.00000E+00         0.00000E+00        -0.54771E+08
 
   -0.54832E+08         0.34481E+07         0.00000E+00
    0.34481E+07        -0.50194E+08         0.00000E+00
    0.00000E+00         0.00000E+00        -0.54771E+08
 
   -0.54815E+08         0.35180E+07         0.00000E+00
    0.35180E+07        -0.50202E+08         0.00000E+00
    0.00000E+00         0.00000E+00        -0.54771E+08
 
   -0.54798E+08         0.35879E+07         0.00000E+00
    0.35879E+07        -0.50210E+08         0.00000E+00
    0.00000E+00         0.00000E+00        -0.54771E+08
 
   -0.54780E+08         0.36577E+07         0.00000E+00
    0.36577E+07        -0.50219E+08         0.00000E+00
    0.00000E+00         0.00000E+00        -0.54771E+08
 
   -0.55228E+08         0.39878E+05         0.00000E+00
    0.39878E+05        -0.50000E+08         0.00000E+00
    0.00000E+00         0.00000E+00        -0.54413E+08
 
   -0.55213E+08         0.11896E+06         0.00000E+00
    0.11896E+06        -0.50000E+08         0.00000E+00
    0.00000E+00         0.00000E+00        -0.54413E+08
 
   -0.55198E+08         0.19780E+06         0.00000E+00
    0.19780E+06        -0.50001E+08         0.00000E+00
    0.00000E+00         0.00000E+00        -0.54413E+08
 
   -0.55183E+08         0.27637E+06         0.00000E+00
    0.27637E+06        -0.50001E+08         0.00000E+00
    0.00000E+00         0.00000E+00        -0.54413E+08
 
   -0.55167E+08         0.35467E+06         0.00000E+00
    0.35467E+06        -0.50002E+08         0.00000E+00
    0.00000E+00         0.00000E+00        -0.54413E+08
 
   -0.55152E+08         0.43270E+06         0.00000E+00
    0.43270E+06        -0.50003E+08         0.00000E+00
    0.00000E+00         0.00000E+00        -0.54413E+08
 
   -0.55136E+08         0.51044E+06         0.00000E+00
    0.51044E+06        -0.50005E+08         0.00000E+00
    0.00000E+00         0.00000E+00        -0.54413E+08
 
   -0.55120E+08         0.58791E+06         0.00000E+00
    0.58791E+06        -0.50006E+08         0.00000E+00
    0.00000E+00         0.00000E+00        -0.54414E+08
 
   -0.55104E+08         0.66509E+06         0.00000E+00
    0.66509E+06        -0.50008E+08         0.00000E+00
    0.00000E+00         0.00000E+00        -0.54414E+08
 
   -0.55088E+08         0.74198E+06         0.00000E+00
    0.74198E+06        -0.50010E+08         0.00000E+00
    0.00000E+00         0.00000E+00        -0.54414E+08
 
   -0.55072E+08         0.81857E+06         0.00000E+00
    0.81857E+06        -0.50012E+08         0.00000E+00
    0.00000E+00         0.00000E+00        -0.54414E+08
 
   -0.55056E+08         0.89488E+06         0.00000E+00
    0.89488E+06        -0.50014E+08         0.00000E+00
    0.00000E+00         0.00000E+00        -0.54415E+08
 
   -0.55040E+08         0.97089E+06         0.00000E+00
    0.97089E+06        -0.50017E+08         0.00000E+00
    0.00000E+00         0.00000E+00        -0.54415E+08
 
   -0.55024E+08         0.10466E+07         0.00000E+00
    0.10466E+07        -0.50019E+08         0.00000E+00
    0.00000E+00         0.00000E+00        -0.54415E+08
 
   -0.55008E+08         0.11220E+07         0.00000E+00
    0.11220E+07        -0.50022E+08         0.00000E+00
    0.00000E+00         0.00000E+00        -0.54416E+08
 
   -0.54991E+08         0.11972E+07         0.00000E+00
    0.11972E+07        -0.50025E+08         0.00000E+00
    0.00000E+00         0.00000E+00        -0.54416E+08
 
   -0.54975E+08         0.12720E+07         0.00000E+00
    0.12720E+07        -0.50028E+08         0.00000E+00
    0.00000E+00         0.00000E+00        -0.54416E+08
 
   -0.54959E+08         0.13466E+07         0.00000E+00
    0.13466E+07        -0.50031E+08         0.00000E+00
    0.00000E+00         0.00000E+00        -0.54417E+08
 
   -0.54942E+08         0.14208E+07         0.00000E+00
    0.14208E+07        -0.50035E+08         0.00000E+00
    0.00000E+00         0.00000E+00        -0.54417E+08
 
   -0.54926E+08         0.14948E+07         0.00000E+00
    0.14948E+07        -0.50038E+08         0.00000E+00
    0.00000E+00         0.00000E+00        -0.54417E+08
 
   -0.54910E+08         0.15685E+07         0.00000E+00
    0.15685E+07        -0.50042E+08         0.00000E+00
    0.00000E+00         0.00000E+00        -0.54418E+08
 
   -0.54893E+08         0.16420E+07         0.00000E+00
    0.16420E+07        -0.50046E+08         0.00000E+00
    0.00000E+00         0.00000E+00        -0.54418E+08
 
   -0.54877E+08         0.17152E+07         0.00000E+00
    0.17152E+07        -0.50050E+08         0.00000E+00
    0.00000E+00         0.00000E+00        -0.54418E+08
 
   -0.54860E+08         0.17881E+07         0.00000E+00
    0.17881E+07        -0.50054E+08         0.00000E+00
    0.00000E+00         0.00000E+00        -0.54419E+08
 
   -0.54844E+08         0.18607E+07         0.00000E+00
    0.18607E+07        -0.50058E+08         0.00000E+00
    0.00000E+00         0.00000E+00        -0.54419E+08
 
   -0.54828E+08         0.19331E+07         0.00000E+00
    0.19331E+07        -0.50062E+08         0.00000E+00
    0.00000E+00         0.00000E+00        -0.54419E+08
 
   -0.54811E+08         0.20053E+07         0.00000E+00
    0.20053E+07        -0.50067E+08         0.00000E+00
    0.00000E+00         0.00000E+00        -0.54420E+08
 
   -0.54795E+08         0.20772E+07         0.00000E+00
    0.20772E+07        -0.50071E+08         0.00000E+00
    0.00000E+00         0.00000E+00        -0.54420E+08
 
   -0.54779E+08         0.21489E+07         0.00000E+00
    0.21489E+07        -0.50076E+08         0.00000E+00
    0.00000E+00         0.00000E+00        -0.54421E+08
 
   -0.54763E+08         0.22204E+07         0.00000E+00
    0.22204E+07        -0.50081E+08         0.00000E+00
    0.00000E+00         0.00000E+00        -0.54421E+08
 
   -0.54746E+08         0.22917E+07         0.00000E+00
    0.22917E+07        -0.50086E+08         0.00000E+00
    0.00000E+00         0.00000E+00        -0.54421E+08
 
   -0.54730E+08         0.23627E+07         0.00000E+00
    0.23627E+07        -0.50091E+08         0.00000E+00
    0.00000E+00         0.00000E+00        -0.54422E+08
 
   -0.54714E+08         0.24336E+07         0.00000E+00
    0.24336E+07        -0.50096E+08         0.00000E+00
    0.00000E+00         0.00000E+00        -0.54422E+08
 
   -0.54698E+08         0.25043E+07         0.00000E+00
    0.25043E+07        -0.50102E+08         0.00000E+00
    0.00000E+00         0.00000E+00        -0.54422E+08
 
   -0.54682E+08         0.25748E+07         0.00000E+00
    0.25748E+07        -0.50107E+08         0.00000E+00
    0.00000E+00         0.00000E+00        -0.54423E+08
 
   -0.54666E+08         0.26451E+07         0.00000E+00
    0.26451E+07        -0.50113E+08         0.00000E+00
    0.00000E+00         0.00000E+00        -0.54423E+08
 
   -0.54649E+08         0.27152E+07         0.00000E+00
    0.27152E+07        -0.50119E+08         0.00000E+00
    0.00000E+00         0.00000E+00        -0.54423E+08
 
   -0.54633E+08         0.27852E+07         0.00000E+00
    0.27852E+07        -0.50125E+08         0.00000E+00
    0.00000E+00         0.00000E+00        -0.54424E+08
 
   -0.54617E+08         0.28550E+07         0.00000E+00
    0.28550E+07        -0.50131E+08         0.00000E+00
    0.00000E+00         0.00000E+00        -0.54424E+08
 
   -0.54601E+08         0.29246E+07         0.00000E+00
    0.29246E+07        -0.50137E+08         0.00000E+00
    0.00000E+00         0.00000E+00        -0.54424E+08
 
   -0.54584E+08         0.29942E+07         0.00000E+00
    0.29942E+07        -0.50144E+08         0.00000E+00
    0.00000E+00         0.00000E+00        -0.54424E+08
 
   -0.54568E+08         0.30636E+07         0.00000E+00
    0.30636E+07        -0.50150E+08         0.00000E+00
    0.00000E+00         0.00000E+00        -0.54425E+08
 
   -0.54552E+08         0.31328E+07         0.00000E+00
    0.31328E+07        -0.50157E+08         0.00000E+00
    0.00000E+00         0.00000E+00        -0.54425E+08
 
   -0.54535E+08         0.32020E+07         0.00000E+00
    0.32020E+07        -0.50164E+08         0.00000E+00
    0.00000E+00         0.00000E+00        -0.54425E+08
 
   -0.54519E+08         0.32710E+07         0.00000E+00
    0.32710E+07        -0.50171E+08         0.00000E+00
    0.00000E+00         0.00000E+00        -0.54425E+08
 
   -0.54502E+08         0.33399E+07         0.00000E+00
    0.33399E+07        -0.50179E+08         0.00000E+00
    0.00000E+00         0.00000E+00        -0.54425E+08
 
   -0.54485E+08         0.34087E+07         0.00000E+00
    0.34087E+07        -0.50187E+08         0.00000E+00
    0.00000E+00         0.00000E+00        -0.54425E+08
 
   -0.54468E+08         0.34775E+07         0.00000E+00
    0.34775E+07        -0.50194E+08         0.00000E+00
    0.00000E+00         0.00000E+00        -0.54426E+08
 
   -0.54451E+08         0.35461E+07         0.00000E+00
    0.35461E+07        -0.50203E+08         0.00000E+00
    0.00000E+00         0.00000E+00        -0.54426E+08
 
   -0.54434E+08         0.36146E+07         0.00000E+00
    0.36146E+07        -0.50211E+08         0.00000E+00
    0.00000E+00         0.00000E+00        -0.54426E+08
 
   -0.54835E+08         0.39314E+05         0.00000E+00
    0.39314E+05        -0.50000E+08         0.00000E+00
    0.00000E+00         0.00000E+00        -0.54074E+08
 
   -0.54821E+08         0.11732E+06         0.00000E+00
    0.11732E+06        -0.50000E+08         0.00000E+00
    0.00000E+00         0.00000E+00        -0.54074E+08
 
   -0.54807E+08         0.19510E+06         0.00000E+00
    0.19510E+06        -0.50001E+08         0.00000E+00
    0.00000E+00         0.00000E+00        -0.54074E+08
 
   -0.54793E+08         0.27264E+06         0.00000E+00
    0.27264E+06        -0.50001E+08         0.00000E+00
    0.00000E+00         0.00000E+00        -0.54074E+08
 
   -0.54779E+08         0.34993E+06         0.00000E+00
    0.34993E+06        -0.50002E+08         0.00000E+00
    0.00000E+00         0.00000E+00        -0.54075E+08
 
   -0.54765E+08         0.42696E+06         0.00000E+00
    0.42696E+06        -0.50003E+08         0.00000E+00
    0.00000E+00         0.00000E+00        -0.54075E+08
 
   -0.54750E+08         0.50374E+06         0.00000E+00
    0.50374E+06        -0.50004E+08         0.00000E+00
    0.00000E+00         0.00000E+00        -0.54075E+08
 
   -0.54736E+08         0.58026E+06         0.00000E+00
    0.58026E+06        -0.50006E+08         0.00000E+00
    0.00000E+00         0.00000E+00        -0.54075E+08
 
   -0.54722E+08         0.65652E+06         0.00000E+00
    0.65652E+06        -0.50007E+08         0.00000E+00
    0.00000E+00         0.00000E+00        -0.54075E+08
 
   -0.54707E+08         0.73251E+06         0.00000E+00
    0.73251E+06        -0.50009E+08         0.00000E+00
    0.00000E+00         0.00000E+00        -0.54075E+08
 
   -0.54692E+08         0.80823E+06         0.00000E+00
    0.80823E+06        -0.50011E+08         0.00000E+00
    0.00000E+00         0.00000E+00        -0.54076E+08
 
   -0.54678E+08         0.88369E+06         0.00000E+00
    0.88369E+06        -0.50013E+08         0.00000E+00
    0.00000E+00         0.00000E+00        -0.54076E+08
 
   -0.54663E+08         0.95886E+06         0.00000E+00
    0.95886E+06        -0.50015E+08         0.00000E+00
    0.00000E+00         0.00000E+00        -0.54076E+08
 
   -0.54648E+08         0.10338E+07         0.00000E+00
    0.10338E+07        -0.50017E+08         0.00000E+00
    0.00000E+00         0.00000E+00        -0.54077E+08
 
   -0.54633E+08         0.11084E+07         0.00000E+00
    0.11084E+07        -0.50020E+08         0.00000E+00
    0.00000E+00         0.00000E+00        -0.54077E+08
 
   -0.54618E+08         0.11828E+07         0.00000E+00
    0.11828E+07        -0.50022E+08         0.00000E+00
    0.00000E+00         0.00000E+00        -0.54077E+08
 
   -0.54603E+08         0.12569E+07         0.00000E+00
    0.12569E+07        -0.50025E+08         0.00000E+00
    0.00000E+00         0.00000E+00        -0.54077E+08
 
   -0.54588E+08         0.13307E+07         0.00000E+00
    0.13307E+07        -0.50028E+08         0.00000E+00
    0.00000E+00         0.00000E+00        -0.54078E+08
 
   -0.54573E+08         0.14042E+07         0.00000E+00
    0.14042E+07        -0.50031E+08         0.00000E+00
    0.00000E+00         0.00000E+00        -0.54078E+08
 
   -0.54558E+08         0.14775E+07         0.00000E+00
    0.14775E+07        -0.50035E+08         0.00000E+00
    0.00000E+00         0.00000E+00        -0.54079E+08
 
   -0.54543E+08         0.15505E+07         0.00000E+00
    0.15505E+07        -0.50038E+08         0.00000E+00
    0.00000E+00         0.00000E+00        -0.54079E+08
 
   -0.54528E+08         0.16233E+07         0.00000E+00
    0.16233E+07        -0.50042E+08         0.00000E+00
    0.00000E+00         0.00000E+00        -0.54079E+08
 
   -0.54513E+08         0.16958E+07         0.00000E+00
    0.16958E+07        -0.50045E+08         0.00000E+00
    0.00000E+00         0.00000E+00        -0.54080E+08
 
   -0.54498E+08         0.17680E+07         0.00000E+00
    0.17680E+07        -0.50049E+08         0.00000E+00
    0.00000E+00         0.00000E+00        -0.54080E+08
 
   -0.54483E+08         0.18400E+07         0.00000E+00
    0.18400E+07        -0.50053E+08         0.00000E+00
    0.00000E+00         0.00000E+00        -0.54080E+08
 
   -0.54468E+08         0.19118E+07         0.00000E+00
    0.19118E+07        -0.50057E+08         0.00000E+00
    0.00000E+00         0.00000E+00        -0.54081E+08
 
   -0.54453E+08         0.19833E+07         0.00000E+00
    0.19833E+07        -0.50061E+08         0.00000E+00
    0.00000E+00         0.00000E+00        -0.54081E+08
 
   -0.54438E+08         0.20546E+07         0.00000E+00
    0.20546E+07        -0.50066E+08         0.00000E+00
    0.00000E+00         0.00000E+00        -0.54081E+08
 
   -0.54423E+08         0.21256E+07         0.00000E+00
    0.21256E+07        -0.50070E+08         0.00000E+00
    0.00000E+00         0.00000E+00        -0.54082E+08
 
   -0.54407E+08         0.21964E+07         0.00000E+00
    0.21964E+07        -0.50075E+08         0.00000E+00
    0.00000E+00         0.00000E+00        -0.54082E+08
 
   -0.54392E+08         0.22670E+07         0.00000E+00
    0.22670E+07        -0.50079E+08         0.00000E+00
    0.00000E+00         0.00000E+00        -0.54083E+08
 
   -0.54377E+08         0.23374E+07         0.00000E+00
    0.23374E+07        -0.50084E+08         0.00000E+00
    0.00000E+00         0.00000E+00        -0.54083E+08
 
   -0.54362E+08         0.24075E+07         0.00000E+00
    0.24075E+07        -0.50089E+08         0.00000E+00
    0.00000E+00         0.00000E+00        -0.54083E+08
 
   -0.54347E+08         0.24775E+07         0.00000E+00
    0.24775E+07        -0.50095E+08         0.00000E+00
    0.00000E+00         0.00000E+00        -0.54084E+08
 
   -0.54332E+08         0.25472E+07         0.00000E+00
    0.25472E+07        -0.50100E+08         0.00000E+00
    0.00000E+00         0.00000E+00        -0.54084E+08
 
   -0.54316E+08         0.26168E+07         0.00000E+00
    0.26168E+07        -0.50105E+08         0.00000E+00
    0.00000E+00         0.00000E+00        -0.54084E+08
 
   -0.54301E+08         0.26861E+07         0.00000E+00
    0.26861E+07        -0.50111E+08         0.00000E+00
    0.00000E+00         0.00000E+00        -0.54084E+08
 
   -0.54286E+08         0.27553E+07         0.00000E+00
    0.27553E+07        -0.50117E+08         0.00000E+00
    0.00000E+00         0.00000E+00        -0.54085E+08
 
   -0.54270E+08         0.28243E+07         0.00000E+00
    0.28243E+07        -0.50123E+08         0.00000E+00
    0.00000E+00         0.00000E+00        -0.54085E+08
 
   -0.54255E+08         0.28931E+07         0.00000E+00
    0.28931E+07        -0.50129E+08         0.00000E+00
    0.00000E+00         0.00000E+00        -0.54085E+08
 
   -0.54239E+08         0.29618E+07         0.00000E+00
    0.29618E+07        -0.50135E+08         0.00000E+00
    0.00000E+00         0.00000E+00        -0.54086E+08
 
   -0.54224E+08         0.30303E+07         0.00000E+00
    0.30303E+07        -0.50141E+08         0.00000E+00
    0.00000E+00         0.00000E+00        -0.54086E+08
 
   -0.54208E+08         0.30986E+07         0.00000E+00
    0.30986E+07        -0.50148E+08         0.00000E+00
    0.00000E+00         0.00000E+00        -0.54086E+08
 
   -0.54192E+08         0.31667E+07         0.00000E+00
    0.31667E+07        -0.50155E+08         0.00000E+00
    0.00000E+00         0.00000E+00        -0.54086E+08
 
   -0.54176E+08         0.32347E+07         0.00000E+00
    0.32347E+07        -0.50162E+08         0.00000E+00
    0.00000E+00         0.00000E+00        -0.54086E+08
 
   -0.54160E+08         0.33026E+07         0.00000E+00
    0.33026E+07        -0.50169E+08         0.00000E+00
    0.00000E+00         0.00000E+00        -0.54086E+08
 
   -0.54144E+08         0.33703E+07         0.00000E+00
    0.33703E+07        -0.50177E+08         0.00000E+00
    0.00000E+00         0.00000E+00        -0.54087E+08
 
   -0.54128E+08         0.34379E+07         0.00000E+00
    0.34379E+07        -0.50184E+08         0.00000E+00
    0.00000E+00         0.00000E+00        -0.54087E+08
 
   -0.54112E+08         0.35053E+07         0.00000E+00
    0.35053E+07        -0.50192E+08         0.00000E+00
    0.00000E+00         0.00000E+00        -0.54087E+08
 
   -0.54095E+08         0.35725E+07         0.00000E+00
    0.35725E+07        -0.50200E+08         0.00000E+00
    0.00000E+00         0.00000E+00        -0.54087E+08
 
   -0.54447E+08         0.38827E+05         0.00000E+00
    0.38827E+05        -0.50000E+08         0.00000E+00
    0.00000E+00         0.00000E+00        -0.53742E+08
 
   -0.54434E+08         0.11589E+06         0.00000E+00
    0.11589E+06        -0.50000E+08         0.00000E+00
    0.00000E+00         0.00000E+00        -0.53742E+08
 
   -0.54421E+08         0.19274E+06         0.00000E+00
    0.19274E+06        -0.50001E+08         0.00000E+00
    0.00000E+00         0.00000E+00        -0.53742E+08
 
   -0.54408E+08         0.26936E+06         0.00000E+00
    0.26936E+06        -0.50001E+08         0.00000E+00
    0.00000E+00         0.00000E+00        -0.53742E+08
 
   -0.54396E+08         0.34574E+06         0.00000E+00
    0.34574E+06        -0.50002E+08         0.00000E+00
    0.00000E+00         0.00000E+00        -0.53742E+08
 
   -0.54382E+08         0.42189E+06         0.00000E+00
    0.42189E+06        -0.50003E+08         0.00000E+00
    0.00000E+00         0.00000E+00        -0.53742E+08
 
   -0.54369E+08         0.49780E+06         0.00000E+00
    0.49780E+06        -0.50004E+08         0.00000E+00
    0.00000E+00         0.00000E+00        -0.53743E+08
 
   -0.54356E+08         0.57346E+06         0.00000E+00
    0.57346E+06        -0.50005E+08         0.00000E+00
    0.00000E+00         0.00000E+00        -0.53743E+08
 
   -0.54343E+08         0.64888E+06         0.00000E+00
    0.64888E+06        -0.50006E+08         0.00000E+00
    0.00000E+00         0.00000E+00        -0.53743E+08
 
   -0.54330E+08         0.72404E+06         0.00000E+00
    0.72404E+06        -0.50008E+08         0.00000E+00
    0.00000E+00         0.00000E+00        -0.53743E+08
 
   -0.54316E+08         0.79895E+06         0.00000E+00
    0.79895E+06        -0.50009E+08         0.00000E+00
    0.00000E+00         0.00000E+00        -0.53743E+08
 
   -0.54303E+08         0.87361E+06         0.00000E+00
    0.87361E+06        -0.50011E+08         0.00000E+00
    0.00000E+00         0.00000E+00        -0.53744E+08
 
   -0.54290E+08         0.94801E+06         0.00000E+00
    0.94801E+06        -0.50013E+08         0.00000E+00
    0.00000E+00         0.00000E+00        -0.53744E+08
 
   -0.54276E+08         0.10222E+07         0.00000E+00
    0.10222E+07        -0.50015E+08         0.00000E+00
    0.00000E+00         0.00000E+00        -0.53744E+08
 
   -0.54263E+08         0.10960E+07         0.00000E+00
    0.10960E+07        -0.50018E+08         0.00000E+00
    0.00000E+00         0.00000E+00        -0.53745E+08
 
   -0.54249E+08         0.11697E+07         0.00000E+00
    0.11697E+07        -0.50020E+08         0.00000E+00
    0.00000E+00         0.00000E+00        -0.53745E+08
 
   -0.54235E+08         0.12430E+07         0.00000E+00
    0.12430E+07        -0.50023E+08         0.00000E+00
    0.00000E+00         0.00000E+00        -0.53745E+08
 
   -0.54222E+08         0.13161E+07         0.00000E+00
    0.13161E+07        -0.50025E+08         0.00000E+00
    0.00000E+00         0.00000E+00        -0.53746E+08
 
   -0.54208E+08         0.13890E+07         0.00000E+00
    0.13890E+07        -0.50028E+08         0.00000E+00
    0.00000E+00         0.00000E+00        -0.53746E+08
 
   -0.54194E+08         0.14616E+07         0.00000E+00
    0.14616E+07        -0.50031E+08         0.00000E+00
    0.00000E+00         0.00000E+00        -0.53746E+08
 
   -0.54181E+08         0.15339E+07         0.00000E+00
    0.15339E+07        -0.50034E+08         0.00000E+00
    0.00000E+00         0.00000E+00        -0.53747E+08
 
   -0.54167E+08         0.16060E+07         0.00000E+00
    0.16060E+07        -0.50038E+08         0.00000E+00
    0.00000E+00         0.00000E+00        -0.53747E+08
 
   -0.54153E+08         0.16778E+07         0.00000E+00
    0.16778E+07        -0.50041E+08         0.00000E+00
    0.00000E+00         0.00000E+00        -0.53747E+08
 
   -0.54139E+08         0.17494E+07         0.00000E+00
    0.17494E+07        -0.50044E+08         0.00000E+00
    0.00000E+00         0.00000E+00        -0.53748E+08
 
   -0.54125E+08         0.18207E+07         0.00000E+00
    0.18207E+07        -0.50048E+08         0.00000E+00
    0.00000E+00         0.00000E+00        -0.53748E+08
 
   -0.54111E+08         0.18918E+07         0.00000E+00
    0.18918E+07        -0.50052E+08         0.00000E+00
    0.00000E+00         0.00000E+00        -0.53748E+08
 
   -0.54098E+08         0.19626E+07         0.00000E+00
    0.19626E+07        -0.50056E+08         0.00000E+00
    0.00000E+00         0.00000E+00        -0.53749E+08
 
   -0.54084E+08         0.20332E+07         0.00000E+00
    0.20332E+07        -0.50060E+08         0.00000E+00
    0.00000E+00         0.00000E+00        -0.53749E+08
 
   -0.54070E+08         0.21036E+07         0.00000E+00
    0.21036E+07        -0.50064E+08         0.00000E+00
    0.00000E+00         0.00000E+00        -0.53749E+08
 
   -0.54056E+08         0.21737E+07         0.00000E+00
    0.21737E+07        -0.50068E+08         0.00000E+00
    0.00000E+00         0.00000E+00        -0.53750E+08
 
   -0.54042E+08         0.22436E+07         0.00000E+00
    0.22436E+07        -0.50073E+08         0.00000E+00
    0.00000E+00         0.00000E+00        -0.53750E+08
 
   -0.54028E+08         0.23133E+07         0.00000E+00
    0.23133E+07        -0.50077E+08         0.00000E+00
    0.00000E+00         0.00000E+00        -0.53750E+08
 
   -0.54014E+08         0.23828E+07         0.00000E+00
    0.23828E+07        -0.50082E+08         0.00000E+00
    0.00000E+00         0.00000E+00        -0.53751E+08
 
   -0.53999E+08         0.24520E+07         0.00000E+00
    0.24520E+07        -0.50087E+08         0.00000E+00
    0.00000E+00         0.00000E+00        -0.53751E+08
 
   -0.53985E+08         0.25210E+07         0.00000E+00
    0.25210E+07        -0.50092E+08         0.00000E+00
    0.00000E+00         0.00000E+00        -0.53751E+08
 
   -0.53971E+08         0.25898E+07         0.00000E+00
    0.25898E+07        -0.50097E+08         0.00000E+00
    0.00000E+00         0.00000E+00        -0.53752E+08
 
   -0.53957E+08         0.26584E+07         0.00000E+00
    0.26584E+07        -0.50102E+08         0.00000E+00
    0.00000E+00         0.00000E+00        -0.53752E+08
 
   -0.53942E+08         0.27268E+07         0.00000E+00
    0.27268E+07        -0.50108E+08         0.00000E+00
    0.00000E+00         0.00000E+00        -0.53752E+08
 
   -0.53928E+08         0.27950E+07         0.00000E+00
    0.27950E+07        -0.50114E+08         0.00000E+00
    0.00000E+00         0.00000E+00        -0.53753E+08
 
   -0.53913E+08         0.28629E+07         0.00000E+00
    0.28629E+07        -0.50119E+08         0.00000E+00
    0.00000E+00         0.00000E+00        -0.53753E+08
 
   -0.53899E+08         0.29307E+07         0.00000E+00
    0.29307E+07        -0.50125E+08         0.00000E+00
    0.00000E+00         0.00000E+00        -0.53753E+08
 
   -0.53884E+08         0.29983E+07         0.00000E+00
    0.29983E+07        -0.50131E+08         0.00000E+00
    0.00000E+00         0.00000E+00        -0.53753E+08
 
   -0.53869E+08         0.30657E+07         0.00000E+00
    0.30657E+07        -0.50138E+08         0.00000E+00
    0.00000E+00         0.00000E+00        -0.53753E+08
 
   -0.53854E+08         0.31329E+07         0.00000E+00
    0.31329E+07        -0.50144E+08         0.00000E+00
    0.00000E+00         0.00000E+00        -0.53754E+08
 
   -0.53839E+08         0.31999E+07         0.00000E+00
    0.31999E+07        -0.50151E+08         0.00000E+00
    0.00000E+00         0.00000E+00        -0.53754E+08
 
   -0.53824E+08         0.32667E+07         0.00000E+00
    0.32667E+07        -0.50158E+08         0.00000E+00
    0.00000E+00         0.00000E+00        -0.53754E+08
 
   -0.53809E+08         0.33334E+07         0.00000E+00
    0.33334E+07        -0.50165E+08         0.00000E+00
    0.00000E+00         0.00000E+00        -0.53754E+08
 
   -0.53793E+08         0.33998E+07         0.00000E+00
    0.33998E+07        -0.50172E+08         0.00000E+00
    0.00000E+00         0.00000E+00        -0.53754E+08
 
   -0.53778E+08         0.34661E+07         0.00000E+00
    0.34661E+07        -0.50180E+08         0.00000E+00
    0.00000E+00         0.00000E+00        -0.53754E+08
 
   -0.53762E+08         0.35322E+07         0.00000E+00
    0.35322E+07        -0.50188E+08         0.00000E+00
    0.00000E+00         0.00000E+00        -0.53754E+08
 
   -0.54063E+08         0.38408E+05         0.00000E+00
    0.38408E+05        -0.50000E+08         0.00000E+00
    0.00000E+00         0.00000E+00        -0.53416E+08
 
   -0.54051E+08         0.11465E+06         0.00000E+00
    0.11465E+06        -0.50000E+08         0.00000E+00
    0.00000E+00         0.00000E+00        -0.53416E+08
 
   -0.54040E+08         0.19068E+06         0.00000E+00
    0.19068E+06        -0.50000E+08         0.00000E+00
    0.00000E+00         0.00000E+00        -0.53416E+08
 
   -0.54028E+08         0.26649E+06         0.00000E+00
    0.26649E+06        -0.50001E+08         0.00000E+00
    0.00000E+00         0.00000E+00        -0.53416E+08
 
   -0.54016E+08         0.34208E+06         0.00000E+00
    0.34208E+06        -0.50002E+08         0.00000E+00
    0.00000E+00         0.00000E+00        -0.53416E+08
 
   -0.54004E+08         0.41744E+06         0.00000E+00
    0.41744E+06        -0.50002E+08         0.00000E+00
    0.00000E+00         0.00000E+00        -0.53416E+08
 
   -0.53992E+08         0.49256E+06         0.00000E+00
    0.49256E+06        -0.50003E+08         0.00000E+00
    0.00000E+00         0.00000E+00        -0.53416E+08
 
   -0.53980E+08         0.56746E+06         0.00000E+00
    0.56746E+06        -0.50004E+08         0.00000E+00
    0.00000E+00         0.00000E+00        -0.53417E+08
 
   -0.53968E+08         0.64211E+06         0.00000E+00
    0.64211E+06        -0.50005E+08         0.00000E+00
    0.00000E+00         0.00000E+00        -0.53417E+08
 
   -0.53956E+08         0.71653E+06         0.00000E+00
    0.71653E+06        -0.50007E+08         0.00000E+00
    0.00000E+00         0.00000E+00        -0.53417E+08
 
   -0.53944E+08         0.79070E+06         0.00000E+00
    0.79070E+06        -0.50008E+08         0.00000E+00
    0.00000E+00         0.00000E+00        -0.53417E+08
 
   -0.53932E+08         0.86463E+06         0.00000E+00
    0.86463E+06        -0.50010E+08         0.00000E+00
    0.00000E+00         0.00000E+00        -0.53417E+08
 
   -0.53920E+08         0.93830E+06         0.00000E+00
    0.93830E+06        -0.50012E+08         0.00000E+00
    0.00000E+00         0.00000E+00        -0.53418E+08
 
   -0.53908E+08         0.10117E+07         0.00000E+00
    0.10117E+07        -0.50014E+08         0.00000E+00
    0.00000E+00         0.00000E+00        -0.53418E+08
 
   -0.53896E+08         0.10849E+07         0.00000E+00
    0.10849E+07        -0.50016E+08         0.00000E+00
    0.00000E+00         0.00000E+00        -0.53418E+08
 
   -0.53883E+08         0.11578E+07         0.00000E+00
    0.11578E+07        -0.50018E+08         0.00000E+00
    0.00000E+00         0.00000E+00        -0.53419E+08
 
   -0.53871E+08         0.12305E+07         0.00000E+00
    0.12305E+07        -0.50020E+08         0.00000E+00
    0.00000E+00         0.00000E+00        -0.53419E+08
 
   -0.53859E+08         0.13030E+07         0.00000E+00
    0.13030E+07        -0.50022E+08         0.00000E+00
    0.00000E+00         0.00000E+00        -0.53419E+08
 
   -0.53846E+08         0.13751E+07         0.00000E+00
    0.13751E+07        -0.50025E+08         0.00000E+00
    0.00000E+00         0.00000E+00        -0.53420E+08
 
   -0.53834E+08         0.14471E+07         0.00000E+00
    0.14471E+07        -0.50028E+08         0.00000E+00
    0.00000E+00         0.00000E+00        -0.53420E+08
 
   -0.53821E+08         0.15187E+07         0.00000E+00
    0.15187E+07        -0.50031E+08         0.00000E+00
    0.00000E+00         0.00000E+00        -0.53420E+08
 
   -0.53809E+08         0.15902E+07         0.00000E+00
    0.15902E+07        -0.50034E+08         0.00000E+00
    0.00000E+00         0.00000E+00        -0.53421E+08
 
   -0.53796E+08         0.16613E+07         0.00000E+00
    0.16613E+07        -0.50037E+08         0.00000E+00
    0.00000E+00         0.00000E+00        -0.53421E+08
 
   -0.53784E+08         0.17323E+07         0.00000E+00
    0.17323E+07        -0.50040E+08         0.00000E+00
    0.00000E+00         0.00000E+00        -0.53421E+08
 
   -0.53771E+08         0.18029E+07         0.00000E+00
    0.18029E+07        -0.50043E+08         0.00000E+00
    0.00000E+00         0.00000E+00        -0.53422E+08
 
   -0.53758E+08         0.18734E+07         0.00000E+00
    0.18734E+07        -0.50047E+08         0.00000E+00
    0.00000E+00         0.00000E+00        -0.53422E+08
 
   -0.53746E+08         0.19435E+07         0.00000E+00
    0.19435E+07        -0.50050E+08         0.00000E+00
    0.00000E+00         0.00000E+00        -0.53422E+08
 
   -0.53733E+08         0.20135E+07         0.00000E+00
    0.20135E+07        -0.50054E+08         0.00000E+00
    0.00000E+00         0.00000E+00        -0.53423E+08
 
   -0.53720E+08         0.20832E+07         0.00000E+00
    0.20832E+07        -0.50058E+08         0.00000E+00
    0.00000E+00         0.00000E+00        -0.53423E+08
 
   -0.53707E+08         0.21526E+07         0.00000E+00
    0.21526E+07        -0.50062E+08         0.00000E+00
    0.00000E+00         0.00000E+00        -0.53423E+08
 
   -0.53694E+08         0.22219E+07         0.00000E+00
    0.22219E+07        -0.50066E+08         0.00000E+00
    0.00000E+00         0.00000E+00        -0.53424E+08
 
   -0.53682E+08         0.22909E+07         0.00000E+00
    0.22909E+07        -0.50070E+08         0.00000E+00
    0.00000E+00         0.00000E+00        -0.53424E+08
 
   -0.53669E+08         0.23596E+07         0.00000E+00
    0.23596E+07        -0.50074E+08         0.00000E+00
    0.00000E+00         0.00000E+00        -0.53424E+08
 
   -0.53656E+08         0.24281E+07         0.00000E+00
    0.24281E+07        -0.50079E+08         0.00000E+00
    0.00000E+00         0.00000E+00        -0.53425E+08
 
   -0.53642E+08         0.24964E+07         0.00000E+00
    0.24964E+07        -0.50084E+08         0.00000E+00
    0.00000E+00         0.00000E+00        -0.53425E+08
 
   -0.53629E+08         0.25645E+07         0.00000E+00
    0.25645E+07        -0.50088E+08         0.00000E+00
    0.00000E+00         0.00000E+00        -0.53425E+08
 
   -0.53616E+08         0.26323E+07         0.00000E+00
    0.26323E+07        -0.50093E+08         0.00000E+00
    0.00000E+00         0.00000E+00        -0.53425E+08
 
   -0.53603E+08         0.26999E+07         0.00000E+00
    0.26999E+07        -0.50099E+08         0.00000E+00
    0.00000E+00         0.00000E+00        -0.53426E+08
 
   -0.53589E+08         0.27673E+07         0.00000E+00
    0.27673E+07        -0.50104E+08         0.00000E+00
    0.00000E+00         0.00000E+00        -0.53426E+08
 
   -0.53576E+08         0.28345E+07         0.00000E+00
    0.28345E+07        -0.50109E+08         0.00000E+00
    0.00000E+00         0.00000E+00        -0.53426E+08
 
   -0.53562E+08         0.29014E+07         0.00000E+00
    0.29014E+07        -0.50115E+08         0.00000E+00
    0.00000E+00         0.00000E+00        -0.53426E+08
 
   -0.53549E+08         0.29681E+07         0.00000E+00
    0.29681E+07        -0.50121E+08         0.00000E+00
    0.00000E+00         0.00000E+00        -0.53427E+08
 
   -0.53535E+08         0.30346E+07         0.00000E+00
    0.30346E+07        -0.50126E+08         0.00000E+00
    0.00000E+00         0.00000E+00        -0.53427E+08
 
   -0.53521E+08         0.31009E+07         0.00000E+00
    0.31009E+07        -0.50133E+08         0.00000E+00
    0.00000E+00         0.00000E+00        -0.53427E+08
 
   -0.53507E+08         0.31670E+07         0.00000E+00
    0.31670E+07        -0.50139E+08         0.00000E+00
    0.00000E+00         0.00000E+00        -0.53427E+08
 
   -0.53493E+08         0.32328E+07         0.00000E+00
    0.32328E+07        -0.50145E+08         0.00000E+00
    0.00000E+00         0.00000E+00        -0.53427E+08
 
   -0.53479E+08         0.32985E+07         0.00000E+00
    0.32985E+07        -0.50152E+08         0.00000E+00
    0.00000E+00         0.00000E+00        -0.53427E+08
 
   -0.53464E+08         0.33639E+07         0.00000E+00
    0.33639E+07        -0.50159E+08         0.00000E+00
    0.00000E+00         0.00000E+00        -0.53427E+08
 
   -0.53450E+08         0.34291E+07         0.00000E+00
    0.34291E+07        -0.50166E+08         0.00000E+00
    0.00000E+00         0.00000E+00        -0.53427E+08
 
   -0.53435E+08         0.34940E+07         0.00000E+00
    0.34940E+07        -0.50173E+08         0.00000E+00
    0.00000E+00         0.00000E+00        -0.53427E+08
 
   -0.53683E+08         0.38050E+05         0.00000E+00
    0.38050E+05        -0.50000E+08         0.00000E+00
    0.00000E+00         0.00000E+00        -0.53095E+08
 
   -0.53673E+08         0.11358E+06         0.00000E+00
    0.11358E+06        -0.50000E+08         0.00000E+00
    0.00000E+00         0.00000E+00        -0.53095E+08
 
   -0.53662E+08         0.18890E+06         0.00000E+00
    0.18890E+06        -0.50000E+08         0.00000E+00
    0.00000E+00         0.00000E+00        -0.53095E+08
 
   -0.53651E+08         0.26401E+06         0.00000E+00
    0.26401E+06        -0.50001E+08         0.00000E+00
    0.00000E+00         0.00000E+00        -0.53095E+08
 
   -0.53641E+08         0.33890E+06         0.00000E+00
    0.33890E+06        -0.50001E+08         0.00000E+00
    0.00000E+00         0.00000E+00        -0.53096E+08
 
   -0.53630E+08         0.41356E+06         0.00000E+00
    0.41356E+06        -0.50002E+08         0.00000E+00
    0.00000E+00         0.00000E+00        -0.53096E+08
 
   -0.53619E+08         0.48800E+06         0.00000E+00
    0.48800E+06        -0.50003E+08         0.00000E+00
    0.00000E+00         0.00000E+00        -0.53096E+08
 
   -0.53608E+08         0.56221E+06         0.00000E+00
    0.56221E+06        -0.50004E+08         0.00000E+00
    0.00000E+00         0.00000E+00        -0.53096E+08
 
   -0.53597E+08         0.63618E+06         0.00000E+00
    0.63618E+06        -0.50005E+08         0.00000E+00
    0.00000E+00         0.00000E+00        -0.53096E+08
 
   -0.53587E+08         0.70993E+06         0.00000E+00
    0.70993E+06        -0.50006E+08         0.00000E+00
    0.00000E+00         0.00000E+00        -0.53096E+08
 
   -0.53576E+08         0.78343E+06         0.00000E+00
    0.78343E+06        -0.50007E+08         0.00000E+00
    0.00000E+00         0.00000E+00        -0.53097E+08
 
   -0.53565E+08         0.85670E+06         0.00000E+00
    0.85670E+06        -0.50009E+08         0.00000E+00
    0.00000E+00         0.00000E+00        -0.53097E+08
 
   -0.53554E+08         0.92972E+06         0.00000E+00
    0.92972E+06        -0.50010E+08         0.00000E+00
    0.00000E+00         0.00000E+00        -0.53097E+08
 
   -0.53543E+08         0.10025E+07         0.00000E+00
    0.10025E+07        -0.50012E+08         0.00000E+00
    0.00000E+00         0.00000E+00        -0.53097E+08
 
   -0.53532E+08         0.10750E+07         0.00000E+00
    0.10750E+07        -0.50014E+08         0.00000E+00
    0.00000E+00         0.00000E+00        -0.53098E+08
 
   -0.53521E+08         0.11473E+07         0.00000E+00
    0.11473E+07        -0.50016E+08         0.00000E+00
    0.00000E+00         0.00000E+00        -0.53098E+08
 
   -0.53510E+08         0.12194E+07         0.00000E+00
    0.12194E+07        -0.50018E+08         0.00000E+00
    0.00000E+00         0.00000E+00        -0.53098E+08
 
   -0.53499E+08         0.12912E+07         0.00000E+00
    0.12912E+07        -0.50020E+08         0.00000E+00
    0.00000E+00         0.00000E+00        -0.53098E+08
 
   -0.53487E+08         0.13627E+07         0.00000E+00
    0.13627E+07        -0.50022E+08         0.00000E+00
    0.00000E+00         0.00000E+00        -0.53099E+08
 
   -0.53476E+08         0.14340E+07         0.00000E+00
    0.14340E+07        -0.50024E+08         0.00000E+00
    0.00000E+00         0.00000E+00        -0.53099E+08
 
   -0.53465E+08         0.15051E+07         0.00000E+00
    0.15051E+07        -0.50027E+08         0.00000E+00
    0.00000E+00         0.00000E+00        -0.53099E+08
 
   -0.53454E+08         0.15759E+07         0.00000E+00
    0.15759E+07        -0.50030E+08         0.00000E+00
    0.00000E+00         0.00000E+00        -0.53100E+08
 
   -0.53442E+08         0.16464E+07         0.00000E+00
    0.16464E+07        -0.50032E+08         0.00000E+00
    0.00000E+00         0.00000E+00        -0.53100E+08
 
   -0.53431E+08         0.17167E+07         0.00000E+00
    0.17167E+07        -0.50035E+08         0.00000E+00
    0.00000E+00         0.00000E+00        -0.53100E+08
 
   -0.53420E+08         0.17868E+07         0.00000E+00
    0.17868E+07        -0.50038E+08         0.00000E+00
    0.00000E+00         0.00000E+00        -0.53101E+08
 
   -0.53408E+08         0.18566E+07         0.00000E+00
    0.18566E+07        -0.50041E+08         0.00000E+00
    0.00000E+00         0.00000E+00        -0.53101E+08
 
   -0.53397E+08         0.19262E+07         0.00000E+00
    0.19262E+07        -0.50045E+08         0.00000E+00
    0.00000E+00         0.00000E+00        -0.53101E+08
 
   -0.53385E+08         0.19955E+07         0.00000E+00
    0.19955E+07        -0.50048E+08         0.00000E+00
    0.00000E+00         0.00000E+00        -0.53102E+08
 
   -0.53374E+08         0.20645E+07         0.00000E+00
    0.20645E+07        -0.50051E+08         0.00000E+00
    0.00000E+00         0.00000E+00        -0.53102E+08
 
   -0.53362E+08         0.21333E+07         0.00000E+00
    0.21333E+07        -0.50055E+08         0.00000E+00
    0.00000E+00         0.00000E+00        -0.53102E+08
 
   -0.53351E+08         0.22019E+07         0.00000E+00
    0.22019E+07        -0.50059E+08         0.00000E+00
    0.00000E+00         0.00000E+00        -0.53103E+08
 
   -0.53339E+08         0.22702E+07         0.00000E+00
    0.22702E+07        -0.50063E+08         0.00000E+00
    0.00000E+00         0.00000E+00        -0.53103E+08
 
   -0.53327E+08         0.23383E+07         0.00000E+00
    0.23383E+07        -0.50067E+08         0.00000E+00
    0.00000E+00         0.00000E+00        -0.53103E+08
 
   -0.53315E+08         0.24061E+07         0.00000E+00
    0.24061E+07        -0.50071E+08         0.00000E+00
    0.00000E+00         0.00000E+00        -0.53104E+08
 
   -0.53303E+08         0.24737E+07         0.00000E+00
    0.24737E+07        -0.50075E+08         0.00000E+00
    0.00000E+00         0.00000E+00        -0.53104E+08
 
   -0.53291E+08         0.25411E+07         0.00000E+00
    0.25411E+07        -0.50079E+08         0.00000E+00
    0.00000E+00         0.00000E+00        -0.53104E+08
 
   -0.53279E+08         0.26082E+07         0.00000E+00
    0.26082E+07        -0.50084E+08         0.00000E+00
    0.00000E+00         0.00000E+00        -0.53104E+08
 
   -0.53267E+08         0.26751E+07         0.00000E+00
    0.26751E+07        -0.50089E+08         0.00000E+00
    0.00000E+00         0.00000E+00        -0.53105E+08
 
   -0.53255E+08         0.27417E+07         0.00000E+00
    0.27417E+07        -0.50093E+08         0.00000E+00
    0.00000E+00         0.00000E+00        -0.53105E+08
 
   -0.53243E+08         0.28081E+07         0.00000E+00
    0.28081E+07        -0.50098E+08         0.00000E+00
    0.00000E+00         0.00000E+00        -0.53105E+08
 
   -0.53230E+08         0.28742E+07         0.00000E+00
    0.28742E+07        -0.50103E+08         0.00000E+00
    0.00000E+00         0.00000E+00        -0.53105E+08
 
   -0.53218E+08         0.29401E+07         0.00000E+00
    0.29401E+07        -0.50109E+08         0.00000E+00
    0.00000E+00         0.00000E+00        -0.53105E+08
 
   -0.53205E+08         0.30058E+07         0.00000E+00
    0.30058E+07        -0.50114E+08         0.00000E+00
    0.00000E+00         0.00000E+00        -0.53106E+08
 
   -0.53192E+08         0.30712E+07         0.00000E+00
    0.30712E+07        -0.50120E+08         0.00000E+00
    0.00000E+00         0.00000E+00        -0.53106E+08
 
   -0.53180E+08         0.31364E+07         0.00000E+00
    0.31364E+07        -0.50126E+08         0.00000E+00
    0.00000E+00         0.00000E+00        -0.53106E+08
 
   -0.53167E+08         0.32013E+07         0.00000E+00
    0.32013E+07        -0.50132E+08         0.00000E+00
    0.00000E+00         0.00000E+00        -0.53106E+08
 
   -0.53154E+08         0.32660E+07         0.00000E+00
    0.32660E+07        -0.50138E+08         0.00000E+00
    0.00000E+00         0.00000E+00        -0.53106E+08
 
   -0.53140E+08         0.33305E+07         0.00000E+00
    0.33305E+07        -0.50144E+08         0.00000E+00
    0.00000E+00         0.00000E+00        -0.53106E+08
 
   -0.53127E+08         0.33947E+07         0.00000E+00
    0.33947E+07        -0.50150E+08         0.00000E+00
    0.00000E+00         0.00000E+00        -0.53106E+08
 
   -0.53113E+08         0.34586E+07         0.00000E+00
    0.34586E+07        -0.50157E+08         0.00000E+00
    0.00000E+00         0.00000E+00        -0.53106E+08
 
   -0.53306E+08         0.37747E+05         0.00000E+00
    0.37747E+05        -0.50000E+08         0.00000E+00
    0.00000E+00         0.00000E+00        -0.52780E+08
 
   -0.53297E+08         0.11267E+06         0.00000E+00
    0.11267E+06        -0.50000E+08         0.00000E+00
    0.00000E+00         0.00000E+00        -0.52780E+08
 
   -0.53287E+08         0.18739E+06         0.00000E+00
    0.18739E+06        -0.50000E+08         0.00000E+00
    0.00000E+00         0.00000E+00        -0.52780E+08
 
   -0.53278E+08         0.26189E+06         0.00000E+00
    0.26189E+06        -0.50001E+08         0.00000E+00
    0.00000E+00         0.00000E+00        -0.52780E+08
 
   -0.53268E+08         0.33617E+06         0.00000E+00
    0.33617E+06        -0.50001E+08         0.00000E+00
    0.00000E+00         0.00000E+00        -0.52780E+08
 
   -0.53259E+08         0.41023E+06         0.00000E+00
    0.41023E+06        -0.50002E+08         0.00000E+00
    0.00000E+00         0.00000E+00        -0.52780E+08
 
   -0.53249E+08         0.48407E+06         0.00000E+00
    0.48407E+06        -0.50002E+08         0.00000E+00
    0.00000E+00         0.00000E+00        -0.52780E+08
 
   -0.53239E+08         0.55768E+06         0.00000E+00
    0.55768E+06        -0.50003E+08         0.00000E+00
    0.00000E+00         0.00000E+00        -0.52780E+08
 
   -0.53230E+08         0.63106E+06         0.00000E+00
    0.63106E+06        -0.50004E+08         0.00000E+00
    0.00000E+00         0.00000E+00        -0.52781E+08
 
   -0.53220E+08         0.70421E+06         0.00000E+00
    0.70421E+06        -0.50005E+08         0.00000E+00
    0.00000E+00         0.00000E+00        -0.52781E+08
 
   -0.53210E+08         0.77712E+06         0.00000E+00
    0.77712E+06        -0.50006E+08         0.00000E+00
    0.00000E+00         0.00000E+00        -0.52781E+08
 
   -0.53201E+08         0.84980E+06         0.00000E+00
    0.84980E+06        -0.50007E+08         0.00000E+00
    0.00000E+00         0.00000E+00        -0.52781E+08
 
   -0.53191E+08         0.92224E+06         0.00000E+00
    0.92224E+06        -0.50009E+08         0.00000E+00
    0.00000E+00         0.00000E+00        -0.52781E+08
 
   -0.53181E+08         0.99444E+06         0.00000E+00
    0.99444E+06        -0.50010E+08         0.00000E+00
    0.00000E+00         0.00000E+00        -0.52782E+08
 
   -0.53171E+08         0.10664E+07         0.00000E+00
    0.10664E+07        -0.50012E+08         0.00000E+00
    0.00000E+00         0.00000E+00        -0.52782E+08
 
   -0.53161E+08         0.11381E+07         0.00000E+00
    0.11381E+07        -0.50013E+08         0.00000E+00
    0.00000E+00         0.00000E+00        -0.52782E+08
 
   -0.53152E+08         0.12096E+07         0.00000E+00
    0.12096E+07        -0.50015E+08         0.00000E+00
    0.00000E+00         0.00000E+00        -0.52782E+08
 
   -0.53142E+08         0.12808E+07         0.00000E+00
    0.12808E+07        -0.50017E+08         0.00000E+00
    0.00000E+00         0.00000E+00        -0.52783E+08
 
   -0.53132E+08         0.13518E+07         0.00000E+00
    0.13518E+07        -0.50019E+08         0.00000E+00
    0.00000E+00         0.00000E+00        -0.52783E+08
 
   -0.53122E+08         0.14225E+07         0.00000E+00
    0.14225E+07        -0.50021E+08         0.00000E+00
    0.00000E+00         0.00000E+00        -0.52783E+08
 
   -0.53112E+08         0.14930E+07         0.00000E+00
    0.14930E+07        -0.50023E+08         0.00000E+00
    0.00000E+00         0.00000E+00        -0.52784E+08
 
   -0.53102E+08         0.15632E+07         0.00000E+00
    0.15632E+07        -0.50026E+08         0.00000E+00
    0.00000E+00         0.00000E+00        -0.52784E+08
 
   -0.53092E+08         0.16332E+07         0.00000E+00
    0.16332E+07        -0.50028E+08         0.00000E+00
    0.00000E+00         0.00000E+00        -0.52784E+08
 
   -0.53082E+08         0.17029E+07         0.00000E+00
    0.17029E+07        -0.50031E+08         0.00000E+00
    0.00000E+00         0.00000E+00        -0.52785E+08
 
   -0.53072E+08         0.17724E+07         0.00000E+00
    0.17724E+07        -0.50033E+08         0.00000E+00
    0.00000E+00         0.00000E+00        -0.52785E+08
 
   -0.53061E+08         0.18416E+07         0.00000E+00
    0.18416E+07        -0.50036E+08         0.00000E+00
    0.00000E+00         0.00000E+00        -0.52785E+08
 
   -0.53051E+08         0.19106E+07         0.00000E+00
    0.19106E+07        -0.50039E+08         0.00000E+00
    0.00000E+00         0.00000E+00        -0.52785E+08
 
   -0.53041E+08         0.19793E+07         0.00000E+00
    0.19793E+07        -0.50042E+08         0.00000E+00
    0.00000E+00         0.00000E+00        -0.52786E+08
 
   -0.53031E+08         0.20478E+07         0.00000E+00
    0.20478E+07        -0.50045E+08         0.00000E+00
    0.00000E+00         0.00000E+00        -0.52786E+08
 
   -0.53020E+08         0.21160E+07         0.00000E+00
    0.21160E+07        -0.50048E+08         0.00000E+00
    0.00000E+00         0.00000E+00        -0.52786E+08
 
   -0.53010E+08         0.21839E+07         0.00000E+00
    0.21839E+07        -0.50051E+08         0.00000E+00
    0.00000E+00         0.00000E+00        -0.52787E+08
 
   -0.52999E+08         0.22516E+07         0.00000E+00
    0.22516E+07        -0.50055E+08         0.00000E+00
    0.00000E+00         0.00000E+00        -0.52787E+08
 
   -0.52989E+08         0.23191E+07         0.00000E+00
    0.23191E+07        -0.50058E+08         0.00000E+00
    0.00000E+00         0.00000E+00        -0.52787E+08
 
   -0.52978E+08         0.23863E+07         0.00000E+00
    0.23863E+07        -0.50062E+08         0.00000E+00
    0.00000E+00         0.00000E+00        -0.52788E+08
 
   -0.52968E+08         0.24532E+07         0.00000E+00
    0.24532E+07        -0.50066E+08         0.00000E+00
    0.00000E+00         0.00000E+00        -0.52788E+08
 
   -0.52957E+08         0.25199E+07         0.00000E+00
    0.25199E+07        -0.50070E+08         0.00000E+00
    0.00000E+00         0.00000E+00        -0.52788E+08
 
   -0.52946E+08         0.25863E+07         0.00000E+00
    0.25863E+07        -0.50074E+08         0.00000E+00
    0.00000E+00         0.00000E+00        -0.52788E+08
 
   -0.52935E+08         0.26525E+07         0.00000E+00
    0.26525E+07        -0.50078E+08         0.00000E+00
    0.00000E+00         0.00000E+00        -0.52789E+08
 
   -0.52924E+08         0.27184E+07         0.00000E+00
    0.27184E+07        -0.50083E+08         0.00000E+00
    0.00000E+00         0.00000E+00        -0.52789E+08
 
   -0.52913E+08         0.27841E+07         0.00000E+00
    0.27841E+07        -0.50087E+08         0.00000E+00
    0.00000E+00         0.00000E+00        -0.52789E+08
 
   -0.52902E+08         0.28495E+07         0.00000E+00
    0.28495E+07        -0.50092E+08         0.00000E+00
    0.00000E+00         0.00000E+00        -0.52789E+08
 
   -0.52891E+08         0.29146E+07         0.00000E+00
    0.29146E+07        -0.50096E+08         0.00000E+00
    0.00000E+00         0.00000E+00        -0.52789E+08
 
   -0.52879E+08         0.29795E+07         0.00000E+00
    0.29795E+07        -0.50101E+08         0.00000E+00
    0.00000E+00         0.00000E+00        -0.52790E+08
 
   -0.52868E+08         0.30441E+07         0.00000E+00
    0.30441E+07        -0.50106E+08         0.00000E+00
    0.00000E+00         0.00000E+00        -0.52790E+08
 
   -0.52856E+08         0.31085E+07         0.00000E+00
    0.31085E+07        -0.50112E+08         0.00000E+00
    0.00000E+00         0.00000E+00        -0.52790E+08
 
   -0.52845E+08         0.31726E+07         0.00000E+00
    0.31726E+07        -0.50117E+08         0.00000E+00
    0.00000E+00         0.00000E+00        -0.52790E+08
 
   -0.52833E+08         0.32364E+07         0.00000E+00
    0.32364E+07        -0.50123E+08         0.00000E+00
    0.00000E+00         0.00000E+00        -0.52790E+08
 
   -0.52821E+08         0.33000E+07         0.00000E+00
    0.33000E+07        -0.50128E+08         0.00000E+00
    0.00000E+00         0.00000E+00        -0.52790E+08
 
   -0.52809E+08         0.33632E+07         0.00000E+00
    0.33632E+07        -0.50134E+08         0.00000E+00
    0.00000E+00         0.00000E+00        -0.52790E+08
 
   -0.52796E+08         0.34263E+07         0.00000E+00
    0.34263E+07        -0.50140E+08         0.00000E+00
    0.00000E+00         0.00000E+00        -0.52790E+08
 
   -0.52933E+08         0.37495E+05         0.00000E+00
    0.37495E+05        -0.50000E+08         0.00000E+00
    0.00000E+00         0.00000E+00        -0.52469E+08
 
   -0.52924E+08         0.11191E+06         0.00000E+00
    0.11191E+06        -0.50000E+08         0.00000E+00
    0.00000E+00         0.00000E+00        -0.52469E+08
 
   -0.52916E+08         0.18612E+06         0.00000E+00
    0.18612E+06        -0.50000E+08         0.00000E+00
    0.00000E+00         0.00000E+00        -0.52469E+08
 
   -0.52907E+08         0.26010E+06         0.00000E+00
    0.26010E+06        -0.50001E+08         0.00000E+00
    0.00000E+00         0.00000E+00        -0.52469E+08
 
   -0.52899E+08         0.33387E+06         0.00000E+00
    0.33387E+06        -0.50001E+08         0.00000E+00
    0.00000E+00         0.00000E+00        -0.52469E+08
 
   -0.52890E+08         0.40742E+06         0.00000E+00
    0.40742E+06        -0.50001E+08         0.00000E+00
    0.00000E+00         0.00000E+00        -0.52469E+08
 
   -0.52882E+08         0.48074E+06         0.00000E+00
    0.48074E+06        -0.50002E+08         0.00000E+00
    0.00000E+00         0.00000E+00        -0.52469E+08
 
   -0.52873E+08         0.55384E+06         0.00000E+00
    0.55384E+06        -0.50003E+08         0.00000E+00
    0.00000E+00         0.00000E+00        -0.52469E+08
 
   -0.52865E+08         0.62671E+06         0.00000E+00
    0.62671E+06        -0.50003E+08         0.00000E+00
    0.00000E+00         0.00000E+00        -0.52470E+08
 
   -0.52856E+08         0.69934E+06         0.00000E+00
    0.69934E+06        -0.50004E+08         0.00000E+00
    0.00000E+00         0.00000E+00        -0.52470E+08
 
   -0.52848E+08         0.77175E+06         0.00000E+00
    0.77175E+06        -0.50005E+08         0.00000E+00
    0.00000E+00         0.00000E+00        -0.52470E+08
 
   -0.52839E+08         0.84391E+06         0.00000E+00
    0.84391E+06        -0.50006E+08         0.00000E+00
    0.00000E+00         0.00000E+00        -0.52470E+08
 
   -0.52830E+08         0.91584E+06         0.00000E+00
    0.91584E+06        -0.50007E+08         0.00000E+00
    0.00000E+00         0.00000E+00        -0.52470E+08
 
   -0.52822E+08         0.98753E+06         0.00000E+00
    0.98753E+06        -0.50009E+08         0.00000E+00
    0.00000E+00         0.00000E+00        -0.52471E+08
 
   -0.52813E+08         0.10590E+07         0.00000E+00
    0.10590E+07        -0.50010E+08         0.00000E+00
    0.00000E+00         0.00000E+00        -0.52471E+08
 
   -0.52805E+08         0.11302E+07         0.00000E+00
    0.11302E+07        -0.50011E+08         0.00000E+00
    0.00000E+00         0.00000E+00        -0.52471E+08
 
   -0.52796E+08         0.12011E+07         0.00000E+00
    0.12011E+07        -0.50013E+08         0.00000E+00
    0.00000E+00         0.00000E+00        -0.52471E+08
 
   -0.52787E+08         0.12719E+07         0.00000E+00
    0.12719E+07        -0.50014E+08         0.00000E+00
    0.00000E+00         0.00000E+00        -0.52472E+08
 
   -0.52779E+08         0.13423E+07         0.00000E+00
    0.13423E+07        -0.50016E+08         0.00000E+00
    0.00000E+00         0.00000E+00        -0.52472E+08
 
   -0.52770E+08         0.14125E+07         0.00000E+00
    0.14125E+07        -0.50018E+08         0.00000E+00
    0.00000E+00         0.00000E+00        -0.52472E+08
 
   -0.52761E+08         0.14825E+07         0.00000E+00
    0.14825E+07        -0.50020E+08         0.00000E+00
    0.00000E+00         0.00000E+00        -0.52472E+08
 
   -0.52753E+08         0.15522E+07         0.00000E+00
    0.15522E+07        -0.50022E+08         0.00000E+00
    0.00000E+00         0.00000E+00        -0.52473E+08
 
   -0.52744E+08         0.16217E+07         0.00000E+00
    0.16217E+07        -0.50024E+08         0.00000E+00
    0.00000E+00         0.00000E+00        -0.52473E+08
 
   -0.52735E+08         0.16909E+07         0.00000E+00
    0.16909E+07        -0.50026E+08         0.00000E+00
    0.00000E+00         0.00000E+00        -0.52473E+08
 
   -0.52726E+08         0.17598E+07         0.00000E+00
    0.17598E+07        -0.50028E+08         0.00000E+00
    0.00000E+00         0.00000E+00        -0.52474E+08
 
   -0.52717E+08         0.18285E+07         0.00000E+00
    0.18285E+07        -0.50031E+08         0.00000E+00
    0.00000E+00         0.00000E+00        -0.52474E+08
 
   -0.52708E+08         0.18969E+07         0.00000E+00
    0.18969E+07        -0.50033E+08         0.00000E+00
    0.00000E+00         0.00000E+00        -0.52474E+08
 
   -0.52699E+08         0.19651E+07         0.00000E+00
    0.19651E+07        -0.50036E+08         0.00000E+00
    0.00000E+00         0.00000E+00        -0.52475E+08
 
   -0.52690E+08         0.20330E+07         0.00000E+00
    0.20330E+07        -0.50038E+08         0.00000E+00
    0.00000E+00         0.00000E+00        -0.52475E+08
 
   -0.52681E+08         0.21007E+07         0.00000E+00
    0.21007E+07        -0.50041E+08         0.00000E+00
    0.00000E+00         0.00000E+00        -0.52475E+08
 
   -0.52672E+08         0.21681E+07         0.00000E+00
    0.21681E+07        -0.50044E+08         0.00000E+00
    0.00000E+00         0.00000E+00        -0.52475E+08
 
   -0.52663E+08         0.22352E+07         0.00000E+00
    0.22352E+07        -0.50047E+08         0.00000E+00
    0.00000E+00         0.00000E+00        -0.52476E+08
 
   -0.52654E+08         0.23021E+07         0.00000E+00
    0.23021E+07        -0.50050E+08         0.00000E+00
    0.00000E+00         0.00000E+00        -0.52476E+08
 
   -0.52644E+08         0.23687E+07         0.00000E+00
    0.23687E+07        -0.50053E+08         0.00000E+00
    0.00000E+00         0.00000E+00        -0.52476E+08
 
   -0.52635E+08         0.24350E+07         0.00000E+00
    0.24350E+07        -0.50057E+08         0.00000E+00
    0.00000E+00         0.00000E+00        -0.52476E+08
 
   -0.52626E+08         0.25011E+07         0.00000E+00
    0.25011E+07        -0.50060E+08         0.00000E+00
    0.00000E+00         0.00000E+00        -0.52477E+08
 
   -0.52616E+08         0.25669E+07         0.00000E+00
    0.25669E+07        -0.50064E+08         0.00000E+00
    0.00000E+00         0.00000E+00        -0.52477E+08
 
   -0.52607E+08         0.26324E+07         0.00000E+00
    0.26324E+07        -0.50068E+08         0.00000E+00
    0.00000E+00         0.00000E+00        -0.52477E+08
 
   -0.52597E+08         0.26977E+07         0.00000E+00
    0.26977E+07        -0.50071E+08         0.00000E+00
    0.00000E+00         0.00000E+00        -0.52477E+08
 
   -0.52587E+08         0.27627E+07         0.00000E+00
    0.27627E+07        -0.50075E+08         0.00000E+00
    0.00000E+00         0.00000E+00        -0.52478E+08
 
   -0.52577E+08         0.28274E+07         0.00000E+00
    0.28274E+07        -0.50079E+08         0.00000E+00
    0.00000E+00         0.00000E+00        -0.52478E+08
 
   -0.52568E+08         0.28918E+07         0.00000E+00
    0.28918E+07        -0.50084E+08         0.00000E+00
    0.00000E+00         0.00000E+00        -0.52478E+08
 
   -0.52558E+08         0.29560E+07         0.00000E+00
    0.29560E+07        -0.50088E+08         0.00000E+00
    0.00000E+00         0.00000E+00        -0.52478E+08
 
   -0.52547E+08         0.30199E+07         0.00000E+00
    0.30199E+07        -0.50092E+08         0.00000E+00
    0.00000E+00         0.00000E+00        -0.52478E+08
 
   -0.52537E+08         0.30835E+07         0.00000E+00
    0.30835E+07        -0.50097E+08         0.00000E+00
    0.00000E+00         0.00000E+00        -0.52478E+08
 
   -0.52527E+08         0.31468E+07         0.00000E+00
    0.31468E+07        -0.50102E+08         0.00000E+00
    0.00000E+00         0.00000E+00        -0.52478E+08
 
   -0.52516E+08         0.32099E+07         0.00000E+00
    0.32099E+07        -0.50107E+08         0.00000E+00
    0.00000E+00         0.00000E+00        -0.52478E+08
 
   -0.52506E+08         0.32727E+07         0.00000E+00
    0.32727E+07        -0.50112E+08         0.00000E+00
    0.00000E+00         0.00000E+00        -0.52479E+08
 
   -0.52495E+08         0.33351E+07         0.00000E+00
    0.33351E+07        -0.50117E+08         0.00000E+00
    0.00000E+00         0.00000E+00        -0.52479E+08
 
   -0.52484E+08         0.33973E+07         0.00000E+00
    0.33973E+07        -0.50122E+08         0.00000E+00
    0.00000E+00         0.00000E+00        -0.52479E+08
 
   -0.52561E+08         0.37292E+05         0.00000E+00
    0.37292E+05        -0.50000E+08         0.00000E+00
    0.00000E+00         0.00000E+00        -0.52162E+08
 
   -0.52554E+08         0.11129E+06         0.00000E+00
    0.11129E+06        -0.50000E+08         0.00000E+00
    0.00000E+00         0.00000E+00        -0.52162E+08
 
   -0.52546E+08         0.18508E+06         0.00000E+00
    0.18508E+06        -0.50000E+08         0.00000E+00
    0.00000E+00         0.00000E+00        -0.52162E+08
 
   -0.52539E+08         0.25864E+06         0.00000E+00
    0.25864E+06        -0.50000E+08         0.00000E+00
    0.00000E+00         0.00000E+00        -0.52162E+08
 
   -0.52531E+08         0.33199E+06         0.00000E+00
    0.33199E+06        -0.50001E+08         0.00000E+00
    0.00000E+00         0.00000E+00        -0.52162E+08
 
   -0.52524E+08         0.40511E+06         0.00000E+00
    0.40511E+06        -0.50001E+08         0.00000E+00
    0.00000E+00         0.00000E+00        -0.52162E+08
 
   -0.52517E+08         0.47800E+06         0.00000E+00
    0.47800E+06        -0.50002E+08         0.00000E+00
    0.00000E+00         0.00000E+00        -0.52162E+08
 
   -0.52509E+08         0.55067E+06         0.00000E+00
    0.55067E+06        -0.50002E+08         0.00000E+00
    0.00000E+00         0.00000E+00        -0.52163E+08
 
   -0.52502E+08         0.62311E+06         0.00000E+00
    0.62311E+06        -0.50003E+08         0.00000E+00
    0.00000E+00         0.00000E+00        -0.52163E+08
 
   -0.52495E+08         0.69531E+06         0.00000E+00
    0.69531E+06        -0.50003E+08         0.00000E+00
    0.00000E+00         0.00000E+00        -0.52163E+08
 
   -0.52487E+08         0.76728E+06         0.00000E+00
    0.76728E+06        -0.50004E+08         0.00000E+00
    0.00000E+00         0.00000E+00        -0.52163E+08
 
   -0.52480E+08         0.83901E+06         0.00000E+00
    0.83901E+06        -0.50005E+08         0.00000E+00
    0.00000E+00         0.00000E+00        -0.52163E+08
 
   -0.52473E+08         0.91051E+06         0.00000E+00
    0.91051E+06        -0.50006E+08         0.00000E+00
    0.00000E+00         0.00000E+00        -0.52163E+08
 
   -0.52465E+08         0.98176E+06         0.00000E+00
    0.98176E+06        -0.50007E+08         0.00000E+00
    0.00000E+00         0.00000E+00        -0.52164E+08
 
   -0.52458E+08         0.10528E+07         0.00000E+00
    0.10528E+07        -0.50008E+08         0.00000E+00
    0.00000E+00         0.00000E+00        -0.52164E+08
 
   -0.52450E+08         0.11235E+07         0.00000E+00
    0.11235E+07        -0.50009E+08         0.00000E+00
    0.00000E+00         0.00000E+00        -0.52164E+08
 
   -0.52443E+08         0.11940E+07         0.00000E+00
    0.11940E+07        -0.50010E+08         0.00000E+00
    0.00000E+00         0.00000E+00        -0.52164E+08
 
   -0.52436E+08         0.12643E+07         0.00000E+00
    0.12643E+07        -0.50012E+08         0.00000E+00
    0.00000E+00         0.00000E+00        -0.52165E+08
 
   -0.52428E+08         0.13343E+07         0.00000E+00
    0.13343E+07        -0.50013E+08         0.00000E+00
    0.00000E+00         0.00000E+00        -0.52165E+08
 
   -0.52421E+08         0.14041E+07         0.00000E+00
    0.14041E+07        -0.50015E+08         0.00000E+00
    0.00000E+00         0.00000E+00        -0.52165E+08
 
   -0.52413E+08         0.14736E+07         0.00000E+00
    0.14736E+07        -0.50016E+08         0.00000E+00
    0.00000E+00         0.00000E+00        -0.52165E+08
 
   -0.52406E+08         0.15429E+07         0.00000E+00
    0.15429E+07        -0.50018E+08         0.00000E+00
    0.00000E+00         0.00000E+00        -0.52166E+08
 
   -0.52398E+08         0.16119E+07         0.00000E+00
    0.16119E+07        -0.50020E+08         0.00000E+00
    0.00000E+00         0.00000E+00        -0.52166E+08
 
   -0.52391E+08         0.16806E+07         0.00000E+00
    0.16806E+07        -0.50021E+08         0.00000E+00
    0.00000E+00         0.00000E+00        -0.52166E+08
 
   -0.52383E+08         0.17491E+07         0.00000E+00
    0.17491E+07        -0.50023E+08         0.00000E+00
    0.00000E+00         0.00000E+00        -0.52166E+08
 
   -0.52376E+08         0.18173E+07         0.00000E+00
    0.18173E+07        -0.50025E+08         0.00000E+00
    0.00000E+00         0.00000E+00        -0.52167E+08
 
   -0.52368E+08         0.18853E+07         0.00000E+00
    0.18853E+07        -0.50027E+08         0.00000E+00
    0.00000E+00         0.00000E+00        -0.52167E+08
 
   -0.52360E+08         0.19530E+07         0.00000E+00
    0.19530E+07        -0.50030E+08         0.00000E+00
    0.00000E+00         0.00000E+00        -0.52167E+08
 
   -0.52353E+08         0.20204E+07         0.00000E+00
    0.20204E+07        -0.50032E+08         0.00000E+00
    0.00000E+00         0.00000E+00        -0.52168E+08
 
   -0.52345E+08         0.20875E+07         0.00000E+00
    0.20875E+07        -0.50034E+08         0.00000E+00
    0.00000E+00         0.00000E+00        -0.52168E+08
 
   -0.52337E+08         0.21544E+07         0.00000E+00
    0.21544E+07        -0.50037E+08         0.00000E+00
    0.00000E+00         0.00000E+00        -0.52168E+08
 
   -0.52329E+08         0.22211E+07         0.00000E+00
    0.22211E+07        -0.50039E+08         0.00000E+00
    0.00000E+00         0.00000E+00        -0.52168E+08
 
   -0.52321E+08         0.22874E+07         0.00000E+00
    0.22874E+07        -0.50042E+08         0.00000E+00
    0.00000E+00         0.00000E+00        -0.52169E+08
 
   -0.52313E+08         0.23535E+07         0.00000E+00
    0.23535E+07        -0.50045E+08         0.00000E+00
    0.00000E+00         0.00000E+00        -0.52169E+08
 
   -0.52305E+08         0.24193E+07         0.00000E+00
    0.24193E+07        -0.50047E+08         0.00000E+00
    0.00000E+00         0.00000E+00        -0.52169E+08
 
   -0.52297E+08         0.24848E+07         0.00000E+00
    0.24848E+07        -0.50050E+08         0.00000E+00
    0.00000E+00         0.00000E+00        -0.52169E+08
 
   -0.52289E+08         0.25500E+07         0.00000E+00
    0.25500E+07        -0.50053E+08         0.00000E+00
    0.00000E+00         0.00000E+00        -0.52170E+08
 
   -0.52281E+08         0.26150E+07         0.00000E+00
    0.26150E+07        -0.50057E+08         0.00000E+00
    0.00000E+00         0.00000E+00        -0.52170E+08
 
   -0.52273E+08         0.26797E+07         0.00000E+00
    0.26797E+07        -0.50060E+08         0.00000E+00
    0.00000E+00         0.00000E+00        -0.52170E+08
 
   -0.52265E+08         0.27441E+07         0.00000E+00
    0.27441E+07        -0.50063E+08         0.00000E+00
    0.00000E+00         0.00000E+00        -0.52170E+08
 
   -0.52256E+08         0.28082E+07         0.00000E+00
    0.28082E+07        -0.50067E+08         0.00000E+00
    0.00000E+00         0.00000E+00        -0.52170E+08
 
   -0.52248E+08         0.28720E+07         0.00000E+00
    0.28720E+07        -0.50070E+08         0.00000E+00
    0.00000E+00         0.00000E+00        -0.52170E+08
 
   -0.52239E+08         0.29356E+07         0.00000E+00
    0.29356E+07        -0.50074E+08         0.00000E+00
    0.00000E+00         0.00000E+00        -0.52171E+08
 
   -0.52230E+08         0.29988E+07         0.00000E+00
    0.29988E+07        -0.50078E+08         0.00000E+00
    0.00000E+00         0.00000E+00        -0.52171E+08
 
   -0.52222E+08         0.30618E+07         0.00000E+00
    0.30618E+07        -0.50082E+08         0.00000E+00
    0.00000E+00         0.00000E+00        -0.52171E+08
 
   -0.52213E+08         0.31244E+07         0.00000E+00
    0.31244E+07        -0.50086E+08         0.00000E+00
    0.00000E+00         0.00000E+00        -0.52171E+08
 
   -0.52204E+08         0.31868E+07         0.00000E+00
    0.31868E+07        -0.50090E+08         0.00000E+00
    0.00000E+00         0.00000E+00        -0.52171E+08
 
   -0.52194E+08         0.32488E+07         0.00000E+00
    0.32488E+07        -0.50094E+08         0.00000E+00
    0.00000E+00         0.00000E+00        -0.52171E+08
 
   -0.52185E+08         0.33106E+07         0.00000E+00
    0.33106E+07        -0.50099E+08         0.00000E+00
    0.00000E+00         0.00000E+00        -0.52171E+08
 
   -0.52176E+08         0.33720E+07         0.00000E+00
    0.33720E+07        -0.50103E+08         0.00000E+00
    0.00000E+00         0.00000E+00        -0.52171E+08
 
   -0.52191E+08         0.37133E+05         0.00000E+00
    0.37133E+05        -0.50000E+08         0.00000E+00
    0.00000E+00         0.00000E+00        -0.51859E+08
 
   -0.52185E+08         0.11081E+06         0.00000E+00
    0.11081E+06        -0.50000E+08         0.00000E+00
    0.00000E+00         0.00000E+00        -0.51859E+08
 
   -0.52179E+08         0.18426E+06         0.00000E+00
    0.18426E+06        -0.50000E+08         0.00000E+00
    0.00000E+00         0.00000E+00        -0.51859E+08
 
   -0.52172E+08         0.25749E+06         0.00000E+00
    0.25749E+06        -0.50000E+08         0.00000E+00
    0.00000E+00         0.00000E+00        -0.51859E+08
 
   -0.52166E+08         0.33050E+06         0.00000E+00
    0.33050E+06        -0.50001E+08         0.00000E+00
    0.00000E+00         0.00000E+00        -0.51859E+08
 
   -0.52160E+08         0.40328E+06         0.00000E+00
    0.40328E+06        -0.50001E+08         0.00000E+00
    0.00000E+00         0.00000E+00        -0.51859E+08
 
   -0.52154E+08         0.47583E+06         0.00000E+00
    0.47583E+06        -0.50001E+08         0.00000E+00
    0.00000E+00         0.00000E+00        -0.51859E+08
 
   -0.52147E+08         0.54815E+06         0.00000E+00
    0.54815E+06        -0.50002E+08         0.00000E+00
    0.00000E+00         0.00000E+00        -0.51859E+08
 
   -0.52141E+08         0.62024E+06         0.00000E+00
    0.62024E+06        -0.50002E+08         0.00000E+00
    0.00000E+00         0.00000E+00        -0.51859E+08
 
   -0.52135E+08         0.69210E+06         0.00000E+00
    0.69210E+06        -0.50003E+08         0.00000E+00
    0.00000E+00         0.00000E+00        -0.51860E+08
 
   -0.52129E+08         0.76371E+06         0.00000E+00
    0.76371E+06        -0.50003E+08         0.00000E+00
    0.00000E+00         0.00000E+00        -0.51860E+08
 
   -0.52123E+08         0.83509E+06         0.00000E+00
    0.83509E+06        -0.50004E+08         0.00000E+00
    0.00000E+00         0.00000E+00        -0.51860E+08
 
   -0.52117E+08         0.90623E+06         0.00000E+00
    0.90623E+06        -0.50005E+08         0.00000E+00
    0.00000E+00         0.00000E+00        -0.51860E+08
 
   -0.52110E+08         0.97712E+06         0.00000E+00
    0.97712E+06        -0.50005E+08         0.00000E+00
    0.00000E+00         0.00000E+00        -0.51860E+08
 
   -0.52104E+08         0.10478E+07         0.00000E+00
    0.10478E+07        -0.50006E+08         0.00000E+00
    0.00000E+00         0.00000E+00        -0.51861E+08
 
   -0.52098E+08         0.11182E+07         0.00000E+00
    0.11182E+07        -0.50007E+08         0.00000E+00
    0.00000E+00         0.00000E+00        -0.51861E+08
 
   -0.52092E+08         0.11883E+07         0.00000E+00
    0.11883E+07        -0.50008E+08         0.00000E+00
    0.00000E+00         0.00000E+00        -0.51861E+08
 
   -0.52086E+08         0.12582E+07         0.00000E+00
    0.12582E+07        -0.50009E+08         0.00000E+00
    0.00000E+00         0.00000E+00        -0.51861E+08
 
   -0.52080E+08         0.13279E+07         0.00000E+00
    0.13279E+07        -0.50010E+08         0.00000E+00
    0.00000E+00         0.00000E+00        -0.51861E+08
 
   -0.52074E+08         0.13972E+07         0.00000E+00
    0.13972E+07        -0.50011E+08         0.00000E+00
    0.00000E+00         0.00000E+00        -0.51862E+08
 
   -0.52067E+08         0.14664E+07         0.00000E+00
    0.14664E+07        -0.50013E+08         0.00000E+00
    0.00000E+00         0.00000E+00        -0.51862E+08
 
   -0.52061E+08         0.15352E+07         0.00000E+00
    0.15352E+07        -0.50014E+08         0.00000E+00
    0.00000E+00         0.00000E+00        -0.51862E+08
 
   -0.52055E+08         0.16039E+07         0.00000E+00
    0.16039E+07        -0.50015E+08         0.00000E+00
    0.00000E+00         0.00000E+00        -0.51862E+08
 
   -0.52049E+08         0.16722E+07         0.00000E+00
    0.16722E+07        -0.50017E+08         0.00000E+00
    0.00000E+00         0.00000E+00        -0.51863E+08
 
   -0.52042E+08         0.17403E+07         0.00000E+00
    0.17403E+07        -0.50018E+08         0.00000E+00
    0.00000E+00         0.00000E+00        -0.51863E+08
 
   -0.52036E+08         0.18081E+07         0.00000E+00
    0.18081E+07        -0.50020E+08         0.00000E+00
    0.00000E+00         0.00000E+00        -0.51863E+08
 
   -0.52030E+08         0.18757E+07         0.00000E+00
    0.18757E+07        -0.50022E+08         0.00000E+00
    0.00000E+00         0.00000E+00        -0.51863E+08
 
   -0.52024E+08         0.19429E+07         0.00000E+00
    0.19429E+07        -0.50023E+08         0.00000E+00
    0.00000E+00         0.00000E+00        -0.51864E+08
 
   -0.52017E+08         0.20099E+07         0.00000E+00
    0.20099E+07        -0.50025E+08         0.00000E+00
    0.00000E+00         0.00000E+00        -0.51864E+08
 
   -0.52011E+08         0.20767E+07         0.00000E+00
    0.20767E+07        -0.50027E+08         0.00000E+00
    0.00000E+00         0.00000E+00        -0.51864E+08
 
   -0.52004E+08         0.21431E+07         0.00000E+00
    0.21431E+07        -0.50029E+08         0.00000E+00
    0.00000E+00         0.00000E+00        -0.51864E+08
 
   -0.51998E+08         0.22093E+07         0.00000E+00
    0.22093E+07        -0.50031E+08         0.00000E+00
    0.00000E+00         0.00000E+00        -0.51865E+08
 
   -0.51991E+08         0.22752E+07         0.00000E+00
    0.22752E+07        -0.50033E+08         0.00000E+00
    0.00000E+00         0.00000E+00        -0.51865E+08
 
   -0.51985E+08         0.23408E+07         0.00000E+00
    0.23408E+07        -0.50036E+08         0.00000E+00
    0.00000E+00         0.00000E+00        -0.51865E+08
 
   -0.51978E+08         0.24062E+07         0.00000E+00
    0.24062E+07        -0.50038E+08         0.00000E+00
    0.00000E+00         0.00000E+00        -0.51865E+08
 
   -0.51972E+08         0.24712E+07         0.00000E+00
    0.24712E+07        -0.50040E+08         0.00000E+00
    0.00000E+00         0.00000E+00        -0.51866E+08
 
   -0.51965E+08         0.25360E+07         0.00000E+00
    0.25360E+07        -0.50043E+08         0.00000E+00
    0.00000E+00         0.00000E+00        -0.51866E+08
 
   -0.51958E+08         0.26005E+07         0.00000E+00
    0.26005E+07        -0.50045E+08         0.00000E+00
    0.00000E+00         0.00000E+00        -0.51866E+08
 
   -0.51951E+08         0.26646E+07         0.00000E+00
    0.26646E+07        -0.50048E+08         0.00000E+00
    0.00000E+00         0.00000E+00        -0.51866E+08
 
   -0.51945E+08         0.27285E+07         0.00000E+00
    0.27285E+07        -0.50051E+08         0.00000E+00
    0.00000E+00         0.00000E+00        -0.51866E+08
 
   -0.51938E+08         0.27921E+07         0.00000E+00
    0.27921E+07        -0.50054E+08         0.00000E+00
    0.00000E+00         0.00000E+00        -0.51866E+08
 
   -0.51931E+08         0.28554E+07         0.00000E+00
    0.28554E+07        -0.50057E+08         0.00000E+00
    0.00000E+00         0.00000E+00        -0.51867E+08
 
   -0.51923E+08         0.29184E+07         0.00000E+00
    0.29184E+07        -0.50060E+08         0.00000E+00
    0.00000E+00         0.00000E+00        -0.51867E+08
 
   -0.51916E+08         0.29811E+07         0.00000E+00
    0.29811E+07        -0.50063E+08         0.00000E+00
    0.00000E+00         0.00000E+00        -0.51867E+08
 
   -0.51909E+08         0.30434E+07         0.00000E+00
    0.30434E+07        -0.50066E+08         0.00000E+00
    0.00000E+00         0.00000E+00        -0.51867E+08
 
   -0.51902E+08         0.31055E+07         0.00000E+00
    0.31055E+07        -0.50069E+08         0.00000E+00
    0.00000E+00         0.00000E+00        -0.51867E+08
 
   -0.51894E+08         0.31672E+07         0.00000E+00
    0.31672E+07        -0.50073E+08         0.00000E+00
    0.00000E+00         0.00000E+00        -0.51867E+08
 
   -0.51887E+08         0.32287E+07         0.00000E+00
    0.32287E+07        -0.50076E+08         0.00000E+00
    0.00000E+00         0.00000E+00        -0.51867E+08
 
   -0.51879E+08         0.32898E+07         0.00000E+00
    0.32898E+07        -0.50080E+08         0.00000E+00
    0.00000E+00         0.00000E+00        -0.51867E+08
 
   -0.51871E+08         0.33506E+07         0.00000E+00
    0.33506E+07        -0.50084E+08         0.00000E+00
    0.00000E+00         0.00000E+00        -0.51867E+08
 
   -0.51823E+08         0.37019E+05         0.00000E+00
    0.37019E+05        -0.50000E+08         0.00000E+00
    0.00000E+00         0.00000E+00        -0.51559E+08
 
   -0.51818E+08         0.11045E+06         0.00000E+00
    0.11045E+06        -0.50000E+08         0.00000E+00
    0.00000E+00         0.00000E+00        -0.51559E+08
 
   -0.51813E+08         0.18366E+06         0.00000E+00
    0.18366E+06        -0.50000E+08         0.00000E+00
    0.00000E+00         0.00000E+00        -0.51559E+08
 
   -0.51807E+08         0.25664E+06         0.00000E+00
    0.25664E+06        -0.50000E+08         0.00000E+00
    0.00000E+00         0.00000E+00        -0.51559E+08
 
   -0.51802E+08         0.32940E+06         0.00000E+00
    0.32940E+06        -0.50000E+08         0.00000E+00
    0.00000E+00         0.00000E+00        -0.51559E+08
 
   -0.51797E+08         0.40192E+06         0.00000E+00
    0.40192E+06        -0.50001E+08         0.00000E+00
    0.00000E+00         0.00000E+00        -0.51559E+08
 
   -0.51792E+08         0.47422E+06         0.00000E+00
    0.47422E+06        -0.50001E+08         0.00000E+00
    0.00000E+00         0.00000E+00        -0.51559E+08
 
   -0.51787E+08         0.54628E+06         0.00000E+00
    0.54628E+06        -0.50001E+08         0.00000E+00
    0.00000E+00         0.00000E+00        -0.51559E+08
 
   -0.51782E+08         0.61810E+06         0.00000E+00
    0.61810E+06        -0.50001E+08         0.00000E+00
    0.00000E+00         0.00000E+00        -0.51559E+08
 
   -0.51777E+08         0.68969E+06         0.00000E+00
    0.68969E+06        -0.50002E+08         0.00000E+00
    0.00000E+00         0.00000E+00        -0.51559E+08
 
   -0.51772E+08         0.76103E+06         0.00000E+00
    0.76103E+06        -0.50002E+08         0.00000E+00
    0.00000E+00         0.00000E+00        -0.51560E+08
 
   -0.51767E+08         0.83214E+06         0.00000E+00
    0.83214E+06        -0.50003E+08         0.00000E+00
    0.00000E+00         0.00000E+00        -0.51560E+08
 
   -0.51762E+08         0.90300E+06         0.00000E+00
    0.90300E+06        -0.50003E+08         0.00000E+00
    0.00000E+00         0.00000E+00        -0.51560E+08
 
   -0.51757E+08         0.97361E+06         0.00000E+00
    0.97361E+06        -0.50004E+08         0.00000E+00
    0.00000E+00         0.00000E+00        -0.51560E+08
 
   -0.51752E+08         0.10440E+07         0.00000E+00
    0.10440E+07        -0.50004E+08         0.00000E+00
    0.00000E+00         0.00000E+00        -0.51560E+08
 
   -0.51748E+08         0.11141E+07         0.00000E+00
    0.11141E+07        -0.50005E+08         0.00000E+00
    0.00000E+00         0.00000E+00        -0.51560E+08
 
   -0.51743E+08         0.11839E+07         0.00000E+00
    0.11839E+07        -0.50006E+08         0.00000E+00
    0.00000E+00         0.00000E+00        -0.51561E+08
 
   -0.51738E+08         0.12535E+07         0.00000E+00
    0.12535E+07        -0.50007E+08         0.00000E+00
    0.00000E+00         0.00000E+00        -0.51561E+08
 
   -0.51733E+08         0.13229E+07         0.00000E+00
    0.13229E+07        -0.50007E+08         0.00000E+00
    0.00000E+00         0.00000E+00        -0.51561E+08
 
   -0.51728E+08         0.13920E+07         0.00000E+00
    0.13920E+07        -0.50008E+08         0.00000E+00
    0.00000E+00         0.00000E+00        -0.51561E+08
 
   -0.51723E+08         0.14608E+07         0.00000E+00
    0.14608E+07        -0.50009E+08         0.00000E+00
    0.00000E+00         0.00000E+00        -0.51561E+08
 
   -0.51718E+08         0.15294E+07         0.00000E+00
    0.15294E+07        -0.50010E+08         0.00000E+00
    0.00000E+00         0.00000E+00        -0.51562E+08
 
   -0.51713E+08         0.15977E+07         0.00000E+00
    0.15977E+07        -0.50011E+08         0.00000E+00
    0.00000E+00         0.00000E+00        -0.51562E+08
 
   -0.51708E+08         0.16657E+07         0.00000E+00
    0.16657E+07        -0.50012E+08         0.00000E+00
    0.00000E+00         0.00000E+00        -0.51562E+08
 
   -0.51704E+08         0.17335E+07         0.00000E+00
    0.17335E+07        -0.50013E+08         0.00000E+00
    0.00000E+00         0.00000E+00        -0.51562E+08
 
   -0.51699E+08         0.18009E+07         0.00000E+00
    0.18009E+07        -0.50015E+08         0.00000E+00
    0.00000E+00         0.00000E+00        -0.51563E+08
 
   -0.51694E+08         0.18682E+07         0.00000E+00
    0.18682E+07        -0.50016E+08         0.00000E+00
    0.00000E+00         0.00000E+00        -0.51563E+08
 
   -0.51689E+08         0.19351E+07         0.00000E+00
    0.19351E+07        -0.50017E+08         0.00000E+00
    0.00000E+00         0.00000E+00        -0.51563E+08
 
   -0.51684E+08         0.20018E+07         0.00000E+00
    0.20018E+07        -0.50019E+08         0.00000E+00
    0.00000E+00         0.00000E+00        -0.51563E+08
 
   -0.51679E+08         0.20682E+07         0.00000E+00
    0.20682E+07        -0.50020E+08         0.00000E+00
    0.00000E+00         0.00000E+00        -0.51564E+08
 
   -0.51674E+08         0.21343E+07         0.00000E+00
    0.21343E+07        -0.50021E+08         0.00000E+00
    0.00000E+00         0.00000E+00        -0.51564E+08
 
   -0.51669E+08         0.22001E+07         0.00000E+00
    0.22001E+07        -0.50023E+08         0.00000E+00
    0.00000E+00         0.00000E+00        -0.51564E+08
 
   -0.51664E+08         0.22656E+07         0.00000E+00
    0.22656E+07        -0.50025E+08         0.00000E+00
    0.00000E+00         0.00000E+00        -0.51564E+08
 
   -0.51659E+08         0.23308E+07         0.00000E+00
    0.23308E+07        -0.50026E+08         0.00000E+00
    0.00000E+00         0.00000E+00        -0.51564E+08
 
   -0.51653E+08         0.23958E+07         0.00000E+00
    0.23958E+07        -0.50028E+08         0.00000E+00
    0.00000E+00         0.00000E+00        -0.51565E+08
 
   -0.51648E+08         0.24604E+07         0.00000E+00
    0.24604E+07        -0.50030E+08         0.00000E+00
    0.00000E+00         0.00000E+00        -0.51565E+08
 
   -0.51643E+08         0.25248E+07         0.00000E+00
    0.25248E+07        -0.50032E+08         0.00000E+00
    0.00000E+00         0.00000E+00        -0.51565E+08
 
   -0.51638E+08         0.25889E+07         0.00000E+00
    0.25889E+07        -0.50034E+08         0.00000E+00
    0.00000E+00         0.00000E+00        -0.51565E+08
 
   -0.51632E+08         0.26526E+07         0.00000E+00
    0.26526E+07        -0.50036E+08         0.00000E+00
    0.00000E+00         0.00000E+00        -0.51565E+08
 
   -0.51627E+08         0.27161E+07         0.00000E+00
    0.27161E+07        -0.50038E+08         0.00000E+00
    0.00000E+00         0.00000E+00        -0.51565E+08
 
   -0.51622E+08         0.27792E+07         0.00000E+00
    0.27792E+07        -0.50040E+08         0.00000E+00
    0.00000E+00         0.00000E+00        -0.51566E+08
 
   -0.51616E+08         0.28421E+07         0.00000E+00
    0.28421E+07        -0.50043E+08         0.00000E+00
    0.00000E+00         0.00000E+00        -0.51566E+08
 
   -0.51610E+08         0.29046E+07         0.00000E+00
    0.29046E+07        -0.50045E+08         0.00000E+00
    0.00000E+00         0.00000E+00        -0.51566E+08
 
   -0.51605E+08         0.29668E+07         0.00000E+00
    0.29668E+07        -0.50047E+08         0.00000E+00
    0.00000E+00         0.00000E+00        -0.51566E+08
 
   -0.51599E+08         0.30287E+07         0.00000E+00
    0.30287E+07        -0.50050E+08         0.00000E+00
    0.00000E+00         0.00000E+00        -0.51566E+08
 
   -0.51593E+08         0.30902E+07         0.00000E+00
    0.30902E+07        -0.50053E+08         0.00000E+00
    0.00000E+00         0.00000E+00        -0.51566E+08
 
   -0.51587E+08         0.31515E+07         0.00000E+00
    0.31515E+07        -0.50055E+08         0.00000E+00
    0.00000E+00         0.00000E+00        -0.51566E+08
 
   -0.51582E+08         0.32124E+07         0.00000E+00
    0.32124E+07        -0.50058E+08         0.00000E+00
    0.00000E+00         0.00000E+00        -0.51566E+08
 
   -0.51576E+08         0.32730E+07         0.00000E+00
    0.32730E+07        -0.50061E+08         0.00000E+00
    0.00000E+00         0.00000E+00        -0.51566E+08
 
   -0.51569E+08         0.33332E+07         0.00000E+00
    0.33332E+07        -0.50064E+08         0.00000E+00
    0.00000E+00         0.00000E+00        -0.51566E+08
 
   -0.51456E+08         0.36947E+05         0.00000E+00
    0.36947E+05        -0.50000E+08         0.00000E+00
    0.00000E+00         0.00000E+00        -0.51261E+08
 
   -0.51452E+08         0.11022E+06         0.00000E+00
    0.11022E+06        -0.50000E+08         0.00000E+00
    0.00000E+00         0.00000E+00        -0.51261E+08
 
   -0.51448E+08         0.18327E+06         0.00000E+00
    0.18327E+06        -0.50000E+08         0.00000E+00
    0.00000E+00         0.00000E+00        -0.51261E+08
 
   -0.51444E+08         0.25609E+06         0.00000E+00
    0.25609E+06        -0.50000E+08         0.00000E+00
    0.00000E+00         0.00000E+00        -0.51261E+08
 
   -0.51440E+08         0.32868E+06         0.00000E+00
    0.32868E+06        -0.50000E+08         0.00000E+00
    0.00000E+00         0.00000E+00        -0.51261E+08
 
   -0.51436E+08         0.40104E+06         0.00000E+00
    0.40104E+06        -0.50000E+08         0.00000E+00
    0.00000E+00         0.00000E+00        -0.51261E+08
 
   -0.51432E+08         0.47316E+06         0.00000E+00
    0.47316E+06        -0.50000E+08         0.00000E+00
    0.00000E+00         0.00000E+00        -0.51261E+08
 
   -0.51428E+08         0.54504E+06         0.00000E+00
    0.54504E+06        -0.50001E+08         0.00000E+00
    0.00000E+00         0.00000E+00        -0.51261E+08
 
   -0.51424E+08         0.61668E+06         0.00000E+00
    0.61668E+06        -0.50001E+08         0.00000E+00
    0.00000E+00         0.00000E+00        -0.51262E+08
 
   -0.51420E+08         0.68808E+06         0.00000E+00
    0.68808E+06        -0.50001E+08         0.00000E+00
    0.00000E+00         0.00000E+00        -0.51262E+08
 
   -0.51416E+08         0.75924E+06         0.00000E+00
    0.75924E+06        -0.50001E+08         0.00000E+00
    0.00000E+00         0.00000E+00        -0.51262E+08
 
   -0.51413E+08         0.83015E+06         0.00000E+00
    0.83015E+06        -0.50002E+08         0.00000E+00
    0.00000E+00         0.00000E+00        -0.51262E+08
 
   -0.51409E+08         0.90081E+06         0.00000E+00
    0.90081E+06        -0.50002E+08         0.00000E+00
    0.00000E+00         0.00000E+00        -0.51262E+08
 
   -0.51405E+08         0.97123E+06         0.00000E+00
    0.97123E+06        -0.50002E+08         0.00000E+00
    0.00000E+00         0.00000E+00        -0.51262E+08
 
   -0.51402E+08         0.10414E+07         0.00000E+00
    0.10414E+07        -0.50003E+08         0.00000E+00
    0.00000E+00         0.00000E+00        -0.51262E+08
 
   -0.51398E+08         0.11113E+07         0.00000E+00
    0.11113E+07        -0.50003E+08         0.00000E+00
    0.00000E+00         0.00000E+00        -0.51263E+08
 
   -0.51394E+08         0.11809E+07         0.00000E+00
    0.11809E+07        -0.50004E+08         0.00000E+00
    0.00000E+00         0.00000E+00        -0.51263E+08
 
   -0.51391E+08         0.12503E+07         0.00000E+00
    0.12503E+07        -0.50004E+08         0.00000E+00
    0.00000E+00         0.00000E+00        -0.51263E+08
 
   -0.51387E+08         0.13195E+07         0.00000E+00
    0.13195E+07        -0.50005E+08         0.00000E+00
    0.00000E+00         0.00000E+00        -0.51263E+08
 
   -0.51384E+08         0.13883E+07         0.00000E+00
    0.13883E+07        -0.50005E+08         0.00000E+00
    0.00000E+00         0.00000E+00        -0.51263E+08
 
   -0.51380E+08         0.14569E+07         0.00000E+00
    0.14569E+07        -0.50006E+08         0.00000E+00
    0.00000E+00         0.00000E+00        -0.51264E+08
 
   -0.51377E+08         0.15253E+07         0.00000E+00
    0.15253E+07        -0.50006E+08         0.00000E+00
    0.00000E+00         0.00000E+00        -0.51264E+08
 
   -0.51373E+08         0.15933E+07         0.00000E+00
    0.15933E+07        -0.50007E+08         0.00000E+00
    0.00000E+00         0.00000E+00        -0.51264E+08
 
   -0.51370E+08         0.16611E+07         0.00000E+00
    0.16611E+07        -0.50008E+08         0.00000E+00
    0.00000E+00         0.00000E+00        -0.51264E+08
 
   -0.51366E+08         0.17286E+07         0.00000E+00
    0.17286E+07        -0.50008E+08         0.00000E+00
    0.00000E+00         0.00000E+00        -0.51264E+08
 
   -0.51362E+08         0.17959E+07         0.00000E+00
    0.17959E+07        -0.50009E+08         0.00000E+00
    0.00000E+00         0.00000E+00        -0.51265E+08
 
   -0.51359E+08         0.18628E+07         0.00000E+00
    0.18628E+07        -0.50010E+08         0.00000E+00
    0.00000E+00         0.00000E+00        -0.51265E+08
 
   -0.51355E+08         0.19295E+07         0.00000E+00
    0.19295E+07        -0.50011E+08         0.00000E+00
    0.00000E+00         0.00000E+00        -0.51265E+08
 
   -0.51352E+08         0.19959E+07         0.00000E+00
    0.19959E+07        -0.50012E+08         0.00000E+00
    0.00000E+00         0.00000E+00        -0.51265E+08
 
   -0.51348E+08         0.20620E+07         0.00000E+00
    0.20620E+07        -0.50013E+08         0.00000E+00
    0.00000E+00         0.00000E+00        -0.51265E+08
 
   -0.51345E+08         0.21279E+07         0.00000E+00
    0.21279E+07        -0.50014E+08         0.00000E+00
    0.00000E+00         0.00000E+00        -0.51266E+08
 
   -0.51341E+08         0.21934E+07         0.00000E+00
    0.21934E+07        -0.50015E+08         0.00000E+00
    0.00000E+00         0.00000E+00        -0.51266E+08
 
   -0.51337E+08         0.22586E+07         0.00000E+00
    0.22586E+07        -0.50016E+08         0.00000E+00
    0.00000E+00         0.00000E+00        -0.51266E+08
 
   -0.51334E+08         0.23236E+07         0.00000E+00
    0.23236E+07        -0.50017E+08         0.00000E+00
    0.00000E+00         0.00000E+00        -0.51266E+08
 
   -0.51330E+08         0.23882E+07         0.00000E+00
    0.23882E+07        -0.50018E+08         0.00000E+00
    0.00000E+00         0.00000E+00        -0.51266E+08
 
   -0.51326E+08         0.24526E+07         0.00000E+00
    0.24526E+07        -0.50019E+08         0.00000E+00
    0.00000E+00         0.00000E+00        -0.51267E+08
 
   -0.51323E+08         0.25166E+07         0.00000E+00
    0.25166E+07        -0.50021E+08         0.00000E+00
    0.00000E+00         0.00000E+00        -0.51267E+08
 
   -0.51319E+08         0.25803E+07         0.00000E+00
    0.25803E+07        -0.50022E+08         0.00000E+00
    0.00000E+00         0.00000E+00        -0.51267E+08
 
   -0.51315E+08         0.26438E+07         0.00000E+00
    0.26438E+07        -0.50024E+08         0.00000E+00
    0.00000E+00         0.00000E+00        -0.51267E+08
 
   -0.51311E+08         0.27069E+07         0.00000E+00
    0.27069E+07        -0.50025E+08         0.00000E+00
    0.00000E+00         0.00000E+00        -0.51267E+08
 
   -0.51307E+08         0.27697E+07         0.00000E+00
    0.27697E+07        -0.50027E+08         0.00000E+00
    0.00000E+00         0.00000E+00        -0.51267E+08
 
   -0.51304E+08         0.28321E+07         0.00000E+00
    0.28321E+07        -0.50028E+08         0.00000E+00
    0.00000E+00         0.00000E+00        -0.51267E+08
 
   -0.51300E+08         0.28943E+07         0.00000E+00
    0.28943E+07        -0.50030E+08         0.00000E+00
    0.00000E+00         0.00000E+00        -0.51268E+08
 
   -0.51296E+08         0.29561E+07         0.00000E+00
    0.29561E+07        -0.50032E+08         0.00000E+00
    0.00000E+00         0.00000E+00        -0.51268E+08
 
   -0.51291E+08         0.30176E+07         0.00000E+00
    0.30176E+07        -0.50033E+08         0.00000E+00
    0.00000E+00         0.00000E+00        -0.51268E+08
 
   -0.51287E+08         0.30788E+07         0.00000E+00
    0.30788E+07        -0.50035E+08         0.00000E+00
    0.00000E+00         0.00000E+00        -0.51268E+08
 
   -0.51283E+08         0.31396E+07         0.00000E+00
    0.31396E+07        -0.50037E+08         0.00000E+00
    0.00000E+00         0.00000E+00        -0.51268E+08
 
   -0.51279E+08         0.32001E+07         0.00000E+00
    0.32001E+07        -0.50039E+08         0.00000E+00
    0.00000E+00         0.00000E+00        -0.51268E+08
 
   -0.51275E+08         0.32603E+07         0.00000E+00
    0.32603E+07        -0.50041E+08         0.00000E+00
    0.00000E+00         0.00000E+00        -0.51268E+08
 
   -0.51270E+08         0.33201E+07         0.00000E+00
    0.33201E+07        -0.50043E+08         0.00000E+00
    0.00000E+00         0.00000E+00        -0.51268E+08
 
   -0.51089E+08         0.36917E+05         0.00000E+00
    0.36917E+05        -0.50000E+08         0.00000E+00
    0.00000E+00         0.00000E+00        -0.50965E+08
 
   -0.51086E+08         0.11012E+06         0.00000E+00
    0.11012E+06        -0.50000E+08         0.00000E+00
    0.00000E+00         0.00000E+00        -0.50965E+08
 
   -0.51083E+08         0.18310E+06         0.00000E+00
    0.18310E+06        -0.50000E+08         0.00000E+00
    0.00000E+00         0.00000E+00        -0.50965E+08
 
   -0.51080E+08         0.25584E+06         0.00000E+00
    0.25584E+06        -0.50000E+08         0.00000E+00
    0.00000E+00         0.00000E+00        -0.50965E+08
 
   -0.51077E+08         0.32834E+06         0.00000E+00
    0.32834E+06        -0.50000E+08         0.00000E+00
    0.00000E+00         0.00000E+00        -0.50965E+08
 
   -0.51075E+08         0.40061E+06         0.00000E+00
    0.40061E+06        -0.50000E+08         0.00000E+00
    0.00000E+00         0.00000E+00        -0.50965E+08
 
   -0.51072E+08         0.47264E+06         0.00000E+00
    0.47264E+06        -0.50000E+08         0.00000E+00
    0.00000E+00         0.00000E+00        -0.50966E+08
 
   -0.51069E+08         0.54443E+06         0.00000E+00
    0.54443E+06        -0.50000E+08         0.00000E+00
    0.00000E+00         0.00000E+00        -0.50966E+08
 
   -0.51067E+08         0.61598E+06         0.00000E+00
    0.61598E+06        -0.50000E+08         0.00000E+00
    0.00000E+00         0.00000E+00        -0.50966E+08
 
   -0.51064E+08         0.68728E+06         0.00000E+00
    0.68728E+06        -0.50000E+08         0.00000E+00
    0.00000E+00         0.00000E+00        -0.50966E+08
 
   -0.51062E+08         0.75833E+06         0.00000E+00
    0.75833E+06        -0.50000E+08         0.00000E+00
    0.00000E+00         0.00000E+00        -0.50966E+08
 
   -0.51059E+08         0.82913E+06         0.00000E+00
    0.82913E+06        -0.50001E+08         0.00000E+00
    0.00000E+00         0.00000E+00        -0.50966E+08
 
   -0.51057E+08         0.89968E+06         0.00000E+00
    0.89968E+06        -0.50001E+08         0.00000E+00
    0.00000E+00         0.00000E+00        -0.50966E+08
 
   -0.51054E+08         0.96998E+06         0.00000E+00
    0.96998E+06        -0.50001E+08         0.00000E+00
    0.00000E+00         0.00000E+00        -0.50966E+08
 
   -0.51052E+08         0.10400E+07         0.00000E+00
    0.10400E+07        -0.50001E+08         0.00000E+00
    0.00000E+00         0.00000E+00        -0.50967E+08
 
   -0.51050E+08         0.11098E+07         0.00000E+00
    0.11098E+07        -0.50001E+08         0.00000E+00
    0.00000E+00         0.00000E+00        -0.50967E+08
 
   -0.51047E+08         0.11793E+07         0.00000E+00
    0.11793E+07        -0.50001E+08         0.00000E+00
    0.00000E+00         0.00000E+00        -0.50967E+08
 
   -0.51045E+08         0.12486E+07         0.00000E+00
    0.12486E+07        -0.50001E+08         0.00000E+00
    0.00000E+00         0.00000E+00        -0.50967E+08
 
   -0.51043E+08         0.13176E+07         0.00000E+00
    0.13176E+07        -0.50002E+08         0.00000E+00
    0.00000E+00         0.00000E+00        -0.50967E+08
 
   -0.51040E+08         0.13863E+07         0.00000E+00
    0.13863E+07        -0.50002E+08         0.00000E+00
    0.00000E+00         0.00000E+00        -0.50967E+08
 
   -0.51038E+08         0.14548E+07         0.00000E+00
    0.14548E+07        -0.50002E+08         0.00000E+00
    0.00000E+00         0.00000E+00        -0.50968E+08
 
   -0.51036E+08         0.15230E+07         0.00000E+00
    0.15230E+07        -0.50002E+08         0.00000E+00
    0.00000E+00         0.00000E+00        -0.50968E+08
 
   -0.51034E+08         0.15909E+07         0.00000E+00
    0.15909E+07        -0.50003E+08         0.00000E+00
    0.00000E+00         0.00000E+00        -0.50968E+08
 
   -0.51032E+08         0.16585E+07         0.00000E+00
    0.16585E+07        -0.50003E+08         0.00000E+00
    0.00000E+00         0.00000E+00        -0.50968E+08
 
   -0.51030E+08         0.17259E+07         0.00000E+00
    0.17259E+07        -0.50003E+08         0.00000E+00
    0.00000E+00         0.00000E+00        -0.50968E+08
 
   -0.51027E+08         0.17929E+07         0.00000E+00
    0.17929E+07        -0.50004E+08         0.00000E+00
    0.00000E+00         0.00000E+00        -0.50969E+08
 
   -0.51025E+08         0.18597E+07         0.00000E+00
    0.18597E+07        -0.50004E+08         0.00000E+00
    0.00000E+00         0.00000E+00        -0.50969E+08
 
   -0.51023E+08         0.19262E+07         0.00000E+00
    0.19262E+07        -0.50004E+08         0.00000E+00
    0.00000E+00         0.00000E+00        -0.50969E+08
 
   -0.51021E+08         0.19925E+07         0.00000E+00
    0.19925E+07        -0.50005E+08         0.00000E+00
    0.00000E+00         0.00000E+00        -0.50969E+08
 
   -0.51019E+08         0.20584E+07         0.00000E+00
    0.20584E+07        -0.50005E+08         0.00000E+00
    0.00000E+00         0.00000E+00        -0.50969E+08
 
   -0.51017E+08         0.21240E+07         0.00000E+00
    0.21240E+07        -0.50006E+08         0.00000E+00
    0.00000E+00         0.00000E+00        -0.50969E+08
 
   -0.51015E+08         0.21893E+07         0.00000E+00
    0.21893E+07        -0.50006E+08         0.00000E+00
    0.00000E+00         0.00000E+00        -0.50970E+08
 
   -0.51013E+08         0.22544E+07         0.00000E+00
    0.22544E+07        -0.50007E+08         0.00000E+00
    0.00000E+00         0.00000E+00        -0.50970E+08
 
   -0.51010E+08         0.23191E+07         0.00000E+00
    0.23191E+07        -0.50008E+08         0.00000E+00
    0.00000E+00         0.00000E+00        -0.50970E+08
 
   -0.51008E+08         0.23835E+07         0.00000E+00
    0.23835E+07        -0.50008E+08         0.00000E+00
    0.00000E+00         0.00000E+00        -0.50970E+08
 
   -0.51006E+08         0.24477E+07         0.00000E+00
    0.24477E+07        -0.50009E+08         0.00000E+00
    0.00000E+00         0.00000E+00        -0.50970E+08
 
   -0.51004E+08         0.25115E+07         0.00000E+00
    0.25115E+07        -0.50010E+08         0.00000E+00
    0.00000E+00         0.00000E+00        -0.50970E+08
 
   -0.51002E+08         0.25750E+07         0.00000E+00
    0.25750E+07        -0.50010E+08         0.00000E+00
    0.00000E+00         0.00000E+00        -0.50971E+08
 
   -0.50999E+08         0.26382E+07         0.00000E+00
    0.26382E+07        -0.50011E+08         0.00000E+00
    0.00000E+00         0.00000E+00        -0.50971E+08
 
   -0.50997E+08         0.27010E+07         0.00000E+00
    0.27010E+07        -0.50012E+08         0.00000E+00
    0.00000E+00         0.00000E+00        -0.50971E+08
 
   -0.50995E+08         0.27636E+07         0.00000E+00
    0.27636E+07        -0.50013E+08         0.00000E+00
    0.00000E+00         0.00000E+00        -0.50971E+08
 
   -0.50993E+08         0.28258E+07         0.00000E+00
    0.28258E+07        -0.50014E+08         0.00000E+00
    0.00000E+00         0.00000E+00        -0.50971E+08
 
   -0.50990E+08         0.28877E+07         0.00000E+00
    0.28877E+07        -0.50015E+08         0.00000E+00
    0.00000E+00         0.00000E+00        -0.50971E+08
 
   -0.50988E+08         0.29492E+07         0.00000E+00
    0.29492E+07        -0.50016E+08         0.00000E+00
    0.00000E+00         0.00000E+00        -0.50971E+08
 
   -0.50986E+08         0.30104E+07         0.00000E+00
    0.30104E+07        -0.50017E+08         0.00000E+00
    0.00000E+00         0.00000E+00        -0.50971E+08
 
   -0.50983E+08         0.30713E+07         0.00000E+00
    0.30713E+07        -0.50018E+08         0.00000E+00
    0.00000E+00         0.00000E+00        -0.50971E+08
 
   -0.50981E+08         0.31318E+07         0.00000E+00
    0.31318E+07        -0.50019E+08         0.00000E+00
    0.00000E+00         0.00000E+00        -0.50972E+08
 
   -0.50978E+08         0.31920E+07         0.00000E+00
    0.31920E+07        -0.50020E+08         0.00000E+00
    0.00000E+00         0.00000E+00        -0.50972E+08
 
   -0.50976E+08         0.32518E+07         0.00000E+00
    0.32518E+07        -0.50021E+08         0.00000E+00
    0.00000E+00         0.00000E+00        -0.50972E+08
 
   -0.50973E+08         0.33113E+07         0.00000E+00
    0.33113E+07        -0.50022E+08         0.00000E+00
    0.00000E+00         0.00000E+00        -0.50972E+08
 
   -0.50722E+08         0.36930E+05         0.00000E+00
    0.36930E+05        -0.50000E+08         0.00000E+00
    0.00000E+00         0.00000E+00        -0.50671E+08
 
   -0.50721E+08         0.11015E+06         0.00000E+00
    0.11015E+06        -0.50000E+08         0.00000E+00
    0.00000E+00         0.00000E+00        -0.50671E+08
 
   -0.50719E+08         0.18313E+06         0.00000E+00
    0.18313E+06        -0.50000E+08         0.00000E+00
    0.00000E+00         0.00000E+00        -0.50671E+08
 
   -0.50717E+08         0.25588E+06         0.00000E+00
    0.25588E+06        -0.50000E+08         0.00000E+00
    0.00000E+00         0.00000E+00        -0.50671E+08
 
   -0.50715E+08         0.32839E+06         0.00000E+00
    0.32839E+06        -0.50000E+08         0.00000E+00
    0.00000E+00         0.00000E+00        -0.50671E+08
 
   -0.50714E+08         0.40065E+06         0.00000E+00
    0.40065E+06        -0.50000E+08         0.00000E+00
    0.00000E+00         0.00000E+00        -0.50671E+08
 
   -0.50712E+08         0.47268E+06         0.00000E+00
    0.47268E+06        -0.50000E+08         0.00000E+00
    0.00000E+00         0.00000E+00        -0.50671E+08
 
   -0.50711E+08         0.54446E+06         0.00000E+00
    0.54446E+06        -0.50000E+08         0.00000E+00
    0.00000E+00         0.00000E+00        -0.50671E+08
 
   -0.50710E+08         0.61599E+06         0.00000E+00
    0.61599E+06        -0.50000E+08         0.00000E+00
    0.00000E+00         0.00000E+00        -0.50671E+08
 
   -0.50708E+08         0.68727E+06         0.00000E+00
    0.68727E+06        -0.50000E+08         0.00000E+00
    0.00000E+00         0.00000E+00        -0.50672E+08
 
   -0.50707E+08         0.75830E+06         0.00000E+00
    0.75830E+06        -0.49999E+08         0.00000E+00
    0.00000E+00         0.00000E+00        -0.50672E+08
 
   -0.50706E+08         0.82908E+06         0.00000E+00
    0.82908E+06        -0.49999E+08         0.00000E+00
    0.00000E+00         0.00000E+00        -0.50672E+08
 
   -0.50705E+08         0.89960E+06         0.00000E+00
    0.89960E+06        -0.49999E+08         0.00000E+00
    0.00000E+00         0.00000E+00        -0.50672E+08
 
   -0.50704E+08         0.96987E+06         0.00000E+00
    0.96987E+06        -0.49999E+08         0.00000E+00
    0.00000E+00         0.00000E+00        -0.50672E+08
 
   -0.50702E+08         0.10399E+07         0.00000E+00
    0.10399E+07        -0.49999E+08         0.00000E+00
    0.00000E+00         0.00000E+00        -0.50672E+08
 
   -0.50701E+08         0.11096E+07         0.00000E+00
    0.11096E+07        -0.49999E+08         0.00000E+00
    0.00000E+00         0.00000E+00        -0.50672E+08
 
   -0.50700E+08         0.11791E+07         0.00000E+00
    0.11791E+07        -0.49999E+08         0.00000E+00
    0.00000E+00         0.00000E+00        -0.50672E+08
 
   -0.50699E+08         0.12483E+07         0.00000E+00
    0.12483E+07        -0.49999E+08         0.00000E+00
    0.00000E+00         0.00000E+00        -0.50673E+08
 
   -0.50699E+08         0.13173E+07         0.00000E+00
    0.13173E+07        -0.49999E+08         0.00000E+00
    0.00000E+00         0.00000E+00        -0.50673E+08
 
   -0.50698E+08         0.13859E+07         0.00000E+00
    0.13859E+07        -0.49999E+08         0.00000E+00
    0.00000E+00         0.00000E+00        -0.50673E+08
 
   -0.50697E+08         0.14543E+07         0.00000E+00
    0.14543E+07        -0.49999E+08         0.00000E+00
    0.00000E+00         0.00000E+00        -0.50673E+08
 
   -0.50696E+08         0.15225E+07         0.00000E+00
    0.15225E+07        -0.49998E+08         0.00000E+00
    0.00000E+00         0.00000E+00        -0.50673E+08
 
   -0.50695E+08         0.15903E+07         0.00000E+00
    0.15903E+07        -0.49998E+08         0.00000E+00
    0.00000E+00         0.00000E+00        -0.50673E+08
 
   -0.50694E+08         0.16579E+07         0.00000E+00
    0.16579E+07        -0.49998E+08         0.00000E+00
    0.00000E+00         0.00000E+00        -0.50674E+08
 
   -0.50694E+08         0.17252E+07         0.00000E+00
    0.17252E+07        -0.49998E+08         0.00000E+00
    0.00000E+00         0.00000E+00        -0.50674E+08
 
   -0.50693E+08         0.17921E+07         0.00000E+00
    0.17921E+07        -0.49998E+08         0.00000E+00
    0.00000E+00         0.00000E+00        -0.50674E+08
 
   -0.50692E+08         0.18589E+07         0.00000E+00
    0.18589E+07        -0.49998E+08         0.00000E+00
    0.00000E+00         0.00000E+00        -0.50674E+08
 
   -0.50692E+08         0.19253E+07         0.00000E+00
    0.19253E+07        -0.49998E+08         0.00000E+00
    0.00000E+00         0.00000E+00        -0.50674E+08
 
   -0.50691E+08         0.19914E+07         0.00000E+00
    0.19914E+07        -0.49998E+08         0.00000E+00
    0.00000E+00         0.00000E+00        -0.50674E+08
 
   -0.50690E+08         0.20572E+07         0.00000E+00
    0.20572E+07        -0.49998E+08         0.00000E+00
    0.00000E+00         0.00000E+00        -0.50675E+08
 
   -0.50690E+08         0.21228E+07         0.00000E+00
    0.21228E+07        -0.49998E+08         0.00000E+00
    0.00000E+00         0.00000E+00        -0.50675E+08
 
   -0.50689E+08         0.21880E+07         0.00000E+00
    0.21880E+07        -0.49998E+08         0.00000E+00
    0.00000E+00         0.00000E+00        -0.50675E+08
 
   -0.50688E+08         0.22529E+07         0.00000E+00
    0.22529E+07        -0.49998E+08         0.00000E+00
    0.00000E+00         0.00000E+00        -0.50675E+08
 
   -0.50688E+08         0.23175E+07         0.00000E+00
    0.23175E+07        -0.49998E+08         0.00000E+00
    0.00000E+00         0.00000E+00        -0.50675E+08
 
   -0.50687E+08         0.23818E+07         0.00000E+00
    0.23818E+07        -0.49998E+08         0.00000E+00
    0.00000E+00         0.00000E+00        -0.50675E+08
 
   -0.50687E+08         0.24458E+07         0.00000E+00
    0.24458E+07        -0.49998E+08         0.00000E+00
    0.00000E+00         0.00000E+00        -0.50676E+08
 
   -0.50686E+08         0.25095E+07         0.00000E+00
    0.25095E+07        -0.49998E+08         0.00000E+00
    0.00000E+00         0.00000E+00        -0.50676E+08
 
   -0.50685E+08         0.25729E+07         0.00000E+00
    0.25729E+07        -0.49998E+08         0.00000E+00
    0.00000E+00         0.00000E+00        -0.50676E+08
 
   -0.50685E+08         0.26359E+07         0.00000E+00
    0.26359E+07        -0.49998E+08         0.00000E+00
    0.00000E+00         0.00000E+00        -0.50676E+08
 
   -0.50684E+08         0.26986E+07         0.00000E+00
    0.26986E+07        -0.49998E+08         0.00000E+00
    0.00000E+00         0.00000E+00        -0.50676E+08
 
   -0.50684E+08         0.27610E+07         0.00000E+00
    0.27610E+07        -0.49999E+08         0.00000E+00
    0.00000E+00         0.00000E+00        -0.50676E+08
 
   -0.50683E+08         0.28230E+07         0.00000E+00
    0.28230E+07        -0.49999E+08         0.00000E+00
    0.00000E+00         0.00000E+00        -0.50676E+08
 
   -0.50682E+08         0.28847E+07         0.00000E+00
    0.28847E+07        -0.49999E+08         0.00000E+00
    0.00000E+00         0.00000E+00        -0.50676E+08
 
   -0.50682E+08         0.29461E+07         0.00000E+00
    0.29461E+07        -0.49999E+08         0.00000E+00
    0.00000E+00         0.00000E+00        -0.50676E+08
 
   -0.50681E+08         0.30071E+07         0.00000E+00
    0.30071E+07        -0.49999E+08         0.00000E+00
    0.00000E+00         0.00000E+00        -0.50676E+08
 
   -0.50680E+08         0.30678E+07         0.00000E+00
    0.30678E+07        -0.50000E+08         0.00000E+00
    0.00000E+00         0.00000E+00        -0.50677E+08
 
   -0.50679E+08         0.31281E+07         0.00000E+00
    0.31281E+07        -0.50000E+08         0.00000E+00
    0.00000E+00         0.00000E+00        -0.50677E+08
 
   -0.50679E+08         0.31881E+07         0.00000E+00
    0.31881E+07        -0.50000E+08         0.00000E+00
    0.00000E+00         0.00000E+00        -0.50677E+08
 
   -0.50678E+08         0.32477E+07         0.00000E+00
    0.32477E+07        -0.50001E+08         0.00000E+00
    0.00000E+00         0.00000E+00        -0.50677E+08
 
   -0.50677E+08         0.33070E+07         0.00000E+00
    0.33070E+07        -0.50001E+08         0.00000E+00
    0.00000E+00         0.00000E+00        -0.50677E+08
 
   -0.50355E+08         0.36984E+05         0.00000E+00
    0.36984E+05        -0.50000E+08         0.00000E+00
    0.00000E+00         0.00000E+00        -0.50378E+08
 
   -0.50355E+08         0.11030E+06         0.00000E+00
    0.11030E+06        -0.50000E+08         0.00000E+00
    0.00000E+00         0.00000E+00        -0.50378E+08
 
   -0.50354E+08         0.18338E+06         0.00000E+00
    0.18338E+06        -0.50000E+08         0.00000E+00
    0.00000E+00         0.00000E+00        -0.50378E+08
 
   -0.50354E+08         0.25621E+06         0.00000E+00
    0.25621E+06        -0.50000E+08         0.00000E+00
    0.00000E+00         0.00000E+00        -0.50378E+08
 
   -0.50353E+08         0.32881E+06         0.00000E+00
    0.32881E+06        -0.50000E+08         0.00000E+00
    0.00000E+00         0.00000E+00        -0.50378E+08
 
   -0.50353E+08         0.40116E+06         0.00000E+00
    0.40116E+06        -0.50000E+08         0.00000E+00
    0.00000E+00         0.00000E+00        -0.50378E+08
 
   -0.50353E+08         0.47326E+06         0.00000E+00
    0.47326E+06        -0.49999E+08         0.00000E+00
    0.00000E+00         0.00000E+00        -0.50378E+08
 
   -0.50353E+08         0.54511E+06         0.00000E+00
    0.54511E+06        -0.49999E+08         0.00000E+00
    0.00000E+00         0.00000E+00        -0.50378E+08
 
   -0.50352E+08         0.61672E+06         0.00000E+00
    0.61672E+06        -0.49999E+08         0.00000E+00
    0.00000E+00         0.00000E+00        -0.50378E+08
 
   -0.50352E+08         0.68807E+06         0.00000E+00
    0.68807E+06        -0.49999E+08         0.00000E+00
    0.00000E+00         0.00000E+00        -0.50378E+08
 
   -0.50352E+08         0.75916E+06         0.00000E+00
    0.75916E+06        -0.49999E+08         0.00000E+00
    0.00000E+00         0.00000E+00        -0.50378E+08
 
   -0.50352E+08         0.83000E+06         0.00000E+00
    0.83000E+06        -0.49998E+08         0.00000E+00
    0.00000E+00         0.00000E+00        -0.50378E+08
 
   -0.50353E+08         0.90058E+06         0.00000E+00
    0.90058E+06        -0.49998E+08         0.00000E+00
    0.00000E+00         0.00000E+00        -0.50378E+08
 
   -0.50353E+08         0.97090E+06         0.00000E+00
    0.97090E+06        -0.49998E+08         0.00000E+00
    0.00000E+00         0.00000E+00        -0.50379E+08
 
   -0.50353E+08         0.10410E+07         0.00000E+00
    0.10410E+07        -0.49997E+08         0.00000E+00
    0.00000E+00         0.00000E+00        -0.50379E+08
 
   -0.50353E+08         0.11108E+07         0.00000E+00
    0.11108E+07        -0.49997E+08         0.00000E+00
    0.00000E+00         0.00000E+00        -0.50379E+08
 
   -0.50354E+08         0.11803E+07         0.00000E+00
    0.11803E+07        -0.49997E+08         0.00000E+00
    0.00000E+00         0.00000E+00        -0.50379E+08
 
   -0.50354E+08         0.12495E+07         0.00000E+00
    0.12495E+07        -0.49996E+08         0.00000E+00
    0.00000E+00         0.00000E+00        -0.50379E+08
 
   -0.50354E+08         0.13185E+07         0.00000E+00
    0.13185E+07        -0.49996E+08         0.00000E+00
    0.00000E+00         0.00000E+00        -0.50379E+08
 
   -0.50355E+08         0.13872E+07         0.00000E+00
    0.13872E+07        -0.49995E+08         0.00000E+00
    0.00000E+00         0.00000E+00        -0.50379E+08
 
   -0.50355E+08         0.14556E+07         0.00000E+00
    0.14556E+07        -0.49995E+08         0.00000E+00
    0.00000E+00         0.00000E+00        -0.50379E+08
 
   -0.50356E+08         0.15238E+07         0.00000E+00
    0.15238E+07        -0.49995E+08         0.00000E+00
    0.00000E+00         0.00000E+00        -0.50380E+08
 
   -0.50357E+08         0.15917E+07         0.00000E+00
    0.15917E+07        -0.49994E+08         0.00000E+00
    0.00000E+00         0.00000E+00        -0.50380E+08
 
   -0.50357E+08         0.16592E+07         0.00000E+00
    0.16592E+07        -0.49994E+08         0.00000E+00
    0.00000E+00         0.00000E+00        -0.50380E+08
 
   -0.50358E+08         0.17265E+07         0.00000E+00
    0.17265E+07        -0.49993E+08         0.00000E+00
    0.00000E+00         0.00000E+00        -0.50380E+08
 
   -0.50359E+08         0.17936E+07         0.00000E+00
    0.17936E+07        -0.49993E+08         0.00000E+00
    0.00000E+00         0.00000E+00        -0.50380E+08
 
   -0.50359E+08         0.18603E+07         0.00000E+00
    0.18603E+07        -0.49992E+08         0.00000E+00
    0.00000E+00         0.00000E+00        -0.50380E+08
 
   -0.50360E+08         0.19267E+07         0.00000E+00
    0.19267E+07        -0.49992E+08         0.00000E+00
    0.00000E+00         0.00000E+00        -0.50380E+08
 
   -0.50361E+08         0.19928E+07         0.00000E+00
    0.19928E+07        -0.49991E+08         0.00000E+00
    0.00000E+00         0.00000E+00        -0.50381E+08
 
   -0.50362E+08         0.20586E+07         0.00000E+00
    0.20586E+07        -0.49991E+08         0.00000E+00
    0.00000E+00         0.00000E+00        -0.50381E+08
 
   -0.50363E+08         0.21242E+07         0.00000E+00
    0.21242E+07        -0.49990E+08         0.00000E+00
    0.00000E+00         0.00000E+00        -0.50381E+08
 
   -0.50364E+08         0.21894E+07         0.00000E+00
    0.21894E+07        -0.49989E+08         0.00000E+00
    0.00000E+00         0.00000E+00        -0.50381E+08
 
   -0.50365E+08         0.22543E+07         0.00000E+00
    0.22543E+07        -0.49989E+08         0.00000E+00
    0.00000E+00         0.00000E+00        -0.50381E+08
 
   -0.50366E+08         0.23189E+07         0.00000E+00
    0.23189E+07        -0.49988E+08         0.00000E+00
    0.00000E+00         0.00000E+00        -0.50381E+08
 
   -0.50367E+08         0.23832E+07         0.00000E+00
    0.23832E+07        -0.49988E+08         0.00000E+00
    0.00000E+00         0.00000E+00        -0.50381E+08
 
   -0.50367E+08         0.24471E+07         0.00000E+00
    0.24471E+07        -0.49987E+08         0.00000E+00
    0.00000E+00         0.00000E+00        -0.50382E+08
 
   -0.50368E+08         0.25108E+07         0.00000E+00
    0.25108E+07        -0.49987E+08         0.00000E+00
    0.00000E+00         0.00000E+00        -0.50382E+08
 
   -0.50369E+08         0.25741E+07         0.00000E+00
    0.25741E+07        -0.49986E+08         0.00000E+00
    0.00000E+00         0.00000E+00        -0.50382E+08
 
   -0.50371E+08         0.26371E+07         0.00000E+00
    0.26371E+07        -0.49985E+08         0.00000E+00
    0.00000E+00         0.00000E+00        -0.50382E+08
 
   -0.50372E+08         0.26997E+07         0.00000E+00
    0.26997E+07        -0.49985E+08         0.00000E+00
    0.00000E+00         0.00000E+00        -0.50382E+08
 
   -0.50373E+08         0.27620E+07         0.00000E+00
    0.27620E+07        -0.49984E+08         0.00000E+00
    0.00000E+00         0.00000E+00        -0.50382E+08
 
   -0.50374E+08         0.28240E+07         0.00000E+00
    0.28240E+07        -0.49984E+08         0.00000E+00
    0.00000E+00         0.00000E+00        -0.50382E+08
 
   -0.50375E+08         0.28857E+07         0.00000E+00
    0.28857E+07        -0.49983E+08         0.00000E+00
    0.00000E+00         0.00000E+00        -0.50382E+08
 
   -0.50376E+08         0.29469E+07         0.00000E+00
    0.29469E+07        -0.49983E+08         0.00000E+00
    0.00000E+00         0.00000E+00        -0.50382E+08
 
   -0.50377E+08         0.30079E+07         0.00000E+00
    0.30079E+07        -0.49982E+08         0.00000E+00
    0.00000E+00         0.00000E+00        -0.50382E+08
 
   -0.50378E+08         0.30685E+07         0.00000E+00
    0.30685E+07        -0.49982E+08         0.00000E+00
    0.00000E+00         0.00000E+00        -0.50382E+08
 
   -0.50379E+08         0.31287E+07         0.00000E+00
    0.31287E+07        -0.49981E+08         0.00000E+00
    0.00000E+00         0.00000E+00        -0.50382E+08
 
   -0.50380E+08         0.31886E+07         0.00000E+00
    0.31886E+07        -0.49980E+08         0.00000E+00
    0.00000E+00         0.00000E+00        -0.50383E+08
 
   -0.50381E+08         0.32481E+07         0.00000E+00
    0.32481E+07        -0.49980E+08         0.00000E+00
    0.00000E+00         0.00000E+00        -0.50383E+08
 
   -0.50382E+08         0.33072E+07         0.00000E+00
    0.33072E+07        -0.49979E+08         0.00000E+00
    0.00000E+00         0.00000E+00        -0.50383E+08
 
   -0.49988E+08         0.37079E+05         0.00000E+00
    0.37079E+05        -0.50000E+08         0.00000E+00
    0.00000E+00         0.00000E+00        -0.50085E+08
 
   -0.49988E+08         0.11058E+06         0.00000E+00
    0.11058E+06        -0.50000E+08         0.00000E+00
    0.00000E+00         0.00000E+00        -0.50085E+08
 
   -0.49989E+08         0.18383E+06         0.00000E+00
    0.18383E+06        -0.50000E+08         0.00000E+00
    0.00000E+00         0.00000E+00        -0.50085E+08
 
   -0.49990E+08         0.25684E+06         0.00000E+00
    0.25684E+06        -0.50000E+08         0.00000E+00
    0.00000E+00         0.00000E+00        -0.50085E+08
 
   -0.49991E+08         0.32961E+06         0.00000E+00
    0.32961E+06        -0.50000E+08         0.00000E+00
    0.00000E+00         0.00000E+00        -0.50085E+08
 
   -0.49991E+08         0.40212E+06         0.00000E+00
    0.40212E+06        -0.49999E+08         0.00000E+00
    0.00000E+00         0.00000E+00        -0.50085E+08
 
   -0.49992E+08         0.47439E+06         0.00000E+00
    0.47439E+06        -0.49999E+08         0.00000E+00
    0.00000E+00         0.00000E+00        -0.50085E+08
 
   -0.49994E+08         0.54640E+06         0.00000E+00
    0.54640E+06        -0.49999E+08         0.00000E+00
    0.00000E+00         0.00000E+00        -0.50085E+08
 
   -0.49995E+08         0.61817E+06         0.00000E+00
    0.61817E+06        -0.49998E+08         0.00000E+00
    0.00000E+00         0.00000E+00        -0.50085E+08
 
   -0.49996E+08         0.68967E+06         0.00000E+00
    0.68967E+06        -0.49998E+08         0.00000E+00
    0.00000E+00         0.00000E+00        -0.50085E+08
 
   -0.49997E+08         0.76092E+06         0.00000E+00
    0.76092E+06        -0.49998E+08         0.00000E+00
    0.00000E+00         0.00000E+00        -0.50085E+08
 
   -0.49999E+08         0.83190E+06         0.00000E+00
    0.83190E+06        -0.49997E+08         0.00000E+00
    0.00000E+00         0.00000E+00        -0.50085E+08
 
   -0.50000E+08         0.90263E+06         0.00000E+00
    0.90263E+06        -0.49997E+08         0.00000E+00
    0.00000E+00         0.00000E+00        -0.50085E+08
 
   -0.50001E+08         0.97309E+06         0.00000E+00
    0.97309E+06        -0.49996E+08         0.00000E+00
    0.00000E+00         0.00000E+00        -0.50085E+08
 
   -0.50003E+08         0.10433E+07         0.00000E+00
    0.10433E+07        -0.49996E+08         0.00000E+00
    0.00000E+00         0.00000E+00        -0.50085E+08
 
   -0.50005E+08         0.11132E+07         0.00000E+00
    0.11132E+07        -0.49995E+08         0.00000E+00
    0.00000E+00         0.00000E+00        -0.50086E+08
 
   -0.50006E+08         0.11829E+07         0.00000E+00
    0.11829E+07        -0.49994E+08         0.00000E+00
    0.00000E+00         0.00000E+00        -0.50086E+08
 
   -0.50008E+08         0.12522E+07         0.00000E+00
    0.12522E+07        -0.49994E+08         0.00000E+00
    0.00000E+00         0.00000E+00        -0.50086E+08
 
   -0.50010E+08         0.13213E+07         0.00000E+00
    0.13213E+07        -0.49993E+08         0.00000E+00
    0.00000E+00         0.00000E+00        -0.50086E+08
 
   -0.50012E+08         0.13902E+07         0.00000E+00
    0.13902E+07        -0.49992E+08         0.00000E+00
    0.00000E+00         0.00000E+00        -0.50086E+08
 
   -0.50014E+08         0.14587E+07         0.00000E+00
    0.14587E+07        -0.49991E+08         0.00000E+00
    0.00000E+00         0.00000E+00        -0.50086E+08
 
   -0.50016E+08         0.15270E+07         0.00000E+00
    0.15270E+07        -0.49991E+08         0.00000E+00
    0.00000E+00         0.00000E+00        -0.50086E+08
 
   -0.50018E+08         0.15950E+07         0.00000E+00
    0.15950E+07        -0.49990E+08         0.00000E+00
    0.00000E+00         0.00000E+00        -0.50086E+08
 
   -0.50020E+08         0.16627E+07         0.00000E+00
    0.16627E+07        -0.49989E+08         0.00000E+00
    0.00000E+00         0.00000E+00        -0.50086E+08
 
   -0.50022E+08         0.17301E+07         0.00000E+00
    0.17301E+07        -0.49988E+08         0.00000E+00
    0.00000E+00         0.00000E+00        -0.50087E+08
 
   -0.50024E+08         0.17972E+07         0.00000E+00
    0.17972E+07        -0.49987E+08         0.00000E+00
    0.00000E+00         0.00000E+00        -0.50087E+08
 
   -0.50026E+08         0.18640E+07         0.00000E+00
    0.18640E+07        -0.49986E+08         0.00000E+00
    0.00000E+00         0.00000E+00        -0.50087E+08
 
   -0.50029E+08         0.19305E+07         0.00000E+00
    0.19305E+07        -0.49985E+08         0.00000E+00
    0.00000E+00         0.00000E+00        -0.50087E+08
 
   -0.50031E+08         0.19967E+07         0.00000E+00
    0.19967E+07        -0.49984E+08         0.00000E+00
    0.00000E+00         0.00000E+00        -0.50087E+08
 
   -0.50033E+08         0.20626E+07         0.00000E+00
    0.20626E+07        -0.49983E+08         0.00000E+00
    0.00000E+00         0.00000E+00        -0.50087E+08
 
   -0.50036E+08         0.21282E+07         0.00000E+00
    0.21282E+07        -0.49982E+08         0.00000E+00
    0.00000E+00         0.00000E+00        -0.50087E+08
 
   -0.50038E+08         0.21935E+07         0.00000E+00
    0.21935E+07        -0.49981E+08         0.00000E+00
    0.00000E+00         0.00000E+00        -0.50087E+08
 
   -0.50041E+08         0.22585E+07         0.00000E+00
    0.22585E+07        -0.49980E+08         0.00000E+00
    0.00000E+00         0.00000E+00        -0.50088E+08
 
   -0.50043E+08         0.23232E+07         0.00000E+00
    0.23232E+07        -0.49979E+08         0.00000E+00
    0.00000E+00         0.00000E+00        -0.50088E+08
 
   -0.50046E+08         0.23875E+07         0.00000E+00
    0.23875E+07        -0.49977E+08         0.00000E+00
    0.00000E+00         0.00000E+00        -0.50088E+08
 
   -0.50048E+08         0.24516E+07         0.00000E+00
    0.24516E+07        -0.49976E+08         0.00000E+00
    0.00000E+00         0.00000E+00        -0.50088E+08
 
   -0.50051E+08         0.25153E+07         0.00000E+00
    0.25153E+07        -0.49975E+08         0.00000E+00
    0.00000E+00         0.00000E+00        -0.50088E+08
 
   -0.50054E+08         0.25786E+07         0.00000E+00
    0.25786E+07        -0.49974E+08         0.00000E+00
    0.00000E+00         0.00000E+00        -0.50088E+08
 
   -0.50056E+08         0.26417E+07         0.00000E+00
    0.26417E+07        -0.49973E+08         0.00000E+00
    0.00000E+00         0.00000E+00        -0.50088E+08
 
   -0.50059E+08         0.27044E+07         0.00000E+00
    0.27044E+07        -0.49971E+08         0.00000E+00
    0.00000E+00         0.00000E+00        -0.50088E+08
 
   -0.50062E+08         0.27667E+07         0.00000E+00
    0.27667E+07        -0.49970E+08         0.00000E+00
    0.00000E+00         0.00000E+00        -0.50088E+08
 
   -0.50065E+08         0.28288E+07         0.00000E+00
    0.28288E+07        -0.49969E+08         0.00000E+00
    0.00000E+00         0.00000E+00        -0.50088E+08
 
   -0.50067E+08         0.28904E+07         0.00000E+00
    0.28904E+07        -0.49967E+08         0.00000E+00
    0.00000E+00         0.00000E+00        -0.50088E+08
 
   -0.50070E+08         0.29518E+07         0.00000E+00
    0.29518E+07        -0.49966E+08         0.00000E+00
    0.00000E+00         0.00000E+00        -0.50089E+08
 
   -0.50073E+08         0.30127E+07         0.00000E+00
    0.30127E+07        -0.49965E+08         0.00000E+00
    0.00000E+00         0.00000E+00        -0.50089E+08
 
   -0.50076E+08         0.30733E+07         0.00000E+00
    0.30733E+07        -0.49963E+08         0.00000E+00
    0.00000E+00         0.00000E+00        -0.50089E+08
 
   -0.50079E+08         0.31336E+07         0.00000E+00
    0.31336E+07        -0.49962E+08         0.00000E+00
    0.00000E+00         0.00000E+00        -0.50089E+08
 
   -0.50082E+08         0.31935E+07         0.00000E+00
    0.31935E+07        -0.49960E+08         0.00000E+00
    0.00000E+00         0.00000E+00        -0.50089E+08
 
   -0.50084E+08         0.32530E+07         0.00000E+00
    0.32530E+07        -0.49959E+08         0.00000E+00
    0.00000E+00         0.00000E+00        -0.50089E+08
 
   -0.50087E+08         0.33121E+07         0.00000E+00
    0.33121E+07        -0.49957E+08         0.00000E+00
    0.00000E+00         0.00000E+00        -0.50089E+08
 
   -0.49619E+08         0.37217E+05         0.00000E+00
    0.37217E+05        -0.50000E+08         0.00000E+00
    0.00000E+00         0.00000E+00        -0.49791E+08
 
   -0.49621E+08         0.11098E+06         0.00000E+00
    0.11098E+06        -0.50000E+08         0.00000E+00
    0.00000E+00         0.00000E+00        -0.49791E+08
 
   -0.49623E+08         0.18450E+06         0.00000E+00
    0.18450E+06        -0.50000E+08         0.00000E+00
    0.00000E+00         0.00000E+00        -0.49791E+08
 
   -0.49625E+08         0.25777E+06         0.00000E+00
    0.25777E+06        -0.50000E+08         0.00000E+00
    0.00000E+00         0.00000E+00        -0.49791E+08
 
   -0.49627E+08         0.33079E+06         0.00000E+00
    0.33079E+06        -0.49999E+08         0.00000E+00
    0.00000E+00         0.00000E+00        -0.49791E+08
 
   -0.49629E+08         0.40356E+06         0.00000E+00
    0.40356E+06        -0.49999E+08         0.00000E+00
    0.00000E+00         0.00000E+00        -0.49791E+08
 
   -0.49631E+08         0.47607E+06         0.00000E+00
    0.47607E+06        -0.49999E+08         0.00000E+00
    0.00000E+00         0.00000E+00        -0.49791E+08
 
   -0.49633E+08         0.54833E+06         0.00000E+00
    0.54833E+06        -0.49998E+08         0.00000E+00
    0.00000E+00         0.00000E+00        -0.49791E+08
 
   -0.49636E+08         0.62033E+06         0.00000E+00
    0.62033E+06        -0.49998E+08         0.00000E+00
    0.00000E+00         0.00000E+00        -0.49791E+08
 
   -0.49638E+08         0.69208E+06         0.00000E+00
    0.69208E+06        -0.49997E+08         0.00000E+00
    0.00000E+00         0.00000E+00        -0.49791E+08
 
   -0.49641E+08         0.76356E+06         0.00000E+00
    0.76356E+06        -0.49997E+08         0.00000E+00
    0.00000E+00         0.00000E+00        -0.49792E+08
 
   -0.49644E+08         0.83478E+06         0.00000E+00
    0.83478E+06        -0.49996E+08         0.00000E+00
    0.00000E+00         0.00000E+00        -0.49792E+08
 
   -0.49646E+08         0.90573E+06         0.00000E+00
    0.90573E+06        -0.49995E+08         0.00000E+00
    0.00000E+00         0.00000E+00        -0.49792E+08
 
   -0.49649E+08         0.97642E+06         0.00000E+00
    0.97642E+06        -0.49995E+08         0.00000E+00
    0.00000E+00         0.00000E+00        -0.49792E+08
 
   -0.49652E+08         0.10468E+07         0.00000E+00
    0.10468E+07        -0.49994E+08         0.00000E+00
    0.00000E+00         0.00000E+00        -0.49792E+08
 
   -0.49655E+08         0.11170E+07         0.00000E+00
    0.11170E+07        -0.49993E+08         0.00000E+00
    0.00000E+00         0.00000E+00        -0.49792E+08
 
   -0.49658E+08         0.11869E+07         0.00000E+00
    0.11869E+07        -0.49992E+08         0.00000E+00
    0.00000E+00         0.00000E+00        -0.49792E+08
 
   -0.49661E+08         0.12565E+07         0.00000E+00
    0.12565E+07        -0.49991E+08         0.00000E+00
    0.00000E+00         0.00000E+00        -0.49792E+08
 
   -0.49665E+08         0.13258E+07         0.00000E+00
    0.13258E+07        -0.49990E+08         0.00000E+00
    0.00000E+00         0.00000E+00        -0.49792E+08
 
   -0.49668E+08         0.13948E+07         0.00000E+00
    0.13948E+07        -0.49989E+08         0.00000E+00
    0.00000E+00         0.00000E+00        -0.49792E+08
 
   -0.49671E+08         0.14636E+07         0.00000E+00
    0.14636E+07        -0.49988E+08         0.00000E+00
    0.00000E+00         0.00000E+00        -0.49792E+08
 
   -0.49675E+08         0.15320E+07         0.00000E+00
    0.15320E+07        -0.49987E+08         0.00000E+00
    0.00000E+00         0.00000E+00        -0.49793E+08
 
   -0.49678E+08         0.16002E+07         0.00000E+00
    0.16002E+07        -0.49985E+08         0.00000E+00
    0.00000E+00         0.00000E+00        -0.49793E+08
 
   -0.49682E+08         0.16681E+07         0.00000E+00
    0.16681E+07        -0.49984E+08         0.00000E+00
    0.00000E+00         0.00000E+00        -0.49793E+08
 
   -0.49685E+08         0.17357E+07         0.00000E+00
    0.17357E+07        -0.49983E+08         0.00000E+00
    0.00000E+00         0.00000E+00        -0.49793E+08
 
   -0.49689E+08         0.18030E+07         0.00000E+00
    0.18030E+07        -0.49981E+08         0.00000E+00
    0.00000E+00         0.00000E+00        -0.49793E+08
 
   -0.49693E+08         0.18700E+07         0.00000E+00
    0.18700E+07        -0.49980E+08         0.00000E+00
    0.00000E+00         0.00000E+00        -0.49793E+08
 
   -0.49696E+08         0.19367E+07         0.00000E+00
    0.19367E+07        -0.49979E+08         0.00000E+00
    0.00000E+00         0.00000E+00        -0.49793E+08
 
   -0.49700E+08         0.20031E+07         0.00000E+00
    0.20031E+07        -0.49977E+08         0.00000E+00
    0.00000E+00         0.00000E+00        -0.49793E+08
 
   -0.49704E+08         0.20692E+07         0.00000E+00
    0.20692E+07        -0.49976E+08         0.00000E+00
    0.00000E+00         0.00000E+00        -0.49793E+08
 
   -0.49708E+08         0.21350E+07         0.00000E+00
    0.21350E+07        -0.49974E+08         0.00000E+00
    0.00000E+00         0.00000E+00        -0.49794E+08
 
   -0.49712E+08         0.22005E+07         0.00000E+00
    0.22005E+07        -0.49972E+08         0.00000E+00
    0.00000E+00         0.00000E+00        -0.49794E+08
 
   -0.49716E+08         0.22656E+07         0.00000E+00
    0.22656E+07        -0.49971E+08         0.00000E+00
    0.00000E+00         0.00000E+00        -0.49794E+08
 
   -0.49720E+08         0.23305E+07         0.00000E+00
    0.23305E+07        -0.49969E+08         0.00000E+00
    0.00000E+00         0.00000E+00        -0.49794E+08
 
   -0.49724E+08         0.23950E+07         0.00000E+00
    0.23950E+07        -0.49967E+08         0.00000E+00
    0.00000E+00         0.00000E+00        -0.49794E+08
 
   -0.49729E+08         0.24592E+07         0.00000E+00
    0.24592E+07        -0.49965E+08         0.00000E+00
    0.00000E+00         0.00000E+00        -0.49794E+08
 
   -0.49733E+08         0.25230E+07         0.00000E+00
    0.25230E+07        -0.49963E+08         0.00000E+00
    0.00000E+00         0.00000E+00        -0.49794E+08
 
   -0.49737E+08         0.25866E+07         0.00000E+00
    0.25866E+07        -0.49961E+08         0.00000E+00
    0.00000E+00         0.00000E+00        -0.49794E+08
 
   -0.49742E+08         0.26498E+07         0.00000E+00
    0.26498E+07        -0.49959E+08         0.00000E+00
    0.00000E+00         0.00000E+00        -0.49794E+08
 
   -0.49746E+08         0.27126E+07         0.00000E+00
    0.27126E+07        -0.49957E+08         0.00000E+00
    0.00000E+00         0.00000E+00        -0.49794E+08
 
   -0.49750E+08         0.27751E+07         0.00000E+00
    0.27751E+07        -0.49955E+08         0.00000E+00
    0.00000E+00         0.00000E+00        -0.49794E+08
 
   -0.49755E+08         0.28373E+07         0.00000E+00
    0.28373E+07        -0.49953E+08         0.00000E+00
    0.00000E+00         0.00000E+00        -0.49794E+08
 
   -0.49759E+08         0.28991E+07         0.00000E+00
    0.28991E+07        -0.49951E+08         0.00000E+00
    0.00000E+00         0.00000E+00        -0.49794E+08
 
   -0.49764E+08         0.29606E+07         0.00000E+00
    0.29606E+07        -0.49949E+08         0.00000E+00
    0.00000E+00         0.00000E+00        -0.49795E+08
 
   -0.49769E+08         0.30217E+07         0.00000E+00
    0.30217E+07        -0.49947E+08         0.00000E+00
    0.00000E+00         0.00000E+00        -0.49795E+08
 
   -0.49773E+08         0.30825E+07         0.00000E+00
    0.30825E+07        -0.49945E+08         0.00000E+00
    0.00000E+00         0.00000E+00        -0.49795E+08
 
   -0.49778E+08         0.31428E+07         0.00000E+00
    0.31428E+07        -0.49942E+08         0.00000E+00
    0.00000E+00         0.00000E+00        -0.49795E+08
 
   -0.49783E+08         0.32028E+07         0.00000E+00
    0.32028E+07        -0.49940E+08         0.00000E+00
    0.00000E+00         0.00000E+00        -0.49795E+08
 
   -0.49787E+08         0.32625E+07         0.00000E+00
    0.32625E+07        -0.49938E+08         0.00000E+00
    0.00000E+00         0.00000E+00        -0.49795E+08
 
   -0.49792E+08         0.33217E+07         0.00000E+00
    0.33217E+07        -0.49935E+08         0.00000E+00
    0.00000E+00         0.00000E+00        -0.49795E+08
 
   -0.49249E+08         0.37396E+05         0.00000E+00
    0.37396E+05        -0.50000E+08         0.00000E+00
    0.00000E+00         0.00000E+00        -0.49497E+08
 
   -0.49252E+08         0.11151E+06         0.00000E+00
    0.11151E+06        -0.50000E+08         0.00000E+00
    0.00000E+00         0.00000E+00        -0.49497E+08
 
   -0.49255E+08         0.18537E+06         0.00000E+00
    0.18537E+06        -0.50000E+08         0.00000E+00
    0.00000E+00         0.00000E+00        -0.49497E+08
 
   -0.49258E+08         0.25898E+06         0.00000E+00
    0.25898E+06        -0.50000E+08         0.00000E+00
    0.00000E+00         0.00000E+00        -0.49497E+08
 
   -0.49261E+08         0.33234E+06         0.00000E+00
    0.33234E+06        -0.49999E+08         0.00000E+00
    0.00000E+00         0.00000E+00        -0.49497E+08
 
   -0.49265E+08         0.40545E+06         0.00000E+00
    0.40545E+06        -0.49999E+08         0.00000E+00
    0.00000E+00         0.00000E+00        -0.49497E+08
 
   -0.49268E+08         0.47830E+06         0.00000E+00
    0.47830E+06        -0.49998E+08         0.00000E+00
    0.00000E+00         0.00000E+00        -0.49497E+08
 
   -0.49272E+08         0.55089E+06         0.00000E+00
    0.55089E+06        -0.49998E+08         0.00000E+00
    0.00000E+00         0.00000E+00        -0.49497E+08
 
   -0.49276E+08         0.62322E+06         0.00000E+00
    0.62322E+06        -0.49997E+08         0.00000E+00
    0.00000E+00         0.00000E+00        -0.49497E+08
 
   -0.49280E+08         0.69529E+06         0.00000E+00
    0.69529E+06        -0.49997E+08         0.00000E+00
    0.00000E+00         0.00000E+00        -0.49497E+08
 
   -0.49283E+08         0.76710E+06         0.00000E+00
    0.76710E+06        -0.49996E+08         0.00000E+00
    0.00000E+00         0.00000E+00        -0.49497E+08
 
   -0.49287E+08         0.83864E+06         0.00000E+00
    0.83864E+06        -0.49995E+08         0.00000E+00
    0.00000E+00         0.00000E+00        -0.49497E+08
 
   -0.49292E+08         0.90991E+06         0.00000E+00
    0.90991E+06        -0.49994E+08         0.00000E+00
    0.00000E+00         0.00000E+00        -0.49497E+08
 
   -0.49296E+08         0.98091E+06         0.00000E+00
    0.98091E+06        -0.49993E+08         0.00000E+00
    0.00000E+00         0.00000E+00        -0.49497E+08
 
   -0.49300E+08         0.10516E+07         0.00000E+00
    0.10516E+07        -0.49992E+08         0.00000E+00
    0.00000E+00         0.00000E+00        -0.49497E+08
 
   -0.49304E+08         0.11221E+07         0.00000E+00
    0.11221E+07        -0.49991E+08         0.00000E+00
    0.00000E+00         0.00000E+00        -0.49498E+08
 
   -0.49309E+08         0.11923E+07         0.00000E+00
    0.11923E+07        -0.49990E+08         0.00000E+00
    0.00000E+00         0.00000E+00        -0.49498E+08
 
   -0.49313E+08         0.12622E+07         0.00000E+00
    0.12622E+07        -0.49988E+08         0.00000E+00
    0.00000E+00         0.00000E+00        -0.49498E+08
 
   -0.49318E+08         0.13318E+07         0.00000E+00
    0.13318E+07        -0.49987E+08         0.00000E+00
    0.00000E+00         0.00000E+00        -0.49498E+08
 
   -0.49323E+08         0.14011E+07         0.00000E+00
    0.14011E+07        -0.49986E+08         0.00000E+00
    0.00000E+00         0.00000E+00        -0.49498E+08
 
   -0.49327E+08         0.14702E+07         0.00000E+00
    0.14702E+07        -0.49984E+08         0.00000E+00
    0.00000E+00         0.00000E+00        -0.49498E+08
 
   -0.49332E+08         0.15390E+07         0.00000E+00
    0.15390E+07        -0.49983E+08         0.00000E+00
    0.00000E+00         0.00000E+00        -0.49498E+08
 
   -0.49337E+08         0.16074E+07         0.00000E+00
    0.16074E+07        -0.49981E+08         0.00000E+00
    0.00000E+00         0.00000E+00        -0.49498E+08
 
   -0.49342E+08         0.16756E+07         0.00000E+00
    0.16756E+07        -0.49979E+08         0.00000E+00
    0.00000E+00         0.00000E+00        -0.49498E+08
 
   -0.49347E+08         0.17435E+07         0.00000E+00
    0.17435E+07        -0.49978E+08         0.00000E+00
    0.00000E+00         0.00000E+00        -0.49498E+08
 
   -0.49352E+08         0.18111E+07         0.00000E+00
    0.18111E+07        -0.49976E+08         0.00000E+00
    0.00000E+00         0.00000E+00        -0.49498E+08
 
   -0.49358E+08         0.18784E+07         0.00000E+00
    0.18784E+07        -0.49974E+08         0.00000E+00
    0.00000E+00         0.00000E+00        -0.49498E+08
 
   -0.49363E+08         0.19454E+07         0.00000E+00
    0.19454E+07        -0.49972E+08         0.00000E+00
    0.00000E+00         0.00000E+00        -0.49499E+08
 
   -0.49368E+08         0.20121E+07         0.00000E+00
    0.20121E+07        -0.49970E+08         0.00000E+00
    0.00000E+00         0.00000E+00        -0.49499E+08
 
   -0.49374E+08         0.20784E+07         0.00000E+00
    0.20784E+07        -0.49968E+08         0.00000E+00
    0.00000E+00         0.00000E+00        -0.49499E+08
 
   -0.49379E+08         0.21445E+07         0.00000E+00
    0.21445E+07        -0.49966E+08         0.00000E+00
    0.00000E+00         0.00000E+00        -0.49499E+08
 
   -0.49385E+08         0.22102E+07         0.00000E+00
    0.22102E+07        -0.49964E+08         0.00000E+00
    0.00000E+00         0.00000E+00        -0.49499E+08
 
   -0.49390E+08         0.22757E+07         0.00000E+00
    0.22757E+07        -0.49961E+08         0.00000E+00
    0.00000E+00         0.00000E+00        -0.49499E+08
 
   -0.49396E+08         0.23408E+07         0.00000E+00
    0.23408E+07        -0.49959E+08         0.00000E+00
    0.00000E+00         0.00000E+00        -0.49499E+08
 
   -0.49402E+08         0.24056E+07         0.00000E+00
    0.24056E+07        -0.49957E+08         0.00000E+00
    0.00000E+00         0.00000E+00        -0.49499E+08
 
   -0.49408E+08         0.24700E+07         0.00000E+00
    0.24700E+07        -0.49954E+08         0.00000E+00
    0.00000E+00         0.00000E+00        -0.49499E+08
 
   -0.49414E+08         0.25342E+07         0.00000E+00
    0.25342E+07        -0.49952E+08         0.00000E+00
    0.00000E+00         0.00000E+00        -0.49499E+08
 
   -0.49420E+08         0.25980E+07         0.00000E+00
    0.25980E+07        -0.49949E+08         0.00000E+00
    0.00000E+00         0.00000E+00        -0.49499E+08
 
   -0.49426E+08         0.26614E+07         0.00000E+00
    0.26614E+07        -0.49946E+08         0.00000E+00
    0.00000E+00         0.00000E+00        -0.49499E+08
 
   -0.49432E+08         0.27245E+07         0.00000E+00
    0.27245E+07        -0.49944E+08         0.00000E+00
    0.00000E+00         0.00000E+00        -0.49499E+08
 
   -0.49438E+08         0.27873E+07         0.00000E+00
    0.27873E+07        -0.49941E+08         0.00000E+00
    0.00000E+00         0.00000E+00        -0.49499E+08
 
   -0.49444E+08         0.28497E+07         0.00000E+00
    0.28497E+07        -0.49938E+08         0.00000E+00
    0.00000E+00         0.00000E+00        -0.49499E+08
 
   -0.49451E+08         0.29118E+07         0.00000E+00
    0.29118E+07        -0.49935E+08         0.00000E+00
    0.00000E+00         0.00000E+00        -0.49500E+08
 
   -0.49457E+08         0.29735E+07         0.00000E+00
    0.29735E+07        -0.49932E+08         0.00000E+00
    0.00000E+00         0.00000E+00        -0.49500E+08
 
   -0.49463E+08         0.30349E+07         0.00000E+00
    0.30349E+07        -0.49929E+08         0.00000E+00
    0.00000E+00         0.00000E+00        -0.49500E+08
 
   -0.49470E+08         0.30959E+07         0.00000E+00
    0.30959E+07        -0.49926E+08         0.00000E+00
    0.00000E+00         0.00000E+00        -0.49500E+08
 
   -0.49476E+08         0.31565E+07         0.00000E+00
    0.31565E+07        -0.49923E+08         0.00000E+00
    0.00000E+00         0.00000E+00        -0.49500E+08
 
   -0.49483E+08         0.32167E+07         0.00000E+00
    0.32167E+07        -0.49920E+08         0.00000E+00
    0.00000E+00         0.00000E+00        -0.49500E+08
 
   -0.49490E+08         0.32766E+07         0.00000E+00
    0.32766E+07        -0.49917E+08         0.00000E+00
    0.00000E+00         0.00000E+00        -0.49500E+08
 
   -0.49496E+08         0.33361E+07         0.00000E+00
    0.33361E+07        -0.49913E+08         0.00000E+00
    0.00000E+00         0.00000E+00        -0.49500E+08
 
   -0.48876E+08         0.37617E+05         0.00000E+00
    0.37617E+05        -0.50000E+08         0.00000E+00
    0.00000E+00         0.00000E+00        -0.49201E+08
 
   -0.48881E+08         0.11216E+06         0.00000E+00
    0.11216E+06        -0.50000E+08         0.00000E+00
    0.00000E+00         0.00000E+00        -0.49201E+08
 
   -0.48885E+08         0.18646E+06         0.00000E+00
    0.18646E+06        -0.50000E+08         0.00000E+00
    0.00000E+00         0.00000E+00        -0.49201E+08
 
   -0.48890E+08         0.26050E+06         0.00000E+00
    0.26050E+06        -0.49999E+08         0.00000E+00
    0.00000E+00         0.00000E+00        -0.49201E+08
 
   -0.48894E+08         0.33428E+06         0.00000E+00
    0.33428E+06        -0.49999E+08         0.00000E+00
    0.00000E+00         0.00000E+00        -0.49201E+08
 
   -0.48899E+08         0.40781E+06         0.00000E+00
    0.40781E+06        -0.49999E+08         0.00000E+00
    0.00000E+00         0.00000E+00        -0.49201E+08
 
   -0.48904E+08         0.48108E+06         0.00000E+00
    0.48108E+06        -0.49998E+08         0.00000E+00
    0.00000E+00         0.00000E+00        -0.49201E+08
 
   -0.48909E+08         0.55408E+06         0.00000E+00
    0.55408E+06        -0.49997E+08         0.00000E+00
    0.00000E+00         0.00000E+00        -0.49201E+08
 
   -0.48914E+08         0.62683E+06         0.00000E+00
    0.62683E+06        -0.49997E+08         0.00000E+00
    0.00000E+00         0.00000E+00        -0.49201E+08
 
   -0.48919E+08         0.69931E+06         0.00000E+00
    0.69931E+06        -0.49996E+08         0.00000E+00
    0.00000E+00         0.00000E+00        -0.49201E+08
 
   -0.48924E+08         0.77152E+06         0.00000E+00
    0.77152E+06        -0.49995E+08         0.00000E+00
    0.00000E+00         0.00000E+00        -0.49201E+08
 
   -0.48929E+08         0.84347E+06         0.00000E+00
    0.84347E+06        -0.49994E+08         0.00000E+00
    0.00000E+00         0.00000E+00        -0.49201E+08
 
   -0.48935E+08         0.91515E+06         0.00000E+00
    0.91515E+06        -0.49993E+08         0.00000E+00
    0.00000E+00         0.00000E+00        -0.49202E+08
 
   -0.48940E+08         0.98655E+06         0.00000E+00
    0.98655E+06        -0.49991E+08         0.00000E+00
    0.00000E+00         0.00000E+00        -0.49202E+08
 
   -0.48946E+08         0.10577E+07         0.00000E+00
    0.10577E+07        -0.49990E+08         0.00000E+00
    0.00000E+00         0.00000E+00        -0.49202E+08
 
   -0.48952E+08         0.11285E+07         0.00000E+00
    0.11285E+07        -0.49989E+08         0.00000E+00
    0.00000E+00         0.00000E+00        -0.49202E+08
 
   -0.48958E+08         0.11991E+07         0.00000E+00
    0.11991E+07        -0.49987E+08         0.00000E+00
    0.00000E+00         0.00000E+00        -0.49202E+08
 
   -0.48963E+08         0.12694E+07         0.00000E+00
    0.12694E+07        -0.49986E+08         0.00000E+00
    0.00000E+00         0.00000E+00        -0.49202E+08
 
   -0.48970E+08         0.13394E+07         0.00000E+00
    0.13394E+07        -0.49984E+08         0.00000E+00
    0.00000E+00         0.00000E+00        -0.49202E+08
 
   -0.48976E+08         0.14092E+07         0.00000E+00
    0.14092E+07        -0.49982E+08         0.00000E+00
    0.00000E+00         0.00000E+00        -0.49202E+08
 
   -0.48982E+08         0.14786E+07         0.00000E+00
    0.14786E+07        -0.49981E+08         0.00000E+00
    0.00000E+00         0.00000E+00        -0.49202E+08
 
   -0.48988E+08         0.15478E+07         0.00000E+00
    0.15478E+07        -0.49979E+08         0.00000E+00
    0.00000E+00         0.00000E+00        -0.49202E+08
 
   -0.48995E+08         0.16166E+07         0.00000E+00
    0.16166E+07        -0.49977E+08         0.00000E+00
    0.00000E+00         0.00000E+00        -0.49202E+08
 
   -0.49001E+08         0.16852E+07         0.00000E+00
    0.16852E+07        -0.49975E+08         0.00000E+00
    0.00000E+00         0.00000E+00        -0.49202E+08
 
   -0.49008E+08         0.17535E+07         0.00000E+00
    0.17535E+07        -0.49973E+08         0.00000E+00
    0.00000E+00         0.00000E+00        -0.49202E+08
 
   -0.49014E+08         0.18214E+07         0.00000E+00
    0.18214E+07        -0.49970E+08         0.00000E+00
    0.00000E+00         0.00000E+00        -0.49202E+08
 
   -0.49021E+08         0.18891E+07         0.00000E+00
    0.18891E+07        -0.49968E+08         0.00000E+00
    0.00000E+00         0.00000E+00        -0.49202E+08
 
   -0.49028E+08         0.19565E+07         0.00000E+00
    0.19565E+07        -0.49966E+08         0.00000E+00
    0.00000E+00         0.00000E+00        -0.49202E+08
 
   -0.49035E+08         0.20235E+07         0.00000E+00
    0.20235E+07        -0.49963E+08         0.00000E+00
    0.00000E+00         0.00000E+00        -0.49202E+08
 
   -0.49042E+08         0.20903E+07         0.00000E+00
    0.20903E+07        -0.49960E+08         0.00000E+00
    0.00000E+00         0.00000E+00        -0.49203E+08
 
   -0.49049E+08         0.21567E+07         0.00000E+00
    0.21567E+07        -0.49958E+08         0.00000E+00
    0.00000E+00         0.00000E+00        -0.49203E+08
 
   -0.49056E+08         0.22228E+07         0.00000E+00
    0.22228E+07        -0.49955E+08         0.00000E+00
    0.00000E+00         0.00000E+00        -0.49203E+08
 
   -0.49063E+08         0.22886E+07         0.00000E+00
    0.22886E+07        -0.49952E+08         0.00000E+00
    0.00000E+00         0.00000E+00        -0.49203E+08
 
   -0.49071E+08         0.23541E+07         0.00000E+00
    0.23541E+07        -0.49949E+08         0.00000E+00
    0.00000E+00         0.00000E+00        -0.49203E+08
 
   -0.49078E+08         0.24193E+07         0.00000E+00
    0.24193E+07        -0.49946E+08         0.00000E+00
    0.00000E+00         0.00000E+00        -0.49203E+08
 
   -0.49085E+08         0.24841E+07         0.00000E+00
    0.24841E+07        -0.49943E+08         0.00000E+00
    0.00000E+00         0.00000E+00        -0.49203E+08
 
   -0.49093E+08         0.25486E+07         0.00000E+00
    0.25486E+07        -0.49940E+08         0.00000E+00
    0.00000E+00         0.00000E+00        -0.49203E+08
 
   -0.49101E+08         0.26128E+07         0.00000E+00
    0.26128E+07        -0.49937E+08         0.00000E+00
    0.00000E+00         0.00000E+00        -0.49203E+08
 
   -0.49108E+08         0.26766E+07         0.00000E+00
    0.26766E+07        -0.49933E+08         0.00000E+00
    0.00000E+00         0.00000E+00        -0.49203E+08
 
   -0.49116E+08         0.27401E+07         0.00000E+00
    0.27401E+07        -0.49930E+08         0.00000E+00
    0.00000E+00         0.00000E+00        -0.49203E+08
 
   -0.49124E+08         0.28032E+07         0.00000E+00
    0.28032E+07        -0.49926E+08         0.00000E+00
    0.00000E+00         0.00000E+00        -0.49203E+08
 
   -0.49132E+08         0.28660E+07         0.00000E+00
    0.28660E+07        -0.49923E+08         0.00000E+00
    0.00000E+00         0.00000E+00        -0.49203E+08
 
   -0.49140E+08         0.29284E+07         0.00000E+00
    0.29284E+07        -0.49919E+08         0.00000E+00
    0.00000E+00         0.00000E+00        -0.49203E+08
 
   -0.49148E+08         0.29905E+07         0.00000E+00
    0.29905E+07        -0.49915E+08         0.00000E+00
    0.00000E+00         0.00000E+00        -0.49203E+08
 
   -0.49157E+08         0.30522E+07         0.00000E+00
    0.30522E+07        -0.49911E+08         0.00000E+00
    0.00000E+00         0.00000E+00        -0.49203E+08
 
   -0.49165E+08         0.31136E+07         0.00000E+00
    0.31136E+07        -0.49908E+08         0.00000E+00
    0.00000E+00         0.00000E+00        -0.49203E+08
 
   -0.49173E+08         0.31745E+07         0.00000E+00
    0.31745E+07        -0.49904E+08         0.00000E+00
    0.00000E+00         0.00000E+00        -0.49203E+08
 
   -0.49182E+08         0.32351E+07         0.00000E+00
    0.32351E+07        -0.49899E+08         0.00000E+00
    0.00000E+00         0.00000E+00        -0.49203E+08
 
   -0.49190E+08         0.32954E+07         0.00000E+00
    0.32954E+07        -0.49895E+08         0.00000E+00
    0.00000E+00         0.00000E+00        -0.49203E+08
 
   -0.49199E+08         0.33552E+07         0.00000E+00
    0.33552E+07        -0.49891E+08         0.00000E+00
    0.00000E+00         0.00000E+00        -0.49203E+08
 
   -0.48502E+08         0.37879E+05         0.00000E+00
    0.37879E+05        -0.50000E+08         0.00000E+00
    0.00000E+00         0.00000E+00        -0.48903E+08
 
   -0.48507E+08         0.11294E+06         0.00000E+00
    0.11294E+06        -0.50000E+08         0.00000E+00
    0.00000E+00         0.00000E+00        -0.48903E+08
 
   -0.48513E+08         0.18775E+06         0.00000E+00
    0.18775E+06        -0.50000E+08         0.00000E+00
    0.00000E+00         0.00000E+00        -0.48903E+08
 
   -0.48519E+08         0.26230E+06         0.00000E+00
    0.26230E+06        -0.49999E+08         0.00000E+00
    0.00000E+00         0.00000E+00        -0.48903E+08
 
   -0.48525E+08         0.33659E+06         0.00000E+00
    0.33659E+06        -0.49999E+08         0.00000E+00
    0.00000E+00         0.00000E+00        -0.48903E+08
 
   -0.48531E+08         0.41062E+06         0.00000E+00
    0.41062E+06        -0.49998E+08         0.00000E+00
    0.00000E+00         0.00000E+00        -0.48903E+08
 
   -0.48537E+08         0.48440E+06         0.00000E+00
    0.48440E+06        -0.49998E+08         0.00000E+00
    0.00000E+00         0.00000E+00        -0.48903E+08
 
   -0.48543E+08         0.55790E+06         0.00000E+00
    0.55790E+06        -0.49997E+08         0.00000E+00
    0.00000E+00         0.00000E+00        -0.48904E+08
 
   -0.48549E+08         0.63115E+06         0.00000E+00
    0.63115E+06        -0.49996E+08         0.00000E+00
    0.00000E+00         0.00000E+00        -0.48904E+08
 
   -0.48556E+08         0.70413E+06         0.00000E+00
    0.70413E+06        -0.49995E+08         0.00000E+00
    0.00000E+00         0.00000E+00        -0.48904E+08
 
   -0.48562E+08         0.77684E+06         0.00000E+00
    0.77684E+06        -0.49994E+08         0.00000E+00
    0.00000E+00         0.00000E+00        -0.48904E+08
 
   -0.48569E+08         0.84928E+06         0.00000E+00
    0.84928E+06        -0.49993E+08         0.00000E+00
    0.00000E+00         0.00000E+00        -0.48904E+08
 
   -0.48576E+08         0.92144E+06         0.00000E+00
    0.92144E+06        -0.49991E+08         0.00000E+00
    0.00000E+00         0.00000E+00        -0.48904E+08
 
   -0.48583E+08         0.99334E+06         0.00000E+00
    0.99334E+06        -0.49990E+08         0.00000E+00
    0.00000E+00         0.00000E+00        -0.48904E+08
 
   -0.48590E+08         0.10650E+07         0.00000E+00
    0.10650E+07        -0.49988E+08         0.00000E+00
    0.00000E+00         0.00000E+00        -0.48904E+08
 
   -0.48597E+08         0.11363E+07         0.00000E+00
    0.11363E+07        -0.49987E+08         0.00000E+00
    0.00000E+00         0.00000E+00        -0.48904E+08
 
   -0.48604E+08         0.12074E+07         0.00000E+00
    0.12074E+07        -0.49985E+08         0.00000E+00
    0.00000E+00         0.00000E+00        -0.48904E+08
 
   -0.48612E+08         0.12781E+07         0.00000E+00
    0.12781E+07        -0.49983E+08         0.00000E+00
    0.00000E+00         0.00000E+00        -0.48904E+08
 
   -0.48619E+08         0.13486E+07         0.00000E+00
    0.13486E+07        -0.49981E+08         0.00000E+00
    0.00000E+00         0.00000E+00        -0.48904E+08
 
   -0.48626E+08         0.14189E+07         0.00000E+00
    0.14189E+07        -0.49979E+08         0.00000E+00
    0.00000E+00         0.00000E+00        -0.48904E+08
 
   -0.48634E+08         0.14888E+07         0.00000E+00
    0.14888E+07        -0.49977E+08         0.00000E+00
    0.00000E+00         0.00000E+00        -0.48904E+08
 
   -0.48642E+08         0.15584E+07         0.00000E+00
    0.15584E+07        -0.49975E+08         0.00000E+00
    0.00000E+00         0.00000E+00        -0.48904E+08
 
   -0.48650E+08         0.16278E+07         0.00000E+00
    0.16278E+07        -0.49972E+08         0.00000E+00
    0.00000E+00         0.00000E+00        -0.48904E+08
 
   -0.48658E+08         0.16968E+07         0.00000E+00
    0.16968E+07        -0.49970E+08         0.00000E+00
    0.00000E+00         0.00000E+00        -0.48904E+08
 
   -0.48666E+08         0.17656E+07         0.00000E+00
    0.17656E+07        -0.49967E+08         0.00000E+00
    0.00000E+00         0.00000E+00        -0.48904E+08
 
   -0.48674E+08         0.18340E+07         0.00000E+00
    0.18340E+07        -0.49965E+08         0.00000E+00
    0.00000E+00         0.00000E+00        -0.48904E+08
 
   -0.48682E+08         0.19022E+07         0.00000E+00
    0.19022E+07        -0.49962E+08         0.00000E+00
    0.00000E+00         0.00000E+00        -0.48904E+08
 
   -0.48691E+08         0.19700E+07         0.00000E+00
    0.19700E+07        -0.49959E+08         0.00000E+00
    0.00000E+00         0.00000E+00        -0.48904E+08
 
   -0.48699E+08         0.20375E+07         0.00000E+00
    0.20375E+07        -0.49956E+08         0.00000E+00
    0.00000E+00         0.00000E+00        -0.48904E+08
 
   -0.48708E+08         0.21048E+07         0.00000E+00
    0.21048E+07        -0.49953E+08         0.00000E+00
    0.00000E+00         0.00000E+00        -0.48904E+08
 
   -0.48716E+08         0.21717E+07         0.00000E+00
    0.21717E+07        -0.49950E+08         0.00000E+00
    0.00000E+00         0.00000E+00        -0.48904E+08
 
   -0.48725E+08         0.22383E+07         0.00000E+00
    0.22383E+07        -0.49946E+08         0.00000E+00
    0.00000E+00         0.00000E+00        -0.48904E+08
 
   -0.48734E+08         0.23045E+07         0.00000E+00
    0.23045E+07        -0.49943E+08         0.00000E+00
    0.00000E+00         0.00000E+00        -0.48904E+08
 
   -0.48743E+08         0.23705E+07         0.00000E+00
    0.23705E+07        -0.49939E+08         0.00000E+00
    0.00000E+00         0.00000E+00        -0.48905E+08
 
   -0.48752E+08         0.24361E+07         0.00000E+00
    0.24361E+07        -0.49936E+08         0.00000E+00
    0.00000E+00         0.00000E+00        -0.48905E+08
 
   -0.48761E+08         0.25014E+07         0.00000E+00
    0.25014E+07        -0.49932E+08         0.00000E+00
    0.00000E+00         0.00000E+00        -0.48905E+08
 
   -0.48770E+08         0.25664E+07         0.00000E+00
    0.25664E+07        -0.49928E+08         0.00000E+00
    0.00000E+00         0.00000E+00        -0.48905E+08
 
   -0.48780E+08         0.26310E+07         0.00000E+00
    0.26310E+07        -0.49924E+08         0.00000E+00
    0.00000E+00         0.00000E+00        -0.48905E+08
 
   -0.48789E+08         0.26953E+07         0.00000E+00
    0.26953E+07        -0.49920E+08         0.00000E+00
    0.00000E+00         0.00000E+00        -0.48905E+08
 
   -0.48799E+08         0.27593E+07         0.00000E+00
    0.27593E+07        -0.49916E+08         0.00000E+00
    0.00000E+00         0.00000E+00        -0.48905E+08
 
   -0.48808E+08         0.28229E+07         0.00000E+00
    0.28229E+07        -0.49912E+08         0.00000E+00
    0.00000E+00         0.00000E+00        -0.48905E+08
 
   -0.48818E+08         0.28861E+07         0.00000E+00
    0.28861E+07        -0.49907E+08         0.00000E+00
    0.00000E+00         0.00000E+00        -0.48905E+08
 
   -0.48828E+08         0.29490E+07         0.00000E+00
    0.29490E+07        -0.49903E+08         0.00000E+00
    0.00000E+00         0.00000E+00        -0.48905E+08
 
   -0.48838E+08         0.30116E+07         0.00000E+00
    0.30116E+07        -0.49898E+08         0.00000E+00
    0.00000E+00         0.00000E+00        -0.48905E+08
 
   -0.48848E+08         0.30738E+07         0.00000E+00
    0.30738E+07        -0.49894E+08         0.00000E+00
    0.00000E+00         0.00000E+00        -0.48905E+08
 
   -0.48858E+08         0.31356E+07         0.00000E+00
    0.31356E+07        -0.49889E+08         0.00000E+00
    0.00000E+00         0.00000E+00        -0.48905E+08
 
   -0.48868E+08         0.31970E+07         0.00000E+00
    0.31970E+07        -0.49884E+08         0.00000E+00
    0.00000E+00         0.00000E+00        -0.48905E+08
 
   -0.48879E+08         0.32581E+07         0.00000E+00
    0.32581E+07        -0.49879E+08         0.00000E+00
    0.00000E+00         0.00000E+00        -0.48905E+08
 
   -0.48889E+08         0.33188E+07         0.00000E+00
    0.33188E+07        -0.49874E+08         0.00000E+00
    0.00000E+00         0.00000E+00        -0.48905E+08
 
   -0.48900E+08         0.33791E+07         0.00000E+00
    0.33791E+07        -0.49869E+08         0.00000E+00
    0.00000E+00         0.00000E+00        -0.48905E+08
 
   -0.48124E+08         0.38183E+05         0.00000E+00
    0.38183E+05        -0.50000E+08         0.00000E+00
    0.00000E+00         0.00000E+00        -0.48603E+08
 
   -0.48131E+08         0.11384E+06         0.00000E+00
    0.11384E+06        -0.50000E+08         0.00000E+00
    0.00000E+00         0.00000E+00        -0.48603E+08
 
   -0.48138E+08         0.18925E+06         0.00000E+00
    0.18925E+06        -0.50000E+08         0.00000E+00
    0.00000E+00         0.00000E+00        -0.48603E+08
 
   -0.48145E+08         0.26439E+06         0.00000E+00
    0.26439E+06        -0.49999E+08         0.00000E+00
    0.00000E+00         0.00000E+00        -0.48603E+08
 
   -0.48152E+08         0.33928E+06         0.00000E+00
    0.33928E+06        -0.49999E+08         0.00000E+00
    0.00000E+00         0.00000E+00        -0.48603E+08
 
   -0.48160E+08         0.41390E+06         0.00000E+00
    0.41390E+06        -0.49998E+08         0.00000E+00
    0.00000E+00         0.00000E+00        -0.48603E+08
 
   -0.48167E+08         0.48826E+06         0.00000E+00
    0.48826E+06        -0.49997E+08         0.00000E+00
    0.00000E+00         0.00000E+00        -0.48603E+08
 
   -0.48175E+08         0.56235E+06         0.00000E+00
    0.56235E+06        -0.49996E+08         0.00000E+00
    0.00000E+00         0.00000E+00        -0.48603E+08
 
   -0.48182E+08         0.63618E+06         0.00000E+00
    0.63618E+06        -0.49995E+08         0.00000E+00
    0.00000E+00         0.00000E+00        -0.48603E+08
 
   -0.48190E+08         0.70974E+06         0.00000E+00
    0.70974E+06        -0.49994E+08         0.00000E+00
    0.00000E+00         0.00000E+00        -0.48603E+08
 
   -0.48198E+08         0.78303E+06         0.00000E+00
    0.78303E+06        -0.49993E+08         0.00000E+00
    0.00000E+00         0.00000E+00        -0.48603E+08
 
   -0.48206E+08         0.85605E+06         0.00000E+00
    0.85605E+06        -0.49992E+08         0.00000E+00
    0.00000E+00         0.00000E+00        -0.48603E+08
 
   -0.48214E+08         0.92879E+06         0.00000E+00
    0.92879E+06        -0.49990E+08         0.00000E+00
    0.00000E+00         0.00000E+00        -0.48603E+08
 
   -0.48223E+08         0.10013E+07         0.00000E+00
    0.10013E+07        -0.49988E+08         0.00000E+00
    0.00000E+00         0.00000E+00        -0.48603E+08
 
   -0.48231E+08         0.10735E+07         0.00000E+00
    0.10735E+07        -0.49987E+08         0.00000E+00
    0.00000E+00         0.00000E+00        -0.48603E+08
 
   -0.48240E+08         0.11454E+07         0.00000E+00
    0.11454E+07        -0.49985E+08         0.00000E+00
    0.00000E+00         0.00000E+00        -0.48603E+08
 
   -0.48248E+08         0.12170E+07         0.00000E+00
    0.12170E+07        -0.49983E+08         0.00000E+00
    0.00000E+00         0.00000E+00        -0.48603E+08
 
   -0.48257E+08         0.12884E+07         0.00000E+00
    0.12884E+07        -0.49981E+08         0.00000E+00
    0.00000E+00         0.00000E+00        -0.48603E+08
 
   -0.48266E+08         0.13594E+07         0.00000E+00
    0.13594E+07        -0.49978E+08         0.00000E+00
    0.00000E+00         0.00000E+00        -0.48603E+08
 
   -0.48275E+08         0.14302E+07         0.00000E+00
    0.14302E+07        -0.49976E+08         0.00000E+00
    0.00000E+00         0.00000E+00        -0.48603E+08
 
   -0.48284E+08         0.15007E+07         0.00000E+00
    0.15007E+07        -0.49974E+08         0.00000E+00
    0.00000E+00         0.00000E+00        -0.48603E+08
 
   -0.48293E+08         0.15709E+07         0.00000E+00
    0.15709E+07        -0.49971E+08         0.00000E+00
    0.00000E+00         0.00000E+00        -0.48603E+08
 
   -0.48302E+08         0.16408E+07         0.00000E+00
    0.16408E+07        -0.49968E+08         0.00000E+00
    0.00000E+00         0.00000E+00        -0.48603E+08
 
   -0.48312E+08         0.17105E+07         0.00000E+00
    0.17105E+07        -0.49965E+08         0.00000E+00
    0.00000E+00         0.00000E+00        -0.48603E+08
 
   -0.48321E+08         0.17798E+07         0.00000E+00
    0.17798E+07        -0.49962E+08         0.00000E+00
    0.00000E+00         0.00000E+00        -0.48603E+08
 
   -0.48331E+08         0.18488E+07         0.00000E+00
    0.18488E+07        -0.49959E+08         0.00000E+00
    0.00000E+00         0.00000E+00        -0.48603E+08
 
   -0.48341E+08         0.19175E+07         0.00000E+00
    0.19175E+07        -0.49956E+08         0.00000E+00
    0.00000E+00         0.00000E+00        -0.48603E+08
 
   -0.48351E+08         0.19859E+07         0.00000E+00
    0.19859E+07        -0.49953E+08         0.00000E+00
    0.00000E+00         0.00000E+00        -0.48603E+08
 
   -0.48361E+08         0.20540E+07         0.00000E+00
    0.20540E+07        -0.49949E+08         0.00000E+00
    0.00000E+00         0.00000E+00        -0.48603E+08
 
   -0.48371E+08         0.21218E+07         0.00000E+00
    0.21218E+07        -0.49945E+08         0.00000E+00
    0.00000E+00         0.00000E+00        -0.48604E+08
 
   -0.48381E+08         0.21893E+07         0.00000E+00
    0.21893E+07        -0.49942E+08         0.00000E+00
    0.00000E+00         0.00000E+00        -0.48604E+08
 
   -0.48391E+08         0.22565E+07         0.00000E+00
    0.22565E+07        -0.49938E+08         0.00000E+00
    0.00000E+00         0.00000E+00        -0.48604E+08
 
   -0.48402E+08         0.23233E+07         0.00000E+00
    0.23233E+07        -0.49934E+08         0.00000E+00
    0.00000E+00         0.00000E+00        -0.48604E+08
 
   -0.48412E+08         0.23899E+07         0.00000E+00
    0.23899E+07        -0.49930E+08         0.00000E+00
    0.00000E+00         0.00000E+00        -0.48604E+08
 
   -0.48423E+08         0.24561E+07         0.00000E+00
    0.24561E+07        -0.49926E+08         0.00000E+00
    0.00000E+00         0.00000E+00        -0.48604E+08
 
   -0.48434E+08         0.25220E+07         0.00000E+00
    0.25220E+07        -0.49921E+08         0.00000E+00
    0.00000E+00         0.00000E+00        -0.48604E+08
 
   -0.48445E+08         0.25875E+07         0.00000E+00
    0.25875E+07        -0.49917E+08         0.00000E+00
    0.00000E+00         0.00000E+00        -0.48604E+08
 
   -0.48456E+08         0.26527E+07         0.00000E+00
    0.26527E+07        -0.49912E+08         0.00000E+00
    0.00000E+00         0.00000E+00        -0.48604E+08
 
   -0.48467E+08         0.27176E+07         0.00000E+00
    0.27176E+07        -0.49907E+08         0.00000E+00
    0.00000E+00         0.00000E+00        -0.48604E+08
 
   -0.48478E+08         0.27821E+07         0.00000E+00
    0.27821E+07        -0.49902E+08         0.00000E+00
    0.00000E+00         0.00000E+00        -0.48604E+08
 
   -0.48490E+08         0.28463E+07         0.00000E+00
    0.28463E+07        -0.49897E+08         0.00000E+00
    0.00000E+00         0.00000E+00        -0.48604E+08
 
   -0.48501E+08         0.29101E+07         0.00000E+00
    0.29101E+07        -0.49892E+08         0.00000E+00
    0.00000E+00         0.00000E+00        -0.48604E+08
 
   -0.48513E+08         0.29736E+07         0.00000E+00
    0.29736E+07        -0.49887E+08         0.00000E+00
    0.00000E+00         0.00000E+00        -0.48604E+08
 
   -0.48525E+08         0.30368E+07         0.00000E+00
    0.30368E+07        -0.49882E+08         0.00000E+00
    0.00000E+00         0.00000E+00        -0.48604E+08
 
   -0.48536E+08         0.30995E+07         0.00000E+00
    0.30995E+07        -0.49876E+08         0.00000E+00
    0.00000E+00         0.00000E+00        -0.48604E+08
 
   -0.48548E+08         0.31619E+07         0.00000E+00
    0.31619E+07        -0.49871E+08         0.00000E+00
    0.00000E+00         0.00000E+00        -0.48604E+08
 
   -0.48560E+08         0.32240E+07         0.00000E+00
    0.32240E+07        -0.49865E+08         0.00000E+00
    0.00000E+00         0.00000E+00        -0.48604E+08
 
   -0.48573E+08         0.32857E+07         0.00000E+00
    0.32857E+07        -0.49859E+08         0.00000E+00
    0.00000E+00         0.00000E+00        -0.48604E+08
 
   -0.48585E+08         0.33470E+07         0.00000E+00
    0.33470E+07        -0.49853E+08         0.00000E+00
    0.00000E+00         0.00000E+00        -0.48604E+08
 
   -0.48597E+08         0.34079E+07         0.00000E+00
    0.34079E+07        -0.49847E+08         0.00000E+00
    0.00000E+00         0.00000E+00        -0.48604E+08
 
   -0.47744E+08         0.38526E+05         0.00000E+00
    0.38526E+05        -0.50000E+08         0.00000E+00
    0.00000E+00         0.00000E+00        -0.48299E+08
 
   -0.47752E+08         0.11487E+06         0.00000E+00
    0.11487E+06        -0.50000E+08         0.00000E+00
    0.00000E+00         0.00000E+00        -0.48299E+08
 
   -0.47760E+08         0.19095E+06         0.00000E+00
    0.19095E+06        -0.50000E+08         0.00000E+00
    0.00000E+00         0.00000E+00        -0.48299E+08
 
   -0.47768E+08         0.26677E+06         0.00000E+00
    0.26677E+06        -0.49999E+08         0.00000E+00
    0.00000E+00         0.00000E+00        -0.48299E+08
 
   -0.47777E+08         0.34233E+06         0.00000E+00
    0.34233E+06        -0.49999E+08         0.00000E+00
    0.00000E+00         0.00000E+00        -0.48299E+08
 
   -0.47786E+08         0.41762E+06         0.00000E+00
    0.41762E+06        -0.49998E+08         0.00000E+00
    0.00000E+00         0.00000E+00        -0.48299E+08
 
   -0.47794E+08         0.49265E+06         0.00000E+00
    0.49265E+06        -0.49997E+08         0.00000E+00
    0.00000E+00         0.00000E+00        -0.48299E+08
 
   -0.47803E+08         0.56741E+06         0.00000E+00
    0.56741E+06        -0.49996E+08         0.00000E+00
    0.00000E+00         0.00000E+00        -0.48299E+08
 
   -0.47812E+08         0.64191E+06         0.00000E+00
    0.64191E+06        -0.49995E+08         0.00000E+00
    0.00000E+00         0.00000E+00        -0.48299E+08
 
   -0.47821E+08         0.71613E+06         0.00000E+00
    0.71613E+06        -0.49994E+08         0.00000E+00
    0.00000E+00         0.00000E+00        -0.48299E+08
 
   -0.47831E+08         0.79009E+06         0.00000E+00
    0.79009E+06        -0.49992E+08         0.00000E+00
    0.00000E+00         0.00000E+00        -0.48299E+08
 
   -0.47840E+08         0.86377E+06         0.00000E+00
    0.86377E+06        -0.49991E+08         0.00000E+00
    0.00000E+00         0.00000E+00        -0.48299E+08
 
   -0.47850E+08         0.93718E+06         0.00000E+00
    0.93718E+06        -0.49989E+08         0.00000E+00
    0.00000E+00         0.00000E+00        -0.48299E+08
 
   -0.47859E+08         0.10103E+07         0.00000E+00
    0.10103E+07        -0.49987E+08         0.00000E+00
    0.00000E+00         0.00000E+00        -0.48299E+08
 
   -0.47869E+08         0.10832E+07         0.00000E+00
    0.10832E+07        -0.49985E+08         0.00000E+00
    0.00000E+00         0.00000E+00        -0.48299E+08
 
   -0.47879E+08         0.11557E+07         0.00000E+00
    0.11557E+07        -0.49983E+08         0.00000E+00
    0.00000E+00         0.00000E+00        -0.48299E+08
 
   -0.47889E+08         0.12280E+07         0.00000E+00
    0.12280E+07        -0.49981E+08         0.00000E+00
    0.00000E+00         0.00000E+00        -0.48299E+08
 
   -0.47899E+08         0.13001E+07         0.00000E+00
    0.13001E+07        -0.49978E+08         0.00000E+00
    0.00000E+00         0.00000E+00        -0.48299E+08
 
   -0.47909E+08         0.13718E+07         0.00000E+00
    0.13718E+07        -0.49976E+08         0.00000E+00
    0.00000E+00         0.00000E+00        -0.48299E+08
 
   -0.47920E+08         0.14432E+07         0.00000E+00
    0.14432E+07        -0.49973E+08         0.00000E+00
    0.00000E+00         0.00000E+00        -0.48299E+08
 
   -0.47930E+08         0.15144E+07         0.00000E+00
    0.15144E+07        -0.49970E+08         0.00000E+00
    0.00000E+00         0.00000E+00        -0.48299E+08
 
   -0.47941E+08         0.15853E+07         0.00000E+00
    0.15853E+07        -0.49967E+08         0.00000E+00
    0.00000E+00         0.00000E+00        -0.48299E+08
 
   -0.47952E+08         0.16558E+07         0.00000E+00
    0.16558E+07        -0.49964E+08         0.00000E+00
    0.00000E+00         0.00000E+00        -0.48299E+08
 
   -0.47963E+08         0.17261E+07         0.00000E+00
    0.17261E+07        -0.49961E+08         0.00000E+00
    0.00000E+00         0.00000E+00        -0.48299E+08
 
   -0.47974E+08         0.17961E+07         0.00000E+00
    0.17961E+07        -0.49957E+08         0.00000E+00
    0.00000E+00         0.00000E+00        -0.48299E+08
 
   -0.47985E+08         0.18658E+07         0.00000E+00
    0.18658E+07        -0.49954E+08         0.00000E+00
    0.00000E+00         0.00000E+00        -0.48299E+08
 
   -0.47996E+08         0.19352E+07         0.00000E+00
    0.19352E+07        -0.49950E+08         0.00000E+00
    0.00000E+00         0.00000E+00        -0.48299E+08
 
   -0.48008E+08         0.20043E+07         0.00000E+00
    0.20043E+07        -0.49946E+08         0.00000E+00
    0.00000E+00         0.00000E+00        -0.48299E+08
 
   -0.48019E+08         0.20730E+07         0.00000E+00
    0.20730E+07        -0.49942E+08         0.00000E+00
    0.00000E+00         0.00000E+00        -0.48299E+08
 
   -0.48031E+08         0.21415E+07         0.00000E+00
    0.21415E+07        -0.49938E+08         0.00000E+00
    0.00000E+00         0.00000E+00        -0.48299E+08
 
   -0.48043E+08         0.22097E+07         0.00000E+00
    0.22097E+07        -0.49934E+08         0.00000E+00
    0.00000E+00         0.00000E+00        -0.48299E+08
 
   -0.48055E+08         0.22775E+07         0.00000E+00
    0.22775E+07        -0.49929E+08         0.00000E+00
    0.00000E+00         0.00000E+00        -0.48299E+08
 
   -0.48067E+08         0.23450E+07         0.00000E+00
    0.23450E+07        -0.49925E+08         0.00000E+00
    0.00000E+00         0.00000E+00        -0.48299E+08
 
   -0.48079E+08         0.24122E+07         0.00000E+00
    0.24122E+07        -0.49920E+08         0.00000E+00
    0.00000E+00         0.00000E+00        -0.48299E+08
 
   -0.48091E+08         0.24791E+07         0.00000E+00
    0.24791E+07        -0.49915E+08         0.00000E+00
    0.00000E+00         0.00000E+00        -0.48299E+08
 
   -0.48104E+08         0.25457E+07         0.00000E+00
    0.25457E+07        -0.49910E+08         0.00000E+00
    0.00000E+00         0.00000E+00        -0.48299E+08
 
   -0.48116E+08         0.26119E+07         0.00000E+00
    0.26119E+07        -0.49905E+08         0.00000E+00
    0.00000E+00         0.00000E+00        -0.48299E+08
 
   -0.48129E+08         0.26778E+07         0.00000E+00
    0.26778E+07        -0.49900E+08         0.00000E+00
    0.00000E+00         0.00000E+00        -0.48299E+08
 
   -0.48142E+08         0.27434E+07         0.00000E+00
    0.27434E+07        -0.49895E+08         0.00000E+00
    0.00000E+00         0.00000E+00        -0.48299E+08
 
   -0.48155E+08         0.28086E+07         0.00000E+00
    0.28086E+07        -0.49889E+08         0.00000E+00
    0.00000E+00         0.00000E+00        -0.48299E+08
 
   -0.48168E+08         0.28735E+07         0.00000E+00
    0.28735E+07        -0.49883E+08         0.00000E+00
    0.00000E+00         0.00000E+00        -0.48299E+08
 
   -0.48181E+08         0.29380E+07         0.00000E+00
    0.29380E+07        -0.49877E+08         0.00000E+00
    0.00000E+00         0.00000E+00        -0.48299E+08
 
   -0.48194E+08         0.30022E+07         0.00000E+00
    0.30022E+07        -0.49871E+08         0.00000E+00
    0.00000E+00         0.00000E+00        -0.48299E+08
 
   -0.48208E+08         0.30660E+07         0.00000E+00
    0.30660E+07        -0.49865E+08         0.00000E+00
    0.00000E+00         0.00000E+00        -0.48299E+08
 
   -0.48222E+08         0.31295E+07         0.00000E+00
    0.31295E+07        -0.49859E+08         0.00000E+00
    0.00000E+00         0.00000E+00        -0.48299E+08
 
   -0.48235E+08         0.31926E+07         0.00000E+00
    0.31926E+07        -0.49852E+08         0.00000E+00
    0.00000E+00         0.00000E+00        -0.48299E+08
 
   -0.48249E+08         0.32553E+07         0.00000E+00
    0.32553E+07        -0.49846E+08         0.00000E+00
    0.00000E+00         0.00000E+00        -0.48299E+08
 
   -0.48263E+08         0.33177E+07         0.00000E+00
    0.33177E+07        -0.49839E+08         0.00000E+00
    0.00000E+00         0.00000E+00        -0.48299E+08
 
   -0.48278E+08         0.33797E+07         0.00000E+00
    0.33797E+07        -0.49832E+08         0.00000E+00
    0.00000E+00         0.00000E+00        -0.48299E+08
 
   -0.48292E+08         0.34414E+07         0.00000E+00
    0.34414E+07        -0.49825E+08         0.00000E+00
    0.00000E+00         0.00000E+00        -0.48299E+08
 
   -0.47360E+08         0.38910E+05         0.00000E+00
    0.38910E+05        -0.50000E+08         0.00000E+00
    0.00000E+00         0.00000E+00        -0.47992E+08
 
   -0.47369E+08         0.11601E+06         0.00000E+00
    0.11601E+06        -0.50000E+08         0.00000E+00
    0.00000E+00         0.00000E+00        -0.47992E+08
 
   -0.47378E+08         0.19285E+06         0.00000E+00
    0.19285E+06        -0.49999E+08         0.00000E+00
    0.00000E+00         0.00000E+00        -0.47992E+08
 
   -0.47388E+08         0.26943E+06         0.00000E+00
    0.26943E+06        -0.49999E+08         0.00000E+00
    0.00000E+00         0.00000E+00        -0.47992E+08
 
   -0.47398E+08         0.34574E+06         0.00000E+00
    0.34574E+06        -0.49998E+08         0.00000E+00
    0.00000E+00         0.00000E+00        -0.47992E+08
 
   -0.47408E+08         0.42179E+06         0.00000E+00
    0.42179E+06        -0.49998E+08         0.00000E+00
    0.00000E+00         0.00000E+00        -0.47992E+08
 
   -0.47418E+08         0.49757E+06         0.00000E+00
    0.49757E+06        -0.49997E+08         0.00000E+00
    0.00000E+00         0.00000E+00        -0.47992E+08
 
   -0.47428E+08         0.57308E+06         0.00000E+00
    0.57308E+06        -0.49996E+08         0.00000E+00
    0.00000E+00         0.00000E+00        -0.47992E+08
 
   -0.47439E+08         0.64832E+06         0.00000E+00
    0.64832E+06        -0.49994E+08         0.00000E+00
    0.00000E+00         0.00000E+00        -0.47992E+08
 
   -0.47449E+08         0.72330E+06         0.00000E+00
    0.72330E+06        -0.49993E+08         0.00000E+00
    0.00000E+00         0.00000E+00        -0.47992E+08
 
   -0.47460E+08         0.79800E+06         0.00000E+00
    0.79800E+06        -0.49991E+08         0.00000E+00
    0.00000E+00         0.00000E+00        -0.47992E+08
 
   -0.47471E+08         0.87243E+06         0.00000E+00
    0.87243E+06        -0.49989E+08         0.00000E+00
    0.00000E+00         0.00000E+00        -0.47992E+08
 
   -0.47481E+08         0.94658E+06         0.00000E+00
    0.94658E+06        -0.49988E+08         0.00000E+00
    0.00000E+00         0.00000E+00        -0.47992E+08
 
   -0.47492E+08         0.10205E+07         0.00000E+00
    0.10205E+07        -0.49986E+08         0.00000E+00
    0.00000E+00         0.00000E+00        -0.47992E+08
 
   -0.47504E+08         0.10941E+07         0.00000E+00
    0.10941E+07        -0.49983E+08         0.00000E+00
    0.00000E+00         0.00000E+00        -0.47992E+08
 
   -0.47515E+08         0.11674E+07         0.00000E+00
    0.11674E+07        -0.49981E+08         0.00000E+00
    0.00000E+00         0.00000E+00        -0.47992E+08
 
   -0.47526E+08         0.12404E+07         0.00000E+00
    0.12404E+07        -0.49978E+08         0.00000E+00
    0.00000E+00         0.00000E+00        -0.47992E+08
 
   -0.47538E+08         0.13132E+07         0.00000E+00
    0.13132E+07        -0.49976E+08         0.00000E+00
    0.00000E+00         0.00000E+00        -0.47992E+08
 
   -0.47550E+08         0.13857E+07         0.00000E+00
    0.13857E+07        -0.49973E+08         0.00000E+00
    0.00000E+00         0.00000E+00        -0.47992E+08
 
   -0.47562E+08         0.14579E+07         0.00000E+00
    0.14579E+07        -0.49970E+08         0.00000E+00
    0.00000E+00         0.00000E+00        -0.47992E+08
 
   -0.47573E+08         0.15298E+07         0.00000E+00
    0.15298E+07        -0.49967E+08         0.00000E+00
    0.00000E+00         0.00000E+00        -0.47992E+08
 
   -0.47586E+08         0.16014E+07         0.00000E+00
    0.16014E+07        -0.49963E+08         0.00000E+00
    0.00000E+00         0.00000E+00        -0.47992E+08
 
   -0.47598E+08         0.16727E+07         0.00000E+00
    0.16727E+07        -0.49960E+08         0.00000E+00
    0.00000E+00         0.00000E+00        -0.47992E+08
 
   -0.47610E+08         0.17438E+07         0.00000E+00
    0.17438E+07        -0.49956E+08         0.00000E+00
    0.00000E+00         0.00000E+00        -0.47992E+08
 
   -0.47623E+08         0.18145E+07         0.00000E+00
    0.18145E+07        -0.49952E+08         0.00000E+00
    0.00000E+00         0.00000E+00        -0.47992E+08
 
   -0.47635E+08         0.18850E+07         0.00000E+00
    0.18850E+07        -0.49948E+08         0.00000E+00
    0.00000E+00         0.00000E+00        -0.47992E+08
 
   -0.47648E+08         0.19551E+07         0.00000E+00
    0.19551E+07        -0.49944E+08         0.00000E+00
    0.00000E+00         0.00000E+00        -0.47991E+08
 
   -0.47661E+08         0.20250E+07         0.00000E+00
    0.20250E+07        -0.49940E+08         0.00000E+00
    0.00000E+00         0.00000E+00        -0.47991E+08
 
   -0.47674E+08         0.20945E+07         0.00000E+00
    0.20945E+07        -0.49936E+08         0.00000E+00
    0.00000E+00         0.00000E+00        -0.47991E+08
 
   -0.47687E+08         0.21637E+07         0.00000E+00
    0.21637E+07        -0.49931E+08         0.00000E+00
    0.00000E+00         0.00000E+00        -0.47991E+08
 
   -0.47701E+08         0.22327E+07         0.00000E+00
    0.22327E+07        -0.49926E+08         0.00000E+00
    0.00000E+00         0.00000E+00        -0.47991E+08
 
   -0.47714E+08         0.23013E+07         0.00000E+00
    0.23013E+07        -0.49921E+08         0.00000E+00
    0.00000E+00         0.00000E+00        -0.47991E+08
 
   -0.47728E+08         0.23696E+07         0.00000E+00
    0.23696E+07        -0.49916E+08         0.00000E+00
    0.00000E+00         0.00000E+00        -0.47991E+08
 
   -0.47742E+08         0.24376E+07         0.00000E+00
    0.24376E+07        -0.49911E+08         0.00000E+00
    0.00000E+00         0.00000E+00        -0.47991E+08
 
   -0.47756E+08         0.25052E+07         0.00000E+00
    0.25052E+07        -0.49905E+08         0.00000E+00
    0.00000E+00         0.00000E+00        -0.47991E+08
 
   -0.47770E+08         0.25726E+07         0.00000E+00
    0.25726E+07        -0.49900E+08         0.00000E+00
    0.00000E+00         0.00000E+00        -0.47991E+08
 
   -0.47784E+08         0.26396E+07         0.00000E+00
    0.26396E+07        -0.49894E+08         0.00000E+00
    0.00000E+00         0.00000E+00        -0.47991E+08
 
   -0.47798E+08         0.27063E+07         0.00000E+00
    0.27063E+07        -0.49888E+08         0.00000E+00
    0.00000E+00         0.00000E+00        -0.47991E+08
 
   -0.47813E+08         0.27726E+07         0.00000E+00
    0.27726E+07        -0.49882E+08         0.00000E+00
    0.00000E+00         0.00000E+00        -0.47991E+08
 
   -0.47828E+08         0.28386E+07         0.00000E+00
    0.28386E+07        -0.49876E+08         0.00000E+00
    0.00000E+00         0.00000E+00        -0.47991E+08
 
   -0.47842E+08         0.29043E+07         0.00000E+00
    0.29043E+07        -0.49869E+08         0.00000E+00
    0.00000E+00         0.00000E+00        -0.47991E+08
 
   -0.47857E+08         0.29697E+07         0.00000E+00
    0.29697E+07        -0.49863E+08         0.00000E+00
    0.00000E+00         0.00000E+00        -0.47991E+08
 
   -0.47872E+08         0.30347E+07         0.00000E+00
    0.30347E+07        -0.49856E+08         0.00000E+00
    0.00000E+00         0.00000E+00        -0.47991E+08
 
   -0.47888E+08         0.30993E+07         0.00000E+00
    0.30993E+07        -0.49849E+08         0.00000E+00
    0.00000E+00         0.00000E+00        -0.47991E+08
 
   -0.47903E+08         0.31636E+07         0.00000E+00
    0.31636E+07        -0.49842E+08         0.00000E+00
    0.00000E+00         0.00000E+00        -0.47991E+08
 
   -0.47919E+08         0.32275E+07         0.00000E+00
    0.32275E+07        -0.49834E+08         0.00000E+00
    0.00000E+00         0.00000E+00        -0.47991E+08
 
   -0.47935E+08         0.32911E+07         0.00000E+00
    0.32911E+07        -0.49827E+08         0.00000E+00
    0.00000E+00         0.00000E+00        -0.47991E+08
 
   -0.47950E+08         0.33543E+07         0.00000E+00
    0.33543E+07        -0.49819E+08         0.00000E+00
    0.00000E+00         0.00000E+00        -0.47991E+08
 
   -0.47967E+08         0.34171E+07         0.00000E+00
    0.34171E+07        -0.49811E+08         0.00000E+00
    0.00000E+00         0.00000E+00        -0.47991E+08
 
   -0.47983E+08         0.34796E+07         0.00000E+00
    0.34796E+07        -0.49803E+08         0.00000E+00
    0.00000E+00         0.00000E+00        -0.47991E+08
 
   -0.46971E+08         0.39332E+05         0.00000E+00
    0.39332E+05        -0.50000E+08         0.00000E+00
    0.00000E+00         0.00000E+00        -0.47680E+08
 
   -0.46982E+08         0.11727E+06         0.00000E+00
    0.11727E+06        -0.50000E+08         0.00000E+00
    0.00000E+00         0.00000E+00        -0.47680E+08
 
   -0.46993E+08         0.19495E+06         0.00000E+00
    0.19495E+06        -0.49999E+08         0.00000E+00
    0.00000E+00         0.00000E+00        -0.47680E+08
 
   -0.47004E+08         0.27236E+06         0.00000E+00
    0.27236E+06        -0.49999E+08         0.00000E+00
    0.00000E+00         0.00000E+00        -0.47680E+08
 
   -0.47015E+08         0.34950E+06         0.00000E+00
    0.34950E+06        -0.49998E+08         0.00000E+00
    0.00000E+00         0.00000E+00        -0.47680E+08
 
   -0.47026E+08         0.42638E+06         0.00000E+00
    0.42638E+06        -0.49997E+08         0.00000E+00
    0.00000E+00         0.00000E+00        -0.47680E+08
 
   -0.47038E+08         0.50299E+06         0.00000E+00
    0.50299E+06        -0.49996E+08         0.00000E+00
    0.00000E+00         0.00000E+00        -0.47680E+08
 
   -0.47049E+08         0.57934E+06         0.00000E+00
    0.57934E+06        -0.49995E+08         0.00000E+00
    0.00000E+00         0.00000E+00        -0.47680E+08
 
   -0.47061E+08         0.65541E+06         0.00000E+00
    0.65541E+06        -0.49994E+08         0.00000E+00
    0.00000E+00         0.00000E+00        -0.47680E+08
 
   -0.47073E+08         0.73121E+06         0.00000E+00
    0.73121E+06        -0.49992E+08         0.00000E+00
    0.00000E+00         0.00000E+00        -0.47680E+08
 
   -0.47085E+08         0.80674E+06         0.00000E+00
    0.80674E+06        -0.49990E+08         0.00000E+00
    0.00000E+00         0.00000E+00        -0.47680E+08
 
   -0.47097E+08         0.88200E+06         0.00000E+00
    0.88200E+06        -0.49988E+08         0.00000E+00
    0.00000E+00         0.00000E+00        -0.47680E+08
 
   -0.47109E+08         0.95699E+06         0.00000E+00
    0.95699E+06        -0.49986E+08         0.00000E+00
    0.00000E+00         0.00000E+00        -0.47680E+08
 
   -0.47122E+08         0.10317E+07         0.00000E+00
    0.10317E+07        -0.49984E+08         0.00000E+00
    0.00000E+00         0.00000E+00        -0.47680E+08
 
   -0.47134E+08         0.11061E+07         0.00000E+00
    0.11061E+07        -0.49982E+08         0.00000E+00
    0.00000E+00         0.00000E+00        -0.47680E+08
 
   -0.47147E+08         0.11803E+07         0.00000E+00
    0.11803E+07        -0.49979E+08         0.00000E+00
    0.00000E+00         0.00000E+00        -0.47680E+08
 
   -0.47160E+08         0.12542E+07         0.00000E+00
    0.12542E+07        -0.49976E+08         0.00000E+00
    0.00000E+00         0.00000E+00        -0.47680E+08
 
   -0.47173E+08         0.13278E+07         0.00000E+00
    0.13278E+07        -0.49973E+08         0.00000E+00
    0.00000E+00         0.00000E+00        -0.47680E+08
 
   -0.47186E+08         0.14011E+07         0.00000E+00
    0.14011E+07        -0.49970E+08         0.00000E+00
    0.00000E+00         0.00000E+00        -0.47680E+08
 
   -0.47199E+08         0.14741E+07         0.00000E+00
    0.14741E+07        -0.49967E+08         0.00000E+00
    0.00000E+00         0.00000E+00        -0.47679E+08
 
   -0.47213E+08         0.15469E+07         0.00000E+00
    0.15469E+07        -0.49963E+08         0.00000E+00
    0.00000E+00         0.00000E+00        -0.47679E+08
 
   -0.47226E+08         0.16193E+07         0.00000E+00
    0.16193E+07        -0.49960E+08         0.00000E+00
    0.00000E+00         0.00000E+00        -0.47679E+08
 
   -0.47240E+08         0.16915E+07         0.00000E+00
    0.16915E+07        -0.49956E+08         0.00000E+00
    0.00000E+00         0.00000E+00        -0.47679E+08
 
   -0.47254E+08         0.17634E+07         0.00000E+00
    0.17634E+07        -0.49952E+08         0.00000E+00
    0.00000E+00         0.00000E+00        -0.47679E+08
 
   -0.47268E+08         0.18350E+07         0.00000E+00
    0.18350E+07        -0.49948E+08         0.00000E+00
    0.00000E+00         0.00000E+00        -0.47679E+08
 
   -0.47282E+08         0.19063E+07         0.00000E+00
    0.19063E+07        -0.49943E+08         0.00000E+00
    0.00000E+00         0.00000E+00        -0.47679E+08
 
   -0.47296E+08         0.19773E+07         0.00000E+00
    0.19773E+07        -0.49939E+08         0.00000E+00
    0.00000E+00         0.00000E+00        -0.47679E+08
 
   -0.47311E+08         0.20480E+07         0.00000E+00
    0.20480E+07        -0.49934E+08         0.00000E+00
    0.00000E+00         0.00000E+00        -0.47679E+08
 
   -0.47325E+08         0.21184E+07         0.00000E+00
    0.21184E+07        -0.49929E+08         0.00000E+00
    0.00000E+00         0.00000E+00        -0.47679E+08
 
   -0.47340E+08         0.21885E+07         0.00000E+00
    0.21885E+07        -0.49924E+08         0.00000E+00
    0.00000E+00         0.00000E+00        -0.47679E+08
 
   -0.47355E+08         0.22583E+07         0.00000E+00
    0.22583E+07        -0.49919E+08         0.00000E+00
    0.00000E+00         0.00000E+00        -0.47679E+08
 
   -0.47370E+08         0.23278E+07         0.00000E+00
    0.23278E+07        -0.49913E+08         0.00000E+00
    0.00000E+00         0.00000E+00        -0.47679E+08
 
   -0.47385E+08         0.23969E+07         0.00000E+00
    0.23969E+07        -0.49907E+08         0.00000E+00
    0.00000E+00         0.00000E+00        -0.47679E+08
 
   -0.47400E+08         0.24658E+07         0.00000E+00
    0.24658E+07        -0.49902E+08         0.00000E+00
    0.00000E+00         0.00000E+00        -0.47679E+08
 
   -0.47416E+08         0.25343E+07         0.00000E+00
    0.25343E+07        -0.49896E+08         0.00000E+00
    0.00000E+00         0.00000E+00        -0.47679E+08
 
   -0.47432E+08         0.26026E+07         0.00000E+00
    0.26026E+07        -0.49889E+08         0.00000E+00
    0.00000E+00         0.00000E+00        -0.47679E+08
 
   -0.47447E+08         0.26705E+07         0.00000E+00
    0.26705E+07        -0.49883E+08         0.00000E+00
    0.00000E+00         0.00000E+00        -0.47679E+08
 
   -0.47463E+08         0.27381E+07         0.00000E+00
    0.27381E+07        -0.49876E+08         0.00000E+00
    0.00000E+00         0.00000E+00        -0.47679E+08
 
   -0.47480E+08         0.28053E+07         0.00000E+00
    0.28053E+07        -0.49870E+08         0.00000E+00
    0.00000E+00         0.00000E+00        -0.47678E+08
 
   -0.47496E+08         0.28722E+07         0.00000E+00
    0.28722E+07        -0.49863E+08         0.00000E+00
    0.00000E+00         0.00000E+00        -0.47678E+08
 
   -0.47513E+08         0.29388E+07         0.00000E+00
    0.29388E+07        -0.49855E+08         0.00000E+00
    0.00000E+00         0.00000E+00        -0.47678E+08
 
   -0.47529E+08         0.30051E+07         0.00000E+00
    0.30051E+07        -0.49848E+08         0.00000E+00
    0.00000E+00         0.00000E+00        -0.47678E+08
 
   -0.47546E+08         0.30710E+07         0.00000E+00
    0.30710E+07        -0.49841E+08         0.00000E+00
    0.00000E+00         0.00000E+00        -0.47678E+08
 
   -0.47563E+08         0.31366E+07         0.00000E+00
    0.31366E+07        -0.49833E+08         0.00000E+00
    0.00000E+00         0.00000E+00        -0.47678E+08
 
   -0.47580E+08         0.32018E+07         0.00000E+00
    0.32018E+07        -0.49825E+08         0.00000E+00
    0.00000E+00         0.00000E+00        -0.47678E+08
 
   -0.47598E+08         0.32667E+07         0.00000E+00
    0.32667E+07        -0.49817E+08         0.00000E+00
    0.00000E+00         0.00000E+00        -0.47678E+08
 
   -0.47615E+08         0.33312E+07         0.00000E+00
    0.33312E+07        -0.49808E+08         0.00000E+00
    0.00000E+00         0.00000E+00        -0.47678E+08
 
   -0.47633E+08         0.33953E+07         0.00000E+00
    0.33953E+07        -0.49800E+08         0.00000E+00
    0.00000E+00         0.00000E+00        -0.47678E+08
 
   -0.47651E+08         0.34591E+07         0.00000E+00
    0.34591E+07        -0.49791E+08         0.00000E+00
    0.00000E+00         0.00000E+00        -0.47678E+08
 
   -0.47669E+08         0.35225E+07         0.00000E+00
    0.35225E+07        -0.49782E+08         0.00000E+00
    0.00000E+00         0.00000E+00        -0.47678E+08
 
   -0.46579E+08         0.39792E+05         0.00000E+00
    0.39792E+05        -0.50000E+08         0.00000E+00
    0.00000E+00         0.00000E+00        -0.47363E+08
 
   -0.46591E+08         0.11865E+06         0.00000E+00
    0.11865E+06        -0.50000E+08         0.00000E+00
    0.00000E+00         0.00000E+00        -0.47363E+08
 
   -0.46603E+08         0.19723E+06         0.00000E+00
    0.19723E+06        -0.49999E+08         0.00000E+00
    0.00000E+00         0.00000E+00        -0.47363E+08
 
   -0.46615E+08         0.27556E+06         0.00000E+00
    0.27556E+06        -0.49999E+08         0.00000E+00
    0.00000E+00         0.00000E+00        -0.47363E+08
 
   -0.46628E+08         0.35361E+06         0.00000E+00
    0.35361E+06        -0.49998E+08         0.00000E+00
    0.00000E+00         0.00000E+00        -0.47363E+08
 
   -0.46640E+08         0.43140E+06         0.00000E+00
    0.43140E+06        -0.49997E+08         0.00000E+00
    0.00000E+00         0.00000E+00        -0.47363E+08
 
   -0.46653E+08         0.50892E+06         0.00000E+00
    0.50892E+06        -0.49996E+08         0.00000E+00
    0.00000E+00         0.00000E+00        -0.47363E+08
 
   -0.46666E+08         0.58617E+06         0.00000E+00
    0.58617E+06        -0.49995E+08         0.00000E+00
    0.00000E+00         0.00000E+00        -0.47363E+08
 
   -0.46679E+08         0.66315E+06         0.00000E+00
    0.66315E+06        -0.49993E+08         0.00000E+00
    0.00000E+00         0.00000E+00        -0.47363E+08
 
   -0.46692E+08         0.73986E+06         0.00000E+00
    0.73986E+06        -0.49991E+08         0.00000E+00
    0.00000E+00         0.00000E+00        -0.47363E+08
 
   -0.46706E+08         0.81630E+06         0.00000E+00
    0.81630E+06        -0.49990E+08         0.00000E+00
    0.00000E+00         0.00000E+00        -0.47363E+08
 
   -0.46719E+08         0.89247E+06         0.00000E+00
    0.89247E+06        -0.49987E+08         0.00000E+00
    0.00000E+00         0.00000E+00        -0.47363E+08
 
   -0.46733E+08         0.96836E+06         0.00000E+00
    0.96836E+06        -0.49985E+08         0.00000E+00
    0.00000E+00         0.00000E+00        -0.47363E+08
 
   -0.46747E+08         0.10440E+07         0.00000E+00
    0.10440E+07        -0.49983E+08         0.00000E+00
    0.00000E+00         0.00000E+00        -0.47363E+08
 
   -0.46760E+08         0.11193E+07         0.00000E+00
    0.11193E+07        -0.49980E+08         0.00000E+00
    0.00000E+00         0.00000E+00        -0.47362E+08
 
   -0.46775E+08         0.11944E+07         0.00000E+00
    0.11944E+07        -0.49977E+08         0.00000E+00
    0.00000E+00         0.00000E+00        -0.47362E+08
 
   -0.46789E+08         0.12692E+07         0.00000E+00
    0.12692E+07        -0.49974E+08         0.00000E+00
    0.00000E+00         0.00000E+00        -0.47362E+08
 
   -0.46803E+08         0.13437E+07         0.00000E+00
    0.13437E+07        -0.49971E+08         0.00000E+00
    0.00000E+00         0.00000E+00        -0.47362E+08
 
   -0.46818E+08         0.14179E+07         0.00000E+00
    0.14179E+07        -0.49968E+08         0.00000E+00
    0.00000E+00         0.00000E+00        -0.47362E+08
 
   -0.46832E+08         0.14919E+07         0.00000E+00
    0.14919E+07        -0.49964E+08         0.00000E+00
    0.00000E+00         0.00000E+00        -0.47362E+08
 
   -0.46847E+08         0.15656E+07         0.00000E+00
    0.15656E+07        -0.49960E+08         0.00000E+00
    0.00000E+00         0.00000E+00        -0.47362E+08
 
   -0.46862E+08         0.16390E+07         0.00000E+00
    0.16390E+07        -0.49956E+08         0.00000E+00
    0.00000E+00         0.00000E+00        -0.47362E+08
 
   -0.46877E+08         0.17121E+07         0.00000E+00
    0.17121E+07        -0.49952E+08         0.00000E+00
    0.00000E+00         0.00000E+00        -0.47362E+08
 
   -0.46893E+08         0.17849E+07         0.00000E+00
    0.17849E+07        -0.49948E+08         0.00000E+00
    0.00000E+00         0.00000E+00        -0.47362E+08
 
   -0.46908E+08         0.18574E+07         0.00000E+00
    0.18574E+07        -0.49943E+08         0.00000E+00
    0.00000E+00         0.00000E+00        -0.47362E+08
 
   -0.46924E+08         0.19297E+07         0.00000E+00
    0.19297E+07        -0.49938E+08         0.00000E+00
    0.00000E+00         0.00000E+00        -0.47362E+08
 
   -0.46939E+08         0.20016E+07         0.00000E+00
    0.20016E+07        -0.49933E+08         0.00000E+00
    0.00000E+00         0.00000E+00        -0.47362E+08
 
   -0.46955E+08         0.20733E+07         0.00000E+00
    0.20733E+07        -0.49928E+08         0.00000E+00
    0.00000E+00         0.00000E+00        -0.47361E+08
 
   -0.46972E+08         0.21446E+07         0.00000E+00
    0.21446E+07        -0.49923E+08         0.00000E+00
    0.00000E+00         0.00000E+00        -0.47361E+08
 
   -0.46988E+08         0.22157E+07         0.00000E+00
    0.22157E+07        -0.49917E+08         0.00000E+00
    0.00000E+00         0.00000E+00        -0.47361E+08
 
   -0.47004E+08         0.22864E+07         0.00000E+00
    0.22864E+07        -0.49911E+08         0.00000E+00
    0.00000E+00         0.00000E+00        -0.47361E+08
 
   -0.47021E+08         0.23569E+07         0.00000E+00
    0.23569E+07        -0.49905E+08         0.00000E+00
    0.00000E+00         0.00000E+00        -0.47361E+08
 
   -0.47038E+08         0.24270E+07         0.00000E+00
    0.24270E+07        -0.49899E+08         0.00000E+00
    0.00000E+00         0.00000E+00        -0.47361E+08
 
   -0.47054E+08         0.24969E+07         0.00000E+00
    0.24969E+07        -0.49893E+08         0.00000E+00
    0.00000E+00         0.00000E+00        -0.47361E+08
 
   -0.47072E+08         0.25664E+07         0.00000E+00
    0.25664E+07        -0.49886E+08         0.00000E+00
    0.00000E+00         0.00000E+00        -0.47361E+08
 
   -0.47089E+08         0.26356E+07         0.00000E+00
    0.26356E+07        -0.49879E+08         0.00000E+00
    0.00000E+00         0.00000E+00        -0.47361E+08
 
   -0.47106E+08         0.27045E+07         0.00000E+00
    0.27045E+07        -0.49872E+08         0.00000E+00
    0.00000E+00         0.00000E+00        -0.47361E+08
 
   -0.47124E+08         0.27731E+07         0.00000E+00
    0.27731E+07        -0.49865E+08         0.00000E+00
    0.00000E+00         0.00000E+00        -0.47361E+08
 
   -0.47142E+08         0.28414E+07         0.00000E+00
    0.28414E+07        -0.49858E+08         0.00000E+00
    0.00000E+00         0.00000E+00        -0.47361E+08
 
   -0.47160E+08         0.29093E+07         0.00000E+00
    0.29093E+07        -0.49850E+08         0.00000E+00
    0.00000E+00         0.00000E+00        -0.47361E+08
 
   -0.47178E+08         0.29769E+07         0.00000E+00
    0.29769E+07        -0.49842E+08         0.00000E+00
    0.00000E+00         0.00000E+00        -0.47361E+08
 
   -0.47196E+08         0.30442E+07         0.00000E+00
    0.30442E+07        -0.49834E+08         0.00000E+00
    0.00000E+00         0.00000E+00        -0.47360E+08
 
   -0.47215E+08         0.31111E+07         0.00000E+00
    0.31111E+07        -0.49826E+08         0.00000E+00
    0.00000E+00         0.00000E+00        -0.47360E+08
 
   -0.47234E+08         0.31778E+07         0.00000E+00
    0.31778E+07        -0.49817E+08         0.00000E+00
    0.00000E+00         0.00000E+00        -0.47360E+08
 
   -0.47252E+08         0.32440E+07         0.00000E+00
    0.32440E+07        -0.49808E+08         0.00000E+00
    0.00000E+00         0.00000E+00        -0.47360E+08
 
   -0.47272E+08         0.33099E+07         0.00000E+00
    0.33099E+07        -0.49800E+08         0.00000E+00
    0.00000E+00         0.00000E+00        -0.47360E+08
 
   -0.47291E+08         0.33755E+07         0.00000E+00
    0.33755E+07        -0.49790E+08         0.00000E+00
    0.00000E+00         0.00000E+00        -0.47360E+08
 
   -0.47311E+08         0.34407E+07         0.00000E+00
    0.34407E+07        -0.49781E+08         0.00000E+00
    0.00000E+00         0.00000E+00        -0.47360E+08
 
   -0.47330E+08         0.35056E+07         0.00000E+00
    0.35056E+07        -0.49771E+08         0.00000E+00
    0.00000E+00         0.00000E+00        -0.47360E+08
 
   -0.47350E+08         0.35701E+07         0.00000E+00
    0.35701E+07        -0.49761E+08         0.00000E+00
    0.00000E+00         0.00000E+00        -0.47360E+08
 
   -0.46181E+08         0.40288E+05         0.00000E+00
    0.40288E+05        -0.50000E+08         0.00000E+00
    0.00000E+00         0.00000E+00        -0.47040E+08
 
   -0.46195E+08         0.12013E+06         0.00000E+00
    0.12013E+06        -0.50000E+08         0.00000E+00
    0.00000E+00         0.00000E+00        -0.47040E+08
 
   -0.46208E+08         0.19970E+06         0.00000E+00
    0.19970E+06        -0.49999E+08         0.00000E+00
    0.00000E+00         0.00000E+00        -0.47040E+08
 
   -0.46222E+08         0.27901E+06         0.00000E+00
    0.27901E+06        -0.49999E+08         0.00000E+00
    0.00000E+00         0.00000E+00        -0.47040E+08
 
   -0.46236E+08         0.35805E+06         0.00000E+00
    0.35805E+06        -0.49998E+08         0.00000E+00
    0.00000E+00         0.00000E+00        -0.47040E+08
 
   -0.46250E+08         0.43682E+06         0.00000E+00
    0.43682E+06        -0.49997E+08         0.00000E+00
    0.00000E+00         0.00000E+00        -0.47040E+08
 
   -0.46264E+08         0.51532E+06         0.00000E+00
    0.51532E+06        -0.49996E+08         0.00000E+00
    0.00000E+00         0.00000E+00        -0.47040E+08
 
   -0.46278E+08         0.59355E+06         0.00000E+00
    0.59355E+06        -0.49994E+08         0.00000E+00
    0.00000E+00         0.00000E+00        -0.47040E+08
 
   -0.46292E+08         0.67152E+06         0.00000E+00
    0.67152E+06        -0.49993E+08         0.00000E+00
    0.00000E+00         0.00000E+00        -0.47040E+08
 
   -0.46307E+08         0.74921E+06         0.00000E+00
    0.74921E+06        -0.49991E+08         0.00000E+00
    0.00000E+00         0.00000E+00        -0.47040E+08
 
   -0.46322E+08         0.82664E+06         0.00000E+00
    0.82664E+06        -0.49989E+08         0.00000E+00
    0.00000E+00         0.00000E+00        -0.47040E+08
 
   -0.46336E+08         0.90379E+06         0.00000E+00
    0.90379E+06        -0.49986E+08         0.00000E+00
    0.00000E+00         0.00000E+00        -0.47040E+08
 
   -0.46351E+08         0.98067E+06         0.00000E+00
    0.98067E+06        -0.49984E+08         0.00000E+00
    0.00000E+00         0.00000E+00        -0.47040E+08
 
   -0.46367E+08         0.10573E+07         0.00000E+00
    0.10573E+07        -0.49981E+08         0.00000E+00
    0.00000E+00         0.00000E+00        -0.47040E+08
 
   -0.46382E+08         0.11336E+07         0.00000E+00
    0.11336E+07        -0.49979E+08         0.00000E+00
    0.00000E+00         0.00000E+00        -0.47040E+08
 
   -0.46397E+08         0.12097E+07         0.00000E+00
    0.12097E+07        -0.49975E+08         0.00000E+00
    0.00000E+00         0.00000E+00        -0.47039E+08
 
   -0.46413E+08         0.12855E+07         0.00000E+00
    0.12855E+07        -0.49972E+08         0.00000E+00
    0.00000E+00         0.00000E+00        -0.47039E+08
 
   -0.46429E+08         0.13610E+07         0.00000E+00
    0.13610E+07        -0.49969E+08         0.00000E+00
    0.00000E+00         0.00000E+00        -0.47039E+08
 
   -0.46445E+08         0.14362E+07         0.00000E+00
    0.14362E+07        -0.49965E+08         0.00000E+00
    0.00000E+00         0.00000E+00        -0.47039E+08
 
   -0.46461E+08         0.15112E+07         0.00000E+00
    0.15112E+07        -0.49961E+08         0.00000E+00
    0.00000E+00         0.00000E+00        -0.47039E+08
 
   -0.46477E+08         0.15859E+07         0.00000E+00
    0.15859E+07        -0.49957E+08         0.00000E+00
    0.00000E+00         0.00000E+00        -0.47039E+08
 
   -0.46493E+08         0.16603E+07         0.00000E+00
    0.16603E+07        -0.49953E+08         0.00000E+00
    0.00000E+00         0.00000E+00        -0.47039E+08
 
   -0.46510E+08         0.17344E+07         0.00000E+00
    0.17344E+07        -0.49948E+08         0.00000E+00
    0.00000E+00         0.00000E+00        -0.47039E+08
 
   -0.46527E+08         0.18082E+07         0.00000E+00
    0.18082E+07        -0.49943E+08         0.00000E+00
    0.00000E+00         0.00000E+00        -0.47039E+08
 
   -0.46544E+08         0.18818E+07         0.00000E+00
    0.18818E+07        -0.49938E+08         0.00000E+00
    0.00000E+00         0.00000E+00        -0.47039E+08
 
   -0.46561E+08         0.19551E+07         0.00000E+00
    0.19551E+07        -0.49933E+08         0.00000E+00
    0.00000E+00         0.00000E+00        -0.47038E+08
 
   -0.46578E+08         0.20280E+07         0.00000E+00
    0.20280E+07        -0.49928E+08         0.00000E+00
    0.00000E+00         0.00000E+00        -0.47038E+08
 
   -0.46595E+08         0.21007E+07         0.00000E+00
    0.21007E+07        -0.49922E+08         0.00000E+00
    0.00000E+00         0.00000E+00        -0.47038E+08
 
   -0.46613E+08         0.21731E+07         0.00000E+00
    0.21731E+07        -0.49916E+08         0.00000E+00
    0.00000E+00         0.00000E+00        -0.47038E+08
 
   -0.46631E+08         0.22452E+07         0.00000E+00
    0.22452E+07        -0.49910E+08         0.00000E+00
    0.00000E+00         0.00000E+00        -0.47038E+08
 
   -0.46649E+08         0.23171E+07         0.00000E+00
    0.23171E+07        -0.49904E+08         0.00000E+00
    0.00000E+00         0.00000E+00        -0.47038E+08
 
   -0.46667E+08         0.23886E+07         0.00000E+00
    0.23886E+07        -0.49898E+08         0.00000E+00
    0.00000E+00         0.00000E+00        -0.47038E+08
 
   -0.46685E+08         0.24598E+07         0.00000E+00
    0.24598E+07        -0.49891E+08         0.00000E+00
    0.00000E+00         0.00000E+00        -0.47038E+08
 
   -0.46703E+08         0.25307E+07         0.00000E+00
    0.25307E+07        -0.49884E+08         0.00000E+00
    0.00000E+00         0.00000E+00        -0.47038E+08
 
   -0.46722E+08         0.26013E+07         0.00000E+00
    0.26013E+07        -0.49877E+08         0.00000E+00
    0.00000E+00         0.00000E+00        -0.47037E+08
 
   -0.46741E+08         0.26716E+07         0.00000E+00
    0.26716E+07        -0.49870E+08         0.00000E+00
    0.00000E+00         0.00000E+00        -0.47037E+08
 
   -0.46760E+08         0.27416E+07         0.00000E+00
    0.27416E+07        -0.49862E+08         0.00000E+00
    0.00000E+00         0.00000E+00        -0.47037E+08
 
   -0.46779E+08         0.28113E+07         0.00000E+00
    0.28113E+07        -0.49854E+08         0.00000E+00
    0.00000E+00         0.00000E+00        -0.47037E+08
 
   -0.46798E+08         0.28807E+07         0.00000E+00
    0.28807E+07        -0.49846E+08         0.00000E+00
    0.00000E+00         0.00000E+00        -0.47037E+08
 
   -0.46818E+08         0.29498E+07         0.00000E+00
    0.29498E+07        -0.49838E+08         0.00000E+00
    0.00000E+00         0.00000E+00        -0.47037E+08
 
   -0.46838E+08         0.30185E+07         0.00000E+00
    0.30185E+07        -0.49829E+08         0.00000E+00
    0.00000E+00         0.00000E+00        -0.47037E+08
 
   -0.46858E+08         0.30869E+07         0.00000E+00
    0.30869E+07        -0.49820E+08         0.00000E+00
    0.00000E+00         0.00000E+00        -0.47037E+08
 
   -0.46878E+08         0.31550E+07         0.00000E+00
    0.31550E+07        -0.49811E+08         0.00000E+00
    0.00000E+00         0.00000E+00        -0.47037E+08
 
   -0.46898E+08         0.32228E+07         0.00000E+00
    0.32228E+07        -0.49802E+08         0.00000E+00
    0.00000E+00         0.00000E+00        -0.47037E+08
 
   -0.46919E+08         0.32902E+07         0.00000E+00
    0.32902E+07        -0.49793E+08         0.00000E+00
    0.00000E+00         0.00000E+00        -0.47037E+08
 
   -0.46940E+08         0.33573E+07         0.00000E+00
    0.33573E+07        -0.49783E+08         0.00000E+00
    0.00000E+00         0.00000E+00        -0.47037E+08
 
   -0.46961E+08         0.34240E+07         0.00000E+00
    0.34240E+07        -0.49773E+08         0.00000E+00
    0.00000E+00         0.00000E+00        -0.47037E+08
 
   -0.46982E+08         0.34904E+07         0.00000E+00
    0.34904E+07        -0.49763E+08         0.00000E+00
    0.00000E+00         0.00000E+00        -0.47037E+08
 
   -0.47004E+08         0.35565E+07         0.00000E+00
    0.35565E+07        -0.49752E+08         0.00000E+00
    0.00000E+00         0.00000E+00        -0.47037E+08
 
   -0.47026E+08         0.36222E+07         0.00000E+00
    0.36222E+07        -0.49741E+08         0.00000E+00
    0.00000E+00         0.00000E+00        -0.47037E+08
 
   -0.45779E+08         0.40818E+05         0.00000E+00
    0.40818E+05        -0.50000E+08         0.00000E+00
    0.00000E+00         0.00000E+00        -0.46711E+08
 
   -0.45793E+08         0.12172E+06         0.00000E+00
    0.12172E+06        -0.50000E+08         0.00000E+00
    0.00000E+00         0.00000E+00        -0.46711E+08
 
   -0.45808E+08         0.20235E+06         0.00000E+00
    0.20235E+06        -0.49999E+08         0.00000E+00
    0.00000E+00         0.00000E+00        -0.46711E+08
 
   -0.45823E+08         0.28271E+06         0.00000E+00
    0.28271E+06        -0.49999E+08         0.00000E+00
    0.00000E+00         0.00000E+00        -0.46711E+08
 
   -0.45838E+08         0.36280E+06         0.00000E+00
    0.36280E+06        -0.49998E+08         0.00000E+00
    0.00000E+00         0.00000E+00        -0.46711E+08
 
   -0.45854E+08         0.44262E+06         0.00000E+00
    0.44262E+06        -0.49997E+08         0.00000E+00
    0.00000E+00         0.00000E+00        -0.46711E+08
 
   -0.45869E+08         0.52218E+06         0.00000E+00
    0.52218E+06        -0.49995E+08         0.00000E+00
    0.00000E+00         0.00000E+00        -0.46711E+08
 
   -0.45885E+08         0.60147E+06         0.00000E+00
    0.60147E+06        -0.49994E+08         0.00000E+00
    0.00000E+00         0.00000E+00        -0.46711E+08
 
   -0.45901E+08         0.68049E+06         0.00000E+00
    0.68049E+06        -0.49992E+08         0.00000E+00
    0.00000E+00         0.00000E+00        -0.46711E+08
 
   -0.45916E+08         0.75924E+06         0.00000E+00
    0.75924E+06        -0.49990E+08         0.00000E+00
    0.00000E+00         0.00000E+00        -0.46711E+08
 
   -0.45933E+08         0.83772E+06         0.00000E+00
    0.83772E+06        -0.49988E+08         0.00000E+00
    0.00000E+00         0.00000E+00        -0.46711E+08
 
   -0.45949E+08         0.91594E+06         0.00000E+00
    0.91594E+06        -0.49986E+08         0.00000E+00
    0.00000E+00         0.00000E+00        -0.46711E+08
 
   -0.45965E+08         0.99388E+06         0.00000E+00
    0.99388E+06        -0.49983E+08         0.00000E+00
    0.00000E+00         0.00000E+00        -0.46711E+08
 
   -0.45982E+08         0.10716E+07         0.00000E+00
    0.10716E+07        -0.49980E+08         0.00000E+00
    0.00000E+00         0.00000E+00        -0.46710E+08
 
   -0.45998E+08         0.11490E+07         0.00000E+00
    0.11490E+07        -0.49977E+08         0.00000E+00
    0.00000E+00         0.00000E+00        -0.46710E+08
 
   -0.46015E+08         0.12261E+07         0.00000E+00
    0.12261E+07        -0.49974E+08         0.00000E+00
    0.00000E+00         0.00000E+00        -0.46710E+08
 
   -0.46032E+08         0.13030E+07         0.00000E+00
    0.13030E+07        -0.49970E+08         0.00000E+00
    0.00000E+00         0.00000E+00        -0.46710E+08
 
   -0.46049E+08         0.13795E+07         0.00000E+00
    0.13795E+07        -0.49967E+08         0.00000E+00
    0.00000E+00         0.00000E+00        -0.46710E+08
 
   -0.46067E+08         0.14559E+07         0.00000E+00
    0.14559E+07        -0.49963E+08         0.00000E+00
    0.00000E+00         0.00000E+00        -0.46710E+08
 
   -0.46084E+08         0.15319E+07         0.00000E+00
    0.15319E+07        -0.49958E+08         0.00000E+00
    0.00000E+00         0.00000E+00        -0.46710E+08
 
   -0.46102E+08         0.16077E+07         0.00000E+00
    0.16077E+07        -0.49954E+08         0.00000E+00
    0.00000E+00         0.00000E+00        -0.46710E+08
 
   -0.46119E+08         0.16832E+07         0.00000E+00
    0.16832E+07        -0.49949E+08         0.00000E+00
    0.00000E+00         0.00000E+00        -0.46709E+08
 
   -0.46137E+08         0.17584E+07         0.00000E+00
    0.17584E+07        -0.49945E+08         0.00000E+00
    0.00000E+00         0.00000E+00        -0.46709E+08
 
   -0.46156E+08         0.18333E+07         0.00000E+00
    0.18333E+07        -0.49939E+08         0.00000E+00
    0.00000E+00         0.00000E+00        -0.46709E+08
 
   -0.46174E+08         0.19080E+07         0.00000E+00
    0.19080E+07        -0.49934E+08         0.00000E+00
    0.00000E+00         0.00000E+00        -0.46709E+08
 
   -0.46192E+08         0.19824E+07         0.00000E+00
    0.19824E+07        -0.49929E+08         0.00000E+00
    0.00000E+00         0.00000E+00        -0.46709E+08
 
   -0.46211E+08         0.20565E+07         0.00000E+00
    0.20565E+07        -0.49923E+08         0.00000E+00
    0.00000E+00         0.00000E+00        -0.46709E+08
 
   -0.46230E+08         0.21303E+07         0.00000E+00
    0.21303E+07        -0.49917E+08         0.00000E+00
    0.00000E+00         0.00000E+00        -0.46709E+08
 
   -0.46249E+08         0.22039E+07         0.00000E+00
    0.22039E+07        -0.49911E+08         0.00000E+00
    0.00000E+00         0.00000E+00        -0.46708E+08
 
   -0.46268E+08         0.22771E+07         0.00000E+00
    0.22771E+07        -0.49904E+08         0.00000E+00
    0.00000E+00         0.00000E+00        -0.46708E+08
 
   -0.46287E+08         0.23501E+07         0.00000E+00
    0.23501E+07        -0.49897E+08         0.00000E+00
    0.00000E+00         0.00000E+00        -0.46708E+08
 
   -0.46307E+08         0.24227E+07         0.00000E+00
    0.24227E+07        -0.49890E+08         0.00000E+00
    0.00000E+00         0.00000E+00        -0.46708E+08
 
   -0.46327E+08         0.24951E+07         0.00000E+00
    0.24951E+07        -0.49883E+08         0.00000E+00
    0.00000E+00         0.00000E+00        -0.46708E+08
 
   -0.46347E+08         0.25672E+07         0.00000E+00
    0.25672E+07        -0.49876E+08         0.00000E+00
    0.00000E+00         0.00000E+00        -0.46708E+08
 
   -0.46367E+08         0.26390E+07         0.00000E+00
    0.26390E+07        -0.49868E+08         0.00000E+00
    0.00000E+00         0.00000E+00        -0.46708E+08
 
   -0.46387E+08         0.27105E+07         0.00000E+00
    0.27105E+07        -0.49860E+08         0.00000E+00
    0.00000E+00         0.00000E+00        -0.46708E+08
 
   -0.46408E+08         0.27817E+07         0.00000E+00
    0.27817E+07        -0.49852E+08         0.00000E+00
    0.00000E+00         0.00000E+00        -0.46707E+08
 
   -0.46428E+08         0.28526E+07         0.00000E+00
    0.28526E+07        -0.49844E+08         0.00000E+00
    0.00000E+00         0.00000E+00        -0.46707E+08
 
   -0.46449E+08         0.29232E+07         0.00000E+00
    0.29232E+07        -0.49835E+08         0.00000E+00
    0.00000E+00         0.00000E+00        -0.46707E+08
 
   -0.46470E+08         0.29935E+07         0.00000E+00
    0.29935E+07        -0.49826E+08         0.00000E+00
    0.00000E+00         0.00000E+00        -0.46707E+08
 
   -0.46492E+08         0.30635E+07         0.00000E+00
    0.30635E+07        -0.49817E+08         0.00000E+00
    0.00000E+00         0.00000E+00        -0.46707E+08
 
   -0.46513E+08         0.31331E+07         0.00000E+00
    0.31331E+07        -0.49807E+08         0.00000E+00
    0.00000E+00         0.00000E+00        -0.46707E+08
 
   -0.46535E+08         0.32025E+07         0.00000E+00
    0.32025E+07        -0.49798E+08         0.00000E+00
    0.00000E+00         0.00000E+00        -0.46707E+08
 
   -0.46557E+08         0.32715E+07         0.00000E+00
    0.32715E+07        -0.49788E+08         0.00000E+00
    0.00000E+00         0.00000E+00        -0.46707E+08
 
   -0.46580E+08         0.33402E+07         0.00000E+00
    0.33402E+07        -0.49777E+08         0.00000E+00
    0.00000E+00         0.00000E+00        -0.46707E+08
 
   -0.46602E+08         0.34086E+07         0.00000E+00
    0.34086E+07        -0.49767E+08         0.00000E+00
    0.00000E+00         0.00000E+00        -0.46707E+08
 
   -0.46625E+08         0.34766E+07         0.00000E+00
    0.34766E+07        -0.49756E+08         0.00000E+00
    0.00000E+00         0.00000E+00        -0.46707E+08
 
   -0.46648E+08         0.35443E+07         0.00000E+00
    0.35443E+07        -0.49745E+08         0.00000E+00
    0.00000E+00         0.00000E+00        -0.46707E+08
 
   -0.46671E+08         0.36117E+07         0.00000E+00
    0.36117E+07        -0.49734E+08         0.00000E+00
    0.00000E+00         0.00000E+00        -0.46707E+08
 
   -0.46695E+08         0.36787E+07         0.00000E+00
    0.36787E+07        -0.49722E+08         0.00000E+00
    0.00000E+00         0.00000E+00        -0.46707E+08
 
   -0.45371E+08         0.41382E+05         0.00000E+00
    0.41382E+05        -0.50000E+08         0.00000E+00
    0.00000E+00         0.00000E+00        -0.46375E+08
 
   -0.45387E+08         0.12340E+06         0.00000E+00
    0.12340E+06        -0.50000E+08         0.00000E+00
    0.00000E+00         0.00000E+00        -0.46375E+08
 
   -0.45403E+08         0.20515E+06         0.00000E+00
    0.20515E+06        -0.49999E+08         0.00000E+00
    0.00000E+00         0.00000E+00        -0.46375E+08
 
   -0.45419E+08         0.28664E+06         0.00000E+00
    0.28664E+06        -0.49999E+08         0.00000E+00
    0.00000E+00         0.00000E+00        -0.46375E+08
 
   -0.45436E+08         0.36785E+06         0.00000E+00
    0.36785E+06        -0.49998E+08         0.00000E+00
    0.00000E+00         0.00000E+00        -0.46375E+08
 
   -0.45452E+08         0.44880E+06         0.00000E+00
    0.44880E+06        -0.49996E+08         0.00000E+00
    0.00000E+00         0.00000E+00        -0.46375E+08
 
   -0.45469E+08         0.52948E+06         0.00000E+00
    0.52948E+06        -0.49995E+08         0.00000E+00
    0.00000E+00         0.00000E+00        -0.46375E+08
 
   -0.45486E+08         0.60989E+06         0.00000E+00
    0.60989E+06        -0.49993E+08         0.00000E+00
    0.00000E+00         0.00000E+00        -0.46375E+08
 
   -0.45503E+08         0.69003E+06         0.00000E+00
    0.69003E+06        -0.49992E+08         0.00000E+00
    0.00000E+00         0.00000E+00        -0.46375E+08
 
   -0.45521E+08         0.76991E+06         0.00000E+00
    0.76991E+06        -0.49990E+08         0.00000E+00
    0.00000E+00         0.00000E+00        -0.46375E+08
 
   -0.45538E+08         0.84952E+06         0.00000E+00
    0.84952E+06        -0.49987E+08         0.00000E+00
    0.00000E+00         0.00000E+00        -0.46375E+08
 
   -0.45556E+08         0.92887E+06         0.00000E+00
    0.92887E+06        -0.49985E+08         0.00000E+00
    0.00000E+00         0.00000E+00        -0.46374E+08
 
   -0.45573E+08         0.10079E+07         0.00000E+00
    0.10079E+07        -0.49982E+08         0.00000E+00
    0.00000E+00         0.00000E+00        -0.46374E+08
 
   -0.45591E+08         0.10868E+07         0.00000E+00
    0.10868E+07        -0.49979E+08         0.00000E+00
    0.00000E+00         0.00000E+00        -0.46374E+08
 
   -0.45609E+08         0.11653E+07         0.00000E+00
    0.11653E+07        -0.49976E+08         0.00000E+00
    0.00000E+00         0.00000E+00        -0.46374E+08
 
   -0.45627E+08         0.12436E+07         0.00000E+00
    0.12436E+07        -0.49972E+08         0.00000E+00
    0.00000E+00         0.00000E+00        -0.46374E+08
 
   -0.45646E+08         0.13216E+07         0.00000E+00
    0.13216E+07        -0.49968E+08         0.00000E+00
    0.00000E+00         0.00000E+00        -0.46374E+08
 
   -0.45664E+08         0.13993E+07         0.00000E+00
    0.13993E+07        -0.49965E+08         0.00000E+00
    0.00000E+00         0.00000E+00        -0.46374E+08
 
   -0.45683E+08         0.14768E+07         0.00000E+00
    0.14768E+07        -0.49960E+08         0.00000E+00
    0.00000E+00         0.00000E+00        -0.46374E+08
 
   -0.45702E+08         0.15540E+07         0.00000E+00
    0.15540E+07        -0.49956E+08         0.00000E+00
    0.00000E+00         0.00000E+00        -0.46373E+08
 
   -0.45721E+08         0.16310E+07         0.00000E+00
    0.16310E+07        -0.49951E+08         0.00000E+00
    0.00000E+00         0.00000E+00        -0.46373E+08
 
   -0.45740E+08         0.17076E+07         0.00000E+00
    0.17076E+07        -0.49946E+08         0.00000E+00
    0.00000E+00         0.00000E+00        -0.46373E+08
 
   -0.45759E+08         0.17840E+07         0.00000E+00
    0.17840E+07        -0.49941E+08         0.00000E+00
    0.00000E+00         0.00000E+00        -0.46373E+08
 
   -0.45779E+08         0.18601E+07         0.00000E+00
    0.18601E+07        -0.49936E+08         0.00000E+00
    0.00000E+00         0.00000E+00        -0.46373E+08
 
   -0.45798E+08         0.19360E+07         0.00000E+00
    0.19360E+07        -0.49930E+08         0.00000E+00
    0.00000E+00         0.00000E+00        -0.46373E+08
 
   -0.45818E+08         0.20116E+07         0.00000E+00
    0.20116E+07        -0.49924E+08         0.00000E+00
    0.00000E+00         0.00000E+00        -0.46372E+08
 
   -0.45838E+08         0.20869E+07         0.00000E+00
    0.20869E+07        -0.49918E+08         0.00000E+00
    0.00000E+00         0.00000E+00        -0.46372E+08
 
   -0.45858E+08         0.21619E+07         0.00000E+00
    0.21619E+07        -0.49912E+08         0.00000E+00
    0.00000E+00         0.00000E+00        -0.46372E+08
 
   -0.45879E+08         0.22367E+07         0.00000E+00
    0.22367E+07        -0.49905E+08         0.00000E+00
    0.00000E+00         0.00000E+00        -0.46372E+08
 
   -0.45899E+08         0.23112E+07         0.00000E+00
    0.23112E+07        -0.49898E+08         0.00000E+00
    0.00000E+00         0.00000E+00        -0.46372E+08
 
   -0.45920E+08         0.23854E+07         0.00000E+00
    0.23854E+07        -0.49891E+08         0.00000E+00
    0.00000E+00         0.00000E+00        -0.46372E+08
 
   -0.45941E+08         0.24593E+07         0.00000E+00
    0.24593E+07        -0.49884E+08         0.00000E+00
    0.00000E+00         0.00000E+00        -0.46371E+08
 
   -0.45962E+08         0.25329E+07         0.00000E+00
    0.25329E+07        -0.49876E+08         0.00000E+00
    0.00000E+00         0.00000E+00        -0.46371E+08
 
   -0.45984E+08         0.26063E+07         0.00000E+00
    0.26063E+07        -0.49868E+08         0.00000E+00
    0.00000E+00         0.00000E+00        -0.46371E+08
 
   -0.46005E+08         0.26794E+07         0.00000E+00
    0.26794E+07        -0.49860E+08         0.00000E+00
    0.00000E+00         0.00000E+00        -0.46371E+08
 
   -0.46027E+08         0.27522E+07         0.00000E+00
    0.27522E+07        -0.49851E+08         0.00000E+00
    0.00000E+00         0.00000E+00        -0.46371E+08
 
   -0.46049E+08         0.28246E+07         0.00000E+00
    0.28246E+07        -0.49843E+08         0.00000E+00
    0.00000E+00         0.00000E+00        -0.46371E+08
 
   -0.46071E+08         0.28969E+07         0.00000E+00
    0.28969E+07        -0.49834E+08         0.00000E+00
    0.00000E+00         0.00000E+00        -0.46370E+08
 
   -0.46094E+08         0.29688E+07         0.00000E+00
    0.29688E+07        -0.49824E+08         0.00000E+00
    0.00000E+00         0.00000E+00        -0.46370E+08
 
   -0.46116E+08         0.30404E+07         0.00000E+00
    0.30404E+07        -0.49815E+08         0.00000E+00
    0.00000E+00         0.00000E+00        -0.46370E+08
 
   -0.46139E+08         0.31117E+07         0.00000E+00
    0.31117E+07        -0.49805E+08         0.00000E+00
    0.00000E+00         0.00000E+00        -0.46370E+08
 
   -0.46163E+08         0.31827E+07         0.00000E+00
    0.31827E+07        -0.49795E+08         0.00000E+00
    0.00000E+00         0.00000E+00        -0.46370E+08
 
   -0.46186E+08         0.32534E+07         0.00000E+00
    0.32534E+07        -0.49784E+08         0.00000E+00
    0.00000E+00         0.00000E+00        -0.46370E+08
 
   -0.46210E+08         0.33238E+07         0.00000E+00
    0.33238E+07        -0.49774E+08         0.00000E+00
    0.00000E+00         0.00000E+00        -0.46370E+08
 
   -0.46234E+08         0.33939E+07         0.00000E+00
    0.33939E+07        -0.49763E+08         0.00000E+00
    0.00000E+00         0.00000E+00        -0.46370E+08
 
   -0.46258E+08         0.34637E+07         0.00000E+00
    0.34637E+07        -0.49752E+08         0.00000E+00
    0.00000E+00         0.00000E+00        -0.46370E+08
 
   -0.46282E+08         0.35331E+07         0.00000E+00
    0.35331E+07        -0.49740E+08         0.00000E+00
    0.00000E+00         0.00000E+00        -0.46370E+08
 
   -0.46307E+08         0.36023E+07         0.00000E+00
    0.36023E+07        -0.49728E+08         0.00000E+00
    0.00000E+00         0.00000E+00        -0.46370E+08
 
   -0.46332E+08         0.36711E+07         0.00000E+00
    0.36711E+07        -0.49716E+08         0.00000E+00
    0.00000E+00         0.00000E+00        -0.46370E+08
 
   -0.46357E+08         0.37395E+07         0.00000E+00
    0.37395E+07        -0.49704E+08         0.00000E+00
    0.00000E+00         0.00000E+00        -0.46370E+08
 
   -0.44957E+08         0.41976E+05         0.00000E+00
    0.41976E+05        -0.50000E+08         0.00000E+00
    0.00000E+00         0.00000E+00        -0.46032E+08
 
   -0.44974E+08         0.12518E+06         0.00000E+00
    0.12518E+06        -0.50000E+08         0.00000E+00
    0.00000E+00         0.00000E+00        -0.46032E+08
 
   -0.44992E+08         0.20812E+06         0.00000E+00
    0.20812E+06        -0.49999E+08         0.00000E+00
    0.00000E+00         0.00000E+00        -0.46032E+08
 
   -0.45010E+08         0.29079E+06         0.00000E+00
    0.29079E+06        -0.49998E+08         0.00000E+00
    0.00000E+00         0.00000E+00        -0.46032E+08
 
   -0.45027E+08         0.37319E+06         0.00000E+00
    0.37319E+06        -0.49998E+08         0.00000E+00
    0.00000E+00         0.00000E+00        -0.46031E+08
 
   -0.45045E+08         0.45532E+06         0.00000E+00
    0.45532E+06        -0.49996E+08         0.00000E+00
    0.00000E+00         0.00000E+00        -0.46031E+08
 
   -0.45064E+08         0.53719E+06         0.00000E+00
    0.53719E+06        -0.49995E+08         0.00000E+00
    0.00000E+00         0.00000E+00        -0.46031E+08
 
   -0.45082E+08         0.61879E+06         0.00000E+00
    0.61879E+06        -0.49993E+08         0.00000E+00
    0.00000E+00         0.00000E+00        -0.46031E+08
 
   -0.45100E+08         0.70012E+06         0.00000E+00
    0.70012E+06        -0.49991E+08         0.00000E+00
    0.00000E+00         0.00000E+00        -0.46031E+08
 
   -0.45119E+08         0.78119E+06         0.00000E+00
    0.78119E+06        -0.49989E+08         0.00000E+00
    0.00000E+00         0.00000E+00        -0.46031E+08
 
   -0.45138E+08         0.86200E+06         0.00000E+00
    0.86200E+06        -0.49987E+08         0.00000E+00
    0.00000E+00         0.00000E+00        -0.46031E+08
 
   -0.45156E+08         0.94254E+06         0.00000E+00
    0.94254E+06        -0.49984E+08         0.00000E+00
    0.00000E+00         0.00000E+00        -0.46031E+08
 
   -0.45175E+08         0.10228E+07         0.00000E+00
    0.10228E+07        -0.49981E+08         0.00000E+00
    0.00000E+00         0.00000E+00        -0.46031E+08
 
   -0.45195E+08         0.11028E+07         0.00000E+00
    0.11028E+07        -0.49978E+08         0.00000E+00
    0.00000E+00         0.00000E+00        -0.46030E+08
 
   -0.45214E+08         0.11826E+07         0.00000E+00
    0.11826E+07        -0.49974E+08         0.00000E+00
    0.00000E+00         0.00000E+00        -0.46030E+08
 
   -0.45234E+08         0.12621E+07         0.00000E+00
    0.12621E+07        -0.49971E+08         0.00000E+00
    0.00000E+00         0.00000E+00        -0.46030E+08
 
   -0.45253E+08         0.13413E+07         0.00000E+00
    0.13413E+07        -0.49967E+08         0.00000E+00
    0.00000E+00         0.00000E+00        -0.46030E+08
 
   -0.45273E+08         0.14203E+07         0.00000E+00
    0.14203E+07        -0.49963E+08         0.00000E+00
    0.00000E+00         0.00000E+00        -0.46030E+08
 
   -0.45293E+08         0.14990E+07         0.00000E+00
    0.14990E+07        -0.49958E+08         0.00000E+00
    0.00000E+00         0.00000E+00        -0.46030E+08
 
   -0.45313E+08         0.15774E+07         0.00000E+00
    0.15774E+07        -0.49953E+08         0.00000E+00
    0.00000E+00         0.00000E+00        -0.46029E+08
 
   -0.45333E+08         0.16556E+07         0.00000E+00
    0.16556E+07        -0.49949E+08         0.00000E+00
    0.00000E+00         0.00000E+00        -0.46029E+08
 
   -0.45354E+08         0.17335E+07         0.00000E+00
    0.17335E+07        -0.49943E+08         0.00000E+00
    0.00000E+00         0.00000E+00        -0.46029E+08
 
   -0.45375E+08         0.18112E+07         0.00000E+00
    0.18112E+07        -0.49938E+08         0.00000E+00
    0.00000E+00         0.00000E+00        -0.46029E+08
 
   -0.45395E+08         0.18885E+07         0.00000E+00
    0.18885E+07        -0.49932E+08         0.00000E+00
    0.00000E+00         0.00000E+00        -0.46029E+08
 
   -0.45416E+08         0.19657E+07         0.00000E+00
    0.19657E+07        -0.49926E+08         0.00000E+00
    0.00000E+00         0.00000E+00        -0.46028E+08
 
   -0.45438E+08         0.20425E+07         0.00000E+00
    0.20425E+07        -0.49920E+08         0.00000E+00
    0.00000E+00         0.00000E+00        -0.46028E+08
 
   -0.45459E+08         0.21191E+07         0.00000E+00
    0.21191E+07        -0.49914E+08         0.00000E+00
    0.00000E+00         0.00000E+00        -0.46028E+08
 
   -0.45481E+08         0.21954E+07         0.00000E+00
    0.21954E+07        -0.49907E+08         0.00000E+00
    0.00000E+00         0.00000E+00        -0.46028E+08
 
   -0.45502E+08         0.22715E+07         0.00000E+00
    0.22715E+07        -0.49900E+08         0.00000E+00
    0.00000E+00         0.00000E+00        -0.46028E+08
 
   -0.45524E+08         0.23473E+07         0.00000E+00
    0.23473E+07        -0.49892E+08         0.00000E+00
    0.00000E+00         0.00000E+00        -0.46027E+08
 
   -0.45546E+08         0.24228E+07         0.00000E+00
    0.24228E+07        -0.49885E+08         0.00000E+00
    0.00000E+00         0.00000E+00        -0.46027E+08
 
   -0.45569E+08         0.24981E+07         0.00000E+00
    0.24981E+07        -0.49877E+08         0.00000E+00
    0.00000E+00         0.00000E+00        -0.46027E+08
 
   -0.45591E+08         0.25731E+07         0.00000E+00
    0.25731E+07        -0.49869E+08         0.00000E+00
    0.00000E+00         0.00000E+00        -0.46027E+08
 
   -0.45614E+08         0.26478E+07         0.00000E+00
    0.26478E+07        -0.49861E+08         0.00000E+00
    0.00000E+00         0.00000E+00        -0.46027E+08
 
   -0.45637E+08         0.27222E+07         0.00000E+00
    0.27222E+07        -0.49852E+08         0.00000E+00
    0.00000E+00         0.00000E+00        -0.46026E+08
 
   -0.45660E+08         0.27964E+07         0.00000E+00
    0.27964E+07        -0.49843E+08         0.00000E+00
    0.00000E+00         0.00000E+00        -0.46026E+08
 
   -0.45684E+08         0.28703E+07         0.00000E+00
    0.28703E+07        -0.49834E+08         0.00000E+00
    0.00000E+00         0.00000E+00        -0.46026E+08
 
   -0.45708E+08         0.29439E+07         0.00000E+00
    0.29439E+07        -0.49824E+08         0.00000E+00
    0.00000E+00         0.00000E+00        -0.46026E+08
 
   -0.45731E+08         0.30172E+07         0.00000E+00
    0.30172E+07        -0.49814E+08         0.00000E+00
    0.00000E+00         0.00000E+00        -0.46026E+08
 
   -0.45756E+08         0.30903E+07         0.00000E+00
    0.30903E+07        -0.49804E+08         0.00000E+00
    0.00000E+00         0.00000E+00        -0.46026E+08
 
   -0.45780E+08         0.31630E+07         0.00000E+00
    0.31630E+07        -0.49794E+08         0.00000E+00
    0.00000E+00         0.00000E+00        -0.46026E+08
 
   -0.45805E+08         0.32355E+07         0.00000E+00
    0.32355E+07        -0.49783E+08         0.00000E+00
    0.00000E+00         0.00000E+00        -0.46025E+08
 
   -0.45830E+08         0.33077E+07         0.00000E+00
    0.33077E+07        -0.49772E+08         0.00000E+00
    0.00000E+00         0.00000E+00        -0.46025E+08
 
   -0.45855E+08         0.33795E+07         0.00000E+00
    0.33795E+07        -0.49761E+08         0.00000E+00
    0.00000E+00         0.00000E+00        -0.46025E+08
 
   -0.45880E+08         0.34511E+07         0.00000E+00
    0.34511E+07        -0.49749E+08         0.00000E+00
    0.00000E+00         0.00000E+00        -0.46025E+08
 
   -0.45906E+08         0.35224E+07         0.00000E+00
    0.35224E+07        -0.49737E+08         0.00000E+00
    0.00000E+00         0.00000E+00        -0.46025E+08
 
   -0.45932E+08         0.35934E+07         0.00000E+00
    0.35934E+07        -0.49725E+08         0.00000E+00
    0.00000E+00         0.00000E+00        -0.46025E+08
 
   -0.45958E+08         0.36641E+07         0.00000E+00
    0.36641E+07        -0.49712E+08         0.00000E+00
    0.00000E+00         0.00000E+00        -0.46025E+08
 
   -0.45985E+08         0.37344E+07         0.00000E+00
    0.37344E+07        -0.49699E+08         0.00000E+00
    0.00000E+00         0.00000E+00        -0.46025E+08
 
   -0.46011E+08         0.38045E+07         0.00000E+00
    0.38045E+07        -0.49686E+08         0.00000E+00
    0.00000E+00         0.00000E+00        -0.46025E+08
 
   -0.44537E+08         0.42599E+05         0.00000E+00
    0.42599E+05        -0.50000E+08         0.00000E+00
    0.00000E+00         0.00000E+00        -0.45680E+08
 
   -0.44556E+08         0.12705E+06         0.00000E+00
    0.12705E+06        -0.50000E+08         0.00000E+00
    0.00000E+00         0.00000E+00        -0.45680E+08
 
   -0.44575E+08         0.21123E+06         0.00000E+00
    0.21123E+06        -0.49999E+08         0.00000E+00
    0.00000E+00         0.00000E+00        -0.45680E+08
 
   -0.44594E+08         0.29514E+06         0.00000E+00
    0.29514E+06        -0.49998E+08         0.00000E+00
    0.00000E+00         0.00000E+00        -0.45680E+08
 
   -0.44613E+08         0.37879E+06         0.00000E+00
    0.37879E+06        -0.49997E+08         0.00000E+00
    0.00000E+00         0.00000E+00        -0.45680E+08
 
   -0.44632E+08         0.46217E+06         0.00000E+00
    0.46217E+06        -0.49996E+08         0.00000E+00
    0.00000E+00         0.00000E+00        -0.45680E+08
 
   -0.44652E+08         0.54528E+06         0.00000E+00
    0.54528E+06        -0.49995E+08         0.00000E+00
    0.00000E+00         0.00000E+00        -0.45679E+08
 
   -0.44671E+08         0.62813E+06         0.00000E+00
    0.62813E+06        -0.49993E+08         0.00000E+00
    0.00000E+00         0.00000E+00        -0.45679E+08
 
   -0.44691E+08         0.71071E+06         0.00000E+00
    0.71071E+06        -0.49991E+08         0.00000E+00
    0.00000E+00         0.00000E+00        -0.45679E+08
 
   -0.44711E+08         0.79304E+06         0.00000E+00
    0.79304E+06        -0.49988E+08         0.00000E+00
    0.00000E+00         0.00000E+00        -0.45679E+08
 
   -0.44731E+08         0.87510E+06         0.00000E+00
    0.87510E+06        -0.49986E+08         0.00000E+00
    0.00000E+00         0.00000E+00        -0.45679E+08
 
   -0.44751E+08         0.95690E+06         0.00000E+00
    0.95690E+06        -0.49983E+08         0.00000E+00
    0.00000E+00         0.00000E+00        -0.45679E+08
 
   -0.44772E+08         0.10384E+07         0.00000E+00
    0.10384E+07        -0.49980E+08         0.00000E+00
    0.00000E+00         0.00000E+00        -0.45679E+08
 
   -0.44792E+08         0.11197E+07         0.00000E+00
    0.11197E+07        -0.49977E+08         0.00000E+00
    0.00000E+00         0.00000E+00        -0.45678E+08
 
   -0.44813E+08         0.12007E+07         0.00000E+00
    0.12007E+07        -0.49973E+08         0.00000E+00
    0.00000E+00         0.00000E+00        -0.45678E+08
 
   -0.44834E+08         0.12815E+07         0.00000E+00
    0.12815E+07        -0.49969E+08         0.00000E+00
    0.00000E+00         0.00000E+00        -0.45678E+08
 
   -0.44854E+08         0.13620E+07         0.00000E+00
    0.13620E+07        -0.49965E+08         0.00000E+00
    0.00000E+00         0.00000E+00        -0.45678E+08
 
   -0.44876E+08         0.14423E+07         0.00000E+00
    0.14423E+07        -0.49961E+08         0.00000E+00
    0.00000E+00         0.00000E+00        -0.45678E+08
 
   -0.44897E+08         0.15223E+07         0.00000E+00
    0.15223E+07        -0.49956E+08         0.00000E+00
    0.00000E+00         0.00000E+00        -0.45677E+08
 
   -0.44918E+08         0.16020E+07         0.00000E+00
    0.16020E+07        -0.49951E+08         0.00000E+00
    0.00000E+00         0.00000E+00        -0.45677E+08
 
   -0.44940E+08         0.16815E+07         0.00000E+00
    0.16815E+07        -0.49946E+08         0.00000E+00
    0.00000E+00         0.00000E+00        -0.45677E+08
 
   -0.44962E+08         0.17607E+07         0.00000E+00
    0.17607E+07        -0.49941E+08         0.00000E+00
    0.00000E+00         0.00000E+00        -0.45677E+08
 
   -0.44984E+08         0.18397E+07         0.00000E+00
    0.18397E+07        -0.49935E+08         0.00000E+00
    0.00000E+00         0.00000E+00        -0.45677E+08
 
   -0.45006E+08         0.19184E+07         0.00000E+00
    0.19184E+07        -0.49929E+08         0.00000E+00
    0.00000E+00         0.00000E+00        -0.45676E+08
 
   -0.45028E+08         0.19969E+07         0.00000E+00
    0.19969E+07        -0.49923E+08         0.00000E+00
    0.00000E+00         0.00000E+00        -0.45676E+08
 
   -0.45051E+08         0.20751E+07         0.00000E+00
    0.20751E+07        -0.49916E+08         0.00000E+00
    0.00000E+00         0.00000E+00        -0.45676E+08
 
   -0.45073E+08         0.21531E+07         0.00000E+00
    0.21531E+07        -0.49909E+08         0.00000E+00
    0.00000E+00         0.00000E+00        -0.45676E+08
 
   -0.45096E+08         0.22308E+07         0.00000E+00
    0.22308E+07        -0.49902E+08         0.00000E+00
    0.00000E+00         0.00000E+00        -0.45675E+08
 
   -0.45119E+08         0.23082E+07         0.00000E+00
    0.23082E+07        -0.49895E+08         0.00000E+00
    0.00000E+00         0.00000E+00        -0.45675E+08
 
   -0.45142E+08         0.23854E+07         0.00000E+00
    0.23854E+07        -0.49887E+08         0.00000E+00
    0.00000E+00         0.00000E+00        -0.45675E+08
 
   -0.45166E+08         0.24623E+07         0.00000E+00
    0.24623E+07        -0.49879E+08         0.00000E+00
    0.00000E+00         0.00000E+00        -0.45675E+08
 
   -0.45190E+08         0.25390E+07         0.00000E+00
    0.25390E+07        -0.49871E+08         0.00000E+00
    0.00000E+00         0.00000E+00        -0.45674E+08
 
   -0.45214E+08         0.26154E+07         0.00000E+00
    0.26154E+07        -0.49863E+08         0.00000E+00
    0.00000E+00         0.00000E+00        -0.45674E+08
 
   -0.45238E+08         0.26916E+07         0.00000E+00
    0.26916E+07        -0.49854E+08         0.00000E+00
    0.00000E+00         0.00000E+00        -0.45674E+08
 
   -0.45262E+08         0.27675E+07         0.00000E+00
    0.27675E+07        -0.49845E+08         0.00000E+00
    0.00000E+00         0.00000E+00        -0.45674E+08
 
   -0.45287E+08         0.28431E+07         0.00000E+00
    0.28431E+07        -0.49835E+08         0.00000E+00
    0.00000E+00         0.00000E+00        -0.45674E+08
 
   -0.45311E+08         0.29185E+07         0.00000E+00
    0.29185E+07        -0.49826E+08         0.00000E+00
    0.00000E+00         0.00000E+00        -0.45673E+08
 
   -0.45336E+08         0.29936E+07         0.00000E+00
    0.29936E+07        -0.49815E+08         0.00000E+00
    0.00000E+00         0.00000E+00        -0.45673E+08
 
   -0.45362E+08         0.30684E+07         0.00000E+00
    0.30684E+07        -0.49805E+08         0.00000E+00
    0.00000E+00         0.00000E+00        -0.45673E+08
 
   -0.45387E+08         0.31430E+07         0.00000E+00
    0.31430E+07        -0.49794E+08         0.00000E+00
    0.00000E+00         0.00000E+00        -0.45673E+08
 
   -0.45413E+08         0.32173E+07         0.00000E+00
    0.32173E+07        -0.49784E+08         0.00000E+00
    0.00000E+00         0.00000E+00        -0.45673E+08
 
   -0.45439E+08         0.32913E+07         0.00000E+00
    0.32913E+07        -0.49772E+08         0.00000E+00
    0.00000E+00         0.00000E+00        -0.45673E+08
 
   -0.45465E+08         0.33651E+07         0.00000E+00
    0.33651E+07        -0.49761E+08         0.00000E+00
    0.00000E+00         0.00000E+00        -0.45672E+08
 
   -0.45492E+08         0.34385E+07         0.00000E+00
    0.34385E+07        -0.49749E+08         0.00000E+00
    0.00000E+00         0.00000E+00        -0.45672E+08
 
   -0.45519E+08         0.35117E+07         0.00000E+00
    0.35117E+07        -0.49736E+08         0.00000E+00
    0.00000E+00         0.00000E+00        -0.45672E+08
 
   -0.45546E+08         0.35846E+07         0.00000E+00
    0.35846E+07        -0.49724E+08         0.00000E+00
    0.00000E+00         0.00000E+00        -0.45672E+08
 
   -0.45573E+08         0.36573E+07         0.00000E+00
    0.36573E+07        -0.49711E+08         0.00000E+00
    0.00000E+00         0.00000E+00        -0.45672E+08
 
   -0.45601E+08         0.37296E+07         0.00000E+00
    0.37296E+07        -0.49698E+08         0.00000E+00
    0.00000E+00         0.00000E+00        -0.45672E+08
 
   -0.45629E+08         0.38016E+07         0.00000E+00
    0.38016E+07        -0.49684E+08         0.00000E+00
    0.00000E+00         0.00000E+00        -0.45672E+08
 
   -0.45658E+08         0.38734E+07         0.00000E+00
    0.38734E+07        -0.49670E+08         0.00000E+00
    0.00000E+00         0.00000E+00        -0.45672E+08
 
   -0.44111E+08         0.43249E+05         0.00000E+00
    0.43249E+05        -0.50000E+08         0.00000E+00
    0.00000E+00         0.00000E+00        -0.45319E+08
 
   -0.44131E+08         0.12900E+06         0.00000E+00
    0.12900E+06        -0.50000E+08         0.00000E+00
    0.00000E+00         0.00000E+00        -0.45319E+08
 
   -0.44151E+08         0.21448E+06         0.00000E+00
    0.21448E+06        -0.49999E+08         0.00000E+00
    0.00000E+00         0.00000E+00        -0.45319E+08
 
   -0.44172E+08         0.29969E+06         0.00000E+00
    0.29969E+06        -0.49998E+08         0.00000E+00
    0.00000E+00         0.00000E+00        -0.45319E+08
 
   -0.44192E+08         0.38463E+06         0.00000E+00
    0.38463E+06        -0.49997E+08         0.00000E+00
    0.00000E+00         0.00000E+00        -0.45319E+08
 
   -0.44213E+08         0.46931E+06         0.00000E+00
    0.46931E+06        -0.49996E+08         0.00000E+00
    0.00000E+00         0.00000E+00        -0.45319E+08
 
   -0.44234E+08         0.55373E+06         0.00000E+00
    0.55373E+06        -0.49994E+08         0.00000E+00
    0.00000E+00         0.00000E+00        -0.45319E+08
 
   -0.44255E+08         0.63788E+06         0.00000E+00
    0.63788E+06        -0.49993E+08         0.00000E+00
    0.00000E+00         0.00000E+00        -0.45319E+08
 
   -0.44276E+08         0.72177E+06         0.00000E+00
    0.72177E+06        -0.49990E+08         0.00000E+00
    0.00000E+00         0.00000E+00        -0.45319E+08
 
   -0.44297E+08         0.80540E+06         0.00000E+00
    0.80540E+06        -0.49988E+08         0.00000E+00
    0.00000E+00         0.00000E+00        -0.45318E+08
 
   -0.44318E+08         0.88878E+06         0.00000E+00
    0.88878E+06        -0.49985E+08         0.00000E+00
    0.00000E+00         0.00000E+00        -0.45318E+08
 
   -0.44340E+08         0.97189E+06         0.00000E+00
    0.97189E+06        -0.49982E+08         0.00000E+00
    0.00000E+00         0.00000E+00        -0.45318E+08
 
   -0.44361E+08         0.10548E+07         0.00000E+00
    0.10548E+07        -0.49979E+08         0.00000E+00
    0.00000E+00         0.00000E+00        -0.45318E+08
 
   -0.44383E+08         0.11374E+07         0.00000E+00
    0.11374E+07        -0.49976E+08         0.00000E+00
    0.00000E+00         0.00000E+00        -0.45318E+08
 
   -0.44405E+08         0.12197E+07         0.00000E+00
    0.12197E+07        -0.49972E+08         0.00000E+00
    0.00000E+00         0.00000E+00        -0.45317E+08
 
   -0.44427E+08         0.13018E+07         0.00000E+00
    0.13018E+07        -0.49968E+08         0.00000E+00
    0.00000E+00         0.00000E+00        -0.45317E+08
 
   -0.44449E+08         0.13837E+07         0.00000E+00
    0.13837E+07        -0.49964E+08         0.00000E+00
    0.00000E+00         0.00000E+00        -0.45317E+08
 
   -0.44472E+08         0.14653E+07         0.00000E+00
    0.14653E+07        -0.49959E+08         0.00000E+00
    0.00000E+00         0.00000E+00        -0.45317E+08
 
   -0.44494E+08         0.15466E+07         0.00000E+00
    0.15466E+07        -0.49954E+08         0.00000E+00
    0.00000E+00         0.00000E+00        -0.45316E+08
 
   -0.44517E+08         0.16277E+07         0.00000E+00
    0.16277E+07        -0.49949E+08         0.00000E+00
    0.00000E+00         0.00000E+00        -0.45316E+08
 
   -0.44540E+08         0.17086E+07         0.00000E+00
    0.17086E+07        -0.49944E+08         0.00000E+00
    0.00000E+00         0.00000E+00        -0.45316E+08
 
   -0.44563E+08         0.17892E+07         0.00000E+00
    0.17892E+07        -0.49938E+08         0.00000E+00
    0.00000E+00         0.00000E+00        -0.45316E+08
 
   -0.44586E+08         0.18695E+07         0.00000E+00
    0.18695E+07        -0.49932E+08         0.00000E+00
    0.00000E+00         0.00000E+00        -0.45315E+08
 
   -0.44609E+08         0.19497E+07         0.00000E+00
    0.19497E+07        -0.49926E+08         0.00000E+00
    0.00000E+00         0.00000E+00        -0.45315E+08
 
   -0.44633E+08         0.20295E+07         0.00000E+00
    0.20295E+07        -0.49920E+08         0.00000E+00
    0.00000E+00         0.00000E+00        -0.45315E+08
 
   -0.44657E+08         0.21092E+07         0.00000E+00
    0.21092E+07        -0.49913E+08         0.00000E+00
    0.00000E+00         0.00000E+00        -0.45315E+08
 
   -0.44681E+08         0.21886E+07         0.00000E+00
    0.21886E+07        -0.49906E+08         0.00000E+00
    0.00000E+00         0.00000E+00        -0.45314E+08
 
   -0.44705E+08         0.22677E+07         0.00000E+00
    0.22677E+07        -0.49898E+08         0.00000E+00
    0.00000E+00         0.00000E+00        -0.45314E+08
 
   -0.44729E+08         0.23466E+07         0.00000E+00
    0.23466E+07        -0.49891E+08         0.00000E+00
    0.00000E+00         0.00000E+00        -0.45314E+08
 
   -0.44754E+08         0.24252E+07         0.00000E+00
    0.24252E+07        -0.49883E+08         0.00000E+00
    0.00000E+00         0.00000E+00        -0.45313E+08
 
   -0.44778E+08         0.25037E+07         0.00000E+00
    0.25037E+07        -0.49874E+08         0.00000E+00
    0.00000E+00         0.00000E+00        -0.45313E+08
 
   -0.44803E+08         0.25818E+07         0.00000E+00
    0.25818E+07        -0.49866E+08         0.00000E+00
    0.00000E+00         0.00000E+00        -0.45313E+08
 
   -0.44828E+08         0.26597E+07         0.00000E+00
    0.26597E+07        -0.49857E+08         0.00000E+00
    0.00000E+00         0.00000E+00        -0.45313E+08
 
   -0.44854E+08         0.27374E+07         0.00000E+00
    0.27374E+07        -0.49848E+08         0.00000E+00
    0.00000E+00         0.00000E+00        -0.45312E+08
 
   -0.44879E+08         0.28149E+07         0.00000E+00
    0.28149E+07        -0.49838E+08         0.00000E+00
    0.00000E+00         0.00000E+00        -0.45312E+08
 
   -0.44905E+08         0.28920E+07         0.00000E+00
    0.28920E+07        -0.49828E+08         0.00000E+00
    0.00000E+00         0.00000E+00        -0.45312E+08
 
   -0.44931E+08         0.29690E+07         0.00000E+00
    0.29690E+07        -0.49818E+08         0.00000E+00
    0.00000E+00         0.00000E+00        -0.45312E+08
 
   -0.44958E+08         0.30457E+07         0.00000E+00
    0.30457E+07        -0.49808E+08         0.00000E+00
    0.00000E+00         0.00000E+00        -0.45312E+08
 
   -0.44984E+08         0.31221E+07         0.00000E+00
    0.31221E+07        -0.49797E+08         0.00000E+00
    0.00000E+00         0.00000E+00        -0.45311E+08
 
   -0.45011E+08         0.31983E+07         0.00000E+00
    0.31983E+07        -0.49786E+08         0.00000E+00
    0.00000E+00         0.00000E+00        -0.45311E+08
 
   -0.45038E+08         0.32743E+07         0.00000E+00
    0.32743E+07        -0.49774E+08         0.00000E+00
    0.00000E+00         0.00000E+00        -0.45311E+08
 
   -0.45065E+08         0.33499E+07         0.00000E+00
    0.33499E+07        -0.49762E+08         0.00000E+00
    0.00000E+00         0.00000E+00        -0.45311E+08
 
   -0.45093E+08         0.34254E+07         0.00000E+00
    0.34254E+07        -0.49750E+08         0.00000E+00
    0.00000E+00         0.00000E+00        -0.45311E+08
 
   -0.45121E+08         0.35005E+07         0.00000E+00
    0.35005E+07        -0.49738E+08         0.00000E+00
    0.00000E+00         0.00000E+00        -0.45311E+08
 
   -0.45149E+08         0.35754E+07         0.00000E+00
    0.35754E+07        -0.49725E+08         0.00000E+00
    0.00000E+00         0.00000E+00        -0.45310E+08
 
   -0.45178E+08         0.36501E+07         0.00000E+00
    0.36501E+07        -0.49711E+08         0.00000E+00
    0.00000E+00         0.00000E+00        -0.45310E+08
 
   -0.45207E+08         0.37245E+07         0.00000E+00
    0.37245E+07        -0.49698E+08         0.00000E+00
    0.00000E+00         0.00000E+00        -0.45310E+08
 
   -0.45236E+08         0.37986E+07         0.00000E+00
    0.37986E+07        -0.49684E+08         0.00000E+00
    0.00000E+00         0.00000E+00        -0.45310E+08
 
   -0.45265E+08         0.38724E+07         0.00000E+00
    0.38724E+07        -0.49670E+08         0.00000E+00
    0.00000E+00         0.00000E+00        -0.45310E+08
 
   -0.45295E+08         0.39460E+07         0.00000E+00
    0.39460E+07        -0.49655E+08         0.00000E+00
    0.00000E+00         0.00000E+00        -0.45310E+08
 
   -0.43678E+08         0.43923E+05         0.00000E+00
    0.43923E+05        -0.50000E+08         0.00000E+00
    0.00000E+00         0.00000E+00        -0.44949E+08
 
   -0.43700E+08         0.13102E+06         0.00000E+00
    0.13102E+06        -0.50000E+08         0.00000E+00
    0.00000E+00         0.00000E+00        -0.44949E+08
 
   -0.43721E+08         0.21785E+06         0.00000E+00
    0.21785E+06        -0.49999E+08         0.00000E+00
    0.00000E+00         0.00000E+00        -0.44949E+08
 
   -0.43743E+08         0.30441E+06         0.00000E+00
    0.30441E+06        -0.49998E+08         0.00000E+00
    0.00000E+00         0.00000E+00        -0.44949E+08
 
   -0.43765E+08         0.39070E+06         0.00000E+00
    0.39070E+06        -0.49997E+08         0.00000E+00
    0.00000E+00         0.00000E+00        -0.44949E+08
 
   -0.43787E+08         0.47673E+06         0.00000E+00
    0.47673E+06        -0.49996E+08         0.00000E+00
    0.00000E+00         0.00000E+00        -0.44949E+08
 
   -0.43809E+08         0.56250E+06         0.00000E+00
    0.56250E+06        -0.49994E+08         0.00000E+00
    0.00000E+00         0.00000E+00        -0.44949E+08
 
   -0.43831E+08         0.64800E+06         0.00000E+00
    0.64800E+06        -0.49992E+08         0.00000E+00
    0.00000E+00         0.00000E+00        -0.44948E+08
 
   -0.43853E+08         0.73325E+06         0.00000E+00
    0.73325E+06        -0.49990E+08         0.00000E+00
    0.00000E+00         0.00000E+00        -0.44948E+08
 
   -0.43876E+08         0.81824E+06         0.00000E+00
    0.81824E+06        -0.49988E+08         0.00000E+00
    0.00000E+00         0.00000E+00        -0.44948E+08
 
   -0.43898E+08         0.90298E+06         0.00000E+00
    0.90298E+06        -0.49985E+08         0.00000E+00
    0.00000E+00         0.00000E+00        -0.44948E+08
 
   -0.43921E+08         0.98746E+06         0.00000E+00
    0.98746E+06        -0.49982E+08         0.00000E+00
    0.00000E+00         0.00000E+00        -0.44948E+08
 
   -0.43944E+08         0.10717E+07         0.00000E+00
    0.10717E+07        -0.49979E+08         0.00000E+00
    0.00000E+00         0.00000E+00        -0.44948E+08
 
   -0.43967E+08         0.11557E+07         0.00000E+00
    0.11557E+07        -0.49975E+08         0.00000E+00
    0.00000E+00         0.00000E+00        -0.44947E+08
 
   -0.43990E+08         0.12394E+07         0.00000E+00
    0.12394E+07        -0.49971E+08         0.00000E+00
    0.00000E+00         0.00000E+00        -0.44947E+08
 
   -0.44014E+08         0.13229E+07         0.00000E+00
    0.13229E+07        -0.49967E+08         0.00000E+00
    0.00000E+00         0.00000E+00        -0.44947E+08
 
   -0.44037E+08         0.14061E+07         0.00000E+00
    0.14061E+07        -0.49962E+08         0.00000E+00
    0.00000E+00         0.00000E+00        -0.44947E+08
 
   -0.44061E+08         0.14891E+07         0.00000E+00
    0.14891E+07        -0.49958E+08         0.00000E+00
    0.00000E+00         0.00000E+00        -0.44946E+08
 
   -0.44084E+08         0.15719E+07         0.00000E+00
    0.15719E+07        -0.49953E+08         0.00000E+00
    0.00000E+00         0.00000E+00        -0.44946E+08
 
   -0.44108E+08         0.16544E+07         0.00000E+00
    0.16544E+07        -0.49947E+08         0.00000E+00
    0.00000E+00         0.00000E+00        -0.44946E+08
 
   -0.44132E+08         0.17367E+07         0.00000E+00
    0.17367E+07        -0.49942E+08         0.00000E+00
    0.00000E+00         0.00000E+00        -0.44945E+08
 
   -0.44157E+08         0.18188E+07         0.00000E+00
    0.18188E+07        -0.49936E+08         0.00000E+00
    0.00000E+00         0.00000E+00        -0.44945E+08
 
   -0.44181E+08         0.19006E+07         0.00000E+00
    0.19006E+07        -0.49930E+08         0.00000E+00
    0.00000E+00         0.00000E+00        -0.44945E+08
 
   -0.44206E+08         0.19821E+07         0.00000E+00
    0.19821E+07        -0.49923E+08         0.00000E+00
    0.00000E+00         0.00000E+00        -0.44944E+08
 
   -0.44230E+08         0.20635E+07         0.00000E+00
    0.20635E+07        -0.49917E+08         0.00000E+00
    0.00000E+00         0.00000E+00        -0.44944E+08
 
   -0.44255E+08         0.21446E+07         0.00000E+00
    0.21446E+07        -0.49910E+08         0.00000E+00
    0.00000E+00         0.00000E+00        -0.44944E+08
 
   -0.44280E+08         0.22255E+07         0.00000E+00
    0.22255E+07        -0.49902E+08         0.00000E+00
    0.00000E+00         0.00000E+00        -0.44944E+08
 
   -0.44306E+08         0.23061E+07         0.00000E+00
    0.23061E+07        -0.49895E+08         0.00000E+00
    0.00000E+00         0.00000E+00        -0.44943E+08
 
   -0.44331E+08         0.23865E+07         0.00000E+00
    0.23865E+07        -0.49887E+08         0.00000E+00
    0.00000E+00         0.00000E+00        -0.44943E+08
 
   -0.44357E+08         0.24667E+07         0.00000E+00
    0.24667E+07        -0.49878E+08         0.00000E+00
    0.00000E+00         0.00000E+00        -0.44943E+08
 
   -0.44383E+08         0.25467E+07         0.00000E+00
    0.25467E+07        -0.49870E+08         0.00000E+00
    0.00000E+00         0.00000E+00        -0.44942E+08
 
   -0.44409E+08         0.26264E+07         0.00000E+00
    0.26264E+07        -0.49861E+08         0.00000E+00
    0.00000E+00         0.00000E+00        -0.44942E+08
 
   -0.44435E+08         0.27059E+07         0.00000E+00
    0.27059E+07        -0.49852E+08         0.00000E+00
    0.00000E+00         0.00000E+00        -0.44942E+08
 
   -0.44462E+08         0.27852E+07         0.00000E+00
    0.27852E+07        -0.49842E+08         0.00000E+00
    0.00000E+00         0.00000E+00        -0.44941E+08
 
   -0.44489E+08         0.28642E+07         0.00000E+00
    0.28642E+07        -0.49832E+08         0.00000E+00
    0.00000E+00         0.00000E+00        -0.44941E+08
 
   -0.44516E+08         0.29430E+07         0.00000E+00
    0.29430E+07        -0.49822E+08         0.00000E+00
    0.00000E+00         0.00000E+00        -0.44941E+08
 
   -0.44543E+08         0.30216E+07         0.00000E+00
    0.30216E+07        -0.49811E+08         0.00000E+00
    0.00000E+00         0.00000E+00        -0.44941E+08
 
   -0.44571E+08         0.31000E+07         0.00000E+00
    0.31000E+07        -0.49800E+08         0.00000E+00
    0.00000E+00         0.00000E+00        -0.44940E+08
 
   -0.44598E+08         0.31781E+07         0.00000E+00
    0.31781E+07        -0.49789E+08         0.00000E+00
    0.00000E+00         0.00000E+00        -0.44940E+08
 
   -0.44626E+08         0.32560E+07         0.00000E+00
    0.32560E+07        -0.49778E+08         0.00000E+00
    0.00000E+00         0.00000E+00        -0.44940E+08
 
   -0.44655E+08         0.33337E+07         0.00000E+00
    0.33337E+07        -0.49766E+08         0.00000E+00
    0.00000E+00         0.00000E+00        -0.44940E+08
 
   -0.44683E+08         0.34111E+07         0.00000E+00
    0.34111E+07        -0.49753E+08         0.00000E+00
    0.00000E+00         0.00000E+00        -0.44940E+08
 
   -0.44712E+08         0.34883E+07         0.00000E+00
    0.34883E+07        -0.49741E+08         0.00000E+00
    0.00000E+00         0.00000E+00        -0.44939E+08
 
   -0.44741E+08         0.35653E+07         0.00000E+00
    0.35653E+07        -0.49728E+08         0.00000E+00
    0.00000E+00         0.00000E+00        -0.44939E+08
 
   -0.44771E+08         0.36420E+07         0.00000E+00
    0.36420E+07        -0.49714E+08         0.00000E+00
    0.00000E+00         0.00000E+00        -0.44939E+08
 
   -0.44801E+08         0.37185E+07         0.00000E+00
    0.37185E+07        -0.49700E+08         0.00000E+00
    0.00000E+00         0.00000E+00        -0.44939E+08
 
   -0.44831E+08         0.37948E+07         0.00000E+00
    0.37948E+07        -0.49686E+08         0.00000E+00
    0.00000E+00         0.00000E+00        -0.44939E+08
 
   -0.44861E+08         0.38708E+07         0.00000E+00
    0.38708E+07        -0.49672E+08         0.00000E+00
    0.00000E+00         0.00000E+00        -0.44939E+08
 
   -0.44892E+08         0.39465E+07         0.00000E+00
    0.39465E+07        -0.49657E+08         0.00000E+00
    0.00000E+00         0.00000E+00        -0.44939E+08
 
   -0.44923E+08         0.40220E+07         0.00000E+00
    0.40220E+07        -0.49642E+08         0.00000E+00
    0.00000E+00         0.00000E+00        -0.44939E+08
 
   -0.43239E+08         0.44621E+05         0.00000E+00
    0.44621E+05        -0.50000E+08         0.00000E+00
    0.00000E+00         0.00000E+00        -0.44569E+08
 
   -0.43261E+08         0.13311E+06         0.00000E+00
    0.13311E+06        -0.50000E+08         0.00000E+00
    0.00000E+00         0.00000E+00        -0.44569E+08
 
   -0.43284E+08         0.22133E+06         0.00000E+00
    0.22133E+06        -0.49999E+08         0.00000E+00
    0.00000E+00         0.00000E+00        -0.44569E+08
 
   -0.43307E+08         0.30928E+06         0.00000E+00
    0.30928E+06        -0.49998E+08         0.00000E+00
    0.00000E+00         0.00000E+00        -0.44569E+08
 
   -0.43330E+08         0.39697E+06         0.00000E+00
    0.39697E+06        -0.49997E+08         0.00000E+00
    0.00000E+00         0.00000E+00        -0.44569E+08
 
   -0.43354E+08         0.48439E+06         0.00000E+00
    0.48439E+06        -0.49996E+08         0.00000E+00
    0.00000E+00         0.00000E+00        -0.44569E+08
 
   -0.43377E+08         0.57155E+06         0.00000E+00
    0.57155E+06        -0.49994E+08         0.00000E+00
    0.00000E+00         0.00000E+00        -0.44568E+08
 
   -0.43401E+08         0.65846E+06         0.00000E+00
    0.65846E+06        -0.49992E+08         0.00000E+00
    0.00000E+00         0.00000E+00        -0.44568E+08
 
   -0.43424E+08         0.74511E+06         0.00000E+00
    0.74511E+06        -0.49990E+08         0.00000E+00
    0.00000E+00         0.00000E+00        -0.44568E+08
 
   -0.43448E+08         0.83150E+06         0.00000E+00
    0.83150E+06        -0.49987E+08         0.00000E+00
    0.00000E+00         0.00000E+00        -0.44568E+08
 
   -0.43472E+08         0.91764E+06         0.00000E+00
    0.91764E+06        -0.49984E+08         0.00000E+00
    0.00000E+00         0.00000E+00        -0.44568E+08
 
   -0.43496E+08         0.10035E+07         0.00000E+00
    0.10035E+07        -0.49981E+08         0.00000E+00
    0.00000E+00         0.00000E+00        -0.44567E+08
 
   -0.43520E+08         0.10892E+07         0.00000E+00
    0.10892E+07        -0.49978E+08         0.00000E+00
    0.00000E+00         0.00000E+00        -0.44567E+08
 
   -0.43544E+08         0.11746E+07         0.00000E+00
    0.11746E+07        -0.49974E+08         0.00000E+00
    0.00000E+00         0.00000E+00        -0.44567E+08
 
   -0.43569E+08         0.12597E+07         0.00000E+00
    0.12597E+07        -0.49970E+08         0.00000E+00
    0.00000E+00         0.00000E+00        -0.44567E+08
 
   -0.43593E+08         0.13447E+07         0.00000E+00
    0.13447E+07        -0.49966E+08         0.00000E+00
    0.00000E+00         0.00000E+00        -0.44566E+08
 
   -0.43618E+08         0.14294E+07         0.00000E+00
    0.14294E+07        -0.49961E+08         0.00000E+00
    0.00000E+00         0.00000E+00        -0.44566E+08
 
   -0.43643E+08         0.15138E+07         0.00000E+00
    0.15138E+07        -0.49957E+08         0.00000E+00
    0.00000E+00         0.00000E+00        -0.44566E+08
 
   -0.43668E+08         0.15980E+07         0.00000E+00
    0.15980E+07        -0.49951E+08         0.00000E+00
    0.00000E+00         0.00000E+00        -0.44565E+08
 
   -0.43693E+08         0.16820E+07         0.00000E+00
    0.16820E+07        -0.49946E+08         0.00000E+00
    0.00000E+00         0.00000E+00        -0.44565E+08
 
   -0.43718E+08         0.17658E+07         0.00000E+00
    0.17658E+07        -0.49940E+08         0.00000E+00
    0.00000E+00         0.00000E+00        -0.44565E+08
 
   -0.43743E+08         0.18493E+07         0.00000E+00
    0.18493E+07        -0.49934E+08         0.00000E+00
    0.00000E+00         0.00000E+00        -0.44564E+08
 
   -0.43769E+08         0.19326E+07         0.00000E+00
    0.19326E+07        -0.49928E+08         0.00000E+00
    0.00000E+00         0.00000E+00        -0.44564E+08
 
   -0.43795E+08         0.20157E+07         0.00000E+00
    0.20157E+07        -0.49921E+08         0.00000E+00
    0.00000E+00         0.00000E+00        -0.44564E+08
 
   -0.43820E+08         0.20985E+07         0.00000E+00
    0.20985E+07        -0.49914E+08         0.00000E+00
    0.00000E+00         0.00000E+00        -0.44563E+08
 
   -0.43847E+08         0.21812E+07         0.00000E+00
    0.21812E+07        -0.49907E+08         0.00000E+00
    0.00000E+00         0.00000E+00        -0.44563E+08
 
   -0.43873E+08         0.22636E+07         0.00000E+00
    0.22636E+07        -0.49899E+08         0.00000E+00
    0.00000E+00         0.00000E+00        -0.44563E+08
 
   -0.43899E+08         0.23458E+07         0.00000E+00
    0.23458E+07        -0.49891E+08         0.00000E+00
    0.00000E+00         0.00000E+00        -0.44562E+08
 
   -0.43926E+08         0.24278E+07         0.00000E+00
    0.24278E+07        -0.49883E+08         0.00000E+00
    0.00000E+00         0.00000E+00        -0.44562E+08
 
   -0.43953E+08         0.25096E+07         0.00000E+00
    0.25096E+07        -0.49875E+08         0.00000E+00
    0.00000E+00         0.00000E+00        -0.44562E+08
 
   -0.43980E+08         0.25911E+07         0.00000E+00
    0.25911E+07        -0.49866E+08         0.00000E+00
    0.00000E+00         0.00000E+00        -0.44561E+08
 
   -0.44007E+08         0.26725E+07         0.00000E+00
    0.26725E+07        -0.49857E+08         0.00000E+00
    0.00000E+00         0.00000E+00        -0.44561E+08
 
   -0.44034E+08         0.27537E+07         0.00000E+00
    0.27537E+07        -0.49847E+08         0.00000E+00
    0.00000E+00         0.00000E+00        -0.44561E+08
 
   -0.44062E+08         0.28346E+07         0.00000E+00
    0.28346E+07        -0.49837E+08         0.00000E+00
    0.00000E+00         0.00000E+00        -0.44560E+08
 
   -0.44090E+08         0.29153E+07         0.00000E+00
    0.29153E+07        -0.49827E+08         0.00000E+00
    0.00000E+00         0.00000E+00        -0.44560E+08
 
   -0.44118E+08         0.29958E+07         0.00000E+00
    0.29958E+07        -0.49816E+08         0.00000E+00
    0.00000E+00         0.00000E+00        -0.44560E+08
 
   -0.44146E+08         0.30762E+07         0.00000E+00
    0.30762E+07        -0.49806E+08         0.00000E+00
    0.00000E+00         0.00000E+00        -0.44559E+08
 
   -0.44175E+08         0.31563E+07         0.00000E+00
    0.31563E+07        -0.49794E+08         0.00000E+00
    0.00000E+00         0.00000E+00        -0.44559E+08
 
   -0.44204E+08         0.32362E+07         0.00000E+00
    0.32362E+07        -0.49783E+08         0.00000E+00
    0.00000E+00         0.00000E+00        -0.44559E+08
 
   -0.44233E+08         0.33159E+07         0.00000E+00
    0.33159E+07        -0.49771E+08         0.00000E+00
    0.00000E+00         0.00000E+00        -0.44559E+08
 
   -0.44262E+08         0.33954E+07         0.00000E+00
    0.33954E+07        -0.49758E+08         0.00000E+00
    0.00000E+00         0.00000E+00        -0.44558E+08
 
   -0.44292E+08         0.34746E+07         0.00000E+00
    0.34746E+07        -0.49746E+08         0.00000E+00
    0.00000E+00         0.00000E+00        -0.44558E+08
 
   -0.44322E+08         0.35537E+07         0.00000E+00
    0.35537E+07        -0.49733E+08         0.00000E+00
    0.00000E+00         0.00000E+00        -0.44558E+08
 
   -0.44352E+08         0.36326E+07         0.00000E+00
    0.36326E+07        -0.49719E+08         0.00000E+00
    0.00000E+00         0.00000E+00        -0.44558E+08
 
   -0.44383E+08         0.37112E+07         0.00000E+00
    0.37112E+07        -0.49705E+08         0.00000E+00
    0.00000E+00         0.00000E+00        -0.44558E+08
 
   -0.44414E+08         0.37897E+07         0.00000E+00
    0.37897E+07        -0.49691E+08         0.00000E+00
    0.00000E+00         0.00000E+00        -0.44558E+08
 
   -0.44445E+08         0.38679E+07         0.00000E+00
    0.38679E+07        -0.49676E+08         0.00000E+00
    0.00000E+00         0.00000E+00        -0.44557E+08
 
   -0.44477E+08         0.39459E+07         0.00000E+00
    0.39459E+07        -0.49661E+08         0.00000E+00
    0.00000E+00         0.00000E+00        -0.44557E+08
 
   -0.44509E+08         0.40237E+07         0.00000E+00
    0.40237E+07        -0.49646E+08         0.00000E+00
    0.00000E+00         0.00000E+00        -0.44557E+08
 
   -0.44541E+08         0.41012E+07         0.00000E+00
    0.41012E+07        -0.49630E+08         0.00000E+00
    0.00000E+00         0.00000E+00        -0.44557E+08
 
   -0.42792E+08         0.45338E+05         0.00000E+00
    0.45338E+05        -0.50000E+08         0.00000E+00
    0.00000E+00         0.00000E+00        -0.44178E+08
 
   -0.42816E+08         0.13526E+06         0.00000E+00
    0.13526E+06        -0.50000E+08         0.00000E+00
    0.00000E+00         0.00000E+00        -0.44178E+08
 
   -0.42840E+08         0.22491E+06         0.00000E+00
    0.22491E+06        -0.49999E+08         0.00000E+00
    0.00000E+00         0.00000E+00        -0.44178E+08
 
   -0.42865E+08         0.31430E+06         0.00000E+00
    0.31430E+06        -0.49998E+08         0.00000E+00
    0.00000E+00         0.00000E+00        -0.44178E+08
 
   -0.42889E+08         0.40341E+06         0.00000E+00
    0.40341E+06        -0.49997E+08         0.00000E+00
    0.00000E+00         0.00000E+00        -0.44178E+08
 
   -0.42914E+08         0.49227E+06         0.00000E+00
    0.49227E+06        -0.49996E+08         0.00000E+00
    0.00000E+00         0.00000E+00        -0.44178E+08
 
   -0.42938E+08         0.58086E+06         0.00000E+00
    0.58086E+06        -0.49994E+08         0.00000E+00
    0.00000E+00         0.00000E+00        -0.44177E+08
 
   -0.42963E+08         0.66920E+06         0.00000E+00
    0.66920E+06        -0.49992E+08         0.00000E+00
    0.00000E+00         0.00000E+00        -0.44177E+08
 
   -0.42988E+08         0.75729E+06         0.00000E+00
    0.75729E+06        -0.49990E+08         0.00000E+00
    0.00000E+00         0.00000E+00        -0.44177E+08
 
   -0.43013E+08         0.84512E+06         0.00000E+00
    0.84512E+06        -0.49987E+08         0.00000E+00
    0.00000E+00         0.00000E+00        -0.44177E+08
 
   -0.43038E+08         0.93271E+06         0.00000E+00
    0.93271E+06        -0.49984E+08         0.00000E+00
    0.00000E+00         0.00000E+00        -0.44177E+08
 
   -0.43063E+08         0.10200E+07         0.00000E+00
    0.10200E+07        -0.49981E+08         0.00000E+00
    0.00000E+00         0.00000E+00        -0.44176E+08
 
   -0.43089E+08         0.11071E+07         0.00000E+00
    0.11071E+07        -0.49977E+08         0.00000E+00
    0.00000E+00         0.00000E+00        -0.44176E+08
 
   -0.43114E+08         0.11940E+07         0.00000E+00
    0.11940E+07        -0.49974E+08         0.00000E+00
    0.00000E+00         0.00000E+00        -0.44176E+08
 
   -0.43140E+08         0.12806E+07         0.00000E+00
    0.12806E+07        -0.49969E+08         0.00000E+00
    0.00000E+00         0.00000E+00        -0.44175E+08
 
   -0.43165E+08         0.13670E+07         0.00000E+00
    0.13670E+07        -0.49965E+08         0.00000E+00
    0.00000E+00         0.00000E+00        -0.44175E+08
 
   -0.43191E+08         0.14532E+07         0.00000E+00
    0.14532E+07        -0.49960E+08         0.00000E+00
    0.00000E+00         0.00000E+00        -0.44175E+08
 
   -0.43217E+08         0.15391E+07         0.00000E+00
    0.15391E+07        -0.49955E+08         0.00000E+00
    0.00000E+00         0.00000E+00        -0.44174E+08
 
   -0.43243E+08         0.16248E+07         0.00000E+00
    0.16248E+07        -0.49950E+08         0.00000E+00
    0.00000E+00         0.00000E+00        -0.44174E+08
 
   -0.43270E+08         0.17103E+07         0.00000E+00
    0.17103E+07        -0.49945E+08         0.00000E+00
    0.00000E+00         0.00000E+00        -0.44174E+08
 
   -0.43296E+08         0.17956E+07         0.00000E+00
    0.17956E+07        -0.49939E+08         0.00000E+00
    0.00000E+00         0.00000E+00        -0.44173E+08
 
   -0.43322E+08         0.18806E+07         0.00000E+00
    0.18806E+07        -0.49933E+08         0.00000E+00
    0.00000E+00         0.00000E+00        -0.44173E+08
 
   -0.43349E+08         0.19655E+07         0.00000E+00
    0.19655E+07        -0.49926E+08         0.00000E+00
    0.00000E+00         0.00000E+00        -0.44173E+08
 
   -0.43376E+08         0.20501E+07         0.00000E+00
    0.20501E+07        -0.49919E+08         0.00000E+00
    0.00000E+00         0.00000E+00        -0.44172E+08
 
   -0.43403E+08         0.21345E+07         0.00000E+00
    0.21345E+07        -0.49912E+08         0.00000E+00
    0.00000E+00         0.00000E+00        -0.44172E+08
 
   -0.43430E+08         0.22187E+07         0.00000E+00
    0.22187E+07        -0.49905E+08         0.00000E+00
    0.00000E+00         0.00000E+00        -0.44171E+08
 
   -0.43457E+08         0.23028E+07         0.00000E+00
    0.23028E+07        -0.49897E+08         0.00000E+00
    0.00000E+00         0.00000E+00        -0.44171E+08
 
   -0.43485E+08         0.23866E+07         0.00000E+00
    0.23866E+07        -0.49889E+08         0.00000E+00
    0.00000E+00         0.00000E+00        -0.44171E+08
 
   -0.43512E+08         0.24702E+07         0.00000E+00
    0.24702E+07        -0.49880E+08         0.00000E+00
    0.00000E+00         0.00000E+00        -0.44170E+08
 
   -0.43540E+08         0.25536E+07         0.00000E+00
    0.25536E+07        -0.49872E+08         0.00000E+00
    0.00000E+00         0.00000E+00        -0.44170E+08
 
   -0.43568E+08         0.26368E+07         0.00000E+00
    0.26368E+07        -0.49863E+08         0.00000E+00
    0.00000E+00         0.00000E+00        -0.44170E+08
 
   -0.43596E+08         0.27199E+07         0.00000E+00
    0.27199E+07        -0.49853E+08         0.00000E+00
    0.00000E+00         0.00000E+00        -0.44169E+08
 
   -0.43625E+08         0.28027E+07         0.00000E+00
    0.28027E+07        -0.49843E+08         0.00000E+00
    0.00000E+00         0.00000E+00        -0.44169E+08
 
   -0.43653E+08         0.28854E+07         0.00000E+00
    0.28854E+07        -0.49833E+08         0.00000E+00
    0.00000E+00         0.00000E+00        -0.44168E+08
 
   -0.43682E+08         0.29679E+07         0.00000E+00
    0.29679E+07        -0.49823E+08         0.00000E+00
    0.00000E+00         0.00000E+00        -0.44168E+08
 
   -0.43711E+08         0.30502E+07         0.00000E+00
    0.30502E+07        -0.49812E+08         0.00000E+00
    0.00000E+00         0.00000E+00        -0.44168E+08
 
   -0.43741E+08         0.31323E+07         0.00000E+00
    0.31323E+07        -0.49801E+08         0.00000E+00
    0.00000E+00         0.00000E+00        -0.44167E+08
 
   -0.43770E+08         0.32142E+07         0.00000E+00
    0.32142E+07        -0.49789E+08         0.00000E+00
    0.00000E+00         0.00000E+00        -0.44167E+08
 
   -0.43800E+08         0.32959E+07         0.00000E+00
    0.32959E+07        -0.49777E+08         0.00000E+00
    0.00000E+00         0.00000E+00        -0.44167E+08
 
   -0.43830E+08         0.33775E+07         0.00000E+00
    0.33775E+07        -0.49765E+08         0.00000E+00
    0.00000E+00         0.00000E+00        -0.44167E+08
 
   -0.43861E+08         0.34589E+07         0.00000E+00
    0.34589E+07        -0.49752E+08         0.00000E+00
    0.00000E+00         0.00000E+00        -0.44166E+08
 
   -0.43891E+08         0.35401E+07         0.00000E+00
    0.35401E+07        -0.49739E+08         0.00000E+00
    0.00000E+00         0.00000E+00        -0.44166E+08
 
   -0.43922E+08         0.36211E+07         0.00000E+00
    0.36211E+07        -0.49726E+08         0.00000E+00
    0.00000E+00         0.00000E+00        -0.44166E+08
 
   -0.43954E+08         0.37020E+07         0.00000E+00
    0.37020E+07        -0.49712E+08         0.00000E+00
    0.00000E+00         0.00000E+00        -0.44166E+08
 
   -0.43985E+08         0.37826E+07         0.00000E+00
    0.37826E+07        -0.49698E+08         0.00000E+00
    0.00000E+00         0.00000E+00        -0.44166E+08
 
   -0.44017E+08         0.38631E+07         0.00000E+00
    0.38631E+07        -0.49683E+08         0.00000E+00
    0.00000E+00         0.00000E+00        -0.44165E+08
 
   -0.44049E+08         0.39434E+07         0.00000E+00
    0.39434E+07        -0.49668E+08         0.00000E+00
    0.00000E+00         0.00000E+00        -0.44165E+08
 
   -0.44082E+08         0.40235E+07         0.00000E+00
    0.40235E+07        -0.49652E+08         0.00000E+00
    0.00000E+00         0.00000E+00        -0.44165E+08
 
   -0.44115E+08         0.41034E+07         0.00000E+00
    0.41034E+07        -0.49636E+08         0.00000E+00
    0.00000E+00         0.00000E+00        -0.44165E+08
 
   -0.44148E+08         0.41832E+07         0.00000E+00
    0.41832E+07        -0.49620E+08         0.00000E+00
    0.00000E+00         0.00000E+00        -0.44165E+08
 
   -0.42338E+08         0.46074E+05         0.00000E+00
    0.46074E+05        -0.50000E+08         0.00000E+00
    0.00000E+00         0.00000E+00        -0.43776E+08
 
   -0.42363E+08         0.13746E+06         0.00000E+00
    0.13746E+06        -0.50000E+08         0.00000E+00
    0.00000E+00         0.00000E+00        -0.43776E+08
 
   -0.42389E+08         0.22858E+06         0.00000E+00
    0.22858E+06        -0.49999E+08         0.00000E+00
    0.00000E+00         0.00000E+00        -0.43776E+08
 
   -0.42415E+08         0.31943E+06         0.00000E+00
    0.31943E+06        -0.49998E+08         0.00000E+00
    0.00000E+00         0.00000E+00        -0.43776E+08
 
   -0.42441E+08         0.41001E+06         0.00000E+00
    0.41001E+06        -0.49997E+08         0.00000E+00
    0.00000E+00         0.00000E+00        -0.43776E+08
 
   -0.42466E+08         0.50033E+06         0.00000E+00
    0.50033E+06        -0.49995E+08         0.00000E+00
    0.00000E+00         0.00000E+00        -0.43775E+08
 
   -0.42492E+08         0.59039E+06         0.00000E+00
    0.59039E+06        -0.49994E+08         0.00000E+00
    0.00000E+00         0.00000E+00        -0.43775E+08
 
   -0.42518E+08         0.68020E+06         0.00000E+00
    0.68020E+06        -0.49992E+08         0.00000E+00
    0.00000E+00         0.00000E+00        -0.43775E+08
 
   -0.42545E+08         0.76975E+06         0.00000E+00
    0.76975E+06        -0.49989E+08         0.00000E+00
    0.00000E+00         0.00000E+00        -0.43775E+08
 
   -0.42571E+08         0.85905E+06         0.00000E+00
    0.85905E+06        -0.49987E+08         0.00000E+00
    0.00000E+00         0.00000E+00        -0.43775E+08
 
   -0.42597E+08         0.94811E+06         0.00000E+00
    0.94811E+06        -0.49984E+08         0.00000E+00
    0.00000E+00         0.00000E+00        -0.43774E+08
 
   -0.42624E+08         0.10369E+07         0.00000E+00
    0.10369E+07        -0.49980E+08         0.00000E+00
    0.00000E+00         0.00000E+00        -0.43774E+08
 
   -0.42650E+08         0.11255E+07         0.00000E+00
    0.11255E+07        -0.49977E+08         0.00000E+00
    0.00000E+00         0.00000E+00        -0.43774E+08
 
   -0.42677E+08         0.12138E+07         0.00000E+00
    0.12138E+07        -0.49973E+08         0.00000E+00
    0.00000E+00         0.00000E+00        -0.43773E+08
 
   -0.42704E+08         0.13020E+07         0.00000E+00
    0.13020E+07        -0.49969E+08         0.00000E+00
    0.00000E+00         0.00000E+00        -0.43773E+08
 
   -0.42730E+08         0.13898E+07         0.00000E+00
    0.13898E+07        -0.49964E+08         0.00000E+00
    0.00000E+00         0.00000E+00        -0.43773E+08
 
   -0.42757E+08         0.14775E+07         0.00000E+00
    0.14775E+07        -0.49960E+08         0.00000E+00
    0.00000E+00         0.00000E+00        -0.43772E+08
 
   -0.42784E+08         0.15649E+07         0.00000E+00
    0.15649E+07        -0.49955E+08         0.00000E+00
    0.00000E+00         0.00000E+00        -0.43772E+08
 
   -0.42812E+08         0.16522E+07         0.00000E+00
    0.16522E+07        -0.49949E+08         0.00000E+00
    0.00000E+00         0.00000E+00        -0.43771E+08
 
   -0.42839E+08         0.17392E+07         0.00000E+00
    0.17392E+07        -0.49944E+08         0.00000E+00
    0.00000E+00         0.00000E+00        -0.43771E+08
 
   -0.42866E+08         0.18260E+07         0.00000E+00
    0.18260E+07        -0.49938E+08         0.00000E+00
    0.00000E+00         0.00000E+00        -0.43771E+08
 
   -0.42894E+08         0.19126E+07         0.00000E+00
    0.19126E+07        -0.49931E+08         0.00000E+00
    0.00000E+00         0.00000E+00        -0.43770E+08
 
   -0.42921E+08         0.19990E+07         0.00000E+00
    0.19990E+07        -0.49925E+08         0.00000E+00
    0.00000E+00         0.00000E+00        -0.43770E+08
 
   -0.42949E+08         0.20852E+07         0.00000E+00
    0.20852E+07        -0.49918E+08         0.00000E+00
    0.00000E+00         0.00000E+00        -0.43769E+08
 
   -0.42977E+08         0.21712E+07         0.00000E+00
    0.21712E+07        -0.49911E+08         0.00000E+00
    0.00000E+00         0.00000E+00        -0.43769E+08
 
   -0.43005E+08         0.22571E+07         0.00000E+00
    0.22571E+07        -0.49903E+08         0.00000E+00
    0.00000E+00         0.00000E+00        -0.43769E+08
 
   -0.43034E+08         0.23427E+07         0.00000E+00
    0.23427E+07        -0.49895E+08         0.00000E+00
    0.00000E+00         0.00000E+00        -0.43768E+08
 
   -0.43062E+08         0.24282E+07         0.00000E+00
    0.24282E+07        -0.49887E+08         0.00000E+00
    0.00000E+00         0.00000E+00        -0.43768E+08
 
   -0.43090E+08         0.25134E+07         0.00000E+00
    0.25134E+07        -0.49878E+08         0.00000E+00
    0.00000E+00         0.00000E+00        -0.43767E+08
 
   -0.43119E+08         0.25985E+07         0.00000E+00
    0.25985E+07        -0.49869E+08         0.00000E+00
    0.00000E+00         0.00000E+00        -0.43767E+08
 
   -0.43148E+08         0.26835E+07         0.00000E+00
    0.26835E+07        -0.49860E+08         0.00000E+00
    0.00000E+00         0.00000E+00        -0.43766E+08
 
   -0.43177E+08         0.27682E+07         0.00000E+00
    0.27682E+07        -0.49851E+08         0.00000E+00
    0.00000E+00         0.00000E+00        -0.43766E+08
 
   -0.43207E+08         0.28528E+07         0.00000E+00
    0.28528E+07        -0.49841E+08         0.00000E+00
    0.00000E+00         0.00000E+00        -0.43766E+08
 
   -0.43236E+08         0.29373E+07         0.00000E+00
    0.29373E+07        -0.49830E+08         0.00000E+00
    0.00000E+00         0.00000E+00        -0.43765E+08
 
   -0.43266E+08         0.30215E+07         0.00000E+00
    0.30215E+07        -0.49820E+08         0.00000E+00
    0.00000E+00         0.00000E+00        -0.43765E+08
 
   -0.43296E+08         0.31057E+07         0.00000E+00
    0.31057E+07        -0.49809E+08         0.00000E+00
    0.00000E+00         0.00000E+00        -0.43765E+08
 
   -0.43326E+08         0.31896E+07         0.00000E+00
    0.31896E+07        -0.49797E+08         0.00000E+00
    0.00000E+00         0.00000E+00        -0.43764E+08
 
   -0.43356E+08         0.32734E+07         0.00000E+00
    0.32734E+07        -0.49786E+08         0.00000E+00
    0.00000E+00         0.00000E+00        -0.43764E+08
 
   -0.43387E+08         0.33571E+07         0.00000E+00
    0.33571E+07        -0.49773E+08         0.00000E+00
    0.00000E+00         0.00000E+00        -0.43764E+08
 
   -0.43418E+08         0.34406E+07         0.00000E+00
    0.34406E+07        -0.49761E+08         0.00000E+00
    0.00000E+00         0.00000E+00        -0.43763E+08
 
   -0.43449E+08         0.35239E+07         0.00000E+00
    0.35239E+07        -0.49748E+08         0.00000E+00
    0.00000E+00         0.00000E+00        -0.43763E+08
 
   -0.43481E+08         0.36071E+07         0.00000E+00
    0.36071E+07        -0.49735E+08         0.00000E+00
    0.00000E+00         0.00000E+00        -0.43763E+08
 
   -0.43513E+08         0.36902E+07         0.00000E+00
    0.36902E+07        -0.49721E+08         0.00000E+00
    0.00000E+00         0.00000E+00        -0.43763E+08
 
   -0.43545E+08         0.37731E+07         0.00000E+00
    0.37731E+07        -0.49707E+08         0.00000E+00
    0.00000E+00         0.00000E+00        -0.43762E+08
 
   -0.43577E+08         0.38559E+07         0.00000E+00
    0.38559E+07        -0.49692E+08         0.00000E+00
    0.00000E+00         0.00000E+00        -0.43762E+08
 
   -0.43610E+08         0.39385E+07         0.00000E+00
    0.39385E+07        -0.49677E+08         0.00000E+00
    0.00000E+00         0.00000E+00        -0.43762E+08
 
   -0.43643E+08         0.40209E+07         0.00000E+00
    0.40209E+07        -0.49662E+08         0.00000E+00
    0.00000E+00         0.00000E+00        -0.43762E+08
 
   -0.43676E+08         0.41033E+07         0.00000E+00
    0.41033E+07        -0.49646E+08         0.00000E+00
    0.00000E+00         0.00000E+00        -0.43762E+08
 
   -0.43710E+08         0.41854E+07         0.00000E+00
    0.41854E+07        -0.49629E+08         0.00000E+00
    0.00000E+00         0.00000E+00        -0.43762E+08
 
   -0.43744E+08         0.42674E+07         0.00000E+00
    0.42674E+07        -0.49613E+08         0.00000E+00
    0.00000E+00         0.00000E+00        -0.43762E+08
 
   -0.41876E+08         0.46827E+05         0.00000E+00
    0.46827E+05        -0.50000E+08         0.00000E+00
    0.00000E+00         0.00000E+00        -0.43362E+08
 
   -0.41903E+08         0.13971E+06         0.00000E+00
    0.13971E+06        -0.50000E+08         0.00000E+00
    0.00000E+00         0.00000E+00        -0.43362E+08
 
   -0.41930E+08         0.23233E+06         0.00000E+00
    0.23233E+06        -0.49999E+08         0.00000E+00
    0.00000E+00         0.00000E+00        -0.43362E+08
 
   -0.41957E+08         0.32467E+06         0.00000E+00
    0.32467E+06        -0.49998E+08         0.00000E+00
    0.00000E+00         0.00000E+00        -0.43362E+08
 
   -0.41985E+08         0.41674E+06         0.00000E+00
    0.41674E+06        -0.49997E+08         0.00000E+00
    0.00000E+00         0.00000E+00        -0.43361E+08
 
   -0.42012E+08         0.50855E+06         0.00000E+00
    0.50855E+06        -0.49995E+08         0.00000E+00
    0.00000E+00         0.00000E+00        -0.43361E+08
 
   -0.42039E+08         0.60009E+06         0.00000E+00
    0.60009E+06        -0.49994E+08         0.00000E+00
    0.00000E+00         0.00000E+00        -0.43361E+08
 
   -0.42066E+08         0.69139E+06         0.00000E+00
    0.69139E+06        -0.49992E+08         0.00000E+00
    0.00000E+00         0.00000E+00        -0.43361E+08
 
   -0.42094E+08         0.78242E+06         0.00000E+00
    0.78242E+06        -0.49989E+08         0.00000E+00
    0.00000E+00         0.00000E+00        -0.43361E+08
 
   -0.42121E+08         0.87321E+06         0.00000E+00
    0.87321E+06        -0.49986E+08         0.00000E+00
    0.00000E+00         0.00000E+00        -0.43360E+08
 
   -0.42149E+08         0.96376E+06         0.00000E+00
    0.96376E+06        -0.49983E+08         0.00000E+00
    0.00000E+00         0.00000E+00        -0.43360E+08
 
   -0.42176E+08         0.10541E+07         0.00000E+00
    0.10541E+07        -0.49980E+08         0.00000E+00
    0.00000E+00         0.00000E+00        -0.43360E+08
 
   -0.42204E+08         0.11441E+07         0.00000E+00
    0.11441E+07        -0.49977E+08         0.00000E+00
    0.00000E+00         0.00000E+00        -0.43359E+08
 
   -0.42232E+08         0.12340E+07         0.00000E+00
    0.12340E+07        -0.49973E+08         0.00000E+00
    0.00000E+00         0.00000E+00        -0.43359E+08
 
   -0.42260E+08         0.13236E+07         0.00000E+00
    0.13236E+07        -0.49968E+08         0.00000E+00
    0.00000E+00         0.00000E+00        -0.43359E+08
 
   -0.42288E+08         0.14130E+07         0.00000E+00
    0.14130E+07        -0.49964E+08         0.00000E+00
    0.00000E+00         0.00000E+00        -0.43358E+08
 
   -0.42316E+08         0.15022E+07         0.00000E+00
    0.15022E+07        -0.49959E+08         0.00000E+00
    0.00000E+00         0.00000E+00        -0.43358E+08
 
   -0.42344E+08         0.15911E+07         0.00000E+00
    0.15911E+07        -0.49954E+08         0.00000E+00
    0.00000E+00         0.00000E+00        -0.43357E+08
 
   -0.42372E+08         0.16799E+07         0.00000E+00
    0.16799E+07        -0.49949E+08         0.00000E+00
    0.00000E+00         0.00000E+00        -0.43357E+08
 
   -0.42400E+08         0.17685E+07         0.00000E+00
    0.17685E+07        -0.49943E+08         0.00000E+00
    0.00000E+00         0.00000E+00        -0.43357E+08
 
   -0.42429E+08         0.18568E+07         0.00000E+00
    0.18568E+07        -0.49937E+08         0.00000E+00
    0.00000E+00         0.00000E+00        -0.43356E+08
 
   -0.42457E+08         0.19450E+07         0.00000E+00
    0.19450E+07        -0.49930E+08         0.00000E+00
    0.00000E+00         0.00000E+00        -0.43356E+08
 
   -0.42486E+08         0.20330E+07         0.00000E+00
    0.20330E+07        -0.49924E+08         0.00000E+00
    0.00000E+00         0.00000E+00        -0.43355E+08
 
   -0.42515E+08         0.21208E+07         0.00000E+00
    0.21208E+07        -0.49917E+08         0.00000E+00
    0.00000E+00         0.00000E+00        -0.43355E+08
 
   -0.42544E+08         0.22084E+07         0.00000E+00
    0.22084E+07        -0.49909E+08         0.00000E+00
    0.00000E+00         0.00000E+00        -0.43354E+08
 
   -0.42572E+08         0.22959E+07         0.00000E+00
    0.22959E+07        -0.49902E+08         0.00000E+00
    0.00000E+00         0.00000E+00        -0.43354E+08
 
   -0.42602E+08         0.23832E+07         0.00000E+00
    0.23832E+07        -0.49894E+08         0.00000E+00
    0.00000E+00         0.00000E+00        -0.43353E+08
 
   -0.42631E+08         0.24703E+07         0.00000E+00
    0.24703E+07        -0.49886E+08         0.00000E+00
    0.00000E+00         0.00000E+00        -0.43353E+08
 
   -0.42660E+08         0.25573E+07         0.00000E+00
    0.25573E+07        -0.49877E+08         0.00000E+00
    0.00000E+00         0.00000E+00        -0.43352E+08
 
   -0.42690E+08         0.26441E+07         0.00000E+00
    0.26441E+07        -0.49868E+08         0.00000E+00
    0.00000E+00         0.00000E+00        -0.43352E+08
 
   -0.42720E+08         0.27307E+07         0.00000E+00
    0.27307E+07        -0.49859E+08         0.00000E+00
    0.00000E+00         0.00000E+00        -0.43352E+08
 
   -0.42749E+08         0.28173E+07         0.00000E+00
    0.28173E+07        -0.49849E+08         0.00000E+00
    0.00000E+00         0.00000E+00        -0.43351E+08
 
   -0.42779E+08         0.29036E+07         0.00000E+00
    0.29036E+07        -0.49839E+08         0.00000E+00
    0.00000E+00         0.00000E+00        -0.43351E+08
 
   -0.42810E+08         0.29899E+07         0.00000E+00
    0.29899E+07        -0.49829E+08         0.00000E+00
    0.00000E+00         0.00000E+00        -0.43350E+08
 
   -0.42840E+08         0.30760E+07         0.00000E+00
    0.30760E+07        -0.49818E+08         0.00000E+00
    0.00000E+00         0.00000E+00        -0.43350E+08
 
   -0.42871E+08         0.31620E+07         0.00000E+00
    0.31620E+07        -0.49807E+08         0.00000E+00
    0.00000E+00         0.00000E+00        -0.43349E+08
 
   -0.42902E+08         0.32478E+07         0.00000E+00
    0.32478E+07        -0.49795E+08         0.00000E+00
    0.00000E+00         0.00000E+00        -0.43349E+08
 
   -0.42933E+08         0.33336E+07         0.00000E+00
    0.33336E+07        -0.49783E+08         0.00000E+00
    0.00000E+00         0.00000E+00        -0.43349E+08
 
   -0.42964E+08         0.34192E+07         0.00000E+00
    0.34192E+07        -0.49771E+08         0.00000E+00
    0.00000E+00         0.00000E+00        -0.43348E+08
 
   -0.42996E+08         0.35047E+07         0.00000E+00
    0.35047E+07        -0.49758E+08         0.00000E+00
    0.00000E+00         0.00000E+00        -0.43348E+08
 
   -0.43028E+08         0.35901E+07         0.00000E+00
    0.35901E+07        -0.49745E+08         0.00000E+00
    0.00000E+00         0.00000E+00        -0.43348E+08
 
   -0.43060E+08         0.36753E+07         0.00000E+00
    0.36753E+07        -0.49732E+08         0.00000E+00
    0.00000E+00         0.00000E+00        -0.43347E+08
 
   -0.43092E+08         0.37605E+07         0.00000E+00
    0.37605E+07        -0.49718E+08         0.00000E+00
    0.00000E+00         0.00000E+00        -0.43347E+08
 
   -0.43125E+08         0.38455E+07         0.00000E+00
    0.38455E+07        -0.49703E+08         0.00000E+00
    0.00000E+00         0.00000E+00        -0.43347E+08
 
   -0.43158E+08         0.39305E+07         0.00000E+00
    0.39305E+07        -0.49689E+08         0.00000E+00
    0.00000E+00         0.00000E+00        -0.43347E+08
 
   -0.43192E+08         0.40153E+07         0.00000E+00
    0.40153E+07        -0.49673E+08         0.00000E+00
    0.00000E+00         0.00000E+00        -0.43347E+08
 
   -0.43225E+08         0.41001E+07         0.00000E+00
    0.41001E+07        -0.49658E+08         0.00000E+00
    0.00000E+00         0.00000E+00        -0.43346E+08
 
   -0.43259E+08         0.41847E+07         0.00000E+00
    0.41847E+07        -0.49642E+08         0.00000E+00
    0.00000E+00         0.00000E+00        -0.43346E+08
 
   -0.43294E+08         0.42692E+07         0.00000E+00
    0.42692E+07        -0.49625E+08         0.00000E+00
    0.00000E+00         0.00000E+00        -0.43346E+08
 
   -0.43329E+08         0.43536E+07         0.00000E+00
    0.43536E+07        -0.49608E+08         0.00000E+00
    0.00000E+00         0.00000E+00        -0.43346E+08
 
   -0.41407E+08         0.47595E+05         0.00000E+00
    0.47595E+05        -0.50000E+08         0.00000E+00
    0.00000E+00         0.00000E+00        -0.42935E+08
 
   -0.41436E+08         0.14200E+06         0.00000E+00
    0.14200E+06        -0.50000E+08         0.00000E+00
    0.00000E+00         0.00000E+00        -0.42935E+08
 
   -0.41464E+08         0.23613E+06         0.00000E+00
    0.23613E+06        -0.49999E+08         0.00000E+00
    0.00000E+00         0.00000E+00        -0.42935E+08
 
   -0.41493E+08         0.32999E+06         0.00000E+00
    0.32999E+06        -0.49998E+08         0.00000E+00
    0.00000E+00         0.00000E+00        -0.42935E+08
 
   -0.41521E+08         0.42357E+06         0.00000E+00
    0.42357E+06        -0.49997E+08         0.00000E+00
    0.00000E+00         0.00000E+00        -0.42935E+08
 
   -0.41550E+08         0.51688E+06         0.00000E+00
    0.51688E+06        -0.49995E+08         0.00000E+00
    0.00000E+00         0.00000E+00        -0.42935E+08
 
   -0.41578E+08         0.60993E+06         0.00000E+00
    0.60993E+06        -0.49994E+08         0.00000E+00
    0.00000E+00         0.00000E+00        -0.42934E+08
 
   -0.41607E+08         0.70272E+06         0.00000E+00
    0.70272E+06        -0.49991E+08         0.00000E+00
    0.00000E+00         0.00000E+00        -0.42934E+08
 
   -0.41635E+08         0.79525E+06         0.00000E+00
    0.79525E+06        -0.49989E+08         0.00000E+00
    0.00000E+00         0.00000E+00        -0.42934E+08
 
   -0.41664E+08         0.88754E+06         0.00000E+00
    0.88754E+06        -0.49986E+08         0.00000E+00
    0.00000E+00         0.00000E+00        -0.42934E+08
 
   -0.41693E+08         0.97958E+06         0.00000E+00
    0.97958E+06        -0.49983E+08         0.00000E+00
    0.00000E+00         0.00000E+00        -0.42933E+08
 
   -0.41722E+08         0.10714E+07         0.00000E+00
    0.10714E+07        -0.49980E+08         0.00000E+00
    0.00000E+00         0.00000E+00        -0.42933E+08
 
   -0.41751E+08         0.11630E+07         0.00000E+00
    0.11630E+07        -0.49976E+08         0.00000E+00
    0.00000E+00         0.00000E+00        -0.42933E+08
 
   -0.41779E+08         0.12543E+07         0.00000E+00
    0.12543E+07        -0.49972E+08         0.00000E+00
    0.00000E+00         0.00000E+00        -0.42932E+08
 
   -0.41808E+08         0.13454E+07         0.00000E+00
    0.13454E+07        -0.49968E+08         0.00000E+00
    0.00000E+00         0.00000E+00        -0.42932E+08
 
   -0.41837E+08         0.14363E+07         0.00000E+00
    0.14363E+07        -0.49964E+08         0.00000E+00
    0.00000E+00         0.00000E+00        -0.42931E+08
 
   -0.41867E+08         0.15270E+07         0.00000E+00
    0.15270E+07        -0.49959E+08         0.00000E+00
    0.00000E+00         0.00000E+00        -0.42931E+08
 
   -0.41896E+08         0.16175E+07         0.00000E+00
    0.16175E+07        -0.49954E+08         0.00000E+00
    0.00000E+00         0.00000E+00        -0.42930E+08
 
   -0.41925E+08         0.17078E+07         0.00000E+00
    0.17078E+07        -0.49948E+08         0.00000E+00
    0.00000E+00         0.00000E+00        -0.42930E+08
 
   -0.41954E+08         0.17979E+07         0.00000E+00
    0.17979E+07        -0.49942E+08         0.00000E+00
    0.00000E+00         0.00000E+00        -0.42930E+08
 
   -0.41984E+08         0.18878E+07         0.00000E+00
    0.18878E+07        -0.49936E+08         0.00000E+00
    0.00000E+00         0.00000E+00        -0.42929E+08
 
   -0.42013E+08         0.19776E+07         0.00000E+00
    0.19776E+07        -0.49930E+08         0.00000E+00
    0.00000E+00         0.00000E+00        -0.42929E+08
 
   -0.42042E+08         0.20672E+07         0.00000E+00
    0.20672E+07        -0.49923E+08         0.00000E+00
    0.00000E+00         0.00000E+00        -0.42928E+08
 
   -0.42072E+08         0.21566E+07         0.00000E+00
    0.21566E+07        -0.49916E+08         0.00000E+00
    0.00000E+00         0.00000E+00        -0.42928E+08
 
   -0.42102E+08         0.22458E+07         0.00000E+00
    0.22458E+07        -0.49909E+08         0.00000E+00
    0.00000E+00         0.00000E+00        -0.42927E+08
 
   -0.42131E+08         0.23349E+07         0.00000E+00
    0.23349E+07        -0.49901E+08         0.00000E+00
    0.00000E+00         0.00000E+00        -0.42927E+08
 
   -0.42161E+08         0.24238E+07         0.00000E+00
    0.24238E+07        -0.49893E+08         0.00000E+00
    0.00000E+00         0.00000E+00        -0.42926E+08
 
   -0.42191E+08         0.25126E+07         0.00000E+00
    0.25126E+07        -0.49885E+08         0.00000E+00
    0.00000E+00         0.00000E+00        -0.42926E+08
 
   -0.42222E+08         0.26013E+07         0.00000E+00
    0.26013E+07        -0.49877E+08         0.00000E+00
    0.00000E+00         0.00000E+00        -0.42925E+08
 
   -0.42252E+08         0.26898E+07         0.00000E+00
    0.26898E+07        -0.49868E+08         0.00000E+00
    0.00000E+00         0.00000E+00        -0.42925E+08
 
   -0.42282E+08         0.27782E+07         0.00000E+00
    0.27782E+07        -0.49858E+08         0.00000E+00
    0.00000E+00         0.00000E+00        -0.42924E+08
 
   -0.42313E+08         0.28665E+07         0.00000E+00
    0.28665E+07        -0.49849E+08         0.00000E+00
    0.00000E+00         0.00000E+00        -0.42924E+08
 
   -0.42343E+08         0.29547E+07         0.00000E+00
    0.29547E+07        -0.49838E+08         0.00000E+00
    0.00000E+00         0.00000E+00        -0.42923E+08
 
   -0.42374E+08         0.30428E+07         0.00000E+00
    0.30428E+07        -0.49828E+08         0.00000E+00
    0.00000E+00         0.00000E+00        -0.42923E+08
 
   -0.42405E+08         0.31308E+07         0.00000E+00
    0.31308E+07        -0.49817E+08         0.00000E+00
    0.00000E+00         0.00000E+00        -0.42922E+08
 
   -0.42436E+08         0.32187E+07         0.00000E+00
    0.32187E+07        -0.49806E+08         0.00000E+00
    0.00000E+00         0.00000E+00        -0.42922E+08
 
   -0.42468E+08         0.33064E+07         0.00000E+00
    0.33064E+07        -0.49795E+08         0.00000E+00
    0.00000E+00         0.00000E+00        -0.42921E+08
 
   -0.42500E+08         0.33941E+07         0.00000E+00
    0.33941E+07        -0.49783E+08         0.00000E+00
    0.00000E+00         0.00000E+00        -0.42921E+08
 
   -0.42531E+08         0.34818E+07         0.00000E+00
    0.34818E+07        -0.49770E+08         0.00000E+00
    0.00000E+00         0.00000E+00        -0.42921E+08
 
   -0.42563E+08         0.35693E+07         0.00000E+00
    0.35693E+07        -0.49758E+08         0.00000E+00
    0.00000E+00         0.00000E+00        -0.42920E+08
 
   -0.42596E+08         0.36568E+07         0.00000E+00
    0.36568E+07        -0.49744E+08         0.00000E+00
    0.00000E+00         0.00000E+00        -0.42920E+08
 
   -0.42628E+08         0.37442E+07         0.00000E+00
    0.37442E+07        -0.49731E+08         0.00000E+00
    0.00000E+00         0.00000E+00        -0.42920E+08
 
   -0.42661E+08         0.38315E+07         0.00000E+00
    0.38315E+07        -0.49717E+08         0.00000E+00
    0.00000E+00         0.00000E+00        -0.42919E+08
 
   -0.42694E+08         0.39188E+07         0.00000E+00
    0.39188E+07        -0.49702E+08         0.00000E+00
    0.00000E+00         0.00000E+00        -0.42919E+08
 
   -0.42728E+08         0.40059E+07         0.00000E+00
    0.40059E+07        -0.49688E+08         0.00000E+00
    0.00000E+00         0.00000E+00        -0.42919E+08
 
   -0.42762E+08         0.40931E+07         0.00000E+00
    0.40931E+07        -0.49672E+08         0.00000E+00
    0.00000E+00         0.00000E+00        -0.42919E+08
 
   -0.42796E+08         0.41802E+07         0.00000E+00
    0.41802E+07        -0.49656E+08         0.00000E+00
    0.00000E+00         0.00000E+00        -0.42919E+08
 
   -0.42830E+08         0.42672E+07         0.00000E+00
    0.42672E+07        -0.49640E+08         0.00000E+00
    0.00000E+00         0.00000E+00        -0.42919E+08
 
   -0.42865E+08         0.43541E+07         0.00000E+00
    0.43541E+07        -0.49623E+08         0.00000E+00
    0.00000E+00         0.00000E+00        -0.42918E+08
 
   -0.42901E+08         0.44410E+07         0.00000E+00
    0.44410E+07        -0.49606E+08         0.00000E+00
    0.00000E+00         0.00000E+00        -0.42918E+08
 
   -0.40931E+08         0.48377E+05         0.00000E+00
    0.48377E+05        -0.50000E+08         0.00000E+00
    0.00000E+00         0.00000E+00        -0.42496E+08
 
   -0.40961E+08         0.14433E+06         0.00000E+00
    0.14433E+06        -0.50000E+08         0.00000E+00
    0.00000E+00         0.00000E+00        -0.42496E+08
 
   -0.40990E+08         0.23999E+06         0.00000E+00
    0.23999E+06        -0.49999E+08         0.00000E+00
    0.00000E+00         0.00000E+00        -0.42496E+08
 
   -0.41020E+08         0.33536E+06         0.00000E+00
    0.33536E+06        -0.49998E+08         0.00000E+00
    0.00000E+00         0.00000E+00        -0.42495E+08
 
   -0.41050E+08         0.43046E+06         0.00000E+00
    0.43046E+06        -0.49997E+08         0.00000E+00
    0.00000E+00         0.00000E+00        -0.42495E+08
 
   -0.41080E+08         0.52529E+06         0.00000E+00
    0.52529E+06        -0.49995E+08         0.00000E+00
    0.00000E+00         0.00000E+00        -0.42495E+08
 
   -0.41110E+08         0.61984E+06         0.00000E+00
    0.61984E+06        -0.49993E+08         0.00000E+00
    0.00000E+00         0.00000E+00        -0.42495E+08
 
   -0.41140E+08         0.71413E+06         0.00000E+00
    0.71413E+06        -0.49991E+08         0.00000E+00
    0.00000E+00         0.00000E+00        -0.42495E+08
 
   -0.41170E+08         0.80816E+06         0.00000E+00
    0.80816E+06        -0.49989E+08         0.00000E+00
    0.00000E+00         0.00000E+00        -0.42494E+08
 
   -0.41200E+08         0.90194E+06         0.00000E+00
    0.90194E+06        -0.49986E+08         0.00000E+00
    0.00000E+00         0.00000E+00        -0.42494E+08
 
   -0.41230E+08         0.99548E+06         0.00000E+00
    0.99548E+06        -0.49983E+08         0.00000E+00
    0.00000E+00         0.00000E+00        -0.42494E+08
 
   -0.41259E+08         0.10888E+07         0.00000E+00
    0.10888E+07        -0.49980E+08         0.00000E+00
    0.00000E+00         0.00000E+00        -0.42493E+08
 
   -0.41289E+08         0.11818E+07         0.00000E+00
    0.11818E+07        -0.49976E+08         0.00000E+00
    0.00000E+00         0.00000E+00        -0.42493E+08
 
   -0.41320E+08         0.12747E+07         0.00000E+00
    0.12747E+07        -0.49972E+08         0.00000E+00
    0.00000E+00         0.00000E+00        -0.42492E+08
 
   -0.41350E+08         0.13673E+07         0.00000E+00
    0.13673E+07        -0.49968E+08         0.00000E+00
    0.00000E+00         0.00000E+00        -0.42492E+08
 
   -0.41380E+08         0.14597E+07         0.00000E+00
    0.14597E+07        -0.49964E+08         0.00000E+00
    0.00000E+00         0.00000E+00        -0.42491E+08
 
   -0.41410E+08         0.15519E+07         0.00000E+00
    0.15519E+07        -0.49959E+08         0.00000E+00
    0.00000E+00         0.00000E+00        -0.42491E+08
 
   -0.41440E+08         0.16439E+07         0.00000E+00
    0.16439E+07        -0.49954E+08         0.00000E+00
    0.00000E+00         0.00000E+00        -0.42491E+08
 
   -0.41470E+08         0.17357E+07         0.00000E+00
    0.17357E+07        -0.49948E+08         0.00000E+00
    0.00000E+00         0.00000E+00        -0.42490E+08
 
   -0.41500E+08         0.18273E+07         0.00000E+00
    0.18273E+07        -0.49943E+08         0.00000E+00
    0.00000E+00         0.00000E+00        -0.42489E+08
 
   -0.41530E+08         0.19188E+07         0.00000E+00
    0.19188E+07        -0.49937E+08         0.00000E+00
    0.00000E+00         0.00000E+00        -0.42489E+08
 
   -0.41561E+08         0.20101E+07         0.00000E+00
    0.20101E+07        -0.49930E+08         0.00000E+00
    0.00000E+00         0.00000E+00        -0.42488E+08
 
   -0.41591E+08         0.21012E+07         0.00000E+00
    0.21012E+07        -0.49924E+08         0.00000E+00
    0.00000E+00         0.00000E+00        -0.42488E+08
 
   -0.41621E+08         0.21922E+07         0.00000E+00
    0.21922E+07        -0.49917E+08         0.00000E+00
    0.00000E+00         0.00000E+00        -0.42487E+08
 
   -0.41652E+08         0.22831E+07         0.00000E+00
    0.22831E+07        -0.49909E+08         0.00000E+00
    0.00000E+00         0.00000E+00        -0.42487E+08
 
   -0.41682E+08         0.23738E+07         0.00000E+00
    0.23738E+07        -0.49902E+08         0.00000E+00
    0.00000E+00         0.00000E+00        -0.42486E+08
 
   -0.41713E+08         0.24644E+07         0.00000E+00
    0.24644E+07        -0.49894E+08         0.00000E+00
    0.00000E+00         0.00000E+00        -0.42486E+08
 
   -0.41743E+08         0.25548E+07         0.00000E+00
    0.25548E+07        -0.49886E+08         0.00000E+00
    0.00000E+00         0.00000E+00        -0.42485E+08
 
   -0.41774E+08         0.26452E+07         0.00000E+00
    0.26452E+07        -0.49877E+08         0.00000E+00
    0.00000E+00         0.00000E+00        -0.42485E+08
 
   -0.41805E+08         0.27354E+07         0.00000E+00
    0.27354E+07        -0.49868E+08         0.00000E+00
    0.00000E+00         0.00000E+00        -0.42484E+08
 
   -0.41836E+08         0.28256E+07         0.00000E+00
    0.28256E+07        -0.49859E+08         0.00000E+00
    0.00000E+00         0.00000E+00        -0.42484E+08
 
   -0.41867E+08         0.29157E+07         0.00000E+00
    0.29157E+07        -0.49849E+08         0.00000E+00
    0.00000E+00         0.00000E+00        -0.42483E+08
 
   -0.41898E+08         0.30057E+07         0.00000E+00
    0.30057E+07        -0.49839E+08         0.00000E+00
    0.00000E+00         0.00000E+00        -0.42483E+08
 
   -0.41929E+08         0.30956E+07         0.00000E+00
    0.30956E+07        -0.49829E+08         0.00000E+00
    0.00000E+00         0.00000E+00        -0.42482E+08
 
   -0.41961E+08         0.31854E+07         0.00000E+00
    0.31854E+07        -0.49818E+08         0.00000E+00
    0.00000E+00         0.00000E+00        -0.42482E+08
 
   -0.41992E+08         0.32752E+07         0.00000E+00
    0.32752E+07        -0.49807E+08         0.00000E+00
    0.00000E+00         0.00000E+00        -0.42481E+08
 
   -0.42024E+08         0.33650E+07         0.00000E+00
    0.33650E+07        -0.49796E+08         0.00000E+00
    0.00000E+00         0.00000E+00        -0.42481E+08
 
   -0.42056E+08         0.34546E+07         0.00000E+00
    0.34546E+07        -0.49784E+08         0.00000E+00
    0.00000E+00         0.00000E+00        -0.42480E+08
 
   -0.42088E+08         0.35443E+07         0.00000E+00
    0.35443E+07        -0.49772E+08         0.00000E+00
    0.00000E+00         0.00000E+00        -0.42480E+08
 
   -0.42121E+08         0.36339E+07         0.00000E+00
    0.36339E+07        -0.49759E+08         0.00000E+00
    0.00000E+00         0.00000E+00        -0.42480E+08
 
   -0.42153E+08         0.37235E+07         0.00000E+00
    0.37235E+07        -0.49746E+08         0.00000E+00
    0.00000E+00         0.00000E+00        -0.42479E+08
 
   -0.42186E+08         0.38131E+07         0.00000E+00
    0.38131E+07        -0.49732E+08         0.00000E+00
    0.00000E+00         0.00000E+00        -0.42479E+08
 
   -0.42219E+08         0.39026E+07         0.00000E+00
    0.39026E+07        -0.49718E+08         0.00000E+00
    0.00000E+00         0.00000E+00        -0.42479E+08
 
   -0.42253E+08         0.39921E+07         0.00000E+00
    0.39921E+07        -0.49704E+08         0.00000E+00
    0.00000E+00         0.00000E+00        -0.42478E+08
 
   -0.42286E+08         0.40816E+07         0.00000E+00
    0.40816E+07        -0.49689E+08         0.00000E+00
    0.00000E+00         0.00000E+00        -0.42478E+08
 
   -0.42320E+08         0.41712E+07         0.00000E+00
    0.41712E+07        -0.49674E+08         0.00000E+00
    0.00000E+00         0.00000E+00        -0.42478E+08
 
   -0.42355E+08         0.42607E+07         0.00000E+00
    0.42607E+07        -0.49658E+08         0.00000E+00
    0.00000E+00         0.00000E+00        -0.42478E+08
 
   -0.42389E+08         0.43501E+07         0.00000E+00
    0.43501E+07        -0.49642E+08         0.00000E+00
    0.00000E+00         0.00000E+00        -0.42478E+08
 
   -0.42424E+08         0.44396E+07         0.00000E+00
    0.44396E+07        -0.49625E+08         0.00000E+00
    0.00000E+00         0.00000E+00        -0.42478E+08
 
   -0.42460E+08         0.45291E+07         0.00000E+00
    0.45291E+07        -0.49607E+08         0.00000E+00
    0.00000E+00         0.00000E+00        -0.42478E+08
 
   -0.40446E+08         0.49171E+05         0.00000E+00
    0.49171E+05        -0.50000E+08         0.00000E+00
    0.00000E+00         0.00000E+00        -0.42042E+08
 
   -0.40478E+08         0.14667E+06         0.00000E+00
    0.14667E+06        -0.50000E+08         0.00000E+00
    0.00000E+00         0.00000E+00        -0.42042E+08
 
   -0.40509E+08         0.24387E+06         0.00000E+00
    0.24387E+06        -0.49999E+08         0.00000E+00
    0.00000E+00         0.00000E+00        -0.42042E+08
 
   -0.40540E+08         0.34078E+06         0.00000E+00
    0.34078E+06        -0.49998E+08         0.00000E+00
    0.00000E+00         0.00000E+00        -0.42042E+08
 
   -0.40571E+08         0.43739E+06         0.00000E+00
    0.43739E+06        -0.49997E+08         0.00000E+00
    0.00000E+00         0.00000E+00        -0.42042E+08
 
   -0.40603E+08         0.53372E+06         0.00000E+00
    0.53372E+06        -0.49995E+08         0.00000E+00
    0.00000E+00         0.00000E+00        -0.42042E+08
 
   -0.40634E+08         0.62977E+06         0.00000E+00
    0.62977E+06        -0.49993E+08         0.00000E+00
    0.00000E+00         0.00000E+00        -0.42042E+08
 
   -0.40665E+08         0.72555E+06         0.00000E+00
    0.72555E+06        -0.49991E+08         0.00000E+00
    0.00000E+00         0.00000E+00        -0.42041E+08
 
   -0.40696E+08         0.82106E+06         0.00000E+00
    0.82106E+06        -0.49989E+08         0.00000E+00
    0.00000E+00         0.00000E+00        -0.42041E+08
 
   -0.40728E+08         0.91632E+06         0.00000E+00
    0.91632E+06        -0.49986E+08         0.00000E+00
    0.00000E+00         0.00000E+00        -0.42041E+08
 
   -0.40759E+08         0.10113E+07         0.00000E+00
    0.10113E+07        -0.49983E+08         0.00000E+00
    0.00000E+00         0.00000E+00        -0.42040E+08
 
   -0.40790E+08         0.11061E+07         0.00000E+00
    0.11061E+07        -0.49980E+08         0.00000E+00
    0.00000E+00         0.00000E+00        -0.42040E+08
 
   -0.40821E+08         0.12006E+07         0.00000E+00
    0.12006E+07        -0.49976E+08         0.00000E+00
    0.00000E+00         0.00000E+00        -0.42039E+08
 
   -0.40852E+08         0.12949E+07         0.00000E+00
    0.12949E+07        -0.49972E+08         0.00000E+00
    0.00000E+00         0.00000E+00        -0.42039E+08
 
   -0.40883E+08         0.13890E+07         0.00000E+00
    0.13890E+07        -0.49968E+08         0.00000E+00
    0.00000E+00         0.00000E+00        -0.42038E+08
 
   -0.40914E+08         0.14829E+07         0.00000E+00
    0.14829E+07        -0.49964E+08         0.00000E+00
    0.00000E+00         0.00000E+00        -0.42038E+08
 
   -0.40946E+08         0.15765E+07         0.00000E+00
    0.15765E+07        -0.49959E+08         0.00000E+00
    0.00000E+00         0.00000E+00        -0.42037E+08
 
   -0.40977E+08         0.16700E+07         0.00000E+00
    0.16700E+07        -0.49954E+08         0.00000E+00
    0.00000E+00         0.00000E+00        -0.42037E+08
 
   -0.41008E+08         0.17633E+07         0.00000E+00
    0.17633E+07        -0.49949E+08         0.00000E+00
    0.00000E+00         0.00000E+00        -0.42036E+08
 
   -0.41039E+08         0.18564E+07         0.00000E+00
    0.18564E+07        -0.49943E+08         0.00000E+00
    0.00000E+00         0.00000E+00        -0.42036E+08
 
   -0.41070E+08         0.19494E+07         0.00000E+00
    0.19494E+07        -0.49937E+08         0.00000E+00
    0.00000E+00         0.00000E+00        -0.42035E+08
 
   -0.41101E+08         0.20422E+07         0.00000E+00
    0.20422E+07        -0.49931E+08         0.00000E+00
    0.00000E+00         0.00000E+00        -0.42035E+08
 
   -0.41132E+08         0.21349E+07         0.00000E+00
    0.21349E+07        -0.49924E+08         0.00000E+00
    0.00000E+00         0.00000E+00        -0.42034E+08
 
   -0.41163E+08         0.22274E+07         0.00000E+00
    0.22274E+07        -0.49918E+08         0.00000E+00
    0.00000E+00         0.00000E+00        -0.42034E+08
 
   -0.41194E+08         0.23198E+07         0.00000E+00
    0.23198E+07        -0.49911E+08         0.00000E+00
    0.00000E+00         0.00000E+00        -0.42033E+08
 
   -0.41225E+08         0.24121E+07         0.00000E+00
    0.24121E+07        -0.49903E+08         0.00000E+00
    0.00000E+00         0.00000E+00        -0.42032E+08
 
   -0.41256E+08         0.25043E+07         0.00000E+00
    0.25043E+07        -0.49895E+08         0.00000E+00
    0.00000E+00         0.00000E+00        -0.42032E+08
 
   -0.41287E+08         0.25964E+07         0.00000E+00
    0.25964E+07        -0.49887E+08         0.00000E+00
    0.00000E+00         0.00000E+00        -0.42031E+08
 
   -0.41318E+08         0.26885E+07         0.00000E+00
    0.26885E+07        -0.49879E+08         0.00000E+00
    0.00000E+00         0.00000E+00        -0.42031E+08
 
   -0.41350E+08         0.27804E+07         0.00000E+00
    0.27804E+07        -0.49870E+08         0.00000E+00
    0.00000E+00         0.00000E+00        -0.42030E+08
 
   -0.41381E+08         0.28723E+07         0.00000E+00
    0.28723E+07        -0.49861E+08         0.00000E+00
    0.00000E+00         0.00000E+00        -0.42030E+08
 
   -0.41412E+08         0.29641E+07         0.00000E+00
    0.29641E+07        -0.49852E+08         0.00000E+00
    0.00000E+00         0.00000E+00        -0.42029E+08
 
   -0.41444E+08         0.30559E+07         0.00000E+00
    0.30559E+07        -0.49842E+08         0.00000E+00
    0.00000E+00         0.00000E+00        -0.42029E+08
 
   -0.41475E+08         0.31476E+07         0.00000E+00
    0.31476E+07        -0.49832E+08         0.00000E+00
    0.00000E+00         0.00000E+00        -0.42028E+08
 
   -0.41507E+08         0.32394E+07         0.00000E+00
    0.32394E+07        -0.49821E+08         0.00000E+00
    0.00000E+00         0.00000E+00        -0.42028E+08
 
   -0.41539E+08         0.33311E+07         0.00000E+00
    0.33311E+07        -0.49810E+08         0.00000E+00
    0.00000E+00         0.00000E+00        -0.42027E+08
 
   -0.41571E+08         0.34228E+07         0.00000E+00
    0.34228E+07        -0.49799E+08         0.00000E+00
    0.00000E+00         0.00000E+00        -0.42027E+08
 
   -0.41603E+08         0.35144E+07         0.00000E+00
    0.35144E+07        -0.49788E+08         0.00000E+00
    0.00000E+00         0.00000E+00        -0.42026E+08
 
   -0.41635E+08         0.36061E+07         0.00000E+00
    0.36061E+07        -0.49775E+08         0.00000E+00
    0.00000E+00         0.00000E+00        -0.42026E+08
 
   -0.41667E+08         0.36979E+07         0.00000E+00
    0.36979E+07        -0.49763E+08         0.00000E+00
    0.00000E+00         0.00000E+00        -0.42025E+08
 
   -0.41700E+08         0.37896E+07         0.00000E+00
    0.37896E+07        -0.49750E+08         0.00000E+00
    0.00000E+00         0.00000E+00        -0.42025E+08
 
   -0.41733E+08         0.38814E+07         0.00000E+00
    0.38814E+07        -0.49737E+08         0.00000E+00
    0.00000E+00         0.00000E+00        -0.42025E+08
 
   -0.41766E+08         0.39731E+07         0.00000E+00
    0.39731E+07        -0.49723E+08         0.00000E+00
    0.00000E+00         0.00000E+00        -0.42024E+08
 
   -0.41799E+08         0.40650E+07         0.00000E+00
    0.40650E+07        -0.49709E+08         0.00000E+00
    0.00000E+00         0.00000E+00        -0.42024E+08
 
   -0.41833E+08         0.41569E+07         0.00000E+00
    0.41569E+07        -0.49694E+08         0.00000E+00
    0.00000E+00         0.00000E+00        -0.42024E+08
 
   -0.41867E+08         0.42488E+07         0.00000E+00
    0.42488E+07        -0.49679E+08         0.00000E+00
    0.00000E+00         0.00000E+00        -0.42024E+08
 
   -0.41901E+08         0.43408E+07         0.00000E+00
    0.43408E+07        -0.49663E+08         0.00000E+00
    0.00000E+00         0.00000E+00        -0.42023E+08
 
   -0.41935E+08         0.44328E+07         0.00000E+00
    0.44328E+07        -0.49647E+08         0.00000E+00
    0.00000E+00         0.00000E+00        -0.42023E+08
 
   -0.41970E+08         0.45250E+07         0.00000E+00
    0.45250E+07        -0.49630E+08         0.00000E+00
    0.00000E+00         0.00000E+00        -0.42023E+08
 
   -0.42005E+08         0.46171E+07         0.00000E+00
    0.46171E+07        -0.49613E+08         0.00000E+00
    0.00000E+00         0.00000E+00        -0.42023E+08
 
   -0.39954E+08         0.49975E+05         0.00000E+00
    0.49975E+05        -0.50000E+08         0.00000E+00
    0.00000E+00         0.00000E+00        -0.41575E+08
 
   -0.39987E+08         0.14903E+06         0.00000E+00
    0.14903E+06        -0.50000E+08         0.00000E+00
    0.00000E+00         0.00000E+00        -0.41575E+08
 
   -0.40020E+08         0.24777E+06         0.00000E+00
    0.24777E+06        -0.49999E+08         0.00000E+00
    0.00000E+00         0.00000E+00        -0.41575E+08
 
   -0.40053E+08         0.34619E+06         0.00000E+00
    0.34619E+06        -0.49998E+08         0.00000E+00
    0.00000E+00         0.00000E+00        -0.41575E+08
 
   -0.40085E+08         0.44431E+06         0.00000E+00
    0.44431E+06        -0.49997E+08         0.00000E+00
    0.00000E+00         0.00000E+00        -0.41575E+08
 
   -0.40118E+08         0.54213E+06         0.00000E+00
    0.54213E+06        -0.49995E+08         0.00000E+00
    0.00000E+00         0.00000E+00        -0.41574E+08
 
   -0.40151E+08         0.63965E+06         0.00000E+00
    0.63965E+06        -0.49993E+08         0.00000E+00
    0.00000E+00         0.00000E+00        -0.41574E+08
 
   -0.40183E+08         0.73689E+06         0.00000E+00
    0.73689E+06        -0.49991E+08         0.00000E+00
    0.00000E+00         0.00000E+00        -0.41574E+08
 
   -0.40216E+08         0.83385E+06         0.00000E+00
    0.83385E+06        -0.49989E+08         0.00000E+00
    0.00000E+00         0.00000E+00        -0.41574E+08
 
   -0.40248E+08         0.93054E+06         0.00000E+00
    0.93054E+06        -0.49986E+08         0.00000E+00
    0.00000E+00         0.00000E+00        -0.41573E+08
 
   -0.40281E+08         0.10270E+07         0.00000E+00
    0.10270E+07        -0.49983E+08         0.00000E+00
    0.00000E+00         0.00000E+00        -0.41573E+08
 
   -0.40313E+08         0.11232E+07         0.00000E+00
    0.11232E+07        -0.49980E+08         0.00000E+00
    0.00000E+00         0.00000E+00        -0.41572E+08
 
   -0.40345E+08         0.12191E+07         0.00000E+00
    0.12191E+07        -0.49977E+08         0.00000E+00
    0.00000E+00         0.00000E+00        -0.41572E+08
 
   -0.40378E+08         0.13148E+07         0.00000E+00
    0.13148E+07        -0.49973E+08         0.00000E+00
    0.00000E+00         0.00000E+00        -0.41571E+08
 
   -0.40410E+08         0.14103E+07         0.00000E+00
    0.14103E+07        -0.49969E+08         0.00000E+00
    0.00000E+00         0.00000E+00        -0.41571E+08
 
   -0.40442E+08         0.15056E+07         0.00000E+00
    0.15056E+07        -0.49964E+08         0.00000E+00
    0.00000E+00         0.00000E+00        -0.41570E+08
 
   -0.40474E+08         0.16007E+07         0.00000E+00
    0.16007E+07        -0.49960E+08         0.00000E+00
    0.00000E+00         0.00000E+00        -0.41570E+08
 
   -0.40506E+08         0.16956E+07         0.00000E+00
    0.16956E+07        -0.49955E+08         0.00000E+00
    0.00000E+00         0.00000E+00        -0.41569E+08
 
   -0.40538E+08         0.17903E+07         0.00000E+00
    0.17903E+07        -0.49950E+08         0.00000E+00
    0.00000E+00         0.00000E+00        -0.41569E+08
 
   -0.40570E+08         0.18849E+07         0.00000E+00
    0.18849E+07        -0.49944E+08         0.00000E+00
    0.00000E+00         0.00000E+00        -0.41568E+08
 
   -0.40602E+08         0.19793E+07         0.00000E+00
    0.19793E+07        -0.49939E+08         0.00000E+00
    0.00000E+00         0.00000E+00        -0.41568E+08
 
   -0.40633E+08         0.20736E+07         0.00000E+00
    0.20736E+07        -0.49932E+08         0.00000E+00
    0.00000E+00         0.00000E+00        -0.41567E+08
 
   -0.40665E+08         0.21677E+07         0.00000E+00
    0.21677E+07        -0.49926E+08         0.00000E+00
    0.00000E+00         0.00000E+00        -0.41566E+08
 
   -0.40697E+08         0.22617E+07         0.00000E+00
    0.22617E+07        -0.49920E+08         0.00000E+00
    0.00000E+00         0.00000E+00        -0.41566E+08
 
   -0.40728E+08         0.23557E+07         0.00000E+00
    0.23557E+07        -0.49913E+08         0.00000E+00
    0.00000E+00         0.00000E+00        -0.41565E+08
 
   -0.40760E+08         0.24495E+07         0.00000E+00
    0.24495E+07        -0.49906E+08         0.00000E+00
    0.00000E+00         0.00000E+00        -0.41565E+08
 
   -0.40791E+08         0.25432E+07         0.00000E+00
    0.25432E+07        -0.49898E+08         0.00000E+00
    0.00000E+00         0.00000E+00        -0.41564E+08
 
   -0.40823E+08         0.26369E+07         0.00000E+00
    0.26369E+07        -0.49890E+08         0.00000E+00
    0.00000E+00         0.00000E+00        -0.41563E+08
 
   -0.40854E+08         0.27306E+07         0.00000E+00
    0.27306E+07        -0.49882E+08         0.00000E+00
    0.00000E+00         0.00000E+00        -0.41563E+08
 
   -0.40886E+08         0.28242E+07         0.00000E+00
    0.28242E+07        -0.49874E+08         0.00000E+00
    0.00000E+00         0.00000E+00        -0.41562E+08
 
   -0.40917E+08         0.29177E+07         0.00000E+00
    0.29177E+07        -0.49865E+08         0.00000E+00
    0.00000E+00         0.00000E+00        -0.41562E+08
 
   -0.40949E+08         0.30113E+07         0.00000E+00
    0.30113E+07        -0.49856E+08         0.00000E+00
    0.00000E+00         0.00000E+00        -0.41561E+08
 
   -0.40980E+08         0.31048E+07         0.00000E+00
    0.31048E+07        -0.49846E+08         0.00000E+00
    0.00000E+00         0.00000E+00        -0.41560E+08
 
   -0.41012E+08         0.31984E+07         0.00000E+00
    0.31984E+07        -0.49837E+08         0.00000E+00
    0.00000E+00         0.00000E+00        -0.41560E+08
 
   -0.41044E+08         0.32919E+07         0.00000E+00
    0.32919E+07        -0.49826E+08         0.00000E+00
    0.00000E+00         0.00000E+00        -0.41559E+08
 
   -0.41075E+08         0.33855E+07         0.00000E+00
    0.33855E+07        -0.49816E+08         0.00000E+00
    0.00000E+00         0.00000E+00        -0.41559E+08
 
   -0.41107E+08         0.34792E+07         0.00000E+00
    0.34792E+07        -0.49805E+08         0.00000E+00
    0.00000E+00         0.00000E+00        -0.41558E+08
 
   -0.41139E+08         0.35729E+07         0.00000E+00
    0.35729E+07        -0.49794E+08         0.00000E+00
    0.00000E+00         0.00000E+00        -0.41558E+08
 
   -0.41171E+08         0.36666E+07         0.00000E+00
    0.36666E+07        -0.49782E+08         0.00000E+00
    0.00000E+00         0.00000E+00        -0.41557E+08
 
   -0.41203E+08         0.37604E+07         0.00000E+00
    0.37604E+07        -0.49770E+08         0.00000E+00
    0.00000E+00         0.00000E+00        -0.41557E+08
 
   -0.41236E+08         0.38543E+07         0.00000E+00
    0.38543E+07        -0.49757E+08         0.00000E+00
    0.00000E+00         0.00000E+00        -0.41557E+08
 
   -0.41268E+08         0.39483E+07         0.00000E+00
    0.39483E+07        -0.49744E+08         0.00000E+00
    0.00000E+00         0.00000E+00        -0.41556E+08
 
   -0.41301E+08         0.40423E+07         0.00000E+00
    0.40423E+07        -0.49731E+08         0.00000E+00
    0.00000E+00         0.00000E+00        -0.41556E+08
 
   -0.41334E+08         0.41365E+07         0.00000E+00
    0.41365E+07        -0.49717E+08         0.00000E+00
    0.00000E+00         0.00000E+00        -0.41556E+08
 
   -0.41367E+08         0.42308E+07         0.00000E+00
    0.42308E+07        -0.49703E+08         0.00000E+00
    0.00000E+00         0.00000E+00        -0.41555E+08
 
   -0.41400E+08         0.43252E+07         0.00000E+00
    0.43252E+07        -0.49688E+08         0.00000E+00
    0.00000E+00         0.00000E+00        -0.41555E+08
 
   -0.41434E+08         0.44198E+07         0.00000E+00
    0.44198E+07        -0.49673E+08         0.00000E+00
    0.00000E+00         0.00000E+00        -0.41555E+08
 
   -0.41468E+08         0.45144E+07         0.00000E+00
    0.45144E+07        -0.49657E+08         0.00000E+00
    0.00000E+00         0.00000E+00        -0.41555E+08
 
   -0.41503E+08         0.46093E+07         0.00000E+00
    0.46093E+07        -0.49640E+08         0.00000E+00
    0.00000E+00         0.00000E+00        -0.41555E+08
 
   -0.41537E+08         0.47042E+07         0.00000E+00
    0.47042E+07        -0.49623E+08         0.00000E+00
    0.00000E+00         0.00000E+00        -0.41555E+08
 
   -0.39454E+08         0.50785E+05         0.00000E+00
    0.50785E+05        -0.50000E+08         0.00000E+00
    0.00000E+00         0.00000E+00        -0.41093E+08
 
   -0.39489E+08         0.15139E+06         0.00000E+00
    0.15139E+06        -0.50000E+08         0.00000E+00
    0.00000E+00         0.00000E+00        -0.41093E+08
 
   -0.39523E+08         0.25165E+06         0.00000E+00
    0.25165E+06        -0.49999E+08         0.00000E+00
    0.00000E+00         0.00000E+00        -0.41093E+08
 
   -0.39557E+08         0.35156E+06         0.00000E+00
    0.35156E+06        -0.49998E+08         0.00000E+00
    0.00000E+00         0.00000E+00        -0.41093E+08
 
   -0.39592E+08         0.45115E+06         0.00000E+00
    0.45115E+06        -0.49997E+08         0.00000E+00
    0.00000E+00         0.00000E+00        -0.41093E+08
 
   -0.39626E+08         0.55042E+06         0.00000E+00
    0.55042E+06        -0.49995E+08         0.00000E+00
    0.00000E+00         0.00000E+00        -0.41093E+08
 
   -0.39660E+08         0.64937E+06         0.00000E+00
    0.64937E+06        -0.49994E+08         0.00000E+00
    0.00000E+00         0.00000E+00        -0.41092E+08
 
   -0.39694E+08         0.74802E+06         0.00000E+00
    0.74802E+06        -0.49992E+08         0.00000E+00
    0.00000E+00         0.00000E+00        -0.41092E+08
 
   -0.39728E+08         0.84638E+06         0.00000E+00
    0.84638E+06        -0.49989E+08         0.00000E+00
    0.00000E+00         0.00000E+00        -0.41092E+08
 
   -0.39762E+08         0.94445E+06         0.00000E+00
    0.94445E+06        -0.49987E+08         0.00000E+00
    0.00000E+00         0.00000E+00        -0.41091E+08
 
   -0.39796E+08         0.10422E+07         0.00000E+00
    0.10422E+07        -0.49984E+08         0.00000E+00
    0.00000E+00         0.00000E+00        -0.41091E+08
 
   -0.39829E+08         0.11398E+07         0.00000E+00
    0.11398E+07        -0.49981E+08         0.00000E+00
    0.00000E+00         0.00000E+00        -0.41090E+08
 
   -0.39863E+08         0.12371E+07         0.00000E+00
    0.12371E+07        -0.49977E+08         0.00000E+00
    0.00000E+00         0.00000E+00        -0.41090E+08
 
   -0.39896E+08         0.13341E+07         0.00000E+00
    0.13341E+07        -0.49974E+08         0.00000E+00
    0.00000E+00         0.00000E+00        -0.41089E+08
 
   -0.39930E+08         0.14310E+07         0.00000E+00
    0.14310E+07        -0.49970E+08         0.00000E+00
    0.00000E+00         0.00000E+00        -0.41089E+08
 
   -0.39963E+08         0.15276E+07         0.00000E+00
    0.15276E+07        -0.49965E+08         0.00000E+00
    0.00000E+00         0.00000E+00        -0.41088E+08
 
   -0.39996E+08         0.16240E+07         0.00000E+00
    0.16240E+07        -0.49961E+08         0.00000E+00
    0.00000E+00         0.00000E+00        -0.41088E+08
 
   -0.40029E+08         0.17202E+07         0.00000E+00
    0.17202E+07        -0.49956E+08         0.00000E+00
    0.00000E+00         0.00000E+00        -0.41087E+08
 
   -0.40061E+08         0.18163E+07         0.00000E+00
    0.18163E+07        -0.49951E+08         0.00000E+00
    0.00000E+00         0.00000E+00        -0.41087E+08
 
   -0.40094E+08         0.19122E+07         0.00000E+00
    0.19122E+07        -0.49946E+08         0.00000E+00
    0.00000E+00         0.00000E+00        -0.41086E+08
 
   -0.40126E+08         0.20080E+07         0.00000E+00
    0.20080E+07        -0.49941E+08         0.00000E+00
    0.00000E+00         0.00000E+00        -0.41085E+08
 
   -0.40159E+08         0.21037E+07         0.00000E+00
    0.21037E+07        -0.49935E+08         0.00000E+00
    0.00000E+00         0.00000E+00        -0.41085E+08
 
   -0.40191E+08         0.21992E+07         0.00000E+00
    0.21992E+07        -0.49929E+08         0.00000E+00
    0.00000E+00         0.00000E+00        -0.41084E+08
 
   -0.40223E+08         0.22946E+07         0.00000E+00
    0.22946E+07        -0.49923E+08         0.00000E+00
    0.00000E+00         0.00000E+00        -0.41083E+08
 
   -0.40255E+08         0.23900E+07         0.00000E+00
    0.23900E+07        -0.49916E+08         0.00000E+00
    0.00000E+00         0.00000E+00        -0.41083E+08
 
   -0.40287E+08         0.24853E+07         0.00000E+00
    0.24853E+07        -0.49909E+08         0.00000E+00
    0.00000E+00         0.00000E+00        -0.41082E+08
 
   -0.40319E+08         0.25805E+07         0.00000E+00
    0.25805E+07        -0.49902E+08         0.00000E+00
    0.00000E+00         0.00000E+00        -0.41082E+08
 
   -0.40351E+08         0.26757E+07         0.00000E+00
    0.26757E+07        -0.49895E+08         0.00000E+00
    0.00000E+00         0.00000E+00        -0.41081E+08
 
   -0.40382E+08         0.27709E+07         0.00000E+00
    0.27709E+07        -0.49887E+08         0.00000E+00
    0.00000E+00         0.00000E+00        -0.41080E+08
 
   -0.40414E+08         0.28661E+07         0.00000E+00
    0.28661E+07        -0.49879E+08         0.00000E+00
    0.00000E+00         0.00000E+00        -0.41080E+08
 
   -0.40445E+08         0.29613E+07         0.00000E+00
    0.29613E+07        -0.49871E+08         0.00000E+00
    0.00000E+00         0.00000E+00        -0.41079E+08
 
   -0.40477E+08         0.30565E+07         0.00000E+00
    0.30565E+07        -0.49862E+08         0.00000E+00
    0.00000E+00         0.00000E+00        -0.41078E+08
 
   -0.40508E+08         0.31518E+07         0.00000E+00
    0.31518E+07        -0.49853E+08         0.00000E+00
    0.00000E+00         0.00000E+00        -0.41078E+08
 
   -0.40540E+08         0.32470E+07         0.00000E+00
    0.32470E+07        -0.49844E+08         0.00000E+00
    0.00000E+00         0.00000E+00        -0.41077E+08
 
   -0.40571E+08         0.33424E+07         0.00000E+00
    0.33424E+07        -0.49834E+08         0.00000E+00
    0.00000E+00         0.00000E+00        -0.41077E+08
 
   -0.40603E+08         0.34379E+07         0.00000E+00
    0.34379E+07        -0.49824E+08         0.00000E+00
    0.00000E+00         0.00000E+00        -0.41076E+08
 
   -0.40634E+08         0.35334E+07         0.00000E+00
    0.35334E+07        -0.49814E+08         0.00000E+00
    0.00000E+00         0.00000E+00        -0.41076E+08
 
   -0.40666E+08         0.36290E+07         0.00000E+00
    0.36290E+07        -0.49803E+08         0.00000E+00
    0.00000E+00         0.00000E+00        -0.41075E+08
 
   -0.40697E+08         0.37248E+07         0.00000E+00
    0.37248E+07        -0.49792E+08         0.00000E+00
    0.00000E+00         0.00000E+00        -0.41075E+08
 
   -0.40729E+08         0.38207E+07         0.00000E+00
    0.38207E+07        -0.49780E+08         0.00000E+00
    0.00000E+00         0.00000E+00        -0.41074E+08
 
   -0.40761E+08         0.39167E+07         0.00000E+00
    0.39167E+07        -0.49768E+08         0.00000E+00
    0.00000E+00         0.00000E+00        -0.41074E+08
 
   -0.40792E+08         0.40129E+07         0.00000E+00
    0.40129E+07        -0.49756E+08         0.00000E+00
    0.00000E+00         0.00000E+00        -0.41074E+08
 
   -0.40824E+08         0.41093E+07         0.00000E+00
    0.41093E+07        -0.49743E+08         0.00000E+00
    0.00000E+00         0.00000E+00        -0.41073E+08
 
   -0.40857E+08         0.42058E+07         0.00000E+00
    0.42058E+07        -0.49730E+08         0.00000E+00
    0.00000E+00         0.00000E+00        -0.41073E+08
 
   -0.40889E+08         0.43025E+07         0.00000E+00
    0.43025E+07        -0.49716E+08         0.00000E+00
    0.00000E+00         0.00000E+00        -0.41073E+08
 
   -0.40922E+08         0.43995E+07         0.00000E+00
    0.43995E+07        -0.49702E+08         0.00000E+00
    0.00000E+00         0.00000E+00        -0.41072E+08
 
   -0.40955E+08         0.44966E+07         0.00000E+00
    0.44966E+07        -0.49687E+08         0.00000E+00
    0.00000E+00         0.00000E+00        -0.41072E+08
 
   -0.40988E+08         0.45940E+07         0.00000E+00
    0.45940E+07        -0.49672E+08         0.00000E+00
    0.00000E+00         0.00000E+00        -0.41072E+08
 
   -0.41021E+08         0.46915E+07         0.00000E+00
    0.46915E+07        -0.49656E+08         0.00000E+00
    0.00000E+00         0.00000E+00        -0.41072E+08
 
   -0.41055E+08         0.47893E+07         0.00000E+00
    0.47893E+07        -0.49639E+08         0.00000E+00
    0.00000E+00         0.00000E+00        -0.41072E+08
 
   -0.38946E+08         0.51597E+05         0.00000E+00
    0.51597E+05        -0.50000E+08         0.00000E+00
    0.00000E+00         0.00000E+00        -0.40596E+08
 
   -0.38983E+08         0.15372E+06         0.00000E+00
    0.15372E+06        -0.50000E+08         0.00000E+00
    0.00000E+00         0.00000E+00        -0.40596E+08
 
   -0.39019E+08         0.25546E+06         0.00000E+00
    0.25546E+06        -0.49999E+08         0.00000E+00
    0.00000E+00         0.00000E+00        -0.40596E+08
 
   -0.39055E+08         0.35683E+06         0.00000E+00
    0.35683E+06        -0.49998E+08         0.00000E+00
    0.00000E+00         0.00000E+00        -0.40596E+08
 
   -0.39091E+08         0.45784E+06         0.00000E+00
    0.45784E+06        -0.49997E+08         0.00000E+00
    0.00000E+00         0.00000E+00        -0.40596E+08
 
   -0.39127E+08         0.55849E+06         0.00000E+00
    0.55849E+06        -0.49996E+08         0.00000E+00
    0.00000E+00         0.00000E+00        -0.40596E+08
 
   -0.39163E+08         0.65881E+06         0.00000E+00
    0.65881E+06        -0.49994E+08         0.00000E+00
    0.00000E+00         0.00000E+00        -0.40595E+08
 
   -0.39198E+08         0.75879E+06         0.00000E+00
    0.75879E+06        -0.49992E+08         0.00000E+00
    0.00000E+00         0.00000E+00        -0.40595E+08
 
   -0.39234E+08         0.85846E+06         0.00000E+00
    0.85846E+06        -0.49990E+08         0.00000E+00
    0.00000E+00         0.00000E+00        -0.40595E+08
 
   -0.39269E+08         0.95782E+06         0.00000E+00
    0.95782E+06        -0.49987E+08         0.00000E+00
    0.00000E+00         0.00000E+00        -0.40594E+08
 
   -0.39304E+08         0.10569E+07         0.00000E+00
    0.10569E+07        -0.49984E+08         0.00000E+00
    0.00000E+00         0.00000E+00        -0.40594E+08
 
   -0.39339E+08         0.11557E+07         0.00000E+00
    0.11557E+07        -0.49981E+08         0.00000E+00
    0.00000E+00         0.00000E+00        -0.40593E+08
 
   -0.39374E+08         0.12542E+07         0.00000E+00
    0.12542E+07        -0.49978E+08         0.00000E+00
    0.00000E+00         0.00000E+00        -0.40593E+08
 
   -0.39408E+08         0.13525E+07         0.00000E+00
    0.13525E+07        -0.49975E+08         0.00000E+00
    0.00000E+00         0.00000E+00        -0.40592E+08
 
   -0.39443E+08         0.14506E+07         0.00000E+00
    0.14506E+07        -0.49971E+08         0.00000E+00
    0.00000E+00         0.00000E+00        -0.40592E+08
 
   -0.39477E+08         0.15484E+07         0.00000E+00
    0.15484E+07        -0.49967E+08         0.00000E+00
    0.00000E+00         0.00000E+00        -0.40591E+08
 
   -0.39511E+08         0.16461E+07         0.00000E+00
    0.16461E+07        -0.49963E+08         0.00000E+00
    0.00000E+00         0.00000E+00        -0.40591E+08
 
   -0.39545E+08         0.17435E+07         0.00000E+00
    0.17435E+07        -0.49959E+08         0.00000E+00
    0.00000E+00         0.00000E+00        -0.40590E+08
 
   -0.39578E+08         0.18409E+07         0.00000E+00
    0.18409E+07        -0.49954E+08         0.00000E+00
    0.00000E+00         0.00000E+00        -0.40589E+08
 
   -0.39612E+08         0.19380E+07         0.00000E+00
    0.19380E+07        -0.49949E+08         0.00000E+00
    0.00000E+00         0.00000E+00        -0.40589E+08
 
   -0.39645E+08         0.20350E+07         0.00000E+00
    0.20350E+07        -0.49944E+08         0.00000E+00
    0.00000E+00         0.00000E+00        -0.40588E+08
 
   -0.39678E+08         0.21320E+07         0.00000E+00
    0.21320E+07        -0.49939E+08         0.00000E+00
    0.00000E+00         0.00000E+00        -0.40587E+08
 
   -0.39710E+08         0.22288E+07         0.00000E+00
    0.22288E+07        -0.49933E+08         0.00000E+00
    0.00000E+00         0.00000E+00        -0.40587E+08
 
   -0.39743E+08         0.23255E+07         0.00000E+00
    0.23255E+07        -0.49927E+08         0.00000E+00
    0.00000E+00         0.00000E+00        -0.40586E+08
 
   -0.39775E+08         0.24222E+07         0.00000E+00
    0.24222E+07        -0.49921E+08         0.00000E+00
    0.00000E+00         0.00000E+00        -0.40585E+08
 
   -0.39807E+08         0.25189E+07         0.00000E+00
    0.25189E+07        -0.49915E+08         0.00000E+00
    0.00000E+00         0.00000E+00        -0.40585E+08
 
   -0.39839E+08         0.26155E+07         0.00000E+00
    0.26155E+07        -0.49908E+08         0.00000E+00
    0.00000E+00         0.00000E+00        -0.40584E+08
 
   -0.39871E+08         0.27121E+07         0.00000E+00
    0.27121E+07        -0.49902E+08         0.00000E+00
    0.00000E+00         0.00000E+00        -0.40583E+08
 
   -0.39903E+08         0.28088E+07         0.00000E+00
    0.28088E+07        -0.49895E+08         0.00000E+00
    0.00000E+00         0.00000E+00        -0.40583E+08
 
   -0.39934E+08         0.29054E+07         0.00000E+00
    0.29054E+07        -0.49887E+08         0.00000E+00
    0.00000E+00         0.00000E+00        -0.40582E+08
 
   -0.39966E+08         0.30022E+07         0.00000E+00
    0.30022E+07        -0.49879E+08         0.00000E+00
    0.00000E+00         0.00000E+00        -0.40582E+08
 
   -0.39997E+08         0.30989E+07         0.00000E+00
    0.30989E+07        -0.49871E+08         0.00000E+00
    0.00000E+00         0.00000E+00        -0.40581E+08
 
   -0.40028E+08         0.31958E+07         0.00000E+00
    0.31958E+07        -0.49863E+08         0.00000E+00
    0.00000E+00         0.00000E+00        -0.40580E+08
 
   -0.40059E+08         0.32928E+07         0.00000E+00
    0.32928E+07        -0.49854E+08         0.00000E+00
    0.00000E+00         0.00000E+00        -0.40580E+08
 
   -0.40090E+08         0.33899E+07         0.00000E+00
    0.33899E+07        -0.49846E+08         0.00000E+00
    0.00000E+00         0.00000E+00        -0.40579E+08
 
   -0.40121E+08         0.34871E+07         0.00000E+00
    0.34871E+07        -0.49836E+08         0.00000E+00
    0.00000E+00         0.00000E+00        -0.40579E+08
 
   -0.40151E+08         0.35845E+07         0.00000E+00
    0.35845E+07        -0.49827E+08         0.00000E+00
    0.00000E+00         0.00000E+00        -0.40578E+08
 
   -0.40182E+08         0.36821E+07         0.00000E+00
    0.36821E+07        -0.49817E+08         0.00000E+00
    0.00000E+00         0.00000E+00        -0.40578E+08
 
   -0.40213E+08         0.37798E+07         0.00000E+00
    0.37798E+07        -0.49806E+08         0.00000E+00
    0.00000E+00         0.00000E+00        -0.40577E+08
 
   -0.40244E+08         0.38777E+07         0.00000E+00
    0.38777E+07        -0.49795E+08         0.00000E+00
    0.00000E+00         0.00000E+00        -0.40577E+08
 
   -0.40275E+08         0.39759E+07         0.00000E+00
    0.39759E+07        -0.49784E+08         0.00000E+00
    0.00000E+00         0.00000E+00        -0.40576E+08
 
   -0.40305E+08         0.40743E+07         0.00000E+00
    0.40743E+07        -0.49772E+08         0.00000E+00
    0.00000E+00         0.00000E+00        -0.40576E+08
 
   -0.40336E+08         0.41729E+07         0.00000E+00
    0.41729E+07        -0.49760E+08         0.00000E+00
    0.00000E+00         0.00000E+00        -0.40575E+08
 
   -0.40367E+08         0.42718E+07         0.00000E+00
    0.42718E+07        -0.49748E+08         0.00000E+00
    0.00000E+00         0.00000E+00        -0.40575E+08
 
   -0.40399E+08         0.43710E+07         0.00000E+00
    0.43710E+07        -0.49735E+08         0.00000E+00
    0.00000E+00         0.00000E+00        -0.40575E+08
 
   -0.40430E+08         0.44705E+07         0.00000E+00
    0.44705E+07        -0.49721E+08         0.00000E+00
    0.00000E+00         0.00000E+00        -0.40575E+08
 
   -0.40462E+08         0.45702E+07         0.00000E+00
    0.45702E+07        -0.49707E+08         0.00000E+00
    0.00000E+00         0.00000E+00        -0.40574E+08
 
   -0.40493E+08         0.46703E+07         0.00000E+00
    0.46703E+07        -0.49693E+08         0.00000E+00
    0.00000E+00         0.00000E+00        -0.40574E+08
 
   -0.40525E+08         0.47707E+07         0.00000E+00
    0.47707E+07        -0.49677E+08         0.00000E+00
    0.00000E+00         0.00000E+00        -0.40574E+08
 
   -0.40558E+08         0.48714E+07         0.00000E+00
    0.48714E+07        -0.49662E+08         0.00000E+00
    0.00000E+00         0.00000E+00        -0.40574E+08
 
   -0.38431E+08         0.52401E+05         0.00000E+00
    0.52401E+05        -0.50000E+08         0.00000E+00
    0.00000E+00         0.00000E+00        -0.40084E+08
 
   -0.38469E+08         0.15599E+06         0.00000E+00
    0.15599E+06        -0.50000E+08         0.00000E+00
    0.00000E+00         0.00000E+00        -0.40084E+08
 
   -0.38508E+08         0.25915E+06         0.00000E+00
    0.25915E+06        -0.49999E+08         0.00000E+00
    0.00000E+00         0.00000E+00        -0.40084E+08
 
   -0.38546E+08         0.36190E+06         0.00000E+00
    0.36190E+06        -0.49998E+08         0.00000E+00
    0.00000E+00         0.00000E+00        -0.40083E+08
 
   -0.38584E+08         0.46424E+06         0.00000E+00
    0.46424E+06        -0.49997E+08         0.00000E+00
    0.00000E+00         0.00000E+00        -0.40083E+08
 
   -0.38621E+08         0.56619E+06         0.00000E+00
    0.56619E+06        -0.49996E+08         0.00000E+00
    0.00000E+00         0.00000E+00        -0.40083E+08
 
   -0.38659E+08         0.66776E+06         0.00000E+00
    0.66776E+06        -0.49994E+08         0.00000E+00
    0.00000E+00         0.00000E+00        -0.40083E+08
 
   -0.38696E+08         0.76897E+06         0.00000E+00
    0.76897E+06        -0.49992E+08         0.00000E+00
    0.00000E+00         0.00000E+00        -0.40082E+08
 
   -0.38733E+08         0.86983E+06         0.00000E+00
    0.86983E+06        -0.49990E+08         0.00000E+00
    0.00000E+00         0.00000E+00        -0.40082E+08
 
   -0.38770E+08         0.97037E+06         0.00000E+00
    0.97037E+06        -0.49988E+08         0.00000E+00
    0.00000E+00         0.00000E+00        -0.40082E+08
 
   -0.38807E+08         0.10706E+07         0.00000E+00
    0.10706E+07        -0.49985E+08         0.00000E+00
    0.00000E+00         0.00000E+00        -0.40081E+08
 
   -0.38843E+08         0.11705E+07         0.00000E+00
    0.11705E+07        -0.49983E+08         0.00000E+00
    0.00000E+00         0.00000E+00        -0.40081E+08
 
   -0.38879E+08         0.12702E+07         0.00000E+00
    0.12702E+07        -0.49980E+08         0.00000E+00
    0.00000E+00         0.00000E+00        -0.40080E+08
 
   -0.38915E+08         0.13696E+07         0.00000E+00
    0.13696E+07        -0.49977E+08         0.00000E+00
    0.00000E+00         0.00000E+00        -0.40080E+08
 
   -0.38950E+08         0.14687E+07         0.00000E+00
    0.14687E+07        -0.49973E+08         0.00000E+00
    0.00000E+00         0.00000E+00        -0.40079E+08
 
   -0.38985E+08         0.15677E+07         0.00000E+00
    0.15677E+07        -0.49970E+08         0.00000E+00
    0.00000E+00         0.00000E+00        -0.40079E+08
 
   -0.39020E+08         0.16664E+07         0.00000E+00
    0.16664E+07        -0.49966E+08         0.00000E+00
    0.00000E+00         0.00000E+00        -0.40078E+08
 
   -0.39055E+08         0.17649E+07         0.00000E+00
    0.17649E+07        -0.49962E+08         0.00000E+00
    0.00000E+00         0.00000E+00        -0.40077E+08
 
   -0.39089E+08         0.18633E+07         0.00000E+00
    0.18633E+07        -0.49958E+08         0.00000E+00
    0.00000E+00         0.00000E+00        -0.40077E+08
 
   -0.39123E+08         0.19616E+07         0.00000E+00
    0.19616E+07        -0.49954E+08         0.00000E+00
    0.00000E+00         0.00000E+00        -0.40076E+08
 
   -0.39157E+08         0.20598E+07         0.00000E+00
    0.20598E+07        -0.49949E+08         0.00000E+00
    0.00000E+00         0.00000E+00        -0.40075E+08
 
   -0.39190E+08         0.21578E+07         0.00000E+00
    0.21578E+07        -0.49944E+08         0.00000E+00
    0.00000E+00         0.00000E+00        -0.40075E+08
 
   -0.39223E+08         0.22558E+07         0.00000E+00
    0.22558E+07        -0.49939E+08         0.00000E+00
    0.00000E+00         0.00000E+00        -0.40074E+08
 
   -0.39256E+08         0.23537E+07         0.00000E+00
    0.23537E+07        -0.49934E+08         0.00000E+00
    0.00000E+00         0.00000E+00        -0.40073E+08
 
   -0.39289E+08         0.24516E+07         0.00000E+00
    0.24516E+07        -0.49929E+08         0.00000E+00
    0.00000E+00         0.00000E+00        -0.40073E+08
 
   -0.39321E+08         0.25494E+07         0.00000E+00
    0.25494E+07        -0.49923E+08         0.00000E+00
    0.00000E+00         0.00000E+00        -0.40072E+08
 
   -0.39353E+08         0.26473E+07         0.00000E+00
    0.26473E+07        -0.49917E+08         0.00000E+00
    0.00000E+00         0.00000E+00        -0.40071E+08
 
   -0.39385E+08         0.27453E+07         0.00000E+00
    0.27453E+07        -0.49911E+08         0.00000E+00
    0.00000E+00         0.00000E+00        -0.40071E+08
 
   -0.39416E+08         0.28432E+07         0.00000E+00
    0.28432E+07        -0.49905E+08         0.00000E+00
    0.00000E+00         0.00000E+00        -0.40070E+08
 
   -0.39447E+08         0.29413E+07         0.00000E+00
    0.29413E+07        -0.49898E+08         0.00000E+00
    0.00000E+00         0.00000E+00        -0.40069E+08
 
   -0.39478E+08         0.30394E+07         0.00000E+00
    0.30394E+07        -0.49891E+08         0.00000E+00
    0.00000E+00         0.00000E+00        -0.40069E+08
 
   -0.39509E+08         0.31377E+07         0.00000E+00
    0.31377E+07        -0.49884E+08         0.00000E+00
    0.00000E+00         0.00000E+00        -0.40068E+08
 
   -0.39539E+08         0.32361E+07         0.00000E+00
    0.32361E+07        -0.49877E+08         0.00000E+00
    0.00000E+00         0.00000E+00        -0.40067E+08
 
   -0.39570E+08         0.33346E+07         0.00000E+00
    0.33346E+07        -0.49869E+08         0.00000E+00
    0.00000E+00         0.00000E+00        -0.40067E+08
 
   -0.39600E+08         0.34333E+07         0.00000E+00
    0.34333E+07        -0.49861E+08         0.00000E+00
    0.00000E+00         0.00000E+00        -0.40066E+08
 
   -0.39630E+08         0.35323E+07         0.00000E+00
    0.35323E+07        -0.49852E+08         0.00000E+00
    0.00000E+00         0.00000E+00        -0.40066E+08
 
   -0.39659E+08         0.36314E+07         0.00000E+00
    0.36314E+07        -0.49844E+08         0.00000E+00
    0.00000E+00         0.00000E+00        -0.40065E+08
 
   -0.39689E+08         0.37308E+07         0.00000E+00
    0.37308E+07        -0.49835E+08         0.00000E+00
    0.00000E+00         0.00000E+00        -0.40065E+08
 
   -0.39719E+08         0.38305E+07         0.00000E+00
    0.38305E+07        -0.49825E+08         0.00000E+00
    0.00000E+00         0.00000E+00        -0.40064E+08
 
   -0.39748E+08         0.39304E+07         0.00000E+00
    0.39304E+07        -0.49815E+08         0.00000E+00
    0.00000E+00         0.00000E+00        -0.40064E+08
 
   -0.39778E+08         0.40307E+07         0.00000E+00
    0.40307E+07        -0.49805E+08         0.00000E+00
    0.00000E+00         0.00000E+00        -0.40063E+08
 
   -0.39807E+08         0.41312E+07         0.00000E+00
    0.41312E+07        -0.49795E+08         0.00000E+00
    0.00000E+00         0.00000E+00        -0.40063E+08
 
   -0.39837E+08         0.42321E+07         0.00000E+00
    0.42321E+07        -0.49783E+08         0.00000E+00
    0.00000E+00         0.00000E+00        -0.40062E+08
 
   -0.39866E+08         0.43333E+07         0.00000E+00
    0.43333E+07        -0.49772E+08         0.00000E+00
    0.00000E+00         0.00000E+00        -0.40062E+08
 
   -0.39896E+08         0.44350E+07         0.00000E+00
    0.44350E+07        -0.49760E+08         0.00000E+00
    0.00000E+00         0.00000E+00        -0.40062E+08
 
   -0.39925E+08         0.45370E+07         0.00000E+00
    0.45370E+07        -0.49747E+08         0.00000E+00
    0.00000E+00         0.00000E+00        -0.40062E+08
 
   -0.39955E+08         0.46394E+07         0.00000E+00
    0.46394E+07        -0.49734E+08         0.00000E+00
    0.00000E+00         0.00000E+00        -0.40061E+08
 
   -0.39985E+08         0.47422E+07         0.00000E+00
    0.47422E+07        -0.49721E+08         0.00000E+00
    0.00000E+00         0.00000E+00        -0.40061E+08
 
   -0.40015E+08         0.48454E+07         0.00000E+00
    0.48454E+07        -0.49707E+08         0.00000E+00
    0.00000E+00         0.00000E+00        -0.40061E+08
 
   -0.40046E+08         0.49491E+07         0.00000E+00
    0.49491E+07        -0.49692E+08         0.00000E+00
    0.00000E+00         0.00000E+00        -0.40061E+08
 
   -0.37909E+08         0.53181E+05         0.00000E+00
    0.53181E+05        -0.50000E+08         0.00000E+00
    0.00000E+00         0.00000E+00        -0.39555E+08
 
   -0.37949E+08         0.15815E+06         0.00000E+00
    0.15815E+06        -0.50000E+08         0.00000E+00
    0.00000E+00         0.00000E+00        -0.39555E+08
 
   -0.37990E+08         0.26263E+06         0.00000E+00
    0.26263E+06        -0.49999E+08         0.00000E+00
    0.00000E+00         0.00000E+00        -0.39555E+08
 
   -0.38030E+08         0.36663E+06         0.00000E+00
    0.36663E+06        -0.49998E+08         0.00000E+00
    0.00000E+00         0.00000E+00        -0.39555E+08
 
   -0.38070E+08         0.47018E+06         0.00000E+00
    0.47018E+06        -0.49997E+08         0.00000E+00
    0.00000E+00         0.00000E+00        -0.39555E+08
 
   -0.38110E+08         0.57328E+06         0.00000E+00
    0.57328E+06        -0.49996E+08         0.00000E+00
    0.00000E+00         0.00000E+00        -0.39555E+08
 
   -0.38149E+08         0.67597E+06         0.00000E+00
    0.67597E+06        -0.49995E+08         0.00000E+00
    0.00000E+00         0.00000E+00        -0.39554E+08
 
   -0.38188E+08         0.77825E+06         0.00000E+00
    0.77825E+06        -0.49993E+08         0.00000E+00
    0.00000E+00         0.00000E+00        -0.39554E+08
 
   -0.38227E+08         0.88015E+06         0.00000E+00
    0.88015E+06        -0.49991E+08         0.00000E+00
    0.00000E+00         0.00000E+00        -0.39554E+08
 
   -0.38266E+08         0.98169E+06         0.00000E+00
    0.98169E+06        -0.49989E+08         0.00000E+00
    0.00000E+00         0.00000E+00        -0.39553E+08
 
   -0.38304E+08         0.10829E+07         0.00000E+00
    0.10829E+07        -0.49987E+08         0.00000E+00
    0.00000E+00         0.00000E+00        -0.39553E+08
 
   -0.38341E+08         0.11838E+07         0.00000E+00
    0.11838E+07        -0.49985E+08         0.00000E+00
    0.00000E+00         0.00000E+00        -0.39552E+08
 
   -0.38379E+08         0.12844E+07         0.00000E+00
    0.12844E+07        -0.49982E+08         0.00000E+00
    0.00000E+00         0.00000E+00        -0.39552E+08
 
   -0.38416E+08         0.13847E+07         0.00000E+00
    0.13847E+07        -0.49979E+08         0.00000E+00
    0.00000E+00         0.00000E+00        -0.39551E+08
 
   -0.38453E+08         0.14848E+07         0.00000E+00
    0.14848E+07        -0.49976E+08         0.00000E+00
    0.00000E+00         0.00000E+00        -0.39551E+08
 
   -0.38489E+08         0.15846E+07         0.00000E+00
    0.15846E+07        -0.49973E+08         0.00000E+00
    0.00000E+00         0.00000E+00        -0.39550E+08
 
   -0.38525E+08         0.16842E+07         0.00000E+00
    0.16842E+07        -0.49970E+08         0.00000E+00
    0.00000E+00         0.00000E+00        -0.39549E+08
 
   -0.38560E+08         0.17837E+07         0.00000E+00
    0.17837E+07        -0.49967E+08         0.00000E+00
    0.00000E+00         0.00000E+00        -0.39549E+08
 
   -0.38595E+08         0.18830E+07         0.00000E+00
    0.18830E+07        -0.49963E+08         0.00000E+00
    0.00000E+00         0.00000E+00        -0.39548E+08
 
   -0.38630E+08         0.19822E+07         0.00000E+00
    0.19822E+07        -0.49960E+08         0.00000E+00
    0.00000E+00         0.00000E+00        -0.39548E+08
 
   -0.38664E+08         0.20813E+07         0.00000E+00
    0.20813E+07        -0.49956E+08         0.00000E+00
    0.00000E+00         0.00000E+00        -0.39547E+08
 
   -0.38698E+08         0.21803E+07         0.00000E+00
    0.21803E+07        -0.49952E+08         0.00000E+00
    0.00000E+00         0.00000E+00        -0.39546E+08
 
   -0.38731E+08         0.22793E+07         0.00000E+00
    0.22793E+07        -0.49948E+08         0.00000E+00
    0.00000E+00         0.00000E+00        -0.39546E+08
 
   -0.38764E+08         0.23782E+07         0.00000E+00
    0.23782E+07        -0.49943E+08         0.00000E+00
    0.00000E+00         0.00000E+00        -0.39545E+08
 
   -0.38797E+08         0.24771E+07         0.00000E+00
    0.24771E+07        -0.49939E+08         0.00000E+00
    0.00000E+00         0.00000E+00        -0.39544E+08
 
   -0.38829E+08         0.25760E+07         0.00000E+00
    0.25760E+07        -0.49934E+08         0.00000E+00
    0.00000E+00         0.00000E+00        -0.39544E+08
 
   -0.38860E+08         0.26750E+07         0.00000E+00
    0.26750E+07        -0.49929E+08         0.00000E+00
    0.00000E+00         0.00000E+00        -0.39543E+08
 
   -0.38892E+08         0.27741E+07         0.00000E+00
    0.27741E+07        -0.49924E+08         0.00000E+00
    0.00000E+00         0.00000E+00        -0.39542E+08
 
   -0.38923E+08         0.28732E+07         0.00000E+00
    0.28732E+07        -0.49919E+08         0.00000E+00
    0.00000E+00         0.00000E+00        -0.39541E+08
 
   -0.38953E+08         0.29725E+07         0.00000E+00
    0.29725E+07        -0.49913E+08         0.00000E+00
    0.00000E+00         0.00000E+00        -0.39541E+08
 
   -0.38984E+08         0.30719E+07         0.00000E+00
    0.30719E+07        -0.49907E+08         0.00000E+00
    0.00000E+00         0.00000E+00        -0.39540E+08
 
   -0.39014E+08         0.31715E+07         0.00000E+00
    0.31715E+07        -0.49901E+08         0.00000E+00
    0.00000E+00         0.00000E+00        -0.39540E+08
 
   -0.39043E+08         0.32713E+07         0.00000E+00
    0.32713E+07        -0.49895E+08         0.00000E+00
    0.00000E+00         0.00000E+00        -0.39539E+08
 
   -0.39072E+08         0.33713E+07         0.00000E+00
    0.33713E+07        -0.49888E+08         0.00000E+00
    0.00000E+00         0.00000E+00        -0.39538E+08
 
   -0.39101E+08         0.34716E+07         0.00000E+00
    0.34716E+07        -0.49881E+08         0.00000E+00
    0.00000E+00         0.00000E+00        -0.39538E+08
 
   -0.39130E+08         0.35721E+07         0.00000E+00
    0.35721E+07        -0.49874E+08         0.00000E+00
    0.00000E+00         0.00000E+00        -0.39537E+08
 
   -0.39159E+08         0.36730E+07         0.00000E+00
    0.36730E+07        -0.49866E+08         0.00000E+00
    0.00000E+00         0.00000E+00        -0.39537E+08
 
   -0.39187E+08         0.37741E+07         0.00000E+00
    0.37741E+07        -0.49859E+08         0.00000E+00
    0.00000E+00         0.00000E+00        -0.39536E+08
 
   -0.39215E+08         0.38756E+07         0.00000E+00
    0.38756E+07        -0.49850E+08         0.00000E+00
    0.00000E+00         0.00000E+00        -0.39536E+08
 
   -0.39243E+08         0.39774E+07         0.00000E+00
    0.39774E+07        -0.49842E+08         0.00000E+00
    0.00000E+00         0.00000E+00        -0.39535E+08
 
   -0.39271E+08         0.40797E+07         0.00000E+00
    0.40797E+07        -0.49833E+08         0.00000E+00
    0.00000E+00         0.00000E+00        -0.39535E+08
 
   -0.39298E+08         0.41823E+07         0.00000E+00
    0.41823E+07        -0.49824E+08         0.00000E+00
    0.00000E+00         0.00000E+00        -0.39534E+08
 
   -0.39326E+08         0.42854E+07         0.00000E+00
    0.42854E+07        -0.49814E+08         0.00000E+00
    0.00000E+00         0.00000E+00        -0.39534E+08
 
   -0.39353E+08         0.43890E+07         0.00000E+00
    0.43890E+07        -0.49804E+08         0.00000E+00
    0.00000E+00         0.00000E+00        -0.39534E+08
 
   -0.39380E+08         0.44930E+07         0.00000E+00
    0.44930E+07        -0.49793E+08         0.00000E+00
    0.00000E+00         0.00000E+00        -0.39533E+08
 
   -0.39408E+08         0.45975E+07         0.00000E+00
    0.45975E+07        -0.49782E+08         0.00000E+00
    0.00000E+00         0.00000E+00        -0.39533E+08
 
   -0.39435E+08         0.47026E+07         0.00000E+00
    0.47026E+07        -0.49770E+08         0.00000E+00
    0.00000E+00         0.00000E+00        -0.39533E+08
 
   -0.39463E+08         0.48081E+07         0.00000E+00
    0.48081E+07        -0.49758E+08         0.00000E+00
    0.00000E+00         0.00000E+00        -0.39533E+08
 
   -0.39491E+08         0.49143E+07         0.00000E+00
    0.49143E+07        -0.49745E+08         0.00000E+00
    0.00000E+00         0.00000E+00        -0.39533E+08
 
   -0.39518E+08         0.50210E+07         0.00000E+00
    0.50210E+07        -0.49732E+08         0.00000E+00
    0.00000E+00         0.00000E+00        -0.39532E+08
 
   -0.37379E+08         0.53913E+05         0.00000E+00
    0.53913E+05        -0.50000E+08         0.00000E+00
    0.00000E+00         0.00000E+00        -0.39011E+08
 
   -0.37422E+08         0.16011E+06         0.00000E+00
    0.16011E+06        -0.50000E+08         0.00000E+00
    0.00000E+00         0.00000E+00        -0.39011E+08
 
   -0.37466E+08         0.26574E+06         0.00000E+00
    0.26574E+06        -0.49999E+08         0.00000E+00
    0.00000E+00         0.00000E+00        -0.39011E+08
 
   -0.37508E+08         0.37083E+06         0.00000E+00
    0.37083E+06        -0.49999E+08         0.00000E+00
    0.00000E+00         0.00000E+00        -0.39011E+08
 
   -0.37551E+08         0.47539E+06         0.00000E+00
    0.47539E+06        -0.49998E+08         0.00000E+00
    0.00000E+00         0.00000E+00        -0.39010E+08
 
   -0.37593E+08         0.57945E+06         0.00000E+00
    0.57945E+06        -0.49997E+08         0.00000E+00
    0.00000E+00         0.00000E+00        -0.39010E+08
 
   -0.37634E+08         0.68305E+06         0.00000E+00
    0.68305E+06        -0.49995E+08         0.00000E+00
    0.00000E+00         0.00000E+00        -0.39010E+08
 
   -0.37676E+08         0.78619E+06         0.00000E+00
    0.78619E+06        -0.49994E+08         0.00000E+00
    0.00000E+00         0.00000E+00        -0.39009E+08
 
   -0.37716E+08         0.88891E+06         0.00000E+00
    0.88891E+06        -0.49993E+08         0.00000E+00
    0.00000E+00         0.00000E+00        -0.39009E+08
 
   -0.37757E+08         0.99123E+06         0.00000E+00
    0.99123E+06        -0.49991E+08         0.00000E+00
    0.00000E+00         0.00000E+00        -0.39009E+08
 
   -0.37797E+08         0.10932E+07         0.00000E+00
    0.10932E+07        -0.49989E+08         0.00000E+00
    0.00000E+00         0.00000E+00        -0.39008E+08
 
   -0.37836E+08         0.11948E+07         0.00000E+00
    0.11948E+07        -0.49987E+08         0.00000E+00
    0.00000E+00         0.00000E+00        -0.39008E+08
 
   -0.37875E+08         0.12961E+07         0.00000E+00
    0.12961E+07        -0.49985E+08         0.00000E+00
    0.00000E+00         0.00000E+00        -0.39007E+08
 
   -0.37913E+08         0.13971E+07         0.00000E+00
    0.13971E+07        -0.49983E+08         0.00000E+00
    0.00000E+00         0.00000E+00        -0.39007E+08
 
   -0.37951E+08         0.14979E+07         0.00000E+00
    0.14979E+07        -0.49981E+08         0.00000E+00
    0.00000E+00         0.00000E+00        -0.39006E+08
 
   -0.37988E+08         0.15984E+07         0.00000E+00
    0.15984E+07        -0.49979E+08         0.00000E+00
    0.00000E+00         0.00000E+00        -0.39005E+08
 
   -0.38025E+08         0.16988E+07         0.00000E+00
    0.16988E+07        -0.49976E+08         0.00000E+00
    0.00000E+00         0.00000E+00        -0.39005E+08
 
   -0.38061E+08         0.17989E+07         0.00000E+00
    0.17989E+07        -0.49974E+08         0.00000E+00
    0.00000E+00         0.00000E+00        -0.39004E+08
 
   -0.38097E+08         0.18989E+07         0.00000E+00
    0.18989E+07        -0.49971E+08         0.00000E+00
    0.00000E+00         0.00000E+00        -0.39004E+08
 
   -0.38132E+08         0.19988E+07         0.00000E+00
    0.19988E+07        -0.49968E+08         0.00000E+00
    0.00000E+00         0.00000E+00        -0.39003E+08
 
   -0.38167E+08         0.20987E+07         0.00000E+00
    0.20987E+07        -0.49965E+08         0.00000E+00
    0.00000E+00         0.00000E+00        -0.39002E+08
 
   -0.38201E+08         0.21984E+07         0.00000E+00
    0.21984E+07        -0.49962E+08         0.00000E+00
    0.00000E+00         0.00000E+00        -0.39002E+08
 
   -0.38234E+08         0.22982E+07         0.00000E+00
    0.22982E+07        -0.49959E+08         0.00000E+00
    0.00000E+00         0.00000E+00        -0.39001E+08
 
   -0.38267E+08         0.23979E+07         0.00000E+00
    0.23979E+07        -0.49956E+08         0.00000E+00
    0.00000E+00         0.00000E+00        -0.39000E+08
 
   -0.38300E+08         0.24977E+07         0.00000E+00
    0.24977E+07        -0.49952E+08         0.00000E+00
    0.00000E+00         0.00000E+00        -0.39000E+08
 
   -0.38331E+08         0.25975E+07         0.00000E+00
    0.25975E+07        -0.49949E+08         0.00000E+00
    0.00000E+00         0.00000E+00        -0.38999E+08
 
   -0.38363E+08         0.26974E+07         0.00000E+00
    0.26974E+07        -0.49945E+08         0.00000E+00
    0.00000E+00         0.00000E+00        -0.38998E+08
 
   -0.38394E+08         0.27974E+07         0.00000E+00
    0.27974E+07        -0.49941E+08         0.00000E+00
    0.00000E+00         0.00000E+00        -0.38998E+08
 
   -0.38424E+08         0.28976E+07         0.00000E+00
    0.28976E+07        -0.49937E+08         0.00000E+00
    0.00000E+00         0.00000E+00        -0.38997E+08
 
   -0.38454E+08         0.29979E+07         0.00000E+00
    0.29979E+07        -0.49933E+08         0.00000E+00
    0.00000E+00         0.00000E+00        -0.38996E+08
 
   -0.38483E+08         0.30985E+07         0.00000E+00
    0.30985E+07        -0.49928E+08         0.00000E+00
    0.00000E+00         0.00000E+00        -0.38996E+08
 
   -0.38512E+08         0.31993E+07         0.00000E+00
    0.31993E+07        -0.49924E+08         0.00000E+00
    0.00000E+00         0.00000E+00        -0.38995E+08
 
   -0.38540E+08         0.33003E+07         0.00000E+00
    0.33003E+07        -0.49919E+08         0.00000E+00
    0.00000E+00         0.00000E+00        -0.38994E+08
 
   -0.38568E+08         0.34016E+07         0.00000E+00
    0.34016E+07        -0.49913E+08         0.00000E+00
    0.00000E+00         0.00000E+00        -0.38994E+08
 
   -0.38596E+08         0.35033E+07         0.00000E+00
    0.35033E+07        -0.49908E+08         0.00000E+00
    0.00000E+00         0.00000E+00        -0.38993E+08
 
   -0.38623E+08         0.36053E+07         0.00000E+00
    0.36053E+07        -0.49902E+08         0.00000E+00
    0.00000E+00         0.00000E+00        -0.38993E+08
 
   -0.38650E+08         0.37076E+07         0.00000E+00
    0.37076E+07        -0.49896E+08         0.00000E+00
    0.00000E+00         0.00000E+00        -0.38992E+08
 
   -0.38676E+08         0.38104E+07         0.00000E+00
    0.38104E+07        -0.49890E+08         0.00000E+00
    0.00000E+00         0.00000E+00        -0.38992E+08
 
   -0.38702E+08         0.39136E+07         0.00000E+00
    0.39136E+07        -0.49883E+08         0.00000E+00
    0.00000E+00         0.00000E+00        -0.38991E+08
 
   -0.38728E+08         0.40173E+07         0.00000E+00
    0.40173E+07        -0.49876E+08         0.00000E+00
    0.00000E+00         0.00000E+00        -0.38991E+08
 
   -0.38753E+08         0.41215E+07         0.00000E+00
    0.41215E+07        -0.49869E+08         0.00000E+00
    0.00000E+00         0.00000E+00        -0.38990E+08
 
   -0.38778E+08         0.42261E+07         0.00000E+00
    0.42261E+07        -0.49861E+08         0.00000E+00
    0.00000E+00         0.00000E+00        -0.38990E+08
 
   -0.38803E+08         0.43313E+07         0.00000E+00
    0.43313E+07        -0.49853E+08         0.00000E+00
    0.00000E+00         0.00000E+00        -0.38989E+08
 
   -0.38828E+08         0.44371E+07         0.00000E+00
    0.44371E+07        -0.49845E+08         0.00000E+00
    0.00000E+00         0.00000E+00        -0.38989E+08
 
   -0.38853E+08         0.45435E+07         0.00000E+00
    0.45435E+07        -0.49836E+08         0.00000E+00
    0.00000E+00         0.00000E+00        -0.38989E+08
 
   -0.38878E+08         0.46506E+07         0.00000E+00
    0.46506E+07        -0.49826E+08         0.00000E+00
    0.00000E+00         0.00000E+00        -0.38988E+08
 
   -0.38902E+08         0.47582E+07         0.00000E+00
    0.47582E+07        -0.49816E+08         0.00000E+00
    0.00000E+00         0.00000E+00        -0.38988E+08
 
   -0.38926E+08         0.48666E+07         0.00000E+00
    0.48666E+07        -0.49806E+08         0.00000E+00
    0.00000E+00         0.00000E+00        -0.38988E+08
 
   -0.38951E+08         0.49756E+07         0.00000E+00
    0.49756E+07        -0.49794E+08         0.00000E+00
    0.00000E+00         0.00000E+00        -0.38988E+08
 
   -0.38976E+08         0.50854E+07         0.00000E+00
    0.50854E+07        -0.49783E+08         0.00000E+00
    0.00000E+00         0.00000E+00        -0.38988E+08
 
   -0.36844E+08         0.54553E+05         0.00000E+00
    0.54553E+05        -0.50000E+08         0.00000E+00
    0.00000E+00         0.00000E+00        -0.38450E+08
 
   -0.36890E+08         0.16175E+06         0.00000E+00
    0.16175E+06        -0.50000E+08         0.00000E+00
    0.00000E+00         0.00000E+00        -0.38450E+08
 
   -0.36936E+08         0.26828E+06         0.00000E+00
    0.26828E+06        -0.49999E+08         0.00000E+00
    0.00000E+00         0.00000E+00        -0.38450E+08
 
   -0.36982E+08         0.37419E+06         0.00000E+00
    0.37419E+06        -0.49999E+08         0.00000E+00
    0.00000E+00         0.00000E+00        -0.38449E+08
 
   -0.37027E+08         0.47950E+06         0.00000E+00
    0.47950E+06        -0.49998E+08         0.00000E+00
    0.00000E+00         0.00000E+00        -0.38449E+08
 
   -0.37072E+08         0.58425E+06         0.00000E+00
    0.58425E+06        -0.49998E+08         0.00000E+00
    0.00000E+00         0.00000E+00        -0.38449E+08
 
   -0.37116E+08         0.68846E+06         0.00000E+00
    0.68846E+06        -0.49997E+08         0.00000E+00
    0.00000E+00         0.00000E+00        -0.38449E+08
 
   -0.37159E+08         0.79218E+06         0.00000E+00
    0.79218E+06        -0.49996E+08         0.00000E+00
    0.00000E+00         0.00000E+00        -0.38448E+08
 
   -0.37202E+08         0.89543E+06         0.00000E+00
    0.89543E+06        -0.49995E+08         0.00000E+00
    0.00000E+00         0.00000E+00        -0.38448E+08
 
   -0.37245E+08         0.99825E+06         0.00000E+00
    0.99825E+06        -0.49994E+08         0.00000E+00
    0.00000E+00         0.00000E+00        -0.38447E+08
 
   -0.37286E+08         0.11007E+07         0.00000E+00
    0.11007E+07        -0.49993E+08         0.00000E+00
    0.00000E+00         0.00000E+00        -0.38447E+08
 
   -0.37327E+08         0.12027E+07         0.00000E+00
    0.12027E+07        -0.49991E+08         0.00000E+00
    0.00000E+00         0.00000E+00        -0.38447E+08
 
   -0.37368E+08         0.13045E+07         0.00000E+00
    0.13045E+07        -0.49990E+08         0.00000E+00
    0.00000E+00         0.00000E+00        -0.38446E+08
 
   -0.37407E+08         0.14059E+07         0.00000E+00
    0.14059E+07        -0.49989E+08         0.00000E+00
    0.00000E+00         0.00000E+00        -0.38446E+08
 
   -0.37447E+08         0.15071E+07         0.00000E+00
    0.15071E+07        -0.49988E+08         0.00000E+00
    0.00000E+00         0.00000E+00        -0.38445E+08
 
   -0.37485E+08         0.16080E+07         0.00000E+00
    0.16080E+07        -0.49986E+08         0.00000E+00
    0.00000E+00         0.00000E+00        -0.38444E+08
 
   -0.37523E+08         0.17088E+07         0.00000E+00
    0.17088E+07        -0.49985E+08         0.00000E+00
    0.00000E+00         0.00000E+00        -0.38444E+08
 
   -0.37560E+08         0.18094E+07         0.00000E+00
    0.18094E+07        -0.49983E+08         0.00000E+00
    0.00000E+00         0.00000E+00        -0.38443E+08
 
   -0.37596E+08         0.19098E+07         0.00000E+00
    0.19098E+07        -0.49982E+08         0.00000E+00
    0.00000E+00         0.00000E+00        -0.38443E+08
 
   -0.37631E+08         0.20102E+07         0.00000E+00
    0.20102E+07        -0.49980E+08         0.00000E+00
    0.00000E+00         0.00000E+00        -0.38442E+08
 
   -0.37666E+08         0.21105E+07         0.00000E+00
    0.21105E+07        -0.49979E+08         0.00000E+00
    0.00000E+00         0.00000E+00        -0.38441E+08
 
   -0.37701E+08         0.22108E+07         0.00000E+00
    0.22108E+07        -0.49977E+08         0.00000E+00
    0.00000E+00         0.00000E+00        -0.38441E+08
 
   -0.37734E+08         0.23111E+07         0.00000E+00
    0.23111E+07        -0.49975E+08         0.00000E+00
    0.00000E+00         0.00000E+00        -0.38440E+08
 
   -0.37767E+08         0.24115E+07         0.00000E+00
    0.24115E+07        -0.49973E+08         0.00000E+00
    0.00000E+00         0.00000E+00        -0.38439E+08
 
   -0.37799E+08         0.25119E+07         0.00000E+00
    0.25119E+07        -0.49971E+08         0.00000E+00
    0.00000E+00         0.00000E+00        -0.38439E+08
 
   -0.37830E+08         0.26124E+07         0.00000E+00
    0.26124E+07        -0.49969E+08         0.00000E+00
    0.00000E+00         0.00000E+00        -0.38438E+08
 
   -0.37861E+08         0.27130E+07         0.00000E+00
    0.27130E+07        -0.49967E+08         0.00000E+00
    0.00000E+00         0.00000E+00        -0.38437E+08
 
   -0.37891E+08         0.28138E+07         0.00000E+00
    0.28138E+07        -0.49964E+08         0.00000E+00
    0.00000E+00         0.00000E+00        -0.38437E+08
 
   -0.37920E+08         0.29148E+07         0.00000E+00
    0.29148E+07        -0.49962E+08         0.00000E+00
    0.00000E+00         0.00000E+00        -0.38436E+08
 
   -0.37949E+08         0.30160E+07         0.00000E+00
    0.30160E+07        -0.49959E+08         0.00000E+00
    0.00000E+00         0.00000E+00        -0.38435E+08
 
   -0.37977E+08         0.31175E+07         0.00000E+00
    0.31175E+07        -0.49956E+08         0.00000E+00
    0.00000E+00         0.00000E+00        -0.38435E+08
 
   -0.38005E+08         0.32193E+07         0.00000E+00
    0.32193E+07        -0.49953E+08         0.00000E+00
    0.00000E+00         0.00000E+00        -0.38434E+08
 
   -0.38032E+08         0.33214E+07         0.00000E+00
    0.33214E+07        -0.49950E+08         0.00000E+00
    0.00000E+00         0.00000E+00        -0.38434E+08
 
   -0.38058E+08         0.34239E+07         0.00000E+00
    0.34239E+07        -0.49946E+08         0.00000E+00
    0.00000E+00         0.00000E+00        -0.38433E+08
 
   -0.38083E+08         0.35268E+07         0.00000E+00
    0.35268E+07        -0.49943E+08         0.00000E+00
    0.00000E+00         0.00000E+00        -0.38432E+08
 
   -0.38109E+08         0.36301E+07         0.00000E+00
    0.36301E+07        -0.49939E+08         0.00000E+00
    0.00000E+00         0.00000E+00        -0.38432E+08
 
   -0.38133E+08         0.37339E+07         0.00000E+00
    0.37339E+07        -0.49935E+08         0.00000E+00
    0.00000E+00         0.00000E+00        -0.38431E+08
 
   -0.38157E+08         0.38381E+07         0.00000E+00
    0.38381E+07        -0.49930E+08         0.00000E+00
    0.00000E+00         0.00000E+00        -0.38431E+08
 
   -0.38181E+08         0.39429E+07         0.00000E+00
    0.39429E+07        -0.49926E+08         0.00000E+00
    0.00000E+00         0.00000E+00        -0.38430E+08
 
   -0.38204E+08         0.40483E+07         0.00000E+00
    0.40483E+07        -0.49920E+08         0.00000E+00
    0.00000E+00         0.00000E+00        -0.38430E+08
 
   -0.38226E+08         0.41542E+07         0.00000E+00
    0.41542E+07        -0.49915E+08         0.00000E+00
    0.00000E+00         0.00000E+00        -0.38429E+08
 
   -0.38249E+08         0.42608E+07         0.00000E+00
    0.42608E+07        -0.49909E+08         0.00000E+00
    0.00000E+00         0.00000E+00        -0.38429E+08
 
   -0.38271E+08         0.43681E+07         0.00000E+00
    0.43681E+07        -0.49903E+08         0.00000E+00
    0.00000E+00         0.00000E+00        -0.38429E+08
 
   -0.38292E+08         0.44760E+07         0.00000E+00
    0.44760E+07        -0.49897E+08         0.00000E+00
    0.00000E+00         0.00000E+00        -0.38428E+08
 
   -0.38313E+08         0.45847E+07         0.00000E+00
    0.45847E+07        -0.49890E+08         0.00000E+00
    0.00000E+00         0.00000E+00        -0.38428E+08
 
   -0.38334E+08         0.46942E+07         0.00000E+00
    0.46942E+07        -0.49882E+08         0.00000E+00
    0.00000E+00         0.00000E+00        -0.38428E+08
 
   -0.38355E+08         0.48044E+07         0.00000E+00
    0.48044E+07        -0.49875E+08         0.00000E+00
    0.00000E+00         0.00000E+00        -0.38428E+08
 
   -0.38376E+08         0.49155E+07         0.00000E+00
    0.49155E+07        -0.49866E+08         0.00000E+00
    0.00000E+00         0.00000E+00        -0.38427E+08
 
   -0.38396E+08         0.50275E+07         0.00000E+00
    0.50275E+07        -0.49857E+08         0.00000E+00
    0.00000E+00         0.00000E+00        -0.38427E+08
 
   -0.38417E+08         0.51403E+07         0.00000E+00
    0.51403E+07        -0.49847E+08         0.00000E+00
    0.00000E+00         0.00000E+00        -0.38427E+08
 
   -0.36304E+08         0.55042E+05         0.00000E+00
    0.55042E+05        -0.50000E+08         0.00000E+00
    0.00000E+00         0.00000E+00        -0.37872E+08
 
   -0.36354E+08         0.16288E+06         0.00000E+00
    0.16288E+06        -0.50000E+08         0.00000E+00
    0.00000E+00         0.00000E+00        -0.37872E+08
 
   -0.36404E+08         0.26995E+06         0.00000E+00
    0.26995E+06        -0.50000E+08         0.00000E+00
    0.00000E+00         0.00000E+00        -0.37872E+08
 
   -0.36453E+08         0.37631E+06         0.00000E+00
    0.37631E+06        -0.49999E+08         0.00000E+00
    0.00000E+00         0.00000E+00        -0.37871E+08
 
   -0.36501E+08         0.48199E+06         0.00000E+00
    0.48199E+06        -0.49999E+08         0.00000E+00
    0.00000E+00         0.00000E+00        -0.37871E+08
 
   -0.36549E+08         0.58703E+06         0.00000E+00
    0.58703E+06        -0.49999E+08         0.00000E+00
    0.00000E+00         0.00000E+00        -0.37871E+08
 
   -0.36595E+08         0.69148E+06         0.00000E+00
    0.69148E+06        -0.49999E+08         0.00000E+00
    0.00000E+00         0.00000E+00        -0.37871E+08
 
   -0.36641E+08         0.79538E+06         0.00000E+00
    0.79538E+06        -0.49998E+08         0.00000E+00
    0.00000E+00         0.00000E+00        -0.37870E+08
 
   -0.36687E+08         0.89878E+06         0.00000E+00
    0.89878E+06        -0.49998E+08         0.00000E+00
    0.00000E+00         0.00000E+00        -0.37870E+08
 
   -0.36731E+08         0.10017E+07         0.00000E+00
    0.10017E+07        -0.49998E+08         0.00000E+00
    0.00000E+00         0.00000E+00        -0.37870E+08
 
   -0.36775E+08         0.11042E+07         0.00000E+00
    0.11042E+07        -0.49997E+08         0.00000E+00
    0.00000E+00         0.00000E+00        -0.37869E+08
 
   -0.36818E+08         0.12064E+07         0.00000E+00
    0.12064E+07        -0.49997E+08         0.00000E+00
    0.00000E+00         0.00000E+00        -0.37869E+08
 
   -0.36860E+08         0.13082E+07         0.00000E+00
    0.13082E+07        -0.49997E+08         0.00000E+00
    0.00000E+00         0.00000E+00        -0.37868E+08
 
   -0.36901E+08         0.14097E+07         0.00000E+00
    0.14097E+07        -0.49997E+08         0.00000E+00
    0.00000E+00         0.00000E+00        -0.37868E+08
 
   -0.36941E+08         0.15109E+07         0.00000E+00
    0.15109E+07        -0.49997E+08         0.00000E+00
    0.00000E+00         0.00000E+00        -0.37867E+08
 
   -0.36980E+08         0.16120E+07         0.00000E+00
    0.16120E+07        -0.49997E+08         0.00000E+00
    0.00000E+00         0.00000E+00        -0.37867E+08
 
   -0.37019E+08         0.17128E+07         0.00000E+00
    0.17128E+07        -0.49997E+08         0.00000E+00
    0.00000E+00         0.00000E+00        -0.37866E+08
 
   -0.37056E+08         0.18135E+07         0.00000E+00
    0.18135E+07        -0.49996E+08         0.00000E+00
    0.00000E+00         0.00000E+00        -0.37866E+08
 
   -0.37093E+08         0.19142E+07         0.00000E+00
    0.19142E+07        -0.49996E+08         0.00000E+00
    0.00000E+00         0.00000E+00        -0.37865E+08
 
   -0.37129E+08         0.20147E+07         0.00000E+00
    0.20147E+07        -0.49996E+08         0.00000E+00
    0.00000E+00         0.00000E+00        -0.37864E+08
 
   -0.37164E+08         0.21153E+07         0.00000E+00
    0.21153E+07        -0.49996E+08         0.00000E+00
    0.00000E+00         0.00000E+00        -0.37864E+08
 
   -0.37198E+08         0.22158E+07         0.00000E+00
    0.22158E+07        -0.49996E+08         0.00000E+00
    0.00000E+00         0.00000E+00        -0.37863E+08
 
   -0.37231E+08         0.23164E+07         0.00000E+00
    0.23164E+07        -0.49996E+08         0.00000E+00
    0.00000E+00         0.00000E+00        -0.37862E+08
 
   -0.37264E+08         0.24171E+07         0.00000E+00
    0.24171E+07        -0.49996E+08         0.00000E+00
    0.00000E+00         0.00000E+00        -0.37862E+08
 
   -0.37295E+08         0.25179E+07         0.00000E+00
    0.25179E+07        -0.49996E+08         0.00000E+00
    0.00000E+00         0.00000E+00        -0.37861E+08
 
   -0.37326E+08         0.26189E+07         0.00000E+00
    0.26189E+07        -0.49995E+08         0.00000E+00
    0.00000E+00         0.00000E+00        -0.37861E+08
 
   -0.37356E+08         0.27201E+07         0.00000E+00
    0.27201E+07        -0.49995E+08         0.00000E+00
    0.00000E+00         0.00000E+00        -0.37860E+08
 
   -0.37385E+08         0.28214E+07         0.00000E+00
    0.28214E+07        -0.49994E+08         0.00000E+00
    0.00000E+00         0.00000E+00        -0.37859E+08
 
   -0.37413E+08         0.29231E+07         0.00000E+00
    0.29231E+07        -0.49994E+08         0.00000E+00
    0.00000E+00         0.00000E+00        -0.37859E+08
 
   -0.37440E+08         0.30250E+07         0.00000E+00
    0.30250E+07        -0.49993E+08         0.00000E+00
    0.00000E+00         0.00000E+00        -0.37858E+08
 
   -0.37467E+08         0.31273E+07         0.00000E+00
    0.31273E+07        -0.49992E+08         0.00000E+00
    0.00000E+00         0.00000E+00        -0.37857E+08
 
   -0.37493E+08         0.32299E+07         0.00000E+00
    0.32299E+07        -0.49991E+08         0.00000E+00
    0.00000E+00         0.00000E+00        -0.37857E+08
 
   -0.37517E+08         0.33329E+07         0.00000E+00
    0.33329E+07        -0.49990E+08         0.00000E+00
    0.00000E+00         0.00000E+00        -0.37856E+08
 
   -0.37542E+08         0.34364E+07         0.00000E+00
    0.34364E+07        -0.49989E+08         0.00000E+00
    0.00000E+00         0.00000E+00        -0.37856E+08
 
   -0.37565E+08         0.35403E+07         0.00000E+00
    0.35403E+07        -0.49988E+08         0.00000E+00
    0.00000E+00         0.00000E+00        -0.37855E+08
 
   -0.37588E+08         0.36448E+07         0.00000E+00
    0.36448E+07        -0.49986E+08         0.00000E+00
    0.00000E+00         0.00000E+00        -0.37855E+08
 
   -0.37610E+08         0.37498E+07         0.00000E+00
    0.37498E+07        -0.49984E+08         0.00000E+00
    0.00000E+00         0.00000E+00        -0.37854E+08
 
   -0.37631E+08         0.38554E+07         0.00000E+00
    0.38554E+07        -0.49982E+08         0.00000E+00
    0.00000E+00         0.00000E+00        -0.37854E+08
 
   -0.37651E+08         0.39616E+07         0.00000E+00
    0.39616E+07        -0.49979E+08         0.00000E+00
    0.00000E+00         0.00000E+00        -0.37853E+08
 
   -0.37671E+08         0.40685E+07         0.00000E+00
    0.40685E+07        -0.49977E+08         0.00000E+00
    0.00000E+00         0.00000E+00        -0.37853E+08
 
   -0.37691E+08         0.41761E+07         0.00000E+00
    0.41761E+07        -0.49974E+08         0.00000E+00
    0.00000E+00         0.00000E+00        -0.37852E+08
 
   -0.37709E+08         0.42845E+07         0.00000E+00
    0.42845E+07        -0.49971E+08         0.00000E+00
    0.00000E+00         0.00000E+00        -0.37852E+08
 
   -0.37727E+08         0.43936E+07         0.00000E+00
    0.43936E+07        -0.49967E+08         0.00000E+00
    0.00000E+00         0.00000E+00        -0.37852E+08
 
   -0.37745E+08         0.45036E+07         0.00000E+00
    0.45036E+07        -0.49963E+08         0.00000E+00
    0.00000E+00         0.00000E+00        -0.37851E+08
 
   -0.37762E+08         0.46145E+07         0.00000E+00
    0.46145E+07        -0.49958E+08         0.00000E+00
    0.00000E+00         0.00000E+00        -0.37851E+08
 
   -0.37779E+08         0.47263E+07         0.00000E+00
    0.47263E+07        -0.49954E+08         0.00000E+00
    0.00000E+00         0.00000E+00        -0.37851E+08
 
   -0.37795E+08         0.48391E+07         0.00000E+00
    0.48391E+07        -0.49948E+08         0.00000E+00
    0.00000E+00         0.00000E+00        -0.37850E+08
 
   -0.37811E+08         0.49529E+07         0.00000E+00
    0.49529E+07        -0.49942E+08         0.00000E+00
    0.00000E+00         0.00000E+00        -0.37850E+08
 
   -0.37827E+08         0.50677E+07         0.00000E+00
    0.50677E+07        -0.49936E+08         0.00000E+00
    0.00000E+00         0.00000E+00        -0.37850E+08
 
   -0.37842E+08         0.51836E+07         0.00000E+00
    0.51836E+07        -0.49929E+08         0.00000E+00
    0.00000E+00         0.00000E+00        -0.37850E+08
 
   -0.35763E+08         0.55288E+05         0.00000E+00
    0.55288E+05        -0.50000E+08         0.00000E+00
    0.00000E+00         0.00000E+00        -0.37277E+08
 
   -0.35817E+08         0.16325E+06         0.00000E+00
    0.16325E+06        -0.50000E+08         0.00000E+00
    0.00000E+00         0.00000E+00        -0.37277E+08
 
   -0.35870E+08         0.27035E+06         0.00000E+00
    0.27035E+06        -0.50000E+08         0.00000E+00
    0.00000E+00         0.00000E+00        -0.37277E+08
 
   -0.35923E+08         0.37662E+06         0.00000E+00
    0.37662E+06        -0.50000E+08         0.00000E+00
    0.00000E+00         0.00000E+00        -0.37277E+08
 
   -0.35974E+08         0.48214E+06         0.00000E+00
    0.48214E+06        -0.50000E+08         0.00000E+00
    0.00000E+00         0.00000E+00        -0.37276E+08
 
   -0.36025E+08         0.58696E+06         0.00000E+00
    0.58696E+06        -0.50001E+08         0.00000E+00
    0.00000E+00         0.00000E+00        -0.37276E+08
 
   -0.36075E+08         0.69113E+06         0.00000E+00
    0.69113E+06        -0.50001E+08         0.00000E+00
    0.00000E+00         0.00000E+00        -0.37276E+08
 
   -0.36124E+08         0.79471E+06         0.00000E+00
    0.79471E+06        -0.50002E+08         0.00000E+00
    0.00000E+00         0.00000E+00        -0.37276E+08
 
   -0.36171E+08         0.89775E+06         0.00000E+00
    0.89775E+06        -0.50002E+08         0.00000E+00
    0.00000E+00         0.00000E+00        -0.37275E+08
 
   -0.36218E+08         0.10003E+07         0.00000E+00
    0.10003E+07        -0.50003E+08         0.00000E+00
    0.00000E+00         0.00000E+00        -0.37275E+08
 
   -0.36264E+08         0.11024E+07         0.00000E+00
    0.11024E+07        -0.50004E+08         0.00000E+00
    0.00000E+00         0.00000E+00        -0.37274E+08
 
   -0.36308E+08         0.12042E+07         0.00000E+00
    0.12042E+07        -0.50005E+08         0.00000E+00
    0.00000E+00         0.00000E+00        -0.37274E+08
 
   -0.36352E+08         0.13056E+07         0.00000E+00
    0.13056E+07        -0.50006E+08         0.00000E+00
    0.00000E+00         0.00000E+00        -0.37274E+08
 
   -0.36394E+08         0.14068E+07         0.00000E+00
    0.14068E+07        -0.50008E+08         0.00000E+00
    0.00000E+00         0.00000E+00        -0.37273E+08
 
   -0.36436E+08         0.15077E+07         0.00000E+00
    0.15077E+07        -0.50009E+08         0.00000E+00
    0.00000E+00         0.00000E+00        -0.37273E+08
 
   -0.36476E+08         0.16084E+07         0.00000E+00
    0.16084E+07        -0.50011E+08         0.00000E+00
    0.00000E+00         0.00000E+00        -0.37272E+08
 
   -0.36515E+08         0.17090E+07         0.00000E+00
    0.17090E+07        -0.50012E+08         0.00000E+00
    0.00000E+00         0.00000E+00        -0.37272E+08
 
   -0.36553E+08         0.18095E+07         0.00000E+00
    0.18095E+07        -0.50014E+08         0.00000E+00
    0.00000E+00         0.00000E+00        -0.37271E+08
 
   -0.36590E+08         0.19099E+07         0.00000E+00
    0.19099E+07        -0.50016E+08         0.00000E+00
    0.00000E+00         0.00000E+00        -0.37270E+08
 
   -0.36626E+08         0.20103E+07         0.00000E+00
    0.20103E+07        -0.50018E+08         0.00000E+00
    0.00000E+00         0.00000E+00        -0.37270E+08
 
   -0.36661E+08         0.21108E+07         0.00000E+00
    0.21108E+07        -0.50020E+08         0.00000E+00
    0.00000E+00         0.00000E+00        -0.37269E+08
 
   -0.36695E+08         0.22113E+07         0.00000E+00
    0.22113E+07        -0.50022E+08         0.00000E+00
    0.00000E+00         0.00000E+00        -0.37269E+08
 
   -0.36728E+08         0.23120E+07         0.00000E+00
    0.23120E+07        -0.50024E+08         0.00000E+00
    0.00000E+00         0.00000E+00        -0.37268E+08
 
   -0.36760E+08         0.24127E+07         0.00000E+00
    0.24127E+07        -0.50026E+08         0.00000E+00
    0.00000E+00         0.00000E+00        -0.37268E+08
 
   -0.36790E+08         0.25137E+07         0.00000E+00
    0.25137E+07        -0.50028E+08         0.00000E+00
    0.00000E+00         0.00000E+00        -0.37267E+08
 
   -0.36820E+08         0.26149E+07         0.00000E+00
    0.26149E+07        -0.50030E+08         0.00000E+00
    0.00000E+00         0.00000E+00        -0.37266E+08
 
   -0.36849E+08         0.27163E+07         0.00000E+00
    0.27163E+07        -0.50032E+08         0.00000E+00
    0.00000E+00         0.00000E+00        -0.37266E+08
 
   -0.36876E+08         0.28181E+07         0.00000E+00
    0.28181E+07        -0.50034E+08         0.00000E+00
    0.00000E+00         0.00000E+00        -0.37265E+08
 
   -0.36903E+08         0.29202E+07         0.00000E+00
    0.29202E+07        -0.50036E+08         0.00000E+00
    0.00000E+00         0.00000E+00        -0.37265E+08
 
   -0.36928E+08         0.30226E+07         0.00000E+00
    0.30226E+07        -0.50038E+08         0.00000E+00
    0.00000E+00         0.00000E+00        -0.37264E+08
 
   -0.36953E+08         0.31255E+07         0.00000E+00
    0.31255E+07        -0.50039E+08         0.00000E+00
    0.00000E+00         0.00000E+00        -0.37263E+08
 
   -0.36977E+08         0.32288E+07         0.00000E+00
    0.32288E+07        -0.50041E+08         0.00000E+00
    0.00000E+00         0.00000E+00        -0.37263E+08
 
   -0.36999E+08         0.33325E+07         0.00000E+00
    0.33325E+07        -0.50043E+08         0.00000E+00
    0.00000E+00         0.00000E+00        -0.37262E+08
 
   -0.37021E+08         0.34368E+07         0.00000E+00
    0.34368E+07        -0.50044E+08         0.00000E+00
    0.00000E+00         0.00000E+00        -0.37262E+08
 
   -0.37042E+08         0.35416E+07         0.00000E+00
    0.35416E+07        -0.50045E+08         0.00000E+00
    0.00000E+00         0.00000E+00        -0.37261E+08
 
   -0.37061E+08         0.36471E+07         0.00000E+00
    0.36471E+07        -0.50046E+08         0.00000E+00
    0.00000E+00         0.00000E+00        -0.37261E+08
 
   -0.37080E+08         0.37531E+07         0.00000E+00
    0.37531E+07        -0.50047E+08         0.00000E+00
    0.00000E+00         0.00000E+00        -0.37260E+08
 
   -0.37098E+08         0.38599E+07         0.00000E+00
    0.38599E+07        -0.50048E+08         0.00000E+00
    0.00000E+00         0.00000E+00        -0.37260E+08
 
   -0.37115E+08         0.39674E+07         0.00000E+00
    0.39674E+07        -0.50048E+08         0.00000E+00
    0.00000E+00         0.00000E+00        -0.37259E+08
 
   -0.37131E+08         0.40756E+07         0.00000E+00
    0.40756E+07        -0.50048E+08         0.00000E+00
    0.00000E+00         0.00000E+00        -0.37259E+08
 
   -0.37147E+08         0.41847E+07         0.00000E+00
    0.41847E+07        -0.50048E+08         0.00000E+00
    0.00000E+00         0.00000E+00        -0.37259E+08
 
   -0.37161E+08         0.42947E+07         0.00000E+00
    0.42947E+07        -0.50048E+08         0.00000E+00
    0.00000E+00         0.00000E+00        -0.37258E+08
 
   -0.37175E+08         0.44056E+07         0.00000E+00
    0.44056E+07        -0.50047E+08         0.00000E+00
    0.00000E+00         0.00000E+00        -0.37258E+08
 
   -0.37188E+08         0.45175E+07         0.00000E+00
    0.45175E+07        -0.50046E+08         0.00000E+00
    0.00000E+00         0.00000E+00        -0.37258E+08
 
   -0.37200E+08         0.46304E+07         0.00000E+00
    0.46304E+07        -0.50045E+08         0.00000E+00
    0.00000E+00         0.00000E+00        -0.37257E+08
 
   -0.37211E+08         0.47444E+07         0.00000E+00
    0.47444E+07        -0.50043E+08         0.00000E+00
    0.00000E+00         0.00000E+00        -0.37257E+08
 
   -0.37222E+08         0.48596E+07         0.00000E+00
    0.48596E+07        -0.50040E+08         0.00000E+00
    0.00000E+00         0.00000E+00        -0.37257E+08
 
   -0.37233E+08         0.49760E+07         0.00000E+00
    0.49760E+07        -0.50038E+08         0.00000E+00
    0.00000E+00         0.00000E+00        -0.37257E+08
 
   -0.37243E+08         0.50936E+07         0.00000E+00
    0.50936E+07        -0.50034E+08         0.00000E+00
    0.00000E+00         0.00000E+00        -0.37257E+08
 
   -0.37252E+08         0.52126E+07         0.00000E+00
    0.52126E+07        -0.50031E+08         0.00000E+00
    0.00000E+00         0.00000E+00        -0.37257E+08
 
   -0.35221E+08         0.55173E+05         0.00000E+00
    0.55173E+05        -0.50000E+08         0.00000E+00
    0.00000E+00         0.00000E+00        -0.36665E+08
 
   -0.35280E+08         0.16254E+06         0.00000E+00
    0.16254E+06        -0.50000E+08         0.00000E+00
    0.00000E+00         0.00000E+00        -0.36665E+08
 
   -0.35338E+08         0.26893E+06         0.00000E+00
    0.26893E+06        -0.50001E+08         0.00000E+00
    0.00000E+00         0.00000E+00        -0.36665E+08
 
   -0.35395E+08         0.37442E+06         0.00000E+00
    0.37442E+06        -0.50001E+08         0.00000E+00
    0.00000E+00         0.00000E+00        -0.36665E+08
 
   -0.35451E+08         0.47908E+06         0.00000E+00
    0.47908E+06        -0.50002E+08         0.00000E+00
    0.00000E+00         0.00000E+00        -0.36664E+08
 
   -0.35505E+08         0.58298E+06         0.00000E+00
    0.58298E+06        -0.50003E+08         0.00000E+00
    0.00000E+00         0.00000E+00        -0.36664E+08
 
   -0.35558E+08         0.68619E+06         0.00000E+00
    0.68619E+06        -0.50005E+08         0.00000E+00
    0.00000E+00         0.00000E+00        -0.36664E+08
 
   -0.35609E+08         0.78879E+06         0.00000E+00
    0.78879E+06        -0.50006E+08         0.00000E+00
    0.00000E+00         0.00000E+00        -0.36664E+08
 
   -0.35660E+08         0.89085E+06         0.00000E+00
    0.89085E+06        -0.50008E+08         0.00000E+00
    0.00000E+00         0.00000E+00        -0.36663E+08
 
   -0.35709E+08         0.99241E+06         0.00000E+00
    0.99241E+06        -0.50011E+08         0.00000E+00
    0.00000E+00         0.00000E+00        -0.36663E+08
 
   -0.35756E+08         0.10936E+07         0.00000E+00
    0.10936E+07        -0.50013E+08         0.00000E+00
    0.00000E+00         0.00000E+00        -0.36663E+08
 
   -0.35803E+08         0.11943E+07         0.00000E+00
    0.11943E+07        -0.50016E+08         0.00000E+00
    0.00000E+00         0.00000E+00        -0.36662E+08
 
   -0.35848E+08         0.12948E+07         0.00000E+00
    0.12948E+07        -0.50019E+08         0.00000E+00
    0.00000E+00         0.00000E+00        -0.36662E+08
 
   -0.35891E+08         0.13951E+07         0.00000E+00
    0.13951E+07        -0.50022E+08         0.00000E+00
    0.00000E+00         0.00000E+00        -0.36661E+08
 
   -0.35934E+08         0.14951E+07         0.00000E+00
    0.14951E+07        -0.50026E+08         0.00000E+00
    0.00000E+00         0.00000E+00        -0.36661E+08
 
   -0.35975E+08         0.15951E+07         0.00000E+00
    0.15951E+07        -0.50029E+08         0.00000E+00
    0.00000E+00         0.00000E+00        -0.36660E+08
 
   -0.36014E+08         0.16949E+07         0.00000E+00
    0.16949E+07        -0.50033E+08         0.00000E+00
    0.00000E+00         0.00000E+00        -0.36660E+08
 
   -0.36052E+08         0.17947E+07         0.00000E+00
    0.17947E+07        -0.50037E+08         0.00000E+00
    0.00000E+00         0.00000E+00        -0.36659E+08
 
   -0.36090E+08         0.18946E+07         0.00000E+00
    0.18946E+07        -0.50042E+08         0.00000E+00
    0.00000E+00         0.00000E+00        -0.36659E+08
 
   -0.36125E+08         0.19944E+07         0.00000E+00
    0.19944E+07        -0.50046E+08         0.00000E+00
    0.00000E+00         0.00000E+00        -0.36658E+08
 
   -0.36160E+08         0.20944E+07         0.00000E+00
    0.20944E+07        -0.50051E+08         0.00000E+00
    0.00000E+00         0.00000E+00        -0.36658E+08
 
   -0.36193E+08         0.21946E+07         0.00000E+00
    0.21946E+07        -0.50055E+08         0.00000E+00
    0.00000E+00         0.00000E+00        -0.36657E+08
 
   -0.36225E+08         0.22950E+07         0.00000E+00
    0.22950E+07        -0.50060E+08         0.00000E+00
    0.00000E+00         0.00000E+00        -0.36657E+08
 
   -0.36255E+08         0.23955E+07         0.00000E+00
    0.23955E+07        -0.50065E+08         0.00000E+00
    0.00000E+00         0.00000E+00        -0.36656E+08
 
   -0.36285E+08         0.24964E+07         0.00000E+00
    0.24964E+07        -0.50070E+08         0.00000E+00
    0.00000E+00         0.00000E+00        -0.36656E+08
 
   -0.36313E+08         0.25976E+07         0.00000E+00
    0.25976E+07        -0.50075E+08         0.00000E+00
    0.00000E+00         0.00000E+00        -0.36655E+08
 
   -0.36340E+08         0.26991E+07         0.00000E+00
    0.26991E+07        -0.50080E+08         0.00000E+00
    0.00000E+00         0.00000E+00        -0.36655E+08
 
   -0.36366E+08         0.28010E+07         0.00000E+00
    0.28010E+07        -0.50085E+08         0.00000E+00
    0.00000E+00         0.00000E+00        -0.36654E+08
 
   -0.36391E+08         0.29033E+07         0.00000E+00
    0.29033E+07        -0.50090E+08         0.00000E+00
    0.00000E+00         0.00000E+00        -0.36654E+08
 
   -0.36414E+08         0.30061E+07         0.00000E+00
    0.30061E+07        -0.50095E+08         0.00000E+00
    0.00000E+00         0.00000E+00        -0.36653E+08
 
   -0.36436E+08         0.31094E+07         0.00000E+00
    0.31094E+07        -0.50100E+08         0.00000E+00
    0.00000E+00         0.00000E+00        -0.36653E+08
 
   -0.36457E+08         0.32132E+07         0.00000E+00
    0.32132E+07        -0.50105E+08         0.00000E+00
    0.00000E+00         0.00000E+00        -0.36652E+08
 
   -0.36477E+08         0.33175E+07         0.00000E+00
    0.33175E+07        -0.50110E+08         0.00000E+00
    0.00000E+00         0.00000E+00        -0.36652E+08
 
   -0.36496E+08         0.34225E+07         0.00000E+00
    0.34225E+07        -0.50114E+08         0.00000E+00
    0.00000E+00         0.00000E+00        -0.36651E+08
 
   -0.36514E+08         0.35281E+07         0.00000E+00
    0.35281E+07        -0.50119E+08         0.00000E+00
    0.00000E+00         0.00000E+00        -0.36651E+08
 
   -0.36530E+08         0.36344E+07         0.00000E+00
    0.36344E+07        -0.50123E+08         0.00000E+00
    0.00000E+00         0.00000E+00        -0.36650E+08
 
   -0.36546E+08         0.37414E+07         0.00000E+00
    0.37414E+07        -0.50127E+08         0.00000E+00
    0.00000E+00         0.00000E+00        -0.36650E+08
 
   -0.36560E+08         0.38491E+07         0.00000E+00
    0.38491E+07        -0.50131E+08         0.00000E+00
    0.00000E+00         0.00000E+00        -0.36649E+08
 
   -0.36573E+08         0.39577E+07         0.00000E+00
    0.39577E+07        -0.50135E+08         0.00000E+00
    0.00000E+00         0.00000E+00        -0.36649E+08
 
   -0.36585E+08         0.40671E+07         0.00000E+00
    0.40671E+07        -0.50139E+08         0.00000E+00
    0.00000E+00         0.00000E+00        -0.36649E+08
 
   -0.36595E+08         0.41775E+07         0.00000E+00
    0.41775E+07        -0.50142E+08         0.00000E+00
    0.00000E+00         0.00000E+00        -0.36648E+08
 
   -0.36605E+08         0.42889E+07         0.00000E+00
    0.42889E+07        -0.50145E+08         0.00000E+00
    0.00000E+00         0.00000E+00        -0.36648E+08
 
   -0.36614E+08         0.44013E+07         0.00000E+00
    0.44013E+07        -0.50148E+08         0.00000E+00
    0.00000E+00         0.00000E+00        -0.36648E+08
 
   -0.36621E+08         0.45148E+07         0.00000E+00
    0.45148E+07        -0.50150E+08         0.00000E+00
    0.00000E+00         0.00000E+00        -0.36647E+08
 
   -0.36627E+08         0.46296E+07         0.00000E+00
    0.46296E+07        -0.50153E+08         0.00000E+00
    0.00000E+00         0.00000E+00        -0.36647E+08
 
   -0.36633E+08         0.47456E+07         0.00000E+00
    0.47456E+07        -0.50154E+08         0.00000E+00
    0.00000E+00         0.00000E+00        -0.36647E+08
 
   -0.36637E+08         0.48630E+07         0.00000E+00
    0.48630E+07        -0.50156E+08         0.00000E+00
    0.00000E+00         0.00000E+00        -0.36647E+08
 
   -0.36641E+08         0.49818E+07         0.00000E+00
    0.49818E+07        -0.50157E+08         0.00000E+00
    0.00000E+00         0.00000E+00        -0.36647E+08
 
   -0.36644E+08         0.51021E+07         0.00000E+00
    0.51021E+07        -0.50157E+08         0.00000E+00
    0.00000E+00         0.00000E+00        -0.36647E+08
 
   -0.36646E+08         0.52241E+07         0.00000E+00
    0.52241E+07        -0.50158E+08         0.00000E+00
    0.00000E+00         0.00000E+00        -0.36647E+08
 
   -0.34685E+08         0.54545E+05         0.00000E+00
    0.54545E+05        -0.50000E+08         0.00000E+00
    0.00000E+00         0.00000E+00        -0.36036E+08
 
   -0.34750E+08         0.16034E+06         0.00000E+00
    0.16034E+06        -0.50001E+08         0.00000E+00
    0.00000E+00         0.00000E+00        -0.36036E+08
 
   -0.34813E+08         0.26507E+06         0.00000E+00
    0.26507E+06        -0.50001E+08         0.00000E+00
    0.00000E+00         0.00000E+00        -0.36035E+08
 
   -0.34874E+08         0.36883E+06         0.00000E+00
    0.36883E+06        -0.50003E+08         0.00000E+00
    0.00000E+00         0.00000E+00        -0.36035E+08
 
   -0.34933E+08         0.47172E+06         0.00000E+00
    0.47172E+06        -0.50004E+08         0.00000E+00
    0.00000E+00         0.00000E+00        -0.36035E+08
 
   -0.34991E+08         0.57382E+06         0.00000E+00
    0.57382E+06        -0.50007E+08         0.00000E+00
    0.00000E+00         0.00000E+00        -0.36035E+08
 
   -0.35047E+08         0.67523E+06         0.00000E+00
    0.67523E+06        -0.50009E+08         0.00000E+00
    0.00000E+00         0.00000E+00        -0.36035E+08
 
   -0.35102E+08         0.77602E+06         0.00000E+00
    0.77602E+06        -0.50012E+08         0.00000E+00
    0.00000E+00         0.00000E+00        -0.36034E+08
 
   -0.35155E+08         0.87627E+06         0.00000E+00
    0.87627E+06        -0.50016E+08         0.00000E+00
    0.00000E+00         0.00000E+00        -0.36034E+08
 
   -0.35206E+08         0.97607E+06         0.00000E+00
    0.97607E+06        -0.50020E+08         0.00000E+00
    0.00000E+00         0.00000E+00        -0.36034E+08
 
   -0.35255E+08         0.10755E+07         0.00000E+00
    0.10755E+07        -0.50025E+08         0.00000E+00
    0.00000E+00         0.00000E+00        -0.36034E+08
 
   -0.35303E+08         0.11746E+07         0.00000E+00
    0.11746E+07        -0.50029E+08         0.00000E+00
    0.00000E+00         0.00000E+00        -0.36033E+08
 
   -0.35349E+08         0.12735E+07         0.00000E+00
    0.12735E+07        -0.50035E+08         0.00000E+00
    0.00000E+00         0.00000E+00        -0.36033E+08
 
   -0.35394E+08         0.13721E+07         0.00000E+00
    0.13721E+07        -0.50040E+08         0.00000E+00
    0.00000E+00         0.00000E+00        -0.36032E+08
 
   -0.35437E+08         0.14707E+07         0.00000E+00
    0.14707E+07        -0.50046E+08         0.00000E+00
    0.00000E+00         0.00000E+00        -0.36032E+08
 
   -0.35478E+08         0.15692E+07         0.00000E+00
    0.15692E+07        -0.50053E+08         0.00000E+00
    0.00000E+00         0.00000E+00        -0.36032E+08
 
   -0.35518E+08         0.16678E+07         0.00000E+00
    0.16678E+07        -0.50060E+08         0.00000E+00
    0.00000E+00         0.00000E+00        -0.36031E+08
 
   -0.35556E+08         0.17664E+07         0.00000E+00
    0.17664E+07        -0.50067E+08         0.00000E+00
    0.00000E+00         0.00000E+00        -0.36031E+08
 
   -0.35593E+08         0.18651E+07         0.00000E+00
    0.18651E+07        -0.50074E+08         0.00000E+00
    0.00000E+00         0.00000E+00        -0.36030E+08
 
   -0.35628E+08         0.19640E+07         0.00000E+00
    0.19640E+07        -0.50082E+08         0.00000E+00
    0.00000E+00         0.00000E+00        -0.36030E+08
 
   -0.35661E+08         0.20631E+07         0.00000E+00
    0.20631E+07        -0.50090E+08         0.00000E+00
    0.00000E+00         0.00000E+00        -0.36029E+08
 
   -0.35693E+08         0.21624E+07         0.00000E+00
    0.21624E+07        -0.50098E+08         0.00000E+00
    0.00000E+00         0.00000E+00        -0.36029E+08
 
   -0.35724E+08         0.22621E+07         0.00000E+00
    0.22621E+07        -0.50106E+08         0.00000E+00
    0.00000E+00         0.00000E+00        -0.36028E+08
 
   -0.35753E+08         0.23621E+07         0.00000E+00
    0.23621E+07        -0.50115E+08         0.00000E+00
    0.00000E+00         0.00000E+00        -0.36028E+08
 
   -0.35781E+08         0.24625E+07         0.00000E+00
    0.24625E+07        -0.50123E+08         0.00000E+00
    0.00000E+00         0.00000E+00        -0.36027E+08
 
   -0.35807E+08         0.25633E+07         0.00000E+00
    0.25633E+07        -0.50132E+08         0.00000E+00
    0.00000E+00         0.00000E+00        -0.36027E+08
 
   -0.35832E+08         0.26646E+07         0.00000E+00
    0.26646E+07        -0.50141E+08         0.00000E+00
    0.00000E+00         0.00000E+00        -0.36027E+08
 
   -0.35855E+08         0.27664E+07         0.00000E+00
    0.27664E+07        -0.50150E+08         0.00000E+00
    0.00000E+00         0.00000E+00        -0.36026E+08
 
   -0.35877E+08         0.28688E+07         0.00000E+00
    0.28688E+07        -0.50159E+08         0.00000E+00
    0.00000E+00         0.00000E+00        -0.36026E+08
 
   -0.35898E+08         0.29717E+07         0.00000E+00
    0.29717E+07        -0.50168E+08         0.00000E+00
    0.00000E+00         0.00000E+00        -0.36025E+08
 
   -0.35918E+08         0.30752E+07         0.00000E+00
    0.30752E+07        -0.50177E+08         0.00000E+00
    0.00000E+00         0.00000E+00        -0.36025E+08
 
   -0.35936E+08         0.31794E+07         0.00000E+00
    0.31794E+07        -0.50186E+08         0.00000E+00
    0.00000E+00         0.00000E+00        -0.36024E+08
 
   -0.35952E+08         0.32842E+07         0.00000E+00
    0.32842E+07        -0.50195E+08         0.00000E+00
    0.00000E+00         0.00000E+00        -0.36024E+08
 
   -0.35968E+08         0.33898E+07         0.00000E+00
    0.33898E+07        -0.50203E+08         0.00000E+00
    0.00000E+00         0.00000E+00        -0.36024E+08
 
   -0.35982E+08         0.34960E+07         0.00000E+00
    0.34960E+07        -0.50212E+08         0.00000E+00
    0.00000E+00         0.00000E+00        -0.36023E+08
 
   -0.35995E+08         0.36031E+07         0.00000E+00
    0.36031E+07        -0.50221E+08         0.00000E+00
    0.00000E+00         0.00000E+00        -0.36023E+08
 
   -0.36006E+08         0.37109E+07         0.00000E+00
    0.37109E+07        -0.50229E+08         0.00000E+00
    0.00000E+00         0.00000E+00        -0.36023E+08
 
   -0.36016E+08         0.38196E+07         0.00000E+00
    0.38196E+07        -0.50237E+08         0.00000E+00
    0.00000E+00         0.00000E+00        -0.36022E+08
 
   -0.36025E+08         0.39292E+07         0.00000E+00
    0.39292E+07        -0.50245E+08         0.00000E+00
    0.00000E+00         0.00000E+00        -0.36022E+08
 
   -0.36032E+08         0.40397E+07         0.00000E+00
    0.40397E+07        -0.50253E+08         0.00000E+00
    0.00000E+00         0.00000E+00        -0.36022E+08
 
   -0.36038E+08         0.41512E+07         0.00000E+00
    0.41512E+07        -0.50260E+08         0.00000E+00
    0.00000E+00         0.00000E+00        -0.36021E+08
 
   -0.36042E+08         0.42637E+07         0.00000E+00
    0.42637E+07        -0.50268E+08         0.00000E+00
    0.00000E+00         0.00000E+00        -0.36021E+08
 
   -0.36045E+08         0.43774E+07         0.00000E+00
    0.43774E+07        -0.50275E+08         0.00000E+00
    0.00000E+00         0.00000E+00        -0.36021E+08
 
   -0.36046E+08         0.44923E+07         0.00000E+00
    0.44923E+07        -0.50282E+08         0.00000E+00
    0.00000E+00         0.00000E+00        -0.36021E+08
 
   -0.36046E+08         0.46085E+07         0.00000E+00
    0.46085E+07        -0.50288E+08         0.00000E+00
    0.00000E+00         0.00000E+00        -0.36020E+08
 
   -0.36044E+08         0.47261E+07         0.00000E+00
    0.47261E+07        -0.50295E+08         0.00000E+00
    0.00000E+00         0.00000E+00        -0.36020E+08
 
   -0.36041E+08         0.48454E+07         0.00000E+00
    0.48454E+07        -0.50301E+08         0.00000E+00
    0.00000E+00         0.00000E+00        -0.36020E+08
 
   -0.36037E+08         0.49666E+07         0.00000E+00
    0.49666E+07        -0.50307E+08         0.00000E+00
    0.00000E+00         0.00000E+00        -0.36020E+08
 
   -0.36031E+08         0.50895E+07         0.00000E+00
    0.50895E+07        -0.50312E+08         0.00000E+00
    0.00000E+00         0.00000E+00        -0.36020E+08
 
   -0.36024E+08         0.52139E+07         0.00000E+00
    0.52139E+07        -0.50316E+08         0.00000E+00
    0.00000E+00         0.00000E+00        -0.36020E+08
 
   -0.34160E+08         0.53234E+05         0.00000E+00
    0.53234E+05        -0.50000E+08         0.00000E+00
    0.00000E+00         0.00000E+00        -0.35389E+08
 
   -0.34230E+08         0.15620E+06         0.00000E+00
    0.15620E+06        -0.50001E+08         0.00000E+00
    0.00000E+00         0.00000E+00        -0.35389E+08
 
   -0.34298E+08         0.25806E+06         0.00000E+00
    0.25806E+06        -0.50002E+08         0.00000E+00
    0.00000E+00         0.00000E+00        -0.35389E+08
 
   -0.34364E+08         0.35892E+06         0.00000E+00
    0.35892E+06        -0.50004E+08         0.00000E+00
    0.00000E+00         0.00000E+00        -0.35389E+08
 
   -0.34428E+08         0.45891E+06         0.00000E+00
    0.45891E+06        -0.50007E+08         0.00000E+00
    0.00000E+00         0.00000E+00        -0.35389E+08
 
   -0.34489E+08         0.55812E+06         0.00000E+00
    0.55812E+06        -0.50011E+08         0.00000E+00
    0.00000E+00         0.00000E+00        -0.35389E+08
 
   -0.34549E+08         0.65666E+06         0.00000E+00
    0.65666E+06        -0.50015E+08         0.00000E+00
    0.00000E+00         0.00000E+00        -0.35388E+08
 
   -0.34606E+08         0.75462E+06         0.00000E+00
    0.75462E+06        -0.50020E+08         0.00000E+00
    0.00000E+00         0.00000E+00        -0.35388E+08
 
   -0.34661E+08         0.85210E+06         0.00000E+00
    0.85210E+06        -0.50026E+08         0.00000E+00
    0.00000E+00         0.00000E+00        -0.35388E+08
 
   -0.34714E+08         0.94919E+06         0.00000E+00
    0.94919E+06        -0.50032E+08         0.00000E+00
    0.00000E+00         0.00000E+00        -0.35388E+08
 
   -0.34765E+08         0.10460E+07         0.00000E+00
    0.10460E+07        -0.50039E+08         0.00000E+00
    0.00000E+00         0.00000E+00        -0.35387E+08
 
   -0.34814E+08         0.11425E+07         0.00000E+00
    0.11425E+07        -0.50046E+08         0.00000E+00
    0.00000E+00         0.00000E+00        -0.35387E+08
 
   -0.34861E+08         0.12389E+07         0.00000E+00
    0.12389E+07        -0.50054E+08         0.00000E+00
    0.00000E+00         0.00000E+00        -0.35387E+08
 
   -0.34906E+08         0.13353E+07         0.00000E+00
    0.13353E+07        -0.50063E+08         0.00000E+00
    0.00000E+00         0.00000E+00        -0.35386E+08
 
   -0.34949E+08         0.14316E+07         0.00000E+00
    0.14316E+07        -0.50072E+08         0.00000E+00
    0.00000E+00         0.00000E+00        -0.35386E+08
 
   -0.34991E+08         0.15280E+07         0.00000E+00
    0.15280E+07        -0.50082E+08         0.00000E+00
    0.00000E+00         0.00000E+00        -0.35386E+08
 
   -0.35030E+08         0.16245E+07         0.00000E+00
    0.16245E+07        -0.50092E+08         0.00000E+00
    0.00000E+00         0.00000E+00        -0.35385E+08
 
   -0.35067E+08         0.17212E+07         0.00000E+00
    0.17212E+07        -0.50103E+08         0.00000E+00
    0.00000E+00         0.00000E+00        -0.35385E+08
 
   -0.35103E+08         0.18181E+07         0.00000E+00
    0.18181E+07        -0.50114E+08         0.00000E+00
    0.00000E+00         0.00000E+00        -0.35384E+08
 
   -0.35136E+08         0.19153E+07         0.00000E+00
    0.19153E+07        -0.50126E+08         0.00000E+00
    0.00000E+00         0.00000E+00        -0.35384E+08
 
   -0.35168E+08         0.20129E+07         0.00000E+00
    0.20129E+07        -0.50138E+08         0.00000E+00
    0.00000E+00         0.00000E+00        -0.35384E+08
 
   -0.35199E+08         0.21109E+07         0.00000E+00
    0.21109E+07        -0.50150E+08         0.00000E+00
    0.00000E+00         0.00000E+00        -0.35383E+08
 
   -0.35227E+08         0.22094E+07         0.00000E+00
    0.22094E+07        -0.50163E+08         0.00000E+00
    0.00000E+00         0.00000E+00        -0.35383E+08
 
   -0.35254E+08         0.23083E+07         0.00000E+00
    0.23083E+07        -0.50176E+08         0.00000E+00
    0.00000E+00         0.00000E+00        -0.35383E+08
 
   -0.35280E+08         0.24078E+07         0.00000E+00
    0.24078E+07        -0.50189E+08         0.00000E+00
    0.00000E+00         0.00000E+00        -0.35382E+08
 
   -0.35303E+08         0.25078E+07         0.00000E+00
    0.25078E+07        -0.50202E+08         0.00000E+00
    0.00000E+00         0.00000E+00        -0.35382E+08
 
   -0.35325E+08         0.26085E+07         0.00000E+00
    0.26085E+07        -0.50216E+08         0.00000E+00
    0.00000E+00         0.00000E+00        -0.35381E+08
 
   -0.35346E+08         0.27098E+07         0.00000E+00
    0.27098E+07        -0.50230E+08         0.00000E+00
    0.00000E+00         0.00000E+00        -0.35381E+08
 
   -0.35365E+08         0.28118E+07         0.00000E+00
    0.28118E+07        -0.50244E+08         0.00000E+00
    0.00000E+00         0.00000E+00        -0.35381E+08
 
   -0.35382E+08         0.29145E+07         0.00000E+00
    0.29145E+07        -0.50258E+08         0.00000E+00
    0.00000E+00         0.00000E+00        -0.35380E+08
 
   -0.35398E+08         0.30179E+07         0.00000E+00
    0.30179E+07        -0.50272E+08         0.00000E+00
    0.00000E+00         0.00000E+00        -0.35380E+08
 
   -0.35413E+08         0.31222E+07         0.00000E+00
    0.31222E+07        -0.50286E+08         0.00000E+00
    0.00000E+00         0.00000E+00        -0.35380E+08
 
   -0.35426E+08         0.32272E+07         0.00000E+00
    0.32272E+07        -0.50300E+08         0.00000E+00
    0.00000E+00         0.00000E+00        -0.35379E+08
 
   -0.35437E+08         0.33332E+07         0.00000E+00
    0.33332E+07        -0.50314E+08         0.00000E+00
    0.00000E+00         0.00000E+00        -0.35379E+08
 
   -0.35447E+08         0.34399E+07         0.00000E+00
    0.34399E+07        -0.50329E+08         0.00000E+00
    0.00000E+00         0.00000E+00        -0.35379E+08
 
   -0.35456E+08         0.35476E+07         0.00000E+00
    0.35476E+07        -0.50343E+08         0.00000E+00
    0.00000E+00         0.00000E+00        -0.35379E+08
 
   -0.35463E+08         0.36562E+07         0.00000E+00
    0.36562E+07        -0.50357E+08         0.00000E+00
    0.00000E+00         0.00000E+00        -0.35378E+08
 
   -0.35468E+08         0.37658E+07         0.00000E+00
    0.37658E+07        -0.50371E+08         0.00000E+00
    0.00000E+00         0.00000E+00        -0.35378E+08
 
   -0.35472E+08         0.38764E+07         0.00000E+00
    0.38764E+07        -0.50384E+08         0.00000E+00
    0.00000E+00         0.00000E+00        -0.35378E+08
 
   -0.35474E+08         0.39880E+07         0.00000E+00
    0.39880E+07        -0.50398E+08         0.00000E+00
    0.00000E+00         0.00000E+00        -0.35378E+08
 
   -0.35475E+08         0.41006E+07         0.00000E+00
    0.41006E+07        -0.50411E+08         0.00000E+00
    0.00000E+00         0.00000E+00        -0.35378E+08
 
   -0.35473E+08         0.42143E+07         0.00000E+00
    0.42143E+07        -0.50424E+08         0.00000E+00
    0.00000E+00         0.00000E+00        -0.35377E+08
 
   -0.35470E+08         0.43293E+07         0.00000E+00
    0.43293E+07        -0.50437E+08         0.00000E+00
    0.00000E+00         0.00000E+00        -0.35377E+08
 
   -0.35465E+08         0.44455E+07         0.00000E+00
    0.44455E+07        -0.50449E+08         0.00000E+00
    0.00000E+00         0.00000E+00        -0.35377E+08
 
   -0.35458E+08         0.45631E+07         0.00000E+00
    0.45631E+07        -0.50461E+08         0.00000E+00
    0.00000E+00         0.00000E+00        -0.35377E+08
 
   -0.35449E+08         0.46819E+07         0.00000E+00
    0.46819E+07        -0.50473E+08         0.00000E+00
    0.00000E+00         0.00000E+00        -0.35377E+08
 
   -0.35437E+08         0.48019E+07         0.00000E+00
    0.48019E+07        -0.50484E+08         0.00000E+00
    0.00000E+00         0.00000E+00        -0.35377E+08
 
   -0.35422E+08         0.49238E+07         0.00000E+00
    0.49238E+07        -0.50496E+08         0.00000E+00
    0.00000E+00         0.00000E+00        -0.35377E+08
 
   -0.35405E+08         0.50482E+07         0.00000E+00
    0.50482E+07        -0.50508E+08         0.00000E+00
    0.00000E+00         0.00000E+00        -0.35377E+08
 
   -0.35386E+08         0.51773E+07         0.00000E+00
    0.51773E+07        -0.50520E+08         0.00000E+00
    0.00000E+00         0.00000E+00        -0.35377E+08
 
   -0.33652E+08         0.51066E+05         0.00000E+00
    0.51066E+05        -0.50000E+08         0.00000E+00
    0.00000E+00         0.00000E+00        -0.34725E+08
 
   -0.33728E+08         0.14968E+06         0.00000E+00
    0.14968E+06        -0.50001E+08         0.00000E+00
    0.00000E+00         0.00000E+00        -0.34725E+08
 
   -0.33802E+08         0.24719E+06         0.00000E+00
    0.24719E+06        -0.50003E+08         0.00000E+00
    0.00000E+00         0.00000E+00        -0.34725E+08
 
   -0.33872E+08         0.34376E+06         0.00000E+00
    0.34376E+06        -0.50007E+08         0.00000E+00
    0.00000E+00         0.00000E+00        -0.34725E+08
 
   -0.33940E+08         0.43949E+06         0.00000E+00
    0.43949E+06        -0.50011E+08         0.00000E+00
    0.00000E+00         0.00000E+00        -0.34725E+08
 
   -0.34005E+08         0.53451E+06         0.00000E+00
    0.53451E+06        -0.50016E+08         0.00000E+00
    0.00000E+00         0.00000E+00        -0.34725E+08
 
   -0.34067E+08         0.62894E+06         0.00000E+00
    0.62894E+06        -0.50022E+08         0.00000E+00
    0.00000E+00         0.00000E+00        -0.34725E+08
 
   -0.34127E+08         0.72288E+06         0.00000E+00
    0.72288E+06        -0.50029E+08         0.00000E+00
    0.00000E+00         0.00000E+00        -0.34725E+08
 
   -0.34184E+08         0.81644E+06         0.00000E+00
    0.81644E+06        -0.50037E+08         0.00000E+00
    0.00000E+00         0.00000E+00        -0.34724E+08
 
   -0.34239E+08         0.90971E+06         0.00000E+00
    0.90971E+06        -0.50046E+08         0.00000E+00
    0.00000E+00         0.00000E+00        -0.34724E+08
 
   -0.34291E+08         0.10028E+07         0.00000E+00
    0.10028E+07        -0.50055E+08         0.00000E+00
    0.00000E+00         0.00000E+00        -0.34724E+08
 
   -0.34340E+08         0.10958E+07         0.00000E+00
    0.10958E+07        -0.50066E+08         0.00000E+00
    0.00000E+00         0.00000E+00        -0.34724E+08
 
   -0.34388E+08         0.11887E+07         0.00000E+00
    0.11887E+07        -0.50077E+08         0.00000E+00
    0.00000E+00         0.00000E+00        -0.34723E+08
 
   -0.34432E+08         0.12817E+07         0.00000E+00
    0.12817E+07        -0.50089E+08         0.00000E+00
    0.00000E+00         0.00000E+00        -0.34723E+08
 
   -0.34475E+08         0.13749E+07         0.00000E+00
    0.13749E+07        -0.50102E+08         0.00000E+00
    0.00000E+00         0.00000E+00        -0.34723E+08
 
   -0.34515E+08         0.14683E+07         0.00000E+00
    0.14683E+07        -0.50116E+08         0.00000E+00
    0.00000E+00         0.00000E+00        -0.34722E+08
 
   -0.34553E+08         0.15619E+07         0.00000E+00
    0.15619E+07        -0.50130E+08         0.00000E+00
    0.00000E+00         0.00000E+00        -0.34722E+08
 
   -0.34589E+08         0.16559E+07         0.00000E+00
    0.16559E+07        -0.50145E+08         0.00000E+00
    0.00000E+00         0.00000E+00        -0.34722E+08
 
   -0.34623E+08         0.17502E+07         0.00000E+00
    0.17502E+07        -0.50161E+08         0.00000E+00
    0.00000E+00         0.00000E+00        -0.34721E+08
 
   -0.34655E+08         0.18451E+07         0.00000E+00
    0.18451E+07        -0.50177E+08         0.00000E+00
    0.00000E+00         0.00000E+00        -0.34721E+08
 
   -0.34685E+08         0.19404E+07         0.00000E+00
    0.19404E+07        -0.50194E+08         0.00000E+00
    0.00000E+00         0.00000E+00        -0.34721E+08
 
   -0.34713E+08         0.20363E+07         0.00000E+00
    0.20363E+07        -0.50211E+08         0.00000E+00
    0.00000E+00         0.00000E+00        -0.34721E+08
 
   -0.34738E+08         0.21328E+07         0.00000E+00
    0.21328E+07        -0.50228E+08         0.00000E+00
    0.00000E+00         0.00000E+00        -0.34720E+08
 
   -0.34762E+08         0.22299E+07         0.00000E+00
    0.22299E+07        -0.50247E+08         0.00000E+00
    0.00000E+00         0.00000E+00        -0.34720E+08
 
   -0.34785E+08         0.23277E+07         0.00000E+00
    0.23277E+07        -0.50265E+08         0.00000E+00
    0.00000E+00         0.00000E+00        -0.34720E+08
 
   -0.34805E+08         0.24263E+07         0.00000E+00
    0.24263E+07        -0.50284E+08         0.00000E+00
    0.00000E+00         0.00000E+00        -0.34719E+08
 
   -0.34823E+08         0.25256E+07         0.00000E+00
    0.25256E+07        -0.50304E+08         0.00000E+00
    0.00000E+00         0.00000E+00        -0.34719E+08
 
   -0.34840E+08         0.26257E+07         0.00000E+00
    0.26257E+07        -0.50323E+08         0.00000E+00
    0.00000E+00         0.00000E+00        -0.34719E+08
 
   -0.34855E+08         0.27267E+07         0.00000E+00
    0.27267E+07        -0.50343E+08         0.00000E+00
    0.00000E+00         0.00000E+00        -0.34719E+08
 
   -0.34869E+08         0.28285E+07         0.00000E+00
    0.28285E+07        -0.50364E+08         0.00000E+00
    0.00000E+00         0.00000E+00        -0.34718E+08
 
   -0.34880E+08         0.29313E+07         0.00000E+00
    0.29313E+07        -0.50384E+08         0.00000E+00
    0.00000E+00         0.00000E+00        -0.34718E+08
 
   -0.34891E+08         0.30349E+07         0.00000E+00
    0.30349E+07        -0.50405E+08         0.00000E+00
    0.00000E+00         0.00000E+00        -0.34718E+08
 
   -0.34899E+08         0.31396E+07         0.00000E+00
    0.31396E+07        -0.50426E+08         0.00000E+00
    0.00000E+00         0.00000E+00        -0.34718E+08
 
   -0.34906E+08         0.32452E+07         0.00000E+00
    0.32452E+07        -0.50447E+08         0.00000E+00
    0.00000E+00         0.00000E+00        -0.34718E+08
 
   -0.34911E+08         0.33518E+07         0.00000E+00
    0.33518E+07        -0.50469E+08         0.00000E+00
    0.00000E+00         0.00000E+00        -0.34718E+08
 
   -0.34915E+08         0.34595E+07         0.00000E+00
    0.34595E+07        -0.50490E+08         0.00000E+00
    0.00000E+00         0.00000E+00        -0.34717E+08
 
   -0.34916E+08         0.35683E+07         0.00000E+00
    0.35683E+07        -0.50512E+08         0.00000E+00
    0.00000E+00         0.00000E+00        -0.34717E+08
 
   -0.34917E+08         0.36781E+07         0.00000E+00
    0.36781E+07        -0.50533E+08         0.00000E+00
    0.00000E+00         0.00000E+00        -0.34717E+08
 
   -0.34915E+08         0.37892E+07         0.00000E+00
    0.37892E+07        -0.50555E+08         0.00000E+00
    0.00000E+00         0.00000E+00        -0.34717E+08
 
   -0.34911E+08         0.39015E+07         0.00000E+00
    0.39015E+07        -0.50577E+08         0.00000E+00
    0.00000E+00         0.00000E+00        -0.34717E+08
 
   -0.34906E+08         0.40151E+07         0.00000E+00
    0.40151E+07        -0.50599E+08         0.00000E+00
    0.00000E+00         0.00000E+00        -0.34717E+08
 
   -0.34899E+08         0.41298E+07         0.00000E+00
    0.41298E+07        -0.50621E+08         0.00000E+00
    0.00000E+00         0.00000E+00        -0.34717E+08
 
   -0.34890E+08         0.42454E+07         0.00000E+00
    0.42454E+07        -0.50642E+08         0.00000E+00
    0.00000E+00         0.00000E+00        -0.34717E+08
 
   -0.34878E+08         0.43624E+07         0.00000E+00
    0.43624E+07        -0.50665E+08         0.00000E+00
    0.00000E+00         0.00000E+00        -0.34717E+08
 
   -0.34862E+08         0.44808E+07         0.00000E+00
    0.44808E+07        -0.50687E+08         0.00000E+00
    0.00000E+00         0.00000E+00        -0.34717E+08
 
   -0.34844E+08         0.46017E+07         0.00000E+00
    0.46017E+07        -0.50710E+08         0.00000E+00
    0.00000E+00         0.00000E+00        -0.34717E+08
 
   -0.34824E+08         0.47258E+07         0.00000E+00
    0.47258E+07        -0.50733E+08         0.00000E+00
    0.00000E+00         0.00000E+00        -0.34717E+08
 
   -0.34801E+08         0.48510E+07         0.00000E+00
    0.48510E+07        -0.50750E+08         0.00000E+00
    0.00000E+00         0.00000E+00        -0.34717E+08
 
   -0.34774E+08         0.49762E+07         0.00000E+00
    0.49762E+07        -0.50765E+08         0.00000E+00
    0.00000E+00         0.00000E+00        -0.34717E+08
 
   -0.34739E+08         0.50963E+07         0.00000E+00
    0.50963E+07        -0.50782E+08         0.00000E+00
    0.00000E+00         0.00000E+00        -0.34717E+08
 
   -0.33171E+08         0.47893E+05         0.00000E+00
    0.47893E+05        -0.50000E+08         0.00000E+00
    0.00000E+00         0.00000E+00        -0.34045E+08
 
   -0.33253E+08         0.14038E+06         0.00000E+00
    0.14038E+06        -0.50002E+08         0.00000E+00
    0.00000E+00         0.00000E+00        -0.34045E+08
 
   -0.33331E+08         0.23188E+06         0.00000E+00
    0.23188E+06        -0.50005E+08         0.00000E+00
    0.00000E+00         0.00000E+00        -0.34045E+08
 
   -0.33405E+08         0.32253E+06         0.00000E+00
    0.32253E+06        -0.50009E+08         0.00000E+00
    0.00000E+00         0.00000E+00        -0.34045E+08
 
   -0.33477E+08         0.41248E+06         0.00000E+00
    0.41248E+06        -0.50014E+08         0.00000E+00
    0.00000E+00         0.00000E+00        -0.34044E+08
 
   -0.33545E+08         0.50184E+06         0.00000E+00
    0.50184E+06        -0.50021E+08         0.00000E+00
    0.00000E+00         0.00000E+00        -0.34044E+08
 
   -0.33609E+08         0.59076E+06         0.00000E+00
    0.59076E+06        -0.50029E+08         0.00000E+00
    0.00000E+00         0.00000E+00        -0.34044E+08
 
   -0.33671E+08         0.67933E+06         0.00000E+00
    0.67933E+06        -0.50039E+08         0.00000E+00
    0.00000E+00         0.00000E+00        -0.34044E+08
 
   -0.33729E+08         0.76768E+06         0.00000E+00
    0.76768E+06        -0.50049E+08         0.00000E+00
    0.00000E+00         0.00000E+00        -0.34044E+08
 
   -0.33785E+08         0.85590E+06         0.00000E+00
    0.85590E+06        -0.50061E+08         0.00000E+00
    0.00000E+00         0.00000E+00        -0.34044E+08
 
   -0.33837E+08         0.94410E+06         0.00000E+00
    0.94410E+06        -0.50074E+08         0.00000E+00
    0.00000E+00         0.00000E+00        -0.34043E+08
 
   -0.33887E+08         0.10324E+07         0.00000E+00
    0.10324E+07        -0.50088E+08         0.00000E+00
    0.00000E+00         0.00000E+00        -0.34043E+08
 
   -0.33933E+08         0.11208E+07         0.00000E+00
    0.11208E+07        -0.50103E+08         0.00000E+00
    0.00000E+00         0.00000E+00        -0.34043E+08
 
   -0.33977E+08         0.12094E+07         0.00000E+00
    0.12094E+07        -0.50119E+08         0.00000E+00
    0.00000E+00         0.00000E+00        -0.34043E+08
 
   -0.34019E+08         0.12984E+07         0.00000E+00
    0.12984E+07        -0.50136E+08         0.00000E+00
    0.00000E+00         0.00000E+00        -0.34042E+08
 
   -0.34057E+08         0.13877E+07         0.00000E+00
    0.13877E+07        -0.50154E+08         0.00000E+00
    0.00000E+00         0.00000E+00        -0.34042E+08
 
   -0.34094E+08         0.14775E+07         0.00000E+00
    0.14775E+07        -0.50172E+08         0.00000E+00
    0.00000E+00         0.00000E+00        -0.34042E+08
 
   -0.34127E+08         0.15678E+07         0.00000E+00
    0.15678E+07        -0.50192E+08         0.00000E+00
    0.00000E+00         0.00000E+00        -0.34042E+08
 
   -0.34159E+08         0.16587E+07         0.00000E+00
    0.16587E+07        -0.50212E+08         0.00000E+00
    0.00000E+00         0.00000E+00        -0.34041E+08
 
   -0.34188E+08         0.17502E+07         0.00000E+00
    0.17502E+07        -0.50233E+08         0.00000E+00
    0.00000E+00         0.00000E+00        -0.34041E+08
 
   -0.34214E+08         0.18424E+07         0.00000E+00
    0.18424E+07        -0.50255E+08         0.00000E+00
    0.00000E+00         0.00000E+00        -0.34041E+08
 
   -0.34239E+08         0.19353E+07         0.00000E+00
    0.19353E+07        -0.50278E+08         0.00000E+00
    0.00000E+00         0.00000E+00        -0.34041E+08
 
   -0.34261E+08         0.20289E+07         0.00000E+00
    0.20289E+07        -0.50301E+08         0.00000E+00
    0.00000E+00         0.00000E+00        -0.34041E+08
 
   -0.34281E+08         0.21234E+07         0.00000E+00
    0.21234E+07        -0.50325E+08         0.00000E+00
    0.00000E+00         0.00000E+00        -0.34040E+08
 
   -0.34300E+08         0.22187E+07         0.00000E+00
    0.22187E+07        -0.50350E+08         0.00000E+00
    0.00000E+00         0.00000E+00        -0.34040E+08
 
   -0.34316E+08         0.23148E+07         0.00000E+00
    0.23148E+07        -0.50375E+08         0.00000E+00
    0.00000E+00         0.00000E+00        -0.34040E+08
 
   -0.34330E+08         0.24119E+07         0.00000E+00
    0.24119E+07        -0.50401E+08         0.00000E+00
    0.00000E+00         0.00000E+00        -0.34040E+08
 
   -0.34343E+08         0.25099E+07         0.00000E+00
    0.25099E+07        -0.50427E+08         0.00000E+00
    0.00000E+00         0.00000E+00        -0.34040E+08
 
   -0.34353E+08         0.26088E+07         0.00000E+00
    0.26088E+07        -0.50454E+08         0.00000E+00
    0.00000E+00         0.00000E+00        -0.34039E+08
 
   -0.34362E+08         0.27087E+07         0.00000E+00
    0.27087E+07        -0.50481E+08         0.00000E+00
    0.00000E+00         0.00000E+00        -0.34039E+08
 
   -0.34369E+08         0.28096E+07         0.00000E+00
    0.28096E+07        -0.50509E+08         0.00000E+00
    0.00000E+00         0.00000E+00        -0.34039E+08
 
   -0.34374E+08         0.29115E+07         0.00000E+00
    0.29115E+07        -0.50537E+08         0.00000E+00
    0.00000E+00         0.00000E+00        -0.34039E+08
 
   -0.34377E+08         0.30144E+07         0.00000E+00
    0.30144E+07        -0.50566E+08         0.00000E+00
    0.00000E+00         0.00000E+00        -0.34039E+08
 
   -0.34379E+08         0.31184E+07         0.00000E+00
    0.31184E+07        -0.50595E+08         0.00000E+00
    0.00000E+00         0.00000E+00        -0.34039E+08
 
   -0.34379E+08         0.32235E+07         0.00000E+00
    0.32235E+07        -0.50625E+08         0.00000E+00
    0.00000E+00         0.00000E+00        -0.34039E+08
 
   -0.34377E+08         0.33297E+07         0.00000E+00
    0.33297E+07        -0.50655E+08         0.00000E+00
    0.00000E+00         0.00000E+00        -0.34039E+08
 
   -0.34374E+08         0.34370E+07         0.00000E+00
    0.34370E+07        -0.50686E+08         0.00000E+00
    0.00000E+00         0.00000E+00        -0.34039E+08
 
   -0.34368E+08         0.35453E+07         0.00000E+00
    0.35453E+07        -0.50717E+08         0.00000E+00
    0.00000E+00         0.00000E+00        -0.34039E+08
 
   -0.34361E+08         0.36544E+07         0.00000E+00
    0.36544E+07        -0.50749E+08         0.00000E+00
    0.00000E+00         0.00000E+00        -0.34039E+08
 
   -0.34352E+08         0.37646E+07         0.00000E+00
    0.37646E+07        -0.50782E+08         0.00000E+00
    0.00000E+00         0.00000E+00        -0.34039E+08
 
   -0.34340E+08         0.38759E+07         0.00000E+00
    0.38759E+07        -0.50816E+08         0.00000E+00
    0.00000E+00         0.00000E+00        -0.34040E+08
 
   -0.34325E+08         0.39892E+07         0.00000E+00
    0.39892E+07        -0.50851E+08         0.00000E+00
    0.00000E+00         0.00000E+00        -0.34040E+08
 
   -0.34310E+08         0.41051E+07         0.00000E+00
    0.41051E+07        -0.50887E+08         0.00000E+00
    0.00000E+00         0.00000E+00        -0.34040E+08
 
   -0.34293E+08         0.42217E+07         0.00000E+00
    0.42217E+07        -0.50920E+08         0.00000E+00
    0.00000E+00         0.00000E+00        -0.34040E+08
 
   -0.34275E+08         0.43388E+07         0.00000E+00
    0.43388E+07        -0.50952E+08         0.00000E+00
    0.00000E+00         0.00000E+00        -0.34040E+08
 
   -0.34255E+08         0.44521E+07         0.00000E+00
    0.44521E+07        -0.50985E+08         0.00000E+00
    0.00000E+00         0.00000E+00        -0.34041E+08
 
   -0.34226E+08         0.45609E+07         0.00000E+00
    0.45609E+07        -0.51024E+08         0.00000E+00
    0.00000E+00         0.00000E+00        -0.34041E+08
 
   -0.34186E+08         0.46741E+07         0.00000E+00
    0.46741E+07        -0.51091E+08         0.00000E+00
    0.00000E+00         0.00000E+00        -0.34041E+08
 
   -0.34167E+08         0.47795E+07         0.00000E+00
    0.47795E+07        -0.51159E+08         0.00000E+00
    0.00000E+00         0.00000E+00        -0.34074E+08
 
   -0.34161E+08         0.48792E+07         0.00000E+00
    0.48792E+07        -0.51226E+08         0.00000E+00
    0.00000E+00         0.00000E+00        -0.34129E+08
 
   -0.32725E+08         0.43607E+05         0.00000E+00
    0.43607E+05        -0.50001E+08         0.00000E+00
    0.00000E+00         0.00000E+00        -0.33347E+08
 
   -0.32812E+08         0.12804E+06         0.00000E+00
    0.12804E+06        -0.50002E+08         0.00000E+00
    0.00000E+00         0.00000E+00        -0.33347E+08
 
   -0.32894E+08         0.21168E+06         0.00000E+00
    0.21168E+06        -0.50006E+08         0.00000E+00
    0.00000E+00         0.00000E+00        -0.33347E+08
 
   -0.32972E+08         0.29468E+06         0.00000E+00
    0.29468E+06        -0.50011E+08         0.00000E+00
    0.00000E+00         0.00000E+00        -0.33347E+08
 
   -0.33046E+08         0.37717E+06         0.00000E+00
    0.37717E+06        -0.50019E+08         0.00000E+00
    0.00000E+00         0.00000E+00        -0.33347E+08
 
   -0.33116E+08         0.45930E+06         0.00000E+00
    0.45930E+06        -0.50027E+08         0.00000E+00
    0.00000E+00         0.00000E+00        -0.33347E+08
 
   -0.33182E+08         0.54119E+06         0.00000E+00
    0.54119E+06        -0.50038E+08         0.00000E+00
    0.00000E+00         0.00000E+00        -0.33347E+08
 
   -0.33245E+08         0.62296E+06         0.00000E+00
    0.62296E+06        -0.50049E+08         0.00000E+00
    0.00000E+00         0.00000E+00        -0.33347E+08
 
   -0.33304E+08         0.70472E+06         0.00000E+00
    0.70472E+06        -0.50063E+08         0.00000E+00
    0.00000E+00         0.00000E+00        -0.33346E+08
 
   -0.33359E+08         0.78658E+06         0.00000E+00
    0.78658E+06        -0.50078E+08         0.00000E+00
    0.00000E+00         0.00000E+00        -0.33346E+08
 
   -0.33411E+08         0.86864E+06         0.00000E+00
    0.86864E+06        -0.50094E+08         0.00000E+00
    0.00000E+00         0.00000E+00        -0.33346E+08
 
   -0.33459E+08         0.95099E+06         0.00000E+00
    0.95099E+06        -0.50111E+08         0.00000E+00
    0.00000E+00         0.00000E+00        -0.33346E+08
 
   -0.33504E+08         0.10337E+07         0.00000E+00
    0.10337E+07        -0.50130E+08         0.00000E+00
    0.00000E+00         0.00000E+00        -0.33346E+08
 
   -0.33546E+08         0.11169E+07         0.00000E+00
    0.11169E+07        -0.50150E+08         0.00000E+00
    0.00000E+00         0.00000E+00        -0.33345E+08
 
   -0.33586E+08         0.12006E+07         0.00000E+00
    0.12006E+07        -0.50171E+08         0.00000E+00
    0.00000E+00         0.00000E+00        -0.33345E+08
 
   -0.33622E+08         0.12849E+07         0.00000E+00
    0.12849E+07        -0.50193E+08         0.00000E+00
    0.00000E+00         0.00000E+00        -0.33345E+08
 
   -0.33655E+08         0.13699E+07         0.00000E+00
    0.13699E+07        -0.50217E+08         0.00000E+00
    0.00000E+00         0.00000E+00        -0.33345E+08
 
   -0.33685E+08         0.14555E+07         0.00000E+00
    0.14555E+07        -0.50241E+08         0.00000E+00
    0.00000E+00         0.00000E+00        -0.33345E+08
 
   -0.33713E+08         0.15420E+07         0.00000E+00
    0.15420E+07        -0.50266E+08         0.00000E+00
    0.00000E+00         0.00000E+00        -0.33345E+08
 
   -0.33739E+08         0.16293E+07         0.00000E+00
    0.16293E+07        -0.50293E+08         0.00000E+00
    0.00000E+00         0.00000E+00        -0.33344E+08
 
   -0.33761E+08         0.17174E+07         0.00000E+00
    0.17174E+07        -0.50320E+08         0.00000E+00
    0.00000E+00         0.00000E+00        -0.33344E+08
 
   -0.33782E+08         0.18064E+07         0.00000E+00
    0.18064E+07        -0.50348E+08         0.00000E+00
    0.00000E+00         0.00000E+00        -0.33344E+08
 
   -0.33800E+08         0.18963E+07         0.00000E+00
    0.18963E+07        -0.50377E+08         0.00000E+00
    0.00000E+00         0.00000E+00        -0.33344E+08
 
   -0.33816E+08         0.19872E+07         0.00000E+00
    0.19872E+07        -0.50407E+08         0.00000E+00
    0.00000E+00         0.00000E+00        -0.33344E+08
 
   -0.33829E+08         0.20790E+07         0.00000E+00
    0.20790E+07        -0.50438E+08         0.00000E+00
    0.00000E+00         0.00000E+00        -0.33344E+08
 
   -0.33841E+08         0.21718E+07         0.00000E+00
    0.21718E+07        -0.50469E+08         0.00000E+00
    0.00000E+00         0.00000E+00        -0.33344E+08
 
   -0.33850E+08         0.22656E+07         0.00000E+00
    0.22656E+07        -0.50501E+08         0.00000E+00
    0.00000E+00         0.00000E+00        -0.33343E+08
 
   -0.33858E+08         0.23604E+07         0.00000E+00
    0.23604E+07        -0.50534E+08         0.00000E+00
    0.00000E+00         0.00000E+00        -0.33343E+08
 
   -0.33864E+08         0.24563E+07         0.00000E+00
    0.24563E+07        -0.50567E+08         0.00000E+00
    0.00000E+00         0.00000E+00        -0.33343E+08
 
   -0.33867E+08         0.25531E+07         0.00000E+00
    0.25531E+07        -0.50602E+08         0.00000E+00
    0.00000E+00         0.00000E+00        -0.33343E+08
 
   -0.33869E+08         0.26511E+07         0.00000E+00
    0.26511E+07        -0.50636E+08         0.00000E+00
    0.00000E+00         0.00000E+00        -0.33343E+08
 
   -0.33870E+08         0.27500E+07         0.00000E+00
    0.27500E+07        -0.50672E+08         0.00000E+00
    0.00000E+00         0.00000E+00        -0.33343E+08
 
   -0.33868E+08         0.28498E+07         0.00000E+00
    0.28498E+07        -0.50708E+08         0.00000E+00
    0.00000E+00         0.00000E+00        -0.33344E+08
 
   -0.33865E+08         0.29505E+07         0.00000E+00
    0.29505E+07        -0.50745E+08         0.00000E+00
    0.00000E+00         0.00000E+00        -0.33344E+08
 
   -0.33860E+08         0.30520E+07         0.00000E+00
    0.30520E+07        -0.50783E+08         0.00000E+00
    0.00000E+00         0.00000E+00        -0.33344E+08
 
   -0.33853E+08         0.31544E+07         0.00000E+00
    0.31544E+07        -0.50822E+08         0.00000E+00
    0.00000E+00         0.00000E+00        -0.33344E+08
 
   -0.33843E+08         0.32580E+07         0.00000E+00
    0.32580E+07        -0.50862E+08         0.00000E+00
    0.00000E+00         0.00000E+00        -0.33344E+08
 
   -0.33833E+08         0.33632E+07         0.00000E+00
    0.33632E+07        -0.50903E+08         0.00000E+00
    0.00000E+00         0.00000E+00        -0.33344E+08
 
   -0.33821E+08         0.34700E+07         0.00000E+00
    0.34700E+07        -0.50945E+08         0.00000E+00
    0.00000E+00         0.00000E+00        -0.33345E+08
 
   -0.33809E+08         0.35773E+07         0.00000E+00
    0.35773E+07        -0.50984E+08         0.00000E+00
    0.00000E+00         0.00000E+00        -0.33345E+08
 
   -0.33797E+08         0.36844E+07         0.00000E+00
    0.36844E+07        -0.51023E+08         0.00000E+00
    0.00000E+00         0.00000E+00        -0.33345E+08
 
   -0.33783E+08         0.37876E+07         0.00000E+00
    0.37876E+07        -0.51064E+08         0.00000E+00
    0.00000E+00         0.00000E+00        -0.33345E+08
 
   -0.33763E+08         0.38860E+07         0.00000E+00
    0.38860E+07        -0.51107E+08         0.00000E+00
    0.00000E+00         0.00000E+00        -0.33346E+08
 
   -0.33734E+08         0.39877E+07         0.00000E+00
    0.39877E+07        -0.51174E+08         0.00000E+00
    0.00000E+00         0.00000E+00        -0.33346E+08
 
   -0.33713E+08         0.40852E+07         0.00000E+00
    0.40852E+07        -0.51247E+08         0.00000E+00
    0.00000E+00         0.00000E+00        -0.33364E+08
 
   -0.33711E+08         0.41777E+07         0.00000E+00
    0.41777E+07        -0.51315E+08         0.00000E+00
    0.00000E+00         0.00000E+00        -0.33412E+08
 
   -0.33708E+08         0.42681E+07         0.00000E+00
    0.42681E+07        -0.51384E+08         0.00000E+00
    0.00000E+00         0.00000E+00        -0.33467E+08
 
   -0.33744E+08         0.43443E+07         0.00000E+00
    0.43443E+07        -0.51438E+08         0.00000E+00
    0.00000E+00         0.00000E+00        -0.33567E+08
 
   -0.33791E+08         0.44151E+07         0.00000E+00
    0.44151E+07        -0.51506E+08         0.00000E+00
    0.00000E+00         0.00000E+00        -0.33685E+08
 
   -0.33843E+08         0.44785E+07         0.00000E+00
    0.44785E+07        -0.51587E+08         0.00000E+00
    0.00000E+00         0.00000E+00        -0.33808E+08
 
   -0.32326E+08         0.38160E+05         0.00000E+00
    0.38160E+05        -0.50001E+08         0.00000E+00
    0.00000E+00         0.00000E+00        -0.32633E+08
 
   -0.32416E+08         0.11252E+06         0.00000E+00
    0.11252E+06        -0.50003E+08         0.00000E+00
    0.00000E+00         0.00000E+00        -0.32633E+08
 
   -0.32501E+08         0.18639E+06         0.00000E+00
    0.18639E+06        -0.50007E+08         0.00000E+00
    0.00000E+00         0.00000E+00        -0.32633E+08
 
   -0.32581E+08         0.25992E+06         0.00000E+00
    0.25992E+06        -0.50014E+08         0.00000E+00
    0.00000E+00         0.00000E+00        -0.32633E+08
 
   -0.32657E+08         0.33324E+06         0.00000E+00
    0.33324E+06        -0.50023E+08         0.00000E+00
    0.00000E+00         0.00000E+00        -0.32633E+08
 
   -0.32727E+08         0.40649E+06         0.00000E+00
    0.40649E+06        -0.50033E+08         0.00000E+00
    0.00000E+00         0.00000E+00        -0.32633E+08
 
   -0.32794E+08         0.47980E+06         0.00000E+00
    0.47980E+06        -0.50046E+08         0.00000E+00
    0.00000E+00         0.00000E+00        -0.32633E+08
 
   -0.32856E+08         0.55328E+06         0.00000E+00
    0.55328E+06        -0.50060E+08         0.00000E+00
    0.00000E+00         0.00000E+00        -0.32633E+08
 
   -0.32914E+08         0.62705E+06         0.00000E+00
    0.62705E+06        -0.50076E+08         0.00000E+00
    0.00000E+00         0.00000E+00        -0.32632E+08
 
   -0.32968E+08         0.70122E+06         0.00000E+00
    0.70122E+06        -0.50094E+08         0.00000E+00
    0.00000E+00         0.00000E+00        -0.32632E+08
 
   -0.33017E+08         0.77587E+06         0.00000E+00
    0.77587E+06        -0.50114E+08         0.00000E+00
    0.00000E+00         0.00000E+00        -0.32632E+08
 
   -0.33064E+08         0.85111E+06         0.00000E+00
    0.85111E+06        -0.50135E+08         0.00000E+00
    0.00000E+00         0.00000E+00        -0.32632E+08
 
   -0.33106E+08         0.92700E+06         0.00000E+00
    0.92700E+06        -0.50157E+08         0.00000E+00
    0.00000E+00         0.00000E+00        -0.32632E+08
 
   -0.33145E+08         0.10036E+07         0.00000E+00
    0.10036E+07        -0.50181E+08         0.00000E+00
    0.00000E+00         0.00000E+00        -0.32632E+08
 
   -0.33181E+08         0.10811E+07         0.00000E+00
    0.10811E+07        -0.50207E+08         0.00000E+00
    0.00000E+00         0.00000E+00        -0.32632E+08
 
   -0.33213E+08         0.11594E+07         0.00000E+00
    0.11594E+07        -0.50233E+08         0.00000E+00
    0.00000E+00         0.00000E+00        -0.32631E+08
 
   -0.33242E+08         0.12386E+07         0.00000E+00
    0.12386E+07        -0.50261E+08         0.00000E+00
    0.00000E+00         0.00000E+00        -0.32631E+08
 
   -0.33268E+08         0.13189E+07         0.00000E+00
    0.13189E+07        -0.50291E+08         0.00000E+00
    0.00000E+00         0.00000E+00        -0.32631E+08
 
   -0.33292E+08         0.14001E+07         0.00000E+00
    0.14001E+07        -0.50321E+08         0.00000E+00
    0.00000E+00         0.00000E+00        -0.32631E+08
 
   -0.33312E+08         0.14823E+07         0.00000E+00
    0.14823E+07        -0.50352E+08         0.00000E+00
    0.00000E+00         0.00000E+00        -0.32631E+08
 
   -0.33330E+08         0.15656E+07         0.00000E+00
    0.15656E+07        -0.50385E+08         0.00000E+00
    0.00000E+00         0.00000E+00        -0.32631E+08
 
   -0.33346E+08         0.16500E+07         0.00000E+00
    0.16500E+07        -0.50418E+08         0.00000E+00
    0.00000E+00         0.00000E+00        -0.32631E+08
 
   -0.33359E+08         0.17355E+07         0.00000E+00
    0.17355E+07        -0.50452E+08         0.00000E+00
    0.00000E+00         0.00000E+00        -0.32631E+08
 
   -0.33369E+08         0.18221E+07         0.00000E+00
    0.18221E+07        -0.50488E+08         0.00000E+00
    0.00000E+00         0.00000E+00        -0.32631E+08
 
   -0.33378E+08         0.19098E+07         0.00000E+00
    0.19098E+07        -0.50524E+08         0.00000E+00
    0.00000E+00         0.00000E+00        -0.32631E+08
 
   -0.33384E+08         0.19987E+07         0.00000E+00
    0.19987E+07        -0.50561E+08         0.00000E+00
    0.00000E+00         0.00000E+00        -0.32630E+08
 
   -0.33389E+08         0.20886E+07         0.00000E+00
    0.20886E+07        -0.50599E+08         0.00000E+00
    0.00000E+00         0.00000E+00        -0.32630E+08
 
   -0.33391E+08         0.21796E+07         0.00000E+00
    0.21796E+07        -0.50637E+08         0.00000E+00
    0.00000E+00         0.00000E+00        -0.32631E+08
 
   -0.33392E+08         0.22715E+07         0.00000E+00
    0.22715E+07        -0.50677E+08         0.00000E+00
    0.00000E+00         0.00000E+00        -0.32631E+08
 
   -0.33390E+08         0.23644E+07         0.00000E+00
    0.23644E+07        -0.50717E+08         0.00000E+00
    0.00000E+00         0.00000E+00        -0.32631E+08
 
   -0.33387E+08         0.24582E+07         0.00000E+00
    0.24582E+07        -0.50758E+08         0.00000E+00
    0.00000E+00         0.00000E+00        -0.32631E+08
 
   -0.33382E+08         0.25534E+07         0.00000E+00
    0.25534E+07        -0.50800E+08         0.00000E+00
    0.00000E+00         0.00000E+00        -0.32631E+08
 
   -0.33375E+08         0.26499E+07         0.00000E+00
    0.26499E+07        -0.50843E+08         0.00000E+00
    0.00000E+00         0.00000E+00        -0.32631E+08
 
   -0.33367E+08         0.27480E+07         0.00000E+00
    0.27480E+07        -0.50888E+08         0.00000E+00
    0.00000E+00         0.00000E+00        -0.32631E+08
 
   -0.33358E+08         0.28467E+07         0.00000E+00
    0.28467E+07        -0.50929E+08         0.00000E+00
    0.00000E+00         0.00000E+00        -0.32631E+08
 
   -0.33350E+08         0.29465E+07         0.00000E+00
    0.29465E+07        -0.50971E+08         0.00000E+00
    0.00000E+00         0.00000E+00        -0.32632E+08
 
   -0.33341E+08         0.30443E+07         0.00000E+00
    0.30443E+07        -0.51013E+08         0.00000E+00
    0.00000E+00         0.00000E+00        -0.32632E+08
 
   -0.33330E+08         0.31385E+07         0.00000E+00
    0.31385E+07        -0.51057E+08         0.00000E+00
    0.00000E+00         0.00000E+00        -0.32632E+08
 
   -0.33312E+08         0.32310E+07         0.00000E+00
    0.32310E+07        -0.51106E+08         0.00000E+00
    0.00000E+00         0.00000E+00        -0.32633E+08
 
   -0.33287E+08         0.33266E+07         0.00000E+00
    0.33266E+07        -0.51178E+08         0.00000E+00
    0.00000E+00         0.00000E+00        -0.32633E+08
 
   -0.33273E+08         0.34188E+07         0.00000E+00
    0.34188E+07        -0.51246E+08         0.00000E+00
    0.00000E+00         0.00000E+00        -0.32656E+08
 
   -0.33269E+08         0.35099E+07         0.00000E+00
    0.35099E+07        -0.51310E+08         0.00000E+00
    0.00000E+00         0.00000E+00        -0.32700E+08
 
   -0.33259E+08         0.36023E+07         0.00000E+00
    0.36023E+07        -0.51376E+08         0.00000E+00
    0.00000E+00         0.00000E+00        -0.32747E+08
 
   -0.33280E+08         0.36865E+07         0.00000E+00
    0.36865E+07        -0.51424E+08         0.00000E+00
    0.00000E+00         0.00000E+00        -0.32838E+08
 
   -0.33311E+08         0.37654E+07         0.00000E+00
    0.37654E+07        -0.51477E+08         0.00000E+00
    0.00000E+00         0.00000E+00        -0.32946E+08
 
   -0.33347E+08         0.38415E+07         0.00000E+00
    0.38415E+07        -0.51543E+08         0.00000E+00
    0.00000E+00         0.00000E+00        -0.33066E+08
 
   -0.33384E+08         0.39093E+07         0.00000E+00
    0.39093E+07        -0.51613E+08         0.00000E+00
    0.00000E+00         0.00000E+00        -0.33183E+08
 
   -0.33428E+08         0.39729E+07         0.00000E+00
    0.39729E+07        -0.51689E+08         0.00000E+00
    0.00000E+00         0.00000E+00        -0.33298E+08
 
   -0.33476E+08         0.40357E+07         0.00000E+00
    0.40357E+07        -0.51762E+08         0.00000E+00
    0.00000E+00         0.00000E+00        -0.33405E+08
 
   -0.33529E+08         0.40997E+07         0.00000E+00
    0.40997E+07        -0.51832E+08         0.00000E+00
    0.00000E+00         0.00000E+00        -0.33507E+08
 
   -0.31982E+08         0.31560E+05         0.00000E+00
    0.31560E+05        -0.50001E+08         0.00000E+00
    0.00000E+00         0.00000E+00        -0.31903E+08
 
   -0.32074E+08         0.93856E+05         0.00000E+00
    0.93856E+05        -0.50003E+08         0.00000E+00
    0.00000E+00         0.00000E+00        -0.31903E+08
 
   -0.32160E+08         0.15602E+06         0.00000E+00
    0.15602E+06        -0.50009E+08         0.00000E+00
    0.00000E+00         0.00000E+00        -0.31903E+08
 
   -0.32241E+08         0.21823E+06         0.00000E+00
    0.21823E+06        -0.50017E+08         0.00000E+00
    0.00000E+00         0.00000E+00        -0.31903E+08
 
   -0.32316E+08         0.28063E+06         0.00000E+00
    0.28063E+06        -0.50027E+08         0.00000E+00
    0.00000E+00         0.00000E+00        -0.31903E+08
 
   -0.32386E+08         0.34334E+06         0.00000E+00
    0.34334E+06        -0.50039E+08         0.00000E+00
    0.00000E+00         0.00000E+00        -0.31903E+08
 
   -0.32451E+08         0.40650E+06         0.00000E+00
    0.40650E+06        -0.50054E+08         0.00000E+00
    0.00000E+00         0.00000E+00        -0.31902E+08
 
   -0.32511E+08         0.47022E+06         0.00000E+00
    0.47022E+06        -0.50071E+08         0.00000E+00
    0.00000E+00         0.00000E+00        -0.31902E+08
 
   -0.32566E+08         0.53462E+06         0.00000E+00
    0.53462E+06        -0.50090E+08         0.00000E+00
    0.00000E+00         0.00000E+00        -0.31902E+08
 
   -0.32617E+08         0.59980E+06         0.00000E+00
    0.59980E+06        -0.50111E+08         0.00000E+00
    0.00000E+00         0.00000E+00        -0.31902E+08
 
   -0.32663E+08         0.66586E+06         0.00000E+00
    0.66586E+06        -0.50134E+08         0.00000E+00
    0.00000E+00         0.00000E+00        -0.31902E+08
 
   -0.32705E+08         0.73287E+06         0.00000E+00
    0.73287E+06        -0.50158E+08         0.00000E+00
    0.00000E+00         0.00000E+00        -0.31902E+08
 
   -0.32744E+08         0.80091E+06         0.00000E+00
    0.80091E+06        -0.50184E+08         0.00000E+00
    0.00000E+00         0.00000E+00        -0.31902E+08
 
   -0.32778E+08         0.87005E+06         0.00000E+00
    0.87005E+06        -0.50212E+08         0.00000E+00
    0.00000E+00         0.00000E+00        -0.31902E+08
 
   -0.32808E+08         0.94035E+06         0.00000E+00
    0.94035E+06        -0.50242E+08         0.00000E+00
    0.00000E+00         0.00000E+00        -0.31902E+08
 
   -0.32835E+08         0.10119E+07         0.00000E+00
    0.10119E+07        -0.50273E+08         0.00000E+00
    0.00000E+00         0.00000E+00        -0.31901E+08
 
   -0.32859E+08         0.10846E+07         0.00000E+00
    0.10846E+07        -0.50305E+08         0.00000E+00
    0.00000E+00         0.00000E+00        -0.31901E+08
 
   -0.32880E+08         0.11587E+07         0.00000E+00
    0.11587E+07        -0.50339E+08         0.00000E+00
    0.00000E+00         0.00000E+00        -0.31901E+08
 
   -0.32897E+08         0.12341E+07         0.00000E+00
    0.12341E+07        -0.50374E+08         0.00000E+00
    0.00000E+00         0.00000E+00        -0.31901E+08
 
   -0.32912E+08         0.13110E+07         0.00000E+00
    0.13110E+07        -0.50410E+08         0.00000E+00
    0.00000E+00         0.00000E+00        -0.31901E+08
 
   -0.32924E+08         0.13891E+07         0.00000E+00
    0.13891E+07        -0.50447E+08         0.00000E+00
    0.00000E+00         0.00000E+00        -0.31901E+08
 
   -0.32933E+08         0.14685E+07         0.00000E+00
    0.14685E+07        -0.50484E+08         0.00000E+00
    0.00000E+00         0.00000E+00        -0.31901E+08
 
   -0.32940E+08         0.15491E+07         0.00000E+00
    0.15491E+07        -0.50524E+08         0.00000E+00
    0.00000E+00         0.00000E+00        -0.31901E+08
 
   -0.32945E+08         0.16309E+07         0.00000E+00
    0.16309E+07        -0.50564E+08         0.00000E+00
    0.00000E+00         0.00000E+00        -0.31901E+08
 
   -0.32947E+08         0.17140E+07         0.00000E+00
    0.17140E+07        -0.50605E+08         0.00000E+00
    0.00000E+00         0.00000E+00        -0.31901E+08
 
   -0.32947E+08         0.17986E+07         0.00000E+00
    0.17986E+07        -0.50647E+08         0.00000E+00
    0.00000E+00         0.00000E+00        -0.31901E+08
 
   -0.32946E+08         0.18845E+07         0.00000E+00
    0.18845E+07        -0.50690E+08         0.00000E+00
    0.00000E+00         0.00000E+00        -0.31901E+08
 
   -0.32942E+08         0.19722E+07         0.00000E+00
    0.19722E+07        -0.50734E+08         0.00000E+00
    0.00000E+00         0.00000E+00        -0.31901E+08
 
   -0.32937E+08         0.20613E+07         0.00000E+00
    0.20613E+07        -0.50778E+08         0.00000E+00
    0.00000E+00         0.00000E+00        -0.31901E+08
 
   -0.32932E+08         0.21519E+07         0.00000E+00
    0.21519E+07        -0.50820E+08         0.00000E+00
    0.00000E+00         0.00000E+00        -0.31902E+08
 
   -0.32926E+08         0.22430E+07         0.00000E+00
    0.22430E+07        -0.50864E+08         0.00000E+00
    0.00000E+00         0.00000E+00        -0.31902E+08
 
   -0.32920E+08         0.23323E+07         0.00000E+00
    0.23323E+07        -0.50908E+08         0.00000E+00
    0.00000E+00         0.00000E+00        -0.31902E+08
 
   -0.32910E+08         0.24199E+07         0.00000E+00
    0.24199E+07        -0.50953E+08         0.00000E+00
    0.00000E+00         0.00000E+00        -0.31902E+08
 
   -0.32896E+08         0.25069E+07         0.00000E+00
    0.25069E+07        -0.51000E+08         0.00000E+00
    0.00000E+00         0.00000E+00        -0.31902E+08
 
   -0.32875E+08         0.25967E+07         0.00000E+00
    0.25967E+07        -0.51067E+08         0.00000E+00
    0.00000E+00         0.00000E+00        -0.31903E+08
 
   -0.32855E+08         0.26857E+07         0.00000E+00
    0.26857E+07        -0.51134E+08         0.00000E+00
    0.00000E+00         0.00000E+00        -0.31912E+08
 
   -0.32850E+08         0.27745E+07         0.00000E+00
    0.27745E+07        -0.51194E+08         0.00000E+00
    0.00000E+00         0.00000E+00        -0.31951E+08
 
   -0.32838E+08         0.28663E+07         0.00000E+00
    0.28663E+07        -0.51253E+08         0.00000E+00
    0.00000E+00         0.00000E+00        -0.31993E+08
 
   -0.32825E+08         0.29597E+07         0.00000E+00
    0.29597E+07        -0.51309E+08         0.00000E+00
    0.00000E+00         0.00000E+00        -0.32044E+08
 
   -0.32840E+08         0.30470E+07         0.00000E+00
    0.30470E+07        -0.51348E+08         0.00000E+00
    0.00000E+00         0.00000E+00        -0.32140E+08
 
   -0.32857E+08         0.31324E+07         0.00000E+00
    0.31324E+07        -0.51396E+08         0.00000E+00
    0.00000E+00         0.00000E+00        -0.32246E+08
 
   -0.32878E+08         0.32149E+07         0.00000E+00
    0.32149E+07        -0.51453E+08         0.00000E+00
    0.00000E+00         0.00000E+00        -0.32361E+08
 
   -0.32900E+08         0.32904E+07         0.00000E+00
    0.32904E+07        -0.51514E+08         0.00000E+00
    0.00000E+00         0.00000E+00        -0.32475E+08
 
   -0.32928E+08         0.33612E+07         0.00000E+00
    0.33612E+07        -0.51580E+08         0.00000E+00
    0.00000E+00         0.00000E+00        -0.32587E+08
 
   -0.32961E+08         0.34306E+07         0.00000E+00
    0.34306E+07        -0.51647E+08         0.00000E+00
    0.00000E+00         0.00000E+00        -0.32695E+08
 
   -0.33000E+08         0.34994E+07         0.00000E+00
    0.34994E+07        -0.51712E+08         0.00000E+00
    0.00000E+00         0.00000E+00        -0.32798E+08
 
   -0.33043E+08         0.35692E+07         0.00000E+00
    0.35692E+07        -0.51776E+08         0.00000E+00
    0.00000E+00         0.00000E+00        -0.32898E+08
 
   -0.33089E+08         0.36395E+07         0.00000E+00
    0.36395E+07        -0.51839E+08         0.00000E+00
    0.00000E+00         0.00000E+00        -0.32993E+08
 
   -0.33138E+08         0.37098E+07         0.00000E+00
    0.37098E+07        -0.51900E+08         0.00000E+00
    0.00000E+00         0.00000E+00        -0.33086E+08
 
   -0.33191E+08         0.37799E+07         0.00000E+00
    0.37799E+07        -0.51960E+08         0.00000E+00
    0.00000E+00         0.00000E+00        -0.33175E+08
 
   -0.31705E+08         0.23954E+05         0.00000E+00
    0.23954E+05        -0.50001E+08         0.00000E+00
    0.00000E+00         0.00000E+00        -0.31157E+08
 
   -0.31797E+08         0.72151E+05         0.00000E+00
    0.72151E+05        -0.50004E+08         0.00000E+00
    0.00000E+00         0.00000E+00        -0.31157E+08
 
   -0.31882E+08         0.12077E+06         0.00000E+00
    0.12077E+06        -0.50010E+08         0.00000E+00
    0.00000E+00         0.00000E+00        -0.31157E+08
 
   -0.31961E+08         0.16987E+06         0.00000E+00
    0.16987E+06        -0.50019E+08         0.00000E+00
    0.00000E+00         0.00000E+00        -0.31157E+08
 
   -0.32034E+08         0.21956E+06         0.00000E+00
    0.21956E+06        -0.50031E+08         0.00000E+00
    0.00000E+00         0.00000E+00        -0.31157E+08
 
   -0.32101E+08         0.27001E+06         0.00000E+00
    0.27001E+06        -0.50045E+08         0.00000E+00
    0.00000E+00         0.00000E+00        -0.31157E+08
 
   -0.32162E+08         0.32137E+06         0.00000E+00
    0.32137E+06        -0.50062E+08         0.00000E+00
    0.00000E+00         0.00000E+00        -0.31157E+08
 
   -0.32218E+08         0.37377E+06         0.00000E+00
    0.37377E+06        -0.50081E+08         0.00000E+00
    0.00000E+00         0.00000E+00        -0.31157E+08
 
   -0.32268E+08         0.42737E+06         0.00000E+00
    0.42737E+06        -0.50103E+08         0.00000E+00
    0.00000E+00         0.00000E+00        -0.31156E+08
 
   -0.32314E+08         0.48230E+06         0.00000E+00
    0.48230E+06        -0.50127E+08         0.00000E+00
    0.00000E+00         0.00000E+00        -0.31156E+08
 
   -0.32354E+08         0.53866E+06         0.00000E+00
    0.53866E+06        -0.50153E+08         0.00000E+00
    0.00000E+00         0.00000E+00        -0.31156E+08
 
   -0.32390E+08         0.59655E+06         0.00000E+00
    0.59655E+06        -0.50182E+08         0.00000E+00
    0.00000E+00         0.00000E+00        -0.31156E+08
 
   -0.32421E+08         0.65603E+06         0.00000E+00
    0.65603E+06        -0.50212E+08         0.00000E+00
    0.00000E+00         0.00000E+00        -0.31156E+08
 
   -0.32449E+08         0.71710E+06         0.00000E+00
    0.71710E+06        -0.50243E+08         0.00000E+00
    0.00000E+00         0.00000E+00        -0.31156E+08
 
   -0.32472E+08         0.77974E+06         0.00000E+00
    0.77974E+06        -0.50276E+08         0.00000E+00
    0.00000E+00         0.00000E+00        -0.31156E+08
 
   -0.32492E+08         0.84392E+06         0.00000E+00
    0.84392E+06        -0.50311E+08         0.00000E+00
    0.00000E+00         0.00000E+00        -0.31156E+08
 
   -0.32509E+08         0.90972E+06         0.00000E+00
    0.90972E+06        -0.50347E+08         0.00000E+00
    0.00000E+00         0.00000E+00        -0.31156E+08
 
   -0.32522E+08         0.97722E+06         0.00000E+00
    0.97722E+06        -0.50385E+08         0.00000E+00
    0.00000E+00         0.00000E+00        -0.31156E+08
 
   -0.32532E+08         0.10463E+07         0.00000E+00
    0.10463E+07        -0.50423E+08         0.00000E+00
    0.00000E+00         0.00000E+00        -0.31156E+08
 
   -0.32538E+08         0.11171E+07         0.00000E+00
    0.11171E+07        -0.50464E+08         0.00000E+00
    0.00000E+00         0.00000E+00        -0.31156E+08
 
   -0.32542E+08         0.11899E+07         0.00000E+00
    0.11899E+07        -0.50505E+08         0.00000E+00
    0.00000E+00         0.00000E+00        -0.31156E+08
 
   -0.32544E+08         0.12648E+07         0.00000E+00
    0.12648E+07        -0.50549E+08         0.00000E+00
    0.00000E+00         0.00000E+00        -0.31156E+08
 
   -0.32544E+08         0.13416E+07         0.00000E+00
    0.13416E+07        -0.50591E+08         0.00000E+00
    0.00000E+00         0.00000E+00        -0.31156E+08
 
   -0.32542E+08         0.14207E+07         0.00000E+00
    0.14207E+07        -0.50634E+08         0.00000E+00
    0.00000E+00         0.00000E+00        -0.31156E+08
 
   -0.32540E+08         0.15004E+07         0.00000E+00
    0.15004E+07        -0.50677E+08         0.00000E+00
    0.00000E+00         0.00000E+00        -0.31156E+08
 
   -0.32536E+08         0.15793E+07         0.00000E+00
    0.15793E+07        -0.50721E+08         0.00000E+00
    0.00000E+00         0.00000E+00        -0.31156E+08
 
   -0.32529E+08         0.16580E+07         0.00000E+00
    0.16580E+07        -0.50766E+08         0.00000E+00
    0.00000E+00         0.00000E+00        -0.31156E+08
 
   -0.32519E+08         0.17368E+07         0.00000E+00
    0.17368E+07        -0.50811E+08         0.00000E+00
    0.00000E+00         0.00000E+00        -0.31156E+08
 
   -0.32503E+08         0.18179E+07         0.00000E+00
    0.18179E+07        -0.50868E+08         0.00000E+00
    0.00000E+00         0.00000E+00        -0.31156E+08
 
   -0.32482E+08         0.19003E+07         0.00000E+00
    0.19003E+07        -0.50931E+08         0.00000E+00
    0.00000E+00         0.00000E+00        -0.31157E+08
 
   -0.32470E+08         0.19833E+07         0.00000E+00
    0.19833E+07        -0.50989E+08         0.00000E+00
    0.00000E+00         0.00000E+00        -0.31179E+08
 
   -0.32460E+08         0.20694E+07         0.00000E+00
    0.20694E+07        -0.51043E+08         0.00000E+00
    0.00000E+00         0.00000E+00        -0.31214E+08
 
   -0.32443E+08         0.21594E+07         0.00000E+00
    0.21594E+07        -0.51097E+08         0.00000E+00
    0.00000E+00         0.00000E+00        -0.31250E+08
 
   -0.32421E+08         0.22525E+07         0.00000E+00
    0.22525E+07        -0.51149E+08         0.00000E+00
    0.00000E+00         0.00000E+00        -0.31294E+08
 
   -0.32423E+08         0.23432E+07         0.00000E+00
    0.23432E+07        -0.51183E+08         0.00000E+00
    0.00000E+00         0.00000E+00        -0.31380E+08
 
   -0.32424E+08         0.24325E+07         0.00000E+00
    0.24325E+07        -0.51220E+08         0.00000E+00
    0.00000E+00         0.00000E+00        -0.31473E+08
 
   -0.32430E+08         0.25215E+07         0.00000E+00
    0.25215E+07        -0.51269E+08         0.00000E+00
    0.00000E+00         0.00000E+00        -0.31579E+08
 
   -0.32434E+08         0.26058E+07         0.00000E+00
    0.26058E+07        -0.51320E+08         0.00000E+00
    0.00000E+00         0.00000E+00        -0.31687E+08
 
   -0.32443E+08         0.26843E+07         0.00000E+00
    0.26843E+07        -0.51374E+08         0.00000E+00
    0.00000E+00         0.00000E+00        -0.31795E+08
 
   -0.32458E+08         0.27599E+07         0.00000E+00
    0.27599E+07        -0.51434E+08         0.00000E+00
    0.00000E+00         0.00000E+00        -0.31903E+08
 
   -0.32478E+08         0.28340E+07         0.00000E+00
    0.28340E+07        -0.51494E+08         0.00000E+00
    0.00000E+00         0.00000E+00        -0.32008E+08
 
   -0.32503E+08         0.29073E+07         0.00000E+00
    0.29073E+07        -0.51554E+08         0.00000E+00
    0.00000E+00         0.00000E+00        -0.32109E+08
 
   -0.32533E+08         0.29807E+07         0.00000E+00
    0.29807E+07        -0.51614E+08         0.00000E+00
    0.00000E+00         0.00000E+00        -0.32208E+08
 
   -0.32565E+08         0.30541E+07         0.00000E+00
    0.30541E+07        -0.51673E+08         0.00000E+00
    0.00000E+00         0.00000E+00        -0.32303E+08
 
   -0.32601E+08         0.31274E+07         0.00000E+00
    0.31274E+07        -0.51730E+08         0.00000E+00
    0.00000E+00         0.00000E+00        -0.32395E+08
 
   -0.32640E+08         0.32008E+07         0.00000E+00
    0.32008E+07        -0.51787E+08         0.00000E+00
    0.00000E+00         0.00000E+00        -0.32485E+08
 
   -0.32682E+08         0.32743E+07         0.00000E+00
    0.32743E+07        -0.51844E+08         0.00000E+00
    0.00000E+00         0.00000E+00        -0.32572E+08
 
   -0.32728E+08         0.33471E+07         0.00000E+00
    0.33471E+07        -0.51900E+08         0.00000E+00
    0.00000E+00         0.00000E+00        -0.32656E+08
 
   -0.32777E+08         0.34209E+07         0.00000E+00
    0.34209E+07        -0.51955E+08         0.00000E+00
    0.00000E+00         0.00000E+00        -0.32738E+08
 
   -0.32829E+08         0.34949E+07         0.00000E+00
    0.34949E+07        -0.52010E+08         0.00000E+00
    0.00000E+00         0.00000E+00        -0.32817E+08
 
   -0.31504E+08         0.15241E+05         0.00000E+00
    0.15241E+05        -0.50001E+08         0.00000E+00
    0.00000E+00         0.00000E+00        -0.30396E+08
 
   -0.31593E+08         0.47832E+05         0.00000E+00
    0.47832E+05        -0.50004E+08         0.00000E+00
    0.00000E+00         0.00000E+00        -0.30396E+08
 
   -0.31676E+08         0.80843E+05         0.00000E+00
    0.80843E+05        -0.50011E+08         0.00000E+00
    0.00000E+00         0.00000E+00        -0.30396E+08
 
   -0.31751E+08         0.11471E+06         0.00000E+00
    0.11471E+06        -0.50021E+08         0.00000E+00
    0.00000E+00         0.00000E+00        -0.30396E+08
 
   -0.31819E+08         0.14973E+06         0.00000E+00
    0.14973E+06        -0.50035E+08         0.00000E+00
    0.00000E+00         0.00000E+00        -0.30396E+08
 
   -0.31880E+08         0.18615E+06         0.00000E+00
    0.18615E+06        -0.50051E+08         0.00000E+00
    0.00000E+00         0.00000E+00        -0.30396E+08
 
   -0.31935E+08         0.22412E+06         0.00000E+00
    0.22412E+06        -0.50071E+08         0.00000E+00
    0.00000E+00         0.00000E+00        -0.30396E+08
 
   -0.31983E+08         0.26380E+06         0.00000E+00
    0.26380E+06        -0.50093E+08         0.00000E+00
    0.00000E+00         0.00000E+00        -0.30396E+08
 
   -0.32026E+08         0.30528E+06         0.00000E+00
    0.30528E+06        -0.50117E+08         0.00000E+00
    0.00000E+00         0.00000E+00        -0.30396E+08
 
   -0.32063E+08         0.34869E+06         0.00000E+00
    0.34869E+06        -0.50144E+08         0.00000E+00
    0.00000E+00         0.00000E+00        -0.30396E+08
 
   -0.32094E+08         0.39415E+06         0.00000E+00
    0.39415E+06        -0.50174E+08         0.00000E+00
    0.00000E+00         0.00000E+00        -0.30396E+08
 
   -0.32120E+08         0.44180E+06         0.00000E+00
    0.44180E+06        -0.50205E+08         0.00000E+00
    0.00000E+00         0.00000E+00        -0.30395E+08
 
   -0.32142E+08         0.49184E+06         0.00000E+00
    0.49184E+06        -0.50239E+08         0.00000E+00
    0.00000E+00         0.00000E+00        -0.30395E+08
 
   -0.32159E+08         0.54451E+06         0.00000E+00
    0.54451E+06        -0.50275E+08         0.00000E+00
    0.00000E+00         0.00000E+00        -0.30395E+08
 
   -0.32172E+08         0.59998E+06         0.00000E+00
    0.59998E+06        -0.50313E+08         0.00000E+00
    0.00000E+00         0.00000E+00        -0.30395E+08
 
   -0.32183E+08         0.65829E+06         0.00000E+00
    0.65829E+06        -0.50350E+08         0.00000E+00
    0.00000E+00         0.00000E+00        -0.30395E+08
 
   -0.32191E+08         0.71859E+06         0.00000E+00
    0.71859E+06        -0.50389E+08         0.00000E+00
    0.00000E+00         0.00000E+00        -0.30395E+08
 
   -0.32196E+08         0.77983E+06         0.00000E+00
    0.77983E+06        -0.50430E+08         0.00000E+00
    0.00000E+00         0.00000E+00        -0.30395E+08
 
   -0.32199E+08         0.84214E+06         0.00000E+00
    0.84214E+06        -0.50472E+08         0.00000E+00
    0.00000E+00         0.00000E+00        -0.30395E+08
 
   -0.32197E+08         0.90572E+06         0.00000E+00
    0.90572E+06        -0.50514E+08         0.00000E+00
    0.00000E+00         0.00000E+00        -0.30395E+08
 
   -0.32192E+08         0.97067E+06         0.00000E+00
    0.97067E+06        -0.50556E+08         0.00000E+00
    0.00000E+00         0.00000E+00        -0.30395E+08
 
   -0.32182E+08         0.10373E+07         0.00000E+00
    0.10373E+07        -0.50600E+08         0.00000E+00
    0.00000E+00         0.00000E+00        -0.30395E+08
 
   -0.32169E+08         0.11064E+07         0.00000E+00
    0.11064E+07        -0.50656E+08         0.00000E+00
    0.00000E+00         0.00000E+00        -0.30395E+08
 
   -0.32150E+08         0.11772E+07         0.00000E+00
    0.11772E+07        -0.50712E+08         0.00000E+00
    0.00000E+00         0.00000E+00        -0.30397E+08
 
   -0.32142E+08         0.12504E+07         0.00000E+00
    0.12504E+07        -0.50762E+08         0.00000E+00
    0.00000E+00         0.00000E+00        -0.30423E+08
 
   -0.32129E+08         0.13279E+07         0.00000E+00
    0.13279E+07        -0.50811E+08         0.00000E+00
    0.00000E+00         0.00000E+00        -0.30451E+08
 
   -0.32109E+08         0.14099E+07         0.00000E+00
    0.14099E+07        -0.50860E+08         0.00000E+00
    0.00000E+00         0.00000E+00        -0.30481E+08
 
   -0.32082E+08         0.14962E+07         0.00000E+00
    0.14962E+07        -0.50908E+08         0.00000E+00
    0.00000E+00         0.00000E+00        -0.30513E+08
 
   -0.32068E+08         0.15841E+07         0.00000E+00
    0.15841E+07        -0.50944E+08         0.00000E+00
    0.00000E+00         0.00000E+00        -0.30574E+08
 
   -0.32057E+08         0.16723E+07         0.00000E+00
    0.16723E+07        -0.50974E+08         0.00000E+00
    0.00000E+00         0.00000E+00        -0.30652E+08
 
   -0.32047E+08         0.17615E+07         0.00000E+00
    0.17615E+07        -0.51012E+08         0.00000E+00
    0.00000E+00         0.00000E+00        -0.30740E+08
 
   -0.32037E+08         0.18498E+07         0.00000E+00
    0.18498E+07        -0.51055E+08         0.00000E+00
    0.00000E+00         0.00000E+00        -0.30835E+08
 
   -0.32028E+08         0.19352E+07         0.00000E+00
    0.19352E+07        -0.51099E+08         0.00000E+00
    0.00000E+00         0.00000E+00        -0.30934E+08
 
   -0.32021E+08         0.20165E+07         0.00000E+00
    0.20165E+07        -0.51146E+08         0.00000E+00
    0.00000E+00         0.00000E+00        -0.31034E+08
 
   -0.32020E+08         0.20954E+07         0.00000E+00
    0.20954E+07        -0.51199E+08         0.00000E+00
    0.00000E+00         0.00000E+00        -0.31136E+08
 
   -0.32024E+08         0.21730E+07         0.00000E+00
    0.21730E+07        -0.51253E+08         0.00000E+00
    0.00000E+00         0.00000E+00        -0.31237E+08
 
   -0.32031E+08         0.22493E+07         0.00000E+00
    0.22493E+07        -0.51307E+08         0.00000E+00
    0.00000E+00         0.00000E+00        -0.31336E+08
 
   -0.32044E+08         0.23253E+07         0.00000E+00
    0.23253E+07        -0.51363E+08         0.00000E+00
    0.00000E+00         0.00000E+00        -0.31434E+08
 
   -0.32061E+08         0.24009E+07         0.00000E+00
    0.24009E+07        -0.51420E+08         0.00000E+00
    0.00000E+00         0.00000E+00        -0.31530E+08
 
   -0.32080E+08         0.24760E+07         0.00000E+00
    0.24760E+07        -0.51475E+08         0.00000E+00
    0.00000E+00         0.00000E+00        -0.31623E+08
 
   -0.32103E+08         0.25511E+07         0.00000E+00
    0.25511E+07        -0.51530E+08         0.00000E+00
    0.00000E+00         0.00000E+00        -0.31714E+08
 
   -0.32129E+08         0.26262E+07         0.00000E+00
    0.26262E+07        -0.51584E+08         0.00000E+00
    0.00000E+00         0.00000E+00        -0.31803E+08
 
   -0.32159E+08         0.27015E+07         0.00000E+00
    0.27015E+07        -0.51638E+08         0.00000E+00
    0.00000E+00         0.00000E+00        -0.31890E+08
 
   -0.32192E+08         0.27764E+07         0.00000E+00
    0.27764E+07        -0.51692E+08         0.00000E+00
    0.00000E+00         0.00000E+00        -0.31974E+08
 
   -0.32228E+08         0.28520E+07         0.00000E+00
    0.28520E+07        -0.51746E+08         0.00000E+00
    0.00000E+00         0.00000E+00        -0.32057E+08
 
   -0.32266E+08         0.29278E+07         0.00000E+00
    0.29278E+07        -0.51799E+08         0.00000E+00
    0.00000E+00         0.00000E+00        -0.32138E+08
 
   -0.32308E+08         0.30036E+07         0.00000E+00
    0.30036E+07        -0.51851E+08         0.00000E+00
    0.00000E+00         0.00000E+00        -0.32217E+08
 
   -0.32353E+08         0.30802E+07         0.00000E+00
    0.30802E+07        -0.51903E+08         0.00000E+00
    0.00000E+00         0.00000E+00        -0.32294E+08
 
   -0.32401E+08         0.31562E+07         0.00000E+00
    0.31562E+07        -0.51955E+08         0.00000E+00
    0.00000E+00         0.00000E+00        -0.32369E+08
 
   -0.32451E+08         0.32321E+07         0.00000E+00
    0.32321E+07        -0.52006E+08         0.00000E+00
    0.00000E+00         0.00000E+00        -0.32442E+08
 
   -0.31390E+08         0.69835E+04         0.00000E+00
    0.69835E+04        -0.50000E+08         0.00000E+00
    0.00000E+00         0.00000E+00        -0.29621E+08
 
   -0.31477E+08         0.18684E+05         0.00000E+00
    0.18684E+05        -0.50005E+08         0.00000E+00
    0.00000E+00         0.00000E+00        -0.29621E+08
 
   -0.31553E+08         0.32445E+05         0.00000E+00
    0.32445E+05        -0.50014E+08         0.00000E+00
    0.00000E+00         0.00000E+00        -0.29621E+08
 
   -0.31620E+08         0.48537E+05         0.00000E+00
    0.48537E+05        -0.50027E+08         0.00000E+00
    0.00000E+00         0.00000E+00        -0.29621E+08
 
   -0.31679E+08         0.67134E+05         0.00000E+00
    0.67134E+05        -0.50044E+08         0.00000E+00
    0.00000E+00         0.00000E+00        -0.29621E+08
 
   -0.31730E+08         0.88357E+05         0.00000E+00
    0.88357E+05        -0.50064E+08         0.00000E+00
    0.00000E+00         0.00000E+00        -0.29621E+08
 
   -0.31774E+08         0.11228E+06         0.00000E+00
    0.11228E+06        -0.50087E+08         0.00000E+00
    0.00000E+00         0.00000E+00        -0.29621E+08
 
   -0.31812E+08         0.13896E+06         0.00000E+00
    0.13896E+06        -0.50112E+08         0.00000E+00
    0.00000E+00         0.00000E+00        -0.29621E+08
 
   -0.31843E+08         0.16841E+06         0.00000E+00
    0.16841E+06        -0.50140E+08         0.00000E+00
    0.00000E+00         0.00000E+00        -0.29620E+08
 
   -0.31868E+08         0.20060E+06         0.00000E+00
    0.20060E+06        -0.50171E+08         0.00000E+00
    0.00000E+00         0.00000E+00        -0.29620E+08
 
   -0.31887E+08         0.23550E+06         0.00000E+00
    0.23550E+06        -0.50202E+08         0.00000E+00
    0.00000E+00         0.00000E+00        -0.29620E+08
 
   -0.31901E+08         0.27304E+06         0.00000E+00
    0.27304E+06        -0.50236E+08         0.00000E+00
    0.00000E+00         0.00000E+00        -0.29620E+08
 
   -0.31909E+08         0.31315E+06         0.00000E+00
    0.31315E+06        -0.50270E+08         0.00000E+00
    0.00000E+00         0.00000E+00        -0.29620E+08
 
   -0.31913E+08         0.35578E+06         0.00000E+00
    0.35578E+06        -0.50306E+08         0.00000E+00
    0.00000E+00         0.00000E+00        -0.29620E+08
 
   -0.31911E+08         0.40105E+06         0.00000E+00
    0.40105E+06        -0.50345E+08         0.00000E+00
    0.00000E+00         0.00000E+00        -0.29620E+08
 
   -0.31904E+08         0.44896E+06         0.00000E+00
    0.44896E+06        -0.50391E+08         0.00000E+00
    0.00000E+00         0.00000E+00        -0.29620E+08
 
   -0.31900E+08         0.50000E+06         0.00000E+00
    0.50000E+06        -0.50434E+08         0.00000E+00
    0.00000E+00         0.00000E+00        -0.29635E+08
 
   -0.31893E+08         0.55525E+06         0.00000E+00
    0.55525E+06        -0.50476E+08         0.00000E+00
    0.00000E+00         0.00000E+00        -0.29654E+08
 
   -0.31881E+08         0.61499E+06         0.00000E+00
    0.61499E+06        -0.50519E+08         0.00000E+00
    0.00000E+00         0.00000E+00        -0.29674E+08
 
   -0.31864E+08         0.67925E+06         0.00000E+00
    0.67925E+06        -0.50561E+08         0.00000E+00
    0.00000E+00         0.00000E+00        -0.29696E+08
 
   -0.31840E+08         0.74813E+06         0.00000E+00
    0.74813E+06        -0.50603E+08         0.00000E+00
    0.00000E+00         0.00000E+00        -0.29720E+08
 
   -0.31812E+08         0.82161E+06         0.00000E+00
    0.82161E+06        -0.50643E+08         0.00000E+00
    0.00000E+00         0.00000E+00        -0.29749E+08
 
   -0.31795E+08         0.89781E+06         0.00000E+00
    0.89781E+06        -0.50672E+08         0.00000E+00
    0.00000E+00         0.00000E+00        -0.29807E+08
 
   -0.31774E+08         0.97606E+06         0.00000E+00
    0.97606E+06        -0.50700E+08         0.00000E+00
    0.00000E+00         0.00000E+00        -0.29871E+08
 
   -0.31755E+08         0.10567E+07         0.00000E+00
    0.10567E+07        -0.50736E+08         0.00000E+00
    0.00000E+00         0.00000E+00        -0.29948E+08
 
   -0.31734E+08         0.11378E+07         0.00000E+00
    0.11378E+07        -0.50773E+08         0.00000E+00
    0.00000E+00         0.00000E+00        -0.30028E+08
 
   -0.31711E+08         0.12185E+07         0.00000E+00
    0.12185E+07        -0.50811E+08         0.00000E+00
    0.00000E+00         0.00000E+00        -0.30113E+08
 
   -0.31688E+08         0.12975E+07         0.00000E+00
    0.12975E+07        -0.50851E+08         0.00000E+00
    0.00000E+00         0.00000E+00        -0.30201E+08
 
   -0.31670E+08         0.13750E+07         0.00000E+00
    0.13750E+07        -0.50895E+08         0.00000E+00
    0.00000E+00         0.00000E+00        -0.30292E+08
 
   -0.31655E+08         0.14522E+07         0.00000E+00
    0.14522E+07        -0.50943E+08         0.00000E+00
    0.00000E+00         0.00000E+00        -0.30386E+08
 
   -0.31644E+08         0.15287E+07         0.00000E+00
    0.15287E+07        -0.50991E+08         0.00000E+00
    0.00000E+00         0.00000E+00        -0.30480E+08
 
   -0.31637E+08         0.16050E+07         0.00000E+00
    0.16050E+07        -0.51041E+08         0.00000E+00
    0.00000E+00         0.00000E+00        -0.30574E+08
 
   -0.31633E+08         0.16811E+07         0.00000E+00
    0.16811E+07        -0.51093E+08         0.00000E+00
    0.00000E+00         0.00000E+00        -0.30669E+08
 
   -0.31633E+08         0.17566E+07         0.00000E+00
    0.17566E+07        -0.51146E+08         0.00000E+00
    0.00000E+00         0.00000E+00        -0.30764E+08
 
   -0.31636E+08         0.18317E+07         0.00000E+00
    0.18317E+07        -0.51199E+08         0.00000E+00
    0.00000E+00         0.00000E+00        -0.30856E+08
 
   -0.31642E+08         0.19068E+07         0.00000E+00
    0.19068E+07        -0.51251E+08         0.00000E+00
    0.00000E+00         0.00000E+00        -0.30948E+08
 
   -0.31652E+08         0.19821E+07         0.00000E+00
    0.19821E+07        -0.51304E+08         0.00000E+00
    0.00000E+00         0.00000E+00        -0.31038E+08
 
   -0.31665E+08         0.20576E+07         0.00000E+00
    0.20576E+07        -0.51356E+08         0.00000E+00
    0.00000E+00         0.00000E+00        -0.31126E+08
 
   -0.31681E+08         0.21333E+07         0.00000E+00
    0.21333E+07        -0.51409E+08         0.00000E+00
    0.00000E+00         0.00000E+00        -0.31212E+08
 
   -0.31701E+08         0.22093E+07         0.00000E+00
    0.22093E+07        -0.51461E+08         0.00000E+00
    0.00000E+00         0.00000E+00        -0.31297E+08
 
   -0.31723E+08         0.22858E+07         0.00000E+00
    0.22858E+07        -0.51513E+08         0.00000E+00
    0.00000E+00         0.00000E+00        -0.31381E+08
 
   -0.31749E+08         0.23625E+07         0.00000E+00
    0.23625E+07        -0.51565E+08         0.00000E+00
    0.00000E+00         0.00000E+00        -0.31463E+08
 
   -0.31777E+08         0.24394E+07         0.00000E+00
    0.24394E+07        -0.51616E+08         0.00000E+00
    0.00000E+00         0.00000E+00        -0.31543E+08
 
   -0.31809E+08         0.25169E+07         0.00000E+00
    0.25169E+07        -0.51667E+08         0.00000E+00
    0.00000E+00         0.00000E+00        -0.31621E+08
 
   -0.31844E+08         0.25940E+07         0.00000E+00
    0.25940E+07        -0.51718E+08         0.00000E+00
    0.00000E+00         0.00000E+00        -0.31697E+08
 
   -0.31882E+08         0.26712E+07         0.00000E+00
    0.26712E+07        -0.51768E+08         0.00000E+00
    0.00000E+00         0.00000E+00        -0.31772E+08
 
   -0.31923E+08         0.27494E+07         0.00000E+00
    0.27494E+07        -0.51818E+08         0.00000E+00
    0.00000E+00         0.00000E+00        -0.31844E+08
 
   -0.31965E+08         0.28279E+07         0.00000E+00
    0.28279E+07        -0.51867E+08         0.00000E+00
    0.00000E+00         0.00000E+00        -0.31915E+08
 
   -0.32011E+08         0.29071E+07         0.00000E+00
    0.29071E+07        -0.51915E+08         0.00000E+00
    0.00000E+00         0.00000E+00        -0.31985E+08
 
   -0.32060E+08         0.29869E+07         0.00000E+00
    0.29869E+07        -0.51963E+08         0.00000E+00
    0.00000E+00         0.00000E+00        -0.32053E+08
 
   -0.31394E+08        -0.83851E+04         0.00000E+00
   -0.83851E+04        -0.49983E+08         0.00000E+00
    0.00000E+00         0.00000E+00        -0.28888E+08
 
   -0.31467E+08        -0.21283E+05         0.00000E+00
   -0.21283E+05        -0.49992E+08         0.00000E+00
    0.00000E+00         0.00000E+00        -0.28875E+08
 
   -0.31528E+08        -0.29929E+05         0.00000E+00
   -0.29929E+05        -0.50006E+08         0.00000E+00
    0.00000E+00         0.00000E+00        -0.28866E+08
 
   -0.31579E+08        -0.34189E+05         0.00000E+00
   -0.34189E+05        -0.50024E+08         0.00000E+00
    0.00000E+00         0.00000E+00        -0.28861E+08
 
   -0.31620E+08        -0.33961E+05         0.00000E+00
   -0.33961E+05        -0.50045E+08         0.00000E+00
    0.00000E+00         0.00000E+00        -0.28859E+08
 
   -0.31654E+08        -0.29172E+05         0.00000E+00
   -0.29172E+05        -0.50068E+08         0.00000E+00
    0.00000E+00         0.00000E+00        -0.28860E+08
 
   -0.31680E+08        -0.19775E+05         0.00000E+00
   -0.19775E+05        -0.50094E+08         0.00000E+00
    0.00000E+00         0.00000E+00        -0.28864E+08
 
   -0.31699E+08        -0.57455E+04         0.00000E+00
   -0.57455E+04        -0.50121E+08         0.00000E+00
    0.00000E+00         0.00000E+00        -0.28869E+08
 
   -0.31711E+08         0.12947E+05         0.00000E+00
    0.12947E+05        -0.50150E+08         0.00000E+00
    0.00000E+00         0.00000E+00        -0.28876E+08
 
   -0.31717E+08         0.36333E+05         0.00000E+00
    0.36333E+05        -0.50180E+08         0.00000E+00
    0.00000E+00         0.00000E+00        -0.28886E+08
 
   -0.31718E+08         0.64471E+05         0.00000E+00
    0.64471E+05        -0.50211E+08         0.00000E+00
    0.00000E+00         0.00000E+00        -0.28897E+08
 
   -0.31712E+08         0.97437E+05         0.00000E+00
    0.97437E+05        -0.50243E+08         0.00000E+00
    0.00000E+00         0.00000E+00        -0.28909E+08
 
   -0.31701E+08         0.13534E+06         0.00000E+00
    0.13534E+06        -0.50275E+08         0.00000E+00
    0.00000E+00         0.00000E+00        -0.28924E+08
 
   -0.31683E+08         0.17837E+06         0.00000E+00
    0.17837E+06        -0.50308E+08         0.00000E+00
    0.00000E+00         0.00000E+00        -0.28941E+08
 
   -0.31662E+08         0.22641E+06         0.00000E+00
    0.22641E+06        -0.50338E+08         0.00000E+00
    0.00000E+00         0.00000E+00        -0.28967E+08
 
   -0.31644E+08         0.27862E+06         0.00000E+00
    0.27862E+06        -0.50362E+08         0.00000E+00
    0.00000E+00         0.00000E+00        -0.29010E+08
 
   -0.31623E+08         0.33448E+06         0.00000E+00
    0.33448E+06        -0.50391E+08         0.00000E+00
    0.00000E+00         0.00000E+00        -0.29062E+08
 
   -0.31598E+08         0.39346E+06         0.00000E+00
    0.39346E+06        -0.50421E+08         0.00000E+00
    0.00000E+00         0.00000E+00        -0.29120E+08
 
   -0.31570E+08         0.45510E+06         0.00000E+00
    0.45510E+06        -0.50452E+08         0.00000E+00
    0.00000E+00         0.00000E+00        -0.29182E+08
 
   -0.31539E+08         0.51898E+06         0.00000E+00
    0.51898E+06        -0.50483E+08         0.00000E+00
    0.00000E+00         0.00000E+00        -0.29248E+08
 
   -0.31506E+08         0.58434E+06         0.00000E+00
    0.58434E+06        -0.50516E+08         0.00000E+00
    0.00000E+00         0.00000E+00        -0.29319E+08
 
   -0.31473E+08         0.65008E+06         0.00000E+00
    0.65008E+06        -0.50550E+08         0.00000E+00
    0.00000E+00         0.00000E+00        -0.29394E+08
 
   -0.31442E+08         0.71675E+06         0.00000E+00
    0.71675E+06        -0.50589E+08         0.00000E+00
    0.00000E+00         0.00000E+00        -0.29473E+08
 
   -0.31413E+08         0.78477E+06         0.00000E+00
    0.78477E+06        -0.50630E+08         0.00000E+00
    0.00000E+00         0.00000E+00        -0.29555E+08
 
   -0.31385E+08         0.85378E+06         0.00000E+00
    0.85378E+06        -0.50672E+08         0.00000E+00
    0.00000E+00         0.00000E+00        -0.29639E+08
 
   -0.31360E+08         0.92404E+06         0.00000E+00
    0.92404E+06        -0.50716E+08         0.00000E+00
    0.00000E+00         0.00000E+00        -0.29726E+08
 
   -0.31337E+08         0.99478E+06         0.00000E+00
    0.99478E+06        -0.50762E+08         0.00000E+00
    0.00000E+00         0.00000E+00        -0.29815E+08
 
   -0.31317E+08         0.10657E+07         0.00000E+00
    0.10657E+07        -0.50810E+08         0.00000E+00
    0.00000E+00         0.00000E+00        -0.29906E+08
 
   -0.31300E+08         0.11367E+07         0.00000E+00
    0.11367E+07        -0.50859E+08         0.00000E+00
    0.00000E+00         0.00000E+00        -0.29997E+08
 
   -0.31285E+08         0.12081E+07         0.00000E+00
    0.12081E+07        -0.50908E+08         0.00000E+00
    0.00000E+00         0.00000E+00        -0.30087E+08
 
   -0.31273E+08         0.12801E+07         0.00000E+00
    0.12801E+07        -0.50957E+08         0.00000E+00
    0.00000E+00         0.00000E+00        -0.30178E+08
 
   -0.31265E+08         0.13525E+07         0.00000E+00
    0.13525E+07        -0.51008E+08         0.00000E+00
    0.00000E+00         0.00000E+00        -0.30268E+08
 
   -0.31260E+08         0.14256E+07         0.00000E+00
    0.14256E+07        -0.51058E+08         0.00000E+00
    0.00000E+00         0.00000E+00        -0.30357E+08
 
   -0.31258E+08         0.14995E+07         0.00000E+00
    0.14995E+07        -0.51108E+08         0.00000E+00
    0.00000E+00         0.00000E+00        -0.30445E+08
 
   -0.31260E+08         0.15740E+07         0.00000E+00
    0.15740E+07        -0.51159E+08         0.00000E+00
    0.00000E+00         0.00000E+00        -0.30532E+08
 
   -0.31265E+08         0.16492E+07         0.00000E+00
    0.16492E+07        -0.51210E+08         0.00000E+00
    0.00000E+00         0.00000E+00        -0.30618E+08
 
   -0.31273E+08         0.17250E+07         0.00000E+00
    0.17250E+07        -0.51261E+08         0.00000E+00
    0.00000E+00         0.00000E+00        -0.30703E+08
 
   -0.31284E+08         0.18013E+07         0.00000E+00
    0.18013E+07        -0.51311E+08         0.00000E+00
    0.00000E+00         0.00000E+00        -0.30786E+08
 
   -0.31298E+08         0.18781E+07         0.00000E+00
    0.18781E+07        -0.51361E+08         0.00000E+00
    0.00000E+00         0.00000E+00        -0.30868E+08
 
   -0.31316E+08         0.19556E+07         0.00000E+00
    0.19556E+07        -0.51411E+08         0.00000E+00
    0.00000E+00         0.00000E+00        -0.30948E+08
 
   -0.31337E+08         0.20330E+07         0.00000E+00
    0.20330E+07        -0.51461E+08         0.00000E+00
    0.00000E+00         0.00000E+00        -0.31026E+08
 
   -0.31361E+08         0.21110E+07         0.00000E+00
    0.21110E+07        -0.51511E+08         0.00000E+00
    0.00000E+00         0.00000E+00        -0.31102E+08
 
   -0.31388E+08         0.21898E+07         0.00000E+00
    0.21898E+07        -0.51559E+08         0.00000E+00
    0.00000E+00         0.00000E+00        -0.31177E+08
 
   -0.31418E+08         0.22690E+07         0.00000E+00
    0.22690E+07        -0.51608E+08         0.00000E+00
    0.00000E+00         0.00000E+00        -0.31250E+08
 
   -0.31450E+08         0.23488E+07         0.00000E+00
    0.23488E+07        -0.51656E+08         0.00000E+00
    0.00000E+00         0.00000E+00        -0.31321E+08
 
   -0.31486E+08         0.24289E+07         0.00000E+00
    0.24289E+07        -0.51703E+08         0.00000E+00
    0.00000E+00         0.00000E+00        -0.31391E+08
 
   -0.31524E+08         0.25093E+07         0.00000E+00
    0.25093E+07        -0.51750E+08         0.00000E+00
    0.00000E+00         0.00000E+00        -0.31458E+08
 
   -0.31567E+08         0.25894E+07         0.00000E+00
    0.25894E+07        -0.51798E+08         0.00000E+00
    0.00000E+00         0.00000E+00        -0.31524E+08
 
   -0.31612E+08         0.26696E+07         0.00000E+00
    0.26696E+07        -0.51845E+08         0.00000E+00
    0.00000E+00         0.00000E+00        -0.31588E+08
 
   -0.31659E+08         0.27501E+07         0.00000E+00
    0.27501E+07        -0.51891E+08         0.00000E+00
    0.00000E+00         0.00000E+00        -0.31651E+08
 
   -0.31541E+08        -0.41114E+05         0.00000E+00
   -0.41114E+05        -0.50001E+08         0.00000E+00
    0.00000E+00         0.00000E+00        -0.28201E+08
 
   -0.31572E+08        -0.75987E+05         0.00000E+00
   -0.75987E+05        -0.50006E+08         0.00000E+00
    0.00000E+00         0.00000E+00        -0.28186E+08
 
   -0.31597E+08        -0.10082E+06         0.00000E+00
   -0.10082E+06        -0.50015E+08         0.00000E+00
    0.00000E+00         0.00000E+00        -0.28179E+08
 
   -0.31615E+08        -0.11714E+06         0.00000E+00
   -0.11714E+06        -0.50026E+08         0.00000E+00
    0.00000E+00         0.00000E+00        -0.28179E+08
 
   -0.31627E+08        -0.12598E+06         0.00000E+00
   -0.12598E+06        -0.50039E+08         0.00000E+00
    0.00000E+00         0.00000E+00        -0.28186E+08
 
   -0.31633E+08        -0.12809E+06         0.00000E+00
   -0.12809E+06        -0.50054E+08         0.00000E+00
    0.00000E+00         0.00000E+00        -0.28198E+08
 
   -0.31632E+08        -0.12401E+06         0.00000E+00
   -0.12401E+06        -0.50071E+08         0.00000E+00
    0.00000E+00         0.00000E+00        -0.28217E+08
 
   -0.31625E+08        -0.11412E+06         0.00000E+00
   -0.11412E+06        -0.50089E+08         0.00000E+00
    0.00000E+00         0.00000E+00        -0.28241E+08
 
   -0.31612E+08        -0.98763E+05         0.00000E+00
   -0.98763E+05        -0.50107E+08         0.00000E+00
    0.00000E+00         0.00000E+00        -0.28269E+08
 
   -0.31594E+08        -0.78203E+05         0.00000E+00
   -0.78203E+05        -0.50127E+08         0.00000E+00
    0.00000E+00         0.00000E+00        -0.28303E+08
 
   -0.31571E+08        -0.52731E+05         0.00000E+00
   -0.52731E+05        -0.50147E+08         0.00000E+00
    0.00000E+00         0.00000E+00        -0.28341E+08
 
   -0.31543E+08        -0.22679E+05         0.00000E+00
   -0.22679E+05        -0.50169E+08         0.00000E+00
    0.00000E+00         0.00000E+00        -0.28384E+08
 
   -0.31511E+08         0.11510E+05         0.00000E+00
    0.11510E+05        -0.50192E+08         0.00000E+00
    0.00000E+00         0.00000E+00        -0.28432E+08
 
   -0.31476E+08         0.49112E+05         0.00000E+00
    0.49112E+05        -0.50217E+08         0.00000E+00
    0.00000E+00         0.00000E+00        -0.28485E+08
 
   -0.31439E+08         0.89476E+05         0.00000E+00
    0.89476E+05        -0.50243E+08         0.00000E+00
    0.00000E+00         0.00000E+00        -0.28542E+08
 
   -0.31401E+08         0.13292E+06         0.00000E+00
    0.13292E+06        -0.50273E+08         0.00000E+00
    0.00000E+00         0.00000E+00        -0.28603E+08
 
   -0.31362E+08         0.17979E+06         0.00000E+00
    0.17979E+06        -0.50304E+08         0.00000E+00
    0.00000E+00         0.00000E+00        -0.28668E+08
 
   -0.31322E+08         0.22991E+06         0.00000E+00
    0.22991E+06        -0.50337E+08         0.00000E+00
    0.00000E+00         0.00000E+00        -0.28737E+08
 
   -0.31282E+08         0.28266E+06         0.00000E+00
    0.28266E+06        -0.50372E+08         0.00000E+00
    0.00000E+00         0.00000E+00        -0.28811E+08
 
   -0.31242E+08         0.33739E+06         0.00000E+00
    0.33739E+06        -0.50409E+08         0.00000E+00
    0.00000E+00         0.00000E+00        -0.28888E+08
 
   -0.31202E+08         0.39367E+06         0.00000E+00
    0.39367E+06        -0.50448E+08         0.00000E+00
    0.00000E+00         0.00000E+00        -0.28968E+08
 
   -0.31163E+08         0.45141E+06         0.00000E+00
    0.45141E+06        -0.50488E+08         0.00000E+00
    0.00000E+00         0.00000E+00        -0.29050E+08
 
   -0.31126E+08         0.51050E+06         0.00000E+00
    0.51050E+06        -0.50530E+08         0.00000E+00
    0.00000E+00         0.00000E+00        -0.29135E+08
 
   -0.31090E+08         0.57110E+06         0.00000E+00
    0.57110E+06        -0.50572E+08         0.00000E+00
    0.00000E+00         0.00000E+00        -0.29220E+08
 
   -0.31057E+08         0.63319E+06         0.00000E+00
    0.63319E+06        -0.50616E+08         0.00000E+00
    0.00000E+00         0.00000E+00        -0.29308E+08
 
   -0.31026E+08         0.69650E+06         0.00000E+00
    0.69650E+06        -0.50661E+08         0.00000E+00
    0.00000E+00         0.00000E+00        -0.29396E+08
 
   -0.30998E+08         0.76130E+06         0.00000E+00
    0.76130E+06        -0.50707E+08         0.00000E+00
    0.00000E+00         0.00000E+00        -0.29484E+08
 
   -0.30973E+08         0.82768E+06         0.00000E+00
    0.82768E+06        -0.50754E+08         0.00000E+00
    0.00000E+00         0.00000E+00        -0.29573E+08
 
   -0.30951E+08         0.89546E+06         0.00000E+00
    0.89546E+06        -0.50801E+08         0.00000E+00
    0.00000E+00         0.00000E+00        -0.29662E+08
 
   -0.30932E+08         0.96439E+06         0.00000E+00
    0.96439E+06        -0.50849E+08         0.00000E+00
    0.00000E+00         0.00000E+00        -0.29751E+08
 
   -0.30916E+08         0.10345E+07         0.00000E+00
    0.10345E+07        -0.50897E+08         0.00000E+00
    0.00000E+00         0.00000E+00        -0.29839E+08
 
   -0.30903E+08         0.11059E+07         0.00000E+00
    0.11059E+07        -0.50945E+08         0.00000E+00
    0.00000E+00         0.00000E+00        -0.29926E+08
 
   -0.30894E+08         0.11783E+07         0.00000E+00
    0.11783E+07        -0.50994E+08         0.00000E+00
    0.00000E+00         0.00000E+00        -0.30013E+08
 
   -0.30888E+08         0.12518E+07         0.00000E+00
    0.12518E+07        -0.51042E+08         0.00000E+00
    0.00000E+00         0.00000E+00        -0.30098E+08
 
   -0.30885E+08         0.13264E+07         0.00000E+00
    0.13264E+07        -0.51091E+08         0.00000E+00
    0.00000E+00         0.00000E+00        -0.30183E+08
 
   -0.30886E+08         0.14018E+07         0.00000E+00
    0.14018E+07        -0.51140E+08         0.00000E+00
    0.00000E+00         0.00000E+00        -0.30265E+08
 
   -0.30891E+08         0.14780E+07         0.00000E+00
    0.14780E+07        -0.51188E+08         0.00000E+00
    0.00000E+00         0.00000E+00        -0.30346E+08
 
   -0.30899E+08         0.15551E+07         0.00000E+00
    0.15551E+07        -0.51236E+08         0.00000E+00
    0.00000E+00         0.00000E+00        -0.30426E+08
 
   -0.30910E+08         0.16333E+07         0.00000E+00
    0.16333E+07        -0.51284E+08         0.00000E+00
    0.00000E+00         0.00000E+00        -0.30504E+08
 
   -0.30924E+08         0.17121E+07         0.00000E+00
    0.17121E+07        -0.51332E+08         0.00000E+00
    0.00000E+00         0.00000E+00        -0.30580E+08
 
   -0.30942E+08         0.17917E+07         0.00000E+00
    0.17917E+07        -0.51379E+08         0.00000E+00
    0.00000E+00         0.00000E+00        -0.30654E+08
 
   -0.30963E+08         0.18719E+07         0.00000E+00
    0.18719E+07        -0.51426E+08         0.00000E+00
    0.00000E+00         0.00000E+00        -0.30727E+08
 
   -0.30988E+08         0.19526E+07         0.00000E+00
    0.19526E+07        -0.51473E+08         0.00000E+00
    0.00000E+00         0.00000E+00        -0.30797E+08
 
   -0.31016E+08         0.20331E+07         0.00000E+00
    0.20331E+07        -0.51520E+08         0.00000E+00
    0.00000E+00         0.00000E+00        -0.30866E+08
 
   -0.31048E+08         0.21142E+07         0.00000E+00
    0.21142E+07        -0.51566E+08         0.00000E+00
    0.00000E+00         0.00000E+00        -0.30932E+08
 
   -0.31083E+08         0.21957E+07         0.00000E+00
    0.21957E+07        -0.51612E+08         0.00000E+00
    0.00000E+00         0.00000E+00        -0.30997E+08
 
   -0.31119E+08         0.22776E+07         0.00000E+00
    0.22776E+07        -0.51658E+08         0.00000E+00
    0.00000E+00         0.00000E+00        -0.31060E+08
 
   -0.31158E+08         0.23611E+07         0.00000E+00
    0.23611E+07        -0.51701E+08         0.00000E+00
    0.00000E+00         0.00000E+00        -0.31121E+08
 
   -0.31200E+08         0.24453E+07         0.00000E+00
    0.24453E+07        -0.51745E+08         0.00000E+00
    0.00000E+00         0.00000E+00        -0.31181E+08
 
   -0.31245E+08         0.25299E+07         0.00000E+00
    0.25299E+07        -0.51787E+08         0.00000E+00
    0.00000E+00         0.00000E+00        -0.31239E+08
 
   -0.31784E+08        -0.40010E+05         0.00000E+00
   -0.40010E+05        -0.49999E+08         0.00000E+00
    0.00000E+00         0.00000E+00        -0.27580E+08
 
   -0.31762E+08        -0.87840E+05         0.00000E+00
   -0.87840E+05        -0.49998E+08         0.00000E+00
    0.00000E+00         0.00000E+00        -0.27592E+08
 
   -0.31740E+08        -0.12616E+06         0.00000E+00
   -0.12616E+06        -0.49999E+08         0.00000E+00
    0.00000E+00         0.00000E+00        -0.27607E+08
 
   -0.31715E+08        -0.15543E+06         0.00000E+00
   -0.15543E+06        -0.50002E+08         0.00000E+00
    0.00000E+00         0.00000E+00        -0.27626E+08
 
   -0.31688E+08        -0.17632E+06         0.00000E+00
   -0.17632E+06        -0.50007E+08         0.00000E+00
    0.00000E+00         0.00000E+00        -0.27650E+08
 
   -0.31658E+08        -0.18947E+06         0.00000E+00
   -0.18947E+06        -0.50015E+08         0.00000E+00
    0.00000E+00         0.00000E+00        -0.27678E+08
 
   -0.31624E+08        -0.19554E+06         0.00000E+00
   -0.19554E+06        -0.50026E+08         0.00000E+00
    0.00000E+00         0.00000E+00        -0.27711E+08
 
   -0.31587E+08        -0.19512E+06         0.00000E+00
   -0.19512E+06        -0.50039E+08         0.00000E+00
    0.00000E+00         0.00000E+00        -0.27748E+08
 
   -0.31547E+08        -0.18878E+06         0.00000E+00
   -0.18878E+06        -0.50054E+08         0.00000E+00
    0.00000E+00         0.00000E+00        -0.27791E+08
 
   -0.31503E+08        -0.17705E+06         0.00000E+00
   -0.17705E+06        -0.50072E+08         0.00000E+00
    0.00000E+00         0.00000E+00        -0.27838E+08
 
   -0.31457E+08        -0.16046E+06         0.00000E+00
   -0.16046E+06        -0.50092E+08         0.00000E+00
    0.00000E+00         0.00000E+00        -0.27889E+08
 
   -0.31408E+08        -0.13953E+06         0.00000E+00
   -0.13953E+06        -0.50114E+08         0.00000E+00
    0.00000E+00         0.00000E+00        -0.27945E+08
 
   -0.31357E+08        -0.11471E+06         0.00000E+00
   -0.11471E+06        -0.50138E+08         0.00000E+00
    0.00000E+00         0.00000E+00        -0.28006E+08
 
   -0.31305E+08        -0.86318E+05         0.00000E+00
   -0.86318E+05        -0.50164E+08         0.00000E+00
    0.00000E+00         0.00000E+00        -0.28070E+08
 
   -0.31252E+08        -0.54462E+05         0.00000E+00
   -0.54462E+05        -0.50191E+08         0.00000E+00
    0.00000E+00         0.00000E+00        -0.28137E+08
 
   -0.31198E+08        -0.19315E+05         0.00000E+00
   -0.19315E+05        -0.50220E+08         0.00000E+00
    0.00000E+00         0.00000E+00        -0.28208E+08
 
   -0.31144E+08         0.18858E+05         0.00000E+00
    0.18858E+05        -0.50251E+08         0.00000E+00
    0.00000E+00         0.00000E+00        -0.28281E+08
 
   -0.31090E+08         0.59827E+05         0.00000E+00
    0.59827E+05        -0.50284E+08         0.00000E+00
    0.00000E+00         0.00000E+00        -0.28358E+08
 
   -0.31037E+08         0.10353E+06         0.00000E+00
    0.10353E+06        -0.50318E+08         0.00000E+00
    0.00000E+00         0.00000E+00        -0.28436E+08
 
   -0.30986E+08         0.14985E+06         0.00000E+00
    0.14985E+06        -0.50353E+08         0.00000E+00
    0.00000E+00         0.00000E+00        -0.28517E+08
 
   -0.30936E+08         0.19872E+06         0.00000E+00
    0.19872E+06        -0.50390E+08         0.00000E+00
    0.00000E+00         0.00000E+00        -0.28600E+08
 
   -0.30887E+08         0.24999E+06         0.00000E+00
    0.24999E+06        -0.50429E+08         0.00000E+00
    0.00000E+00         0.00000E+00        -0.28685E+08
 
   -0.30840E+08         0.30351E+06         0.00000E+00
    0.30351E+06        -0.50468E+08         0.00000E+00
    0.00000E+00         0.00000E+00        -0.28771E+08
 
   -0.30796E+08         0.35898E+06         0.00000E+00
    0.35898E+06        -0.50509E+08         0.00000E+00
    0.00000E+00         0.00000E+00        -0.28858E+08
 
   -0.30754E+08         0.41637E+06         0.00000E+00
    0.41637E+06        -0.50550E+08         0.00000E+00
    0.00000E+00         0.00000E+00        -0.28945E+08
 
   -0.30715E+08         0.47581E+06         0.00000E+00
    0.47581E+06        -0.50592E+08         0.00000E+00
    0.00000E+00         0.00000E+00        -0.29034E+08
 
   -0.30679E+08         0.53713E+06         0.00000E+00
    0.53713E+06        -0.50635E+08         0.00000E+00
    0.00000E+00         0.00000E+00        -0.29122E+08
 
   -0.30645E+08         0.60028E+06         0.00000E+00
    0.60028E+06        -0.50679E+08         0.00000E+00
    0.00000E+00         0.00000E+00        -0.29211E+08
 
   -0.30615E+08         0.66527E+06         0.00000E+00
    0.66527E+06        -0.50723E+08         0.00000E+00
    0.00000E+00         0.00000E+00        -0.29299E+08
 
   -0.30589E+08         0.73212E+06         0.00000E+00
    0.73212E+06        -0.50768E+08         0.00000E+00
    0.00000E+00         0.00000E+00        -0.29386E+08
 
   -0.30566E+08         0.80068E+06         0.00000E+00
    0.80068E+06        -0.50813E+08         0.00000E+00
    0.00000E+00         0.00000E+00        -0.29473E+08
 
   -0.30547E+08         0.87067E+06         0.00000E+00
    0.87067E+06        -0.50858E+08         0.00000E+00
    0.00000E+00         0.00000E+00        -0.29559E+08
 
   -0.30531E+08         0.94224E+06         0.00000E+00
    0.94224E+06        -0.50904E+08         0.00000E+00
    0.00000E+00         0.00000E+00        -0.29644E+08
 
   -0.30519E+08         0.10153E+07         0.00000E+00
    0.10153E+07        -0.50950E+08         0.00000E+00
    0.00000E+00         0.00000E+00        -0.29728E+08
 
   -0.30510E+08         0.10899E+07         0.00000E+00
    0.10899E+07        -0.50996E+08         0.00000E+00
    0.00000E+00         0.00000E+00        -0.29810E+08
 
   -0.30506E+08         0.11658E+07         0.00000E+00
    0.11658E+07        -0.51042E+08         0.00000E+00
    0.00000E+00         0.00000E+00        -0.29891E+08
 
   -0.30505E+08         0.12430E+07         0.00000E+00
    0.12430E+07        -0.51088E+08         0.00000E+00
    0.00000E+00         0.00000E+00        -0.29970E+08
 
   -0.30508E+08         0.13213E+07         0.00000E+00
    0.13213E+07        -0.51134E+08         0.00000E+00
    0.00000E+00         0.00000E+00        -0.30047E+08
 
   -0.30515E+08         0.14003E+07         0.00000E+00
    0.14003E+07        -0.51180E+08         0.00000E+00
    0.00000E+00         0.00000E+00        -0.30122E+08
 
   -0.30526E+08         0.14800E+07         0.00000E+00
    0.14800E+07        -0.51225E+08         0.00000E+00
    0.00000E+00         0.00000E+00        -0.30195E+08
 
   -0.30541E+08         0.15605E+07         0.00000E+00
    0.15605E+07        -0.51271E+08         0.00000E+00
    0.00000E+00         0.00000E+00        -0.30266E+08
 
   -0.30559E+08         0.16417E+07         0.00000E+00
    0.16417E+07        -0.51316E+08         0.00000E+00
    0.00000E+00         0.00000E+00        -0.30335E+08
 
   -0.30581E+08         0.17238E+07         0.00000E+00
    0.17238E+07        -0.51361E+08         0.00000E+00
    0.00000E+00         0.00000E+00        -0.30402E+08
 
   -0.30605E+08         0.18077E+07         0.00000E+00
    0.18077E+07        -0.51404E+08         0.00000E+00
    0.00000E+00         0.00000E+00        -0.30467E+08
 
   -0.30632E+08         0.18920E+07         0.00000E+00
    0.18920E+07        -0.51447E+08         0.00000E+00
    0.00000E+00         0.00000E+00        -0.30530E+08
 
   -0.30663E+08         0.19773E+07         0.00000E+00
    0.19773E+07        -0.51490E+08         0.00000E+00
    0.00000E+00         0.00000E+00        -0.30591E+08
 
   -0.30697E+08         0.20624E+07         0.00000E+00
    0.20624E+07        -0.51532E+08         0.00000E+00
    0.00000E+00         0.00000E+00        -0.30650E+08
 
   -0.30736E+08         0.21464E+07         0.00000E+00
    0.21464E+07        -0.51575E+08         0.00000E+00
    0.00000E+00         0.00000E+00        -0.30707E+08
 
   -0.30777E+08         0.22314E+07         0.00000E+00
    0.22314E+07        -0.51618E+08         0.00000E+00
    0.00000E+00         0.00000E+00        -0.30763E+08
 
   -0.30821E+08         0.23172E+07         0.00000E+00
    0.23172E+07        -0.51661E+08         0.00000E+00
    0.00000E+00         0.00000E+00        -0.30817E+08
 
   -0.32055E+08        -0.37210E+05         0.00000E+00
   -0.37210E+05        -0.50000E+08         0.00000E+00
    0.00000E+00         0.00000E+00        -0.26968E+08
 
   -0.31994E+08        -0.89900E+05         0.00000E+00
   -0.89900E+05        -0.50000E+08         0.00000E+00
    0.00000E+00         0.00000E+00        -0.27003E+08
 
   -0.31931E+08        -0.13548E+06         0.00000E+00
   -0.13548E+06        -0.50001E+08         0.00000E+00
    0.00000E+00         0.00000E+00        -0.27040E+08
 
   -0.31868E+08        -0.17389E+06         0.00000E+00
   -0.17389E+06        -0.50004E+08         0.00000E+00
    0.00000E+00         0.00000E+00        -0.27080E+08
 
   -0.31803E+08        -0.20514E+06         0.00000E+00
   -0.20514E+06        -0.50008E+08         0.00000E+00
    0.00000E+00         0.00000E+00        -0.27123E+08
 
   -0.31737E+08        -0.22939E+06         0.00000E+00
   -0.22939E+06        -0.50014E+08         0.00000E+00
    0.00000E+00         0.00000E+00        -0.27168E+08
 
   -0.31670E+08        -0.24691E+06         0.00000E+00
   -0.24691E+06        -0.50022E+08         0.00000E+00
    0.00000E+00         0.00000E+00        -0.27217E+08
 
   -0.31602E+08        -0.25804E+06         0.00000E+00
   -0.25804E+06        -0.50032E+08         0.00000E+00
    0.00000E+00         0.00000E+00        -0.27270E+08
 
   -0.31533E+08        -0.26316E+06         0.00000E+00
   -0.26316E+06        -0.50044E+08         0.00000E+00
    0.00000E+00         0.00000E+00        -0.27325E+08
 
   -0.31463E+08        -0.26267E+06         0.00000E+00
   -0.26267E+06        -0.50058E+08         0.00000E+00
    0.00000E+00         0.00000E+00        -0.27384E+08
 
   -0.31393E+08        -0.25699E+06         0.00000E+00
   -0.25699E+06        -0.50075E+08         0.00000E+00
    0.00000E+00         0.00000E+00        -0.27446E+08
 
   -0.31321E+08        -0.24642E+06         0.00000E+00
   -0.24642E+06        -0.50093E+08         0.00000E+00
    0.00000E+00         0.00000E+00        -0.27512E+08
 
   -0.31250E+08        -0.23125E+06         0.00000E+00
   -0.23125E+06        -0.50113E+08         0.00000E+00
    0.00000E+00         0.00000E+00        -0.27580E+08
 
   -0.31178E+08        -0.21179E+06         0.00000E+00
   -0.21179E+06        -0.50135E+08         0.00000E+00
    0.00000E+00         0.00000E+00        -0.27651E+08
 
   -0.31107E+08        -0.18837E+06         0.00000E+00
   -0.18837E+06        -0.50159E+08         0.00000E+00
    0.00000E+00         0.00000E+00        -0.27725E+08
 
   -0.31036E+08        -0.16130E+06         0.00000E+00
   -0.16130E+06        -0.50185E+08         0.00000E+00
    0.00000E+00         0.00000E+00        -0.27801E+08
 
   -0.30966E+08        -0.13079E+06         0.00000E+00
   -0.13079E+06        -0.50212E+08         0.00000E+00
    0.00000E+00         0.00000E+00        -0.27879E+08
 
   -0.30897E+08        -0.96996E+05         0.00000E+00
   -0.96996E+05        -0.50240E+08         0.00000E+00
    0.00000E+00         0.00000E+00        -0.27959E+08
 
   -0.30830E+08        -0.60184E+05         0.00000E+00
   -0.60184E+05        -0.50269E+08         0.00000E+00
    0.00000E+00         0.00000E+00        -0.28041E+08
 
   -0.30765E+08        -0.20395E+05         0.00000E+00
   -0.20395E+05        -0.50300E+08         0.00000E+00
    0.00000E+00         0.00000E+00        -0.28124E+08
 
   -0.30701E+08         0.22254E+05         0.00000E+00
    0.22254E+05        -0.50332E+08         0.00000E+00
    0.00000E+00         0.00000E+00        -0.28208E+08
 
   -0.30640E+08         0.67618E+05         0.00000E+00
    0.67618E+05        -0.50365E+08         0.00000E+00
    0.00000E+00         0.00000E+00        -0.28294E+08
 
   -0.30582E+08         0.11560E+06         0.00000E+00
    0.11560E+06        -0.50400E+08         0.00000E+00
    0.00000E+00         0.00000E+00        -0.28380E+08
 
   -0.30526E+08         0.16619E+06         0.00000E+00
    0.16619E+06        -0.50435E+08         0.00000E+00
    0.00000E+00         0.00000E+00        -0.28467E+08
 
   -0.30473E+08         0.21927E+06         0.00000E+00
    0.21927E+06        -0.50471E+08         0.00000E+00
    0.00000E+00         0.00000E+00        -0.28555E+08
 
   -0.30423E+08         0.27467E+06         0.00000E+00
    0.27467E+06        -0.50508E+08         0.00000E+00
    0.00000E+00         0.00000E+00        -0.28642E+08
 
   -0.30376E+08         0.33227E+06         0.00000E+00
    0.33227E+06        -0.50546E+08         0.00000E+00
    0.00000E+00         0.00000E+00        -0.28730E+08
 
   -0.30333E+08         0.39205E+06         0.00000E+00
    0.39205E+06        -0.50585E+08         0.00000E+00
    0.00000E+00         0.00000E+00        -0.28818E+08
 
   -0.30293E+08         0.45405E+06         0.00000E+00
    0.45405E+06        -0.50624E+08         0.00000E+00
    0.00000E+00         0.00000E+00        -0.28905E+08
 
   -0.30257E+08         0.51813E+06         0.00000E+00
    0.51813E+06        -0.50665E+08         0.00000E+00
    0.00000E+00         0.00000E+00        -0.28992E+08
 
   -0.30225E+08         0.58427E+06         0.00000E+00
    0.58427E+06        -0.50705E+08         0.00000E+00
    0.00000E+00         0.00000E+00        -0.29078E+08
 
   -0.30197E+08         0.65254E+06         0.00000E+00
    0.65254E+06        -0.50747E+08         0.00000E+00
    0.00000E+00         0.00000E+00        -0.29163E+08
 
   -0.30172E+08         0.72273E+06         0.00000E+00
    0.72273E+06        -0.50789E+08         0.00000E+00
    0.00000E+00         0.00000E+00        -0.29247E+08
 
   -0.30152E+08         0.79466E+06         0.00000E+00
    0.79466E+06        -0.50831E+08         0.00000E+00
    0.00000E+00         0.00000E+00        -0.29330E+08
 
   -0.30136E+08         0.86817E+06         0.00000E+00
    0.86817E+06        -0.50873E+08         0.00000E+00
    0.00000E+00         0.00000E+00        -0.29411E+08
 
   -0.30125E+08         0.94327E+06         0.00000E+00
    0.94327E+06        -0.50917E+08         0.00000E+00
    0.00000E+00         0.00000E+00        -0.29490E+08
 
   -0.30118E+08         0.10199E+07         0.00000E+00
    0.10199E+07        -0.50960E+08         0.00000E+00
    0.00000E+00         0.00000E+00        -0.29568E+08
 
   -0.30115E+08         0.10980E+07         0.00000E+00
    0.10980E+07        -0.51004E+08         0.00000E+00
    0.00000E+00         0.00000E+00        -0.29644E+08
 
   -0.30116E+08         0.11776E+07         0.00000E+00
    0.11776E+07        -0.51047E+08         0.00000E+00
    0.00000E+00         0.00000E+00        -0.29717E+08
 
   -0.30121E+08         0.12592E+07         0.00000E+00
    0.12592E+07        -0.51090E+08         0.00000E+00
    0.00000E+00         0.00000E+00        -0.29789E+08
 
   -0.30130E+08         0.13420E+07         0.00000E+00
    0.13420E+07        -0.51132E+08         0.00000E+00
    0.00000E+00         0.00000E+00        -0.29859E+08
 
   -0.30143E+08         0.14260E+07         0.00000E+00
    0.14260E+07        -0.51175E+08         0.00000E+00
    0.00000E+00         0.00000E+00        -0.29925E+08
 
   -0.30161E+08         0.15102E+07         0.00000E+00
    0.15102E+07        -0.51217E+08         0.00000E+00
    0.00000E+00         0.00000E+00        -0.29990E+08
 
   -0.30183E+08         0.15942E+07         0.00000E+00
    0.15942E+07        -0.51260E+08         0.00000E+00
    0.00000E+00         0.00000E+00        -0.30052E+08
 
   -0.30209E+08         0.16795E+07         0.00000E+00
    0.16795E+07        -0.51302E+08         0.00000E+00
    0.00000E+00         0.00000E+00        -0.30111E+08
 
   -0.30238E+08         0.17648E+07         0.00000E+00
    0.17648E+07        -0.51344E+08         0.00000E+00
    0.00000E+00         0.00000E+00        -0.30169E+08
 
   -0.30271E+08         0.18502E+07         0.00000E+00
    0.18502E+07        -0.51386E+08         0.00000E+00
    0.00000E+00         0.00000E+00        -0.30224E+08
 
   -0.30308E+08         0.19366E+07         0.00000E+00
    0.19366E+07        -0.51428E+08         0.00000E+00
    0.00000E+00         0.00000E+00        -0.30278E+08
 
   -0.30346E+08         0.20228E+07         0.00000E+00
    0.20228E+07        -0.51469E+08         0.00000E+00
    0.00000E+00         0.00000E+00        -0.30330E+08
 
   -0.30387E+08         0.21097E+07         0.00000E+00
    0.21097E+07        -0.51509E+08         0.00000E+00
    0.00000E+00         0.00000E+00        -0.30382E+08
 
   -0.32350E+08        -0.38753E+05         0.00000E+00
   -0.38753E+05        -0.50000E+08         0.00000E+00
    0.00000E+00         0.00000E+00        -0.26367E+08
 
   -0.32254E+08        -0.97147E+05         0.00000E+00
   -0.97147E+05        -0.50001E+08         0.00000E+00
    0.00000E+00         0.00000E+00        -0.26417E+08
 
   -0.32158E+08        -0.14893E+06         0.00000E+00
   -0.14893E+06        -0.50004E+08         0.00000E+00
    0.00000E+00         0.00000E+00        -0.26470E+08
 
   -0.32060E+08        -0.19400E+06         0.00000E+00
   -0.19400E+06        -0.50007E+08         0.00000E+00
    0.00000E+00         0.00000E+00        -0.26526E+08
 
   -0.31962E+08        -0.23251E+06         0.00000E+00
   -0.23251E+06        -0.50012E+08         0.00000E+00
    0.00000E+00         0.00000E+00        -0.26585E+08
 
   -0.31864E+08        -0.26458E+06         0.00000E+00
   -0.26458E+06        -0.50018E+08         0.00000E+00
    0.00000E+00         0.00000E+00        -0.26646E+08
 
   -0.31765E+08        -0.29037E+06         0.00000E+00
   -0.29037E+06        -0.50025E+08         0.00000E+00
    0.00000E+00         0.00000E+00        -0.26710E+08
 
   -0.31667E+08        -0.31005E+06         0.00000E+00
   -0.31005E+06        -0.50034E+08         0.00000E+00
    0.00000E+00         0.00000E+00        -0.26776E+08
 
   -0.31569E+08        -0.32387E+06         0.00000E+00
   -0.32387E+06        -0.50044E+08         0.00000E+00
    0.00000E+00         0.00000E+00        -0.26844E+08
 
   -0.31472E+08        -0.33203E+06         0.00000E+00
   -0.33203E+06        -0.50056E+08         0.00000E+00
    0.00000E+00         0.00000E+00        -0.26914E+08
 
   -0.31375E+08        -0.33475E+06         0.00000E+00
   -0.33475E+06        -0.50069E+08         0.00000E+00
    0.00000E+00         0.00000E+00        -0.26986E+08
 
   -0.31279E+08        -0.33233E+06         0.00000E+00
   -0.33233E+06        -0.50083E+08         0.00000E+00
    0.00000E+00         0.00000E+00        -0.27060E+08
 
   -0.31185E+08        -0.32508E+06         0.00000E+00
   -0.32508E+06        -0.50098E+08         0.00000E+00
    0.00000E+00         0.00000E+00        -0.27135E+08
 
   -0.31092E+08        -0.31332E+06         0.00000E+00
   -0.31332E+06        -0.50115E+08         0.00000E+00
    0.00000E+00         0.00000E+00        -0.27213E+08
 
   -0.31000E+08        -0.29725E+06         0.00000E+00
   -0.29725E+06        -0.50133E+08         0.00000E+00
    0.00000E+00         0.00000E+00        -0.27291E+08
 
   -0.30911E+08        -0.27711E+06         0.00000E+00
   -0.27711E+06        -0.50153E+08         0.00000E+00
    0.00000E+00         0.00000E+00        -0.27371E+08
 
   -0.30823E+08        -0.25320E+06         0.00000E+00
   -0.25320E+06        -0.50173E+08         0.00000E+00
    0.00000E+00         0.00000E+00        -0.27452E+08
 
   -0.30738E+08        -0.22574E+06         0.00000E+00
   -0.22574E+06        -0.50195E+08         0.00000E+00
    0.00000E+00         0.00000E+00        -0.27535E+08
 
   -0.30654E+08        -0.19484E+06         0.00000E+00
   -0.19484E+06        -0.50218E+08         0.00000E+00
    0.00000E+00         0.00000E+00        -0.27618E+08
 
   -0.30574E+08        -0.16077E+06         0.00000E+00
   -0.16077E+06        -0.50241E+08         0.00000E+00
    0.00000E+00         0.00000E+00        -0.27702E+08
 
   -0.30496E+08        -0.12368E+06         0.00000E+00
   -0.12368E+06        -0.50266E+08         0.00000E+00
    0.00000E+00         0.00000E+00        -0.27787E+08
 
   -0.30421E+08        -0.83735E+05         0.00000E+00
   -0.83735E+05        -0.50292E+08         0.00000E+00
    0.00000E+00         0.00000E+00        -0.27872E+08
 
   -0.30349E+08        -0.41007E+05         0.00000E+00
   -0.41007E+05        -0.50319E+08         0.00000E+00
    0.00000E+00         0.00000E+00        -0.27958E+08
 
   -0.30280E+08         0.44472E+04         0.00000E+00
    0.44472E+04        -0.50348E+08         0.00000E+00
    0.00000E+00         0.00000E+00        -0.28044E+08
 
   -0.30214E+08         0.52568E+05         0.00000E+00
    0.52568E+05        -0.50377E+08         0.00000E+00
    0.00000E+00         0.00000E+00        -0.28131E+08
 
   -0.30152E+08         0.10316E+06         0.00000E+00
    0.10316E+06        -0.50407E+08         0.00000E+00
    0.00000E+00         0.00000E+00        -0.28217E+08
 
   -0.30094E+08         0.15633E+06         0.00000E+00
    0.15633E+06        -0.50438E+08         0.00000E+00
    0.00000E+00         0.00000E+00        -0.28303E+08
 
   -0.30039E+08         0.21198E+06         0.00000E+00
    0.21198E+06        -0.50470E+08         0.00000E+00
    0.00000E+00         0.00000E+00        -0.28390E+08
 
   -0.29988E+08         0.26991E+06         0.00000E+00
    0.26991E+06        -0.50503E+08         0.00000E+00
    0.00000E+00         0.00000E+00        -0.28475E+08
 
   -0.29941E+08         0.33012E+06         0.00000E+00
    0.33012E+06        -0.50537E+08         0.00000E+00
    0.00000E+00         0.00000E+00        -0.28561E+08
 
   -0.29898E+08         0.39254E+06         0.00000E+00
    0.39254E+06        -0.50572E+08         0.00000E+00
    0.00000E+00         0.00000E+00        -0.28645E+08
 
   -0.29859E+08         0.45705E+06         0.00000E+00
    0.45705E+06        -0.50608E+08         0.00000E+00
    0.00000E+00         0.00000E+00        -0.28729E+08
 
   -0.29825E+08         0.52371E+06         0.00000E+00
    0.52371E+06        -0.50645E+08         0.00000E+00
    0.00000E+00         0.00000E+00        -0.28812E+08
 
   -0.29795E+08         0.59254E+06         0.00000E+00
    0.59254E+06        -0.50683E+08         0.00000E+00
    0.00000E+00         0.00000E+00        -0.28894E+08
 
   -0.29770E+08         0.66360E+06         0.00000E+00
    0.66360E+06        -0.50721E+08         0.00000E+00
    0.00000E+00         0.00000E+00        -0.28975E+08
 
   -0.29749E+08         0.73696E+06         0.00000E+00
    0.73696E+06        -0.50760E+08         0.00000E+00
    0.00000E+00         0.00000E+00        -0.29054E+08
 
   -0.29732E+08         0.81257E+06         0.00000E+00
    0.81257E+06        -0.50800E+08         0.00000E+00
    0.00000E+00         0.00000E+00        -0.29132E+08
 
   -0.29721E+08         0.89023E+06         0.00000E+00
    0.89023E+06        -0.50840E+08         0.00000E+00
    0.00000E+00         0.00000E+00        -0.29208E+08
 
   -0.29714E+08         0.96952E+06         0.00000E+00
    0.96952E+06        -0.50880E+08         0.00000E+00
    0.00000E+00         0.00000E+00        -0.29281E+08
 
   -0.29713E+08         0.10499E+07         0.00000E+00
    0.10499E+07        -0.50922E+08         0.00000E+00
    0.00000E+00         0.00000E+00        -0.29353E+08
 
   -0.29716E+08         0.11320E+07         0.00000E+00
    0.11320E+07        -0.50963E+08         0.00000E+00
    0.00000E+00         0.00000E+00        -0.29422E+08
 
   -0.29725E+08         0.12152E+07         0.00000E+00
    0.12152E+07        -0.51005E+08         0.00000E+00
    0.00000E+00         0.00000E+00        -0.29489E+08
 
   -0.29738E+08         0.12998E+07         0.00000E+00
    0.12998E+07        -0.51047E+08         0.00000E+00
    0.00000E+00         0.00000E+00        -0.29553E+08
 
   -0.29757E+08         0.13856E+07         0.00000E+00
    0.13856E+07        -0.51089E+08         0.00000E+00
    0.00000E+00         0.00000E+00        -0.29614E+08
 
   -0.29780E+08         0.14716E+07         0.00000E+00
    0.14716E+07        -0.51131E+08         0.00000E+00
    0.00000E+00         0.00000E+00        -0.29672E+08
 
   -0.29807E+08         0.15588E+07         0.00000E+00
    0.15588E+07        -0.51172E+08         0.00000E+00
    0.00000E+00         0.00000E+00        -0.29727E+08
 
   -0.29836E+08         0.16479E+07         0.00000E+00
    0.16479E+07        -0.51212E+08         0.00000E+00
    0.00000E+00         0.00000E+00        -0.29781E+08
 
   -0.29867E+08         0.17382E+07         0.00000E+00
    0.17382E+07        -0.51250E+08         0.00000E+00
    0.00000E+00         0.00000E+00        -0.29833E+08
 
   -0.29900E+08         0.18306E+07         0.00000E+00
    0.18306E+07        -0.51287E+08         0.00000E+00
    0.00000E+00         0.00000E+00        -0.29883E+08
 
   -0.29935E+08         0.19245E+07         0.00000E+00
    0.19245E+07        -0.51321E+08         0.00000E+00
    0.00000E+00         0.00000E+00        -0.29930E+08
 
   -0.32678E+08        -0.42336E+05         0.00000E+00
   -0.42336E+05        -0.50000E+08         0.00000E+00
    0.00000E+00         0.00000E+00        -0.25775E+08
 
   -0.32547E+08        -0.10793E+06         0.00000E+00
   -0.10793E+06        -0.50002E+08         0.00000E+00
    0.00000E+00         0.00000E+00        -0.25837E+08
 
   -0.32416E+08        -0.16576E+06         0.00000E+00
   -0.16576E+06        -0.50005E+08         0.00000E+00
    0.00000E+00         0.00000E+00        -0.25901E+08
 
   -0.32284E+08        -0.21662E+06         0.00000E+00
   -0.21662E+06        -0.50008E+08         0.00000E+00
    0.00000E+00         0.00000E+00        -0.25969E+08
 
   -0.32153E+08        -0.26070E+06         0.00000E+00
   -0.26070E+06        -0.50013E+08         0.00000E+00
    0.00000E+00         0.00000E+00        -0.26040E+08
 
   -0.32023E+08        -0.29818E+06         0.00000E+00
   -0.29818E+06        -0.50019E+08         0.00000E+00
    0.00000E+00         0.00000E+00        -0.26113E+08
 
   -0.31893E+08        -0.32915E+06         0.00000E+00
   -0.32915E+06        -0.50025E+08         0.00000E+00
    0.00000E+00         0.00000E+00        -0.26189E+08
 
   -0.31765E+08        -0.35386E+06         0.00000E+00
   -0.35386E+06        -0.50033E+08         0.00000E+00
    0.00000E+00         0.00000E+00        -0.26265E+08
 
   -0.31638E+08        -0.37251E+06         0.00000E+00
   -0.37251E+06        -0.50040E+08         0.00000E+00
    0.00000E+00         0.00000E+00        -0.26344E+08
 
   -0.31513E+08        -0.38538E+06         0.00000E+00
   -0.38538E+06        -0.50049E+08         0.00000E+00
    0.00000E+00         0.00000E+00        -0.26423E+08
 
   -0.31390E+08        -0.39283E+06         0.00000E+00
   -0.39283E+06        -0.50058E+08         0.00000E+00
    0.00000E+00         0.00000E+00        -0.26503E+08
 
   -0.31269E+08        -0.39521E+06         0.00000E+00
   -0.39521E+06        -0.50067E+08         0.00000E+00
    0.00000E+00         0.00000E+00        -0.26584E+08
 
   -0.31151E+08        -0.39280E+06         0.00000E+00
   -0.39280E+06        -0.50078E+08         0.00000E+00
    0.00000E+00         0.00000E+00        -0.26665E+08
 
   -0.31036E+08        -0.38585E+06         0.00000E+00
   -0.38585E+06        -0.50089E+08         0.00000E+00
    0.00000E+00         0.00000E+00        -0.26747E+08
 
   -0.30924E+08        -0.37470E+06         0.00000E+00
   -0.37470E+06        -0.50100E+08         0.00000E+00
    0.00000E+00         0.00000E+00        -0.26830E+08
 
   -0.30815E+08        -0.35959E+06         0.00000E+00
   -0.35959E+06        -0.50113E+08         0.00000E+00
    0.00000E+00         0.00000E+00        -0.26913E+08
 
   -0.30709E+08        -0.34076E+06         0.00000E+00
   -0.34076E+06        -0.50126E+08         0.00000E+00
    0.00000E+00         0.00000E+00        -0.26996E+08
 
   -0.30605E+08        -0.31835E+06         0.00000E+00
   -0.31835E+06        -0.50140E+08         0.00000E+00
    0.00000E+00         0.00000E+00        -0.27080E+08
 
   -0.30506E+08        -0.29253E+06         0.00000E+00
   -0.29253E+06        -0.50155E+08         0.00000E+00
    0.00000E+00         0.00000E+00        -0.27163E+08
 
   -0.30409E+08        -0.26348E+06         0.00000E+00
   -0.26348E+06        -0.50171E+08         0.00000E+00
    0.00000E+00         0.00000E+00        -0.27247E+08
 
   -0.30317E+08        -0.23147E+06         0.00000E+00
   -0.23147E+06        -0.50188E+08         0.00000E+00
    0.00000E+00         0.00000E+00        -0.27331E+08
 
   -0.30228E+08        -0.19650E+06         0.00000E+00
   -0.19650E+06        -0.50206E+08         0.00000E+00
    0.00000E+00         0.00000E+00        -0.27415E+08
 
   -0.30142E+08        -0.15871E+06         0.00000E+00
   -0.15871E+06        -0.50225E+08         0.00000E+00
    0.00000E+00         0.00000E+00        -0.27499E+08
 
   -0.30060E+08        -0.11831E+06         0.00000E+00
   -0.11831E+06        -0.50244E+08         0.00000E+00
    0.00000E+00         0.00000E+00        -0.27583E+08
 
   -0.29981E+08        -0.75450E+05         0.00000E+00
   -0.75450E+05        -0.50265E+08         0.00000E+00
    0.00000E+00         0.00000E+00        -0.27667E+08
 
   -0.29907E+08        -0.30040E+05         0.00000E+00
   -0.30040E+05        -0.50287E+08         0.00000E+00
    0.00000E+00         0.00000E+00        -0.27751E+08
 
   -0.29836E+08         0.17720E+05         0.00000E+00
    0.17720E+05        -0.50310E+08         0.00000E+00
    0.00000E+00         0.00000E+00        -0.27834E+08
 
   -0.29769E+08         0.67726E+05         0.00000E+00
    0.67726E+05        -0.50334E+08         0.00000E+00
    0.00000E+00         0.00000E+00        -0.27918E+08
 
   -0.29707E+08         0.12005E+06         0.00000E+00
    0.12005E+06        -0.50359E+08         0.00000E+00
    0.00000E+00         0.00000E+00        -0.28001E+08
 
   -0.29648E+08         0.17466E+06         0.00000E+00
    0.17466E+06        -0.50385E+08         0.00000E+00
    0.00000E+00         0.00000E+00        -0.28084E+08
 
   -0.29594E+08         0.23155E+06         0.00000E+00
    0.23155E+06        -0.50413E+08         0.00000E+00
    0.00000E+00         0.00000E+00        -0.28166E+08
 
   -0.29544E+08         0.29087E+06         0.00000E+00
    0.29087E+06        -0.50442E+08         0.00000E+00
    0.00000E+00         0.00000E+00        -0.28248E+08
 
   -0.29498E+08         0.35255E+06         0.00000E+00
    0.35255E+06        -0.50472E+08         0.00000E+00
    0.00000E+00         0.00000E+00        -0.28329E+08
 
   -0.29457E+08         0.41670E+06         0.00000E+00
    0.41670E+06        -0.50504E+08         0.00000E+00
    0.00000E+00         0.00000E+00        -0.28410E+08
 
   -0.29420E+08         0.48316E+06         0.00000E+00
    0.48316E+06        -0.50536E+08         0.00000E+00
    0.00000E+00         0.00000E+00        -0.28490E+08
 
   -0.29388E+08         0.55179E+06         0.00000E+00
    0.55179E+06        -0.50570E+08         0.00000E+00
    0.00000E+00         0.00000E+00        -0.28569E+08
 
   -0.29361E+08         0.62249E+06         0.00000E+00
    0.62249E+06        -0.50606E+08         0.00000E+00
    0.00000E+00         0.00000E+00        -0.28647E+08
 
   -0.29339E+08         0.69544E+06         0.00000E+00
    0.69544E+06        -0.50643E+08         0.00000E+00
    0.00000E+00         0.00000E+00        -0.28724E+08
 
   -0.29323E+08         0.77068E+06         0.00000E+00
    0.77068E+06        -0.50680E+08         0.00000E+00
    0.00000E+00         0.00000E+00        -0.28799E+08
 
   -0.29312E+08         0.84852E+06         0.00000E+00
    0.84852E+06        -0.50719E+08         0.00000E+00
    0.00000E+00         0.00000E+00        -0.28872E+08
 
   -0.29307E+08         0.92841E+06         0.00000E+00
    0.92841E+06        -0.50759E+08         0.00000E+00
    0.00000E+00         0.00000E+00        -0.28943E+08
 
   -0.29307E+08         0.10107E+07         0.00000E+00
    0.10107E+07        -0.50799E+08         0.00000E+00
    0.00000E+00         0.00000E+00        -0.29011E+08
 
   -0.29312E+08         0.10956E+07         0.00000E+00
    0.10956E+07        -0.50840E+08         0.00000E+00
    0.00000E+00         0.00000E+00        -0.29078E+08
 
   -0.29321E+08         0.11830E+07         0.00000E+00
    0.11830E+07        -0.50880E+08         0.00000E+00
    0.00000E+00         0.00000E+00        -0.29142E+08
 
   -0.29333E+08         0.12734E+07         0.00000E+00
    0.12734E+07        -0.50919E+08         0.00000E+00
    0.00000E+00         0.00000E+00        -0.29205E+08
 
   -0.29349E+08         0.13674E+07         0.00000E+00
    0.13674E+07        -0.50957E+08         0.00000E+00
    0.00000E+00         0.00000E+00        -0.29265E+08
 
   -0.29371E+08         0.14620E+07         0.00000E+00
    0.14620E+07        -0.50995E+08         0.00000E+00
    0.00000E+00         0.00000E+00        -0.29321E+08
 
   -0.29398E+08         0.15570E+07         0.00000E+00
    0.15570E+07        -0.51033E+08         0.00000E+00
    0.00000E+00         0.00000E+00        -0.29374E+08
 
   -0.29431E+08         0.16516E+07         0.00000E+00
    0.16516E+07        -0.51071E+08         0.00000E+00
    0.00000E+00         0.00000E+00        -0.29424E+08
 
   -0.29471E+08         0.17426E+07         0.00000E+00
    0.17426E+07        -0.51112E+08         0.00000E+00
    0.00000E+00         0.00000E+00        -0.29470E+08
 
   -0.33042E+08        -0.47278E+05         0.00000E+00
   -0.47278E+05        -0.50001E+08         0.00000E+00
    0.00000E+00         0.00000E+00        -0.25193E+08
 
   -0.32871E+08        -0.11764E+06         0.00000E+00
   -0.11764E+06        -0.50001E+08         0.00000E+00
    0.00000E+00         0.00000E+00        -0.25262E+08
 
   -0.32702E+08        -0.18150E+06         0.00000E+00
   -0.18150E+06        -0.50004E+08         0.00000E+00
    0.00000E+00         0.00000E+00        -0.25337E+08
 
   -0.32534E+08        -0.23742E+06         0.00000E+00
   -0.23742E+06        -0.50007E+08         0.00000E+00
    0.00000E+00         0.00000E+00        -0.25415E+08
 
   -0.32367E+08        -0.28529E+06         0.00000E+00
   -0.28529E+06        -0.50011E+08         0.00000E+00
    0.00000E+00         0.00000E+00        -0.25496E+08
 
   -0.32201E+08        -0.32511E+06         0.00000E+00
   -0.32511E+06        -0.50015E+08         0.00000E+00
    0.00000E+00         0.00000E+00        -0.25579E+08
 
   -0.32038E+08        -0.35764E+06         0.00000E+00
   -0.35764E+06        -0.50019E+08         0.00000E+00
    0.00000E+00         0.00000E+00        -0.25662E+08
 
   -0.31878E+08        -0.38351E+06         0.00000E+00
   -0.38351E+06        -0.50022E+08         0.00000E+00
    0.00000E+00         0.00000E+00        -0.25746E+08
 
   -0.31722E+08        -0.40335E+06         0.00000E+00
   -0.40335E+06        -0.50026E+08         0.00000E+00
    0.00000E+00         0.00000E+00        -0.25831E+08
 
   -0.31570E+08        -0.41773E+06         0.00000E+00
   -0.41773E+06        -0.50029E+08         0.00000E+00
    0.00000E+00         0.00000E+00        -0.25915E+08
 
   -0.31421E+08        -0.42703E+06         0.00000E+00
   -0.42703E+06        -0.50033E+08         0.00000E+00
    0.00000E+00         0.00000E+00        -0.26000E+08
 
   -0.31276E+08        -0.43155E+06         0.00000E+00
   -0.43155E+06        -0.50037E+08         0.00000E+00
    0.00000E+00         0.00000E+00        -0.26085E+08
 
   -0.31136E+08        -0.43155E+06         0.00000E+00
   -0.43155E+06        -0.50042E+08         0.00000E+00
    0.00000E+00         0.00000E+00        -0.26170E+08
 
   -0.30999E+08        -0.42730E+06         0.00000E+00
   -0.42730E+06        -0.50046E+08         0.00000E+00
    0.00000E+00         0.00000E+00        -0.26255E+08
 
   -0.30867E+08        -0.41908E+06         0.00000E+00
   -0.41908E+06        -0.50052E+08         0.00000E+00
    0.00000E+00         0.00000E+00        -0.26339E+08
 
   -0.30739E+08        -0.40701E+06         0.00000E+00
   -0.40701E+06        -0.50057E+08         0.00000E+00
    0.00000E+00         0.00000E+00        -0.26424E+08
 
   -0.30615E+08        -0.39126E+06         0.00000E+00
   -0.39126E+06        -0.50063E+08         0.00000E+00
    0.00000E+00         0.00000E+00        -0.26508E+08
 
   -0.30495E+08        -0.37212E+06         0.00000E+00
   -0.37212E+06        -0.50070E+08         0.00000E+00
    0.00000E+00         0.00000E+00        -0.26591E+08
 
   -0.30379E+08        -0.34986E+06         0.00000E+00
   -0.34986E+06        -0.50077E+08         0.00000E+00
    0.00000E+00         0.00000E+00        -0.26674E+08
 
   -0.30268E+08        -0.32465E+06         0.00000E+00
   -0.32465E+06        -0.50084E+08         0.00000E+00
    0.00000E+00         0.00000E+00        -0.26756E+08
 
   -0.30161E+08        -0.29657E+06         0.00000E+00
   -0.29657E+06        -0.50092E+08         0.00000E+00
    0.00000E+00         0.00000E+00        -0.26838E+08
 
   -0.30058E+08        -0.26588E+06         0.00000E+00
   -0.26588E+06        -0.50101E+08         0.00000E+00
    0.00000E+00         0.00000E+00        -0.26919E+08
 
   -0.29959E+08        -0.23278E+06         0.00000E+00
   -0.23278E+06        -0.50111E+08         0.00000E+00
    0.00000E+00         0.00000E+00        -0.27000E+08
 
   -0.29865E+08        -0.19736E+06         0.00000E+00
   -0.19736E+06        -0.50121E+08         0.00000E+00
    0.00000E+00         0.00000E+00        -0.27080E+08
 
   -0.29774E+08        -0.15971E+06         0.00000E+00
   -0.15971E+06        -0.50133E+08         0.00000E+00
    0.00000E+00         0.00000E+00        -0.27160E+08
 
   -0.29688E+08        -0.11999E+06         0.00000E+00
   -0.11999E+06        -0.50145E+08         0.00000E+00
    0.00000E+00         0.00000E+00        -0.27239E+08
 
   -0.29607E+08        -0.78235E+05         0.00000E+00
   -0.78235E+05        -0.50159E+08         0.00000E+00
    0.00000E+00         0.00000E+00        -0.27317E+08
 
   -0.29529E+08        -0.34418E+05         0.00000E+00
   -0.34418E+05        -0.50174E+08         0.00000E+00
    0.00000E+00         0.00000E+00        -0.27396E+08
 
   -0.29456E+08         0.11444E+05         0.00000E+00
    0.11444E+05        -0.50190E+08         0.00000E+00
    0.00000E+00         0.00000E+00        -0.27474E+08
 
   -0.29387E+08         0.59390E+05         0.00000E+00
    0.59390E+05        -0.50208E+08         0.00000E+00
    0.00000E+00         0.00000E+00        -0.27552E+08
 
   -0.29321E+08         0.10941E+06         0.00000E+00
    0.10941E+06        -0.50227E+08         0.00000E+00
    0.00000E+00         0.00000E+00        -0.27630E+08
 
   -0.29260E+08         0.16146E+06         0.00000E+00
    0.16146E+06        -0.50248E+08         0.00000E+00
    0.00000E+00         0.00000E+00        -0.27709E+08
 
   -0.29203E+08         0.21558E+06         0.00000E+00
    0.21558E+06        -0.50271E+08         0.00000E+00
    0.00000E+00         0.00000E+00        -0.27787E+08
 
   -0.29150E+08         0.27175E+06         0.00000E+00
    0.27175E+06        -0.50295E+08         0.00000E+00
    0.00000E+00         0.00000E+00        -0.27865E+08
 
   -0.29101E+08         0.33028E+06         0.00000E+00
    0.33028E+06        -0.50321E+08         0.00000E+00
    0.00000E+00         0.00000E+00        -0.27944E+08
 
   -0.29057E+08         0.39118E+06         0.00000E+00
    0.39118E+06        -0.50349E+08         0.00000E+00
    0.00000E+00         0.00000E+00        -0.28022E+08
 
   -0.29018E+08         0.45472E+06         0.00000E+00
    0.45472E+06        -0.50378E+08         0.00000E+00
    0.00000E+00         0.00000E+00        -0.28100E+08
 
   -0.28983E+08         0.52104E+06         0.00000E+00
    0.52104E+06        -0.50410E+08         0.00000E+00
    0.00000E+00         0.00000E+00        -0.28177E+08
 
   -0.28954E+08         0.59037E+06         0.00000E+00
    0.59037E+06        -0.50443E+08         0.00000E+00
    0.00000E+00         0.00000E+00        -0.28255E+08
 
   -0.28929E+08         0.66269E+06         0.00000E+00
    0.66269E+06        -0.50477E+08         0.00000E+00
    0.00000E+00         0.00000E+00        -0.28331E+08
 
   -0.28908E+08         0.73848E+06         0.00000E+00
    0.73848E+06        -0.50513E+08         0.00000E+00
    0.00000E+00         0.00000E+00        -0.28407E+08
 
   -0.28892E+08         0.81791E+06         0.00000E+00
    0.81791E+06        -0.50550E+08         0.00000E+00
    0.00000E+00         0.00000E+00        -0.28483E+08
 
   -0.28881E+08         0.90110E+06         0.00000E+00
    0.90110E+06        -0.50589E+08         0.00000E+00
    0.00000E+00         0.00000E+00        -0.28558E+08
 
   -0.28876E+08         0.98787E+06         0.00000E+00
    0.98787E+06        -0.50628E+08         0.00000E+00
    0.00000E+00         0.00000E+00        -0.28631E+08
 
   -0.28879E+08         0.10766E+07         0.00000E+00
    0.10766E+07        -0.50670E+08         0.00000E+00
    0.00000E+00         0.00000E+00        -0.28701E+08
 
   -0.28890E+08         0.11656E+07         0.00000E+00
    0.11656E+07        -0.50713E+08         0.00000E+00
    0.00000E+00         0.00000E+00        -0.28768E+08
 
   -0.28908E+08         0.12564E+07         0.00000E+00
    0.12564E+07        -0.50758E+08         0.00000E+00
    0.00000E+00         0.00000E+00        -0.28830E+08
 
   -0.28935E+08         0.13484E+07         0.00000E+00
    0.13484E+07        -0.50803E+08         0.00000E+00
    0.00000E+00         0.00000E+00        -0.28889E+08
 
   -0.28966E+08         0.14408E+07         0.00000E+00
    0.14408E+07        -0.50849E+08         0.00000E+00
    0.00000E+00         0.00000E+00        -0.28945E+08
 
   -0.29001E+08         0.15402E+07         0.00000E+00
    0.15402E+07        -0.50890E+08         0.00000E+00
    0.00000E+00         0.00000E+00        -0.28995E+08
 
   -0.33437E+08        -0.46907E+05         0.00000E+00
   -0.46907E+05        -0.49998E+08         0.00000E+00
    0.00000E+00         0.00000E+00        -0.24621E+08
 
   -0.33223E+08        -0.12956E+06         0.00000E+00
   -0.12956E+06        -0.50005E+08         0.00000E+00
    0.00000E+00         0.00000E+00        -0.24705E+08
 
   -0.33005E+08        -0.19579E+06         0.00000E+00
   -0.19579E+06        -0.50006E+08         0.00000E+00
    0.00000E+00         0.00000E+00        -0.24790E+08
 
   -0.32791E+08        -0.24935E+06         0.00000E+00
   -0.24935E+06        -0.50007E+08         0.00000E+00
    0.00000E+00         0.00000E+00        -0.24876E+08
 
   -0.32582E+08        -0.29308E+06         0.00000E+00
   -0.29308E+06        -0.50004E+08         0.00000E+00
    0.00000E+00         0.00000E+00        -0.24962E+08
 
   -0.32380E+08        -0.33004E+06         0.00000E+00
   -0.33004E+06        -0.50001E+08         0.00000E+00
    0.00000E+00         0.00000E+00        -0.25046E+08
 
   -0.32184E+08        -0.36104E+06         0.00000E+00
   -0.36104E+06        -0.49997E+08         0.00000E+00
    0.00000E+00         0.00000E+00        -0.25131E+08
 
   -0.31994E+08        -0.38653E+06         0.00000E+00
   -0.38653E+06        -0.49994E+08         0.00000E+00
    0.00000E+00         0.00000E+00        -0.25217E+08
 
   -0.31811E+08        -0.40683E+06         0.00000E+00
   -0.40683E+06        -0.49992E+08         0.00000E+00
    0.00000E+00         0.00000E+00        -0.25304E+08
 
   -0.31632E+08        -0.42216E+06         0.00000E+00
   -0.42216E+06        -0.49989E+08         0.00000E+00
    0.00000E+00         0.00000E+00        -0.25390E+08
 
   -0.31459E+08        -0.43258E+06         0.00000E+00
   -0.43258E+06        -0.49988E+08         0.00000E+00
    0.00000E+00         0.00000E+00        -0.25477E+08
 
   -0.31291E+08        -0.43827E+06         0.00000E+00
   -0.43827E+06        -0.49986E+08         0.00000E+00
    0.00000E+00         0.00000E+00        -0.25564E+08
 
   -0.31129E+08        -0.43946E+06         0.00000E+00
   -0.43946E+06        -0.49985E+08         0.00000E+00
    0.00000E+00         0.00000E+00        -0.25651E+08
 
   -0.30972E+08        -0.43637E+06         0.00000E+00
   -0.43637E+06        -0.49983E+08         0.00000E+00
    0.00000E+00         0.00000E+00        -0.25737E+08
 
   -0.30820E+08        -0.42914E+06         0.00000E+00
   -0.42914E+06        -0.49982E+08         0.00000E+00
    0.00000E+00         0.00000E+00        -0.25822E+08
 
   -0.30673E+08        -0.41814E+06         0.00000E+00
   -0.41814E+06        -0.49980E+08         0.00000E+00
    0.00000E+00         0.00000E+00        -0.25906E+08
 
   -0.30532E+08        -0.40364E+06         0.00000E+00
   -0.40364E+06        -0.49978E+08         0.00000E+00
    0.00000E+00         0.00000E+00        -0.25989E+08
 
   -0.30396E+08        -0.38601E+06         0.00000E+00
   -0.38601E+06        -0.49977E+08         0.00000E+00
    0.00000E+00         0.00000E+00        -0.26070E+08
 
   -0.30266E+08        -0.36550E+06         0.00000E+00
   -0.36550E+06        -0.49975E+08         0.00000E+00
    0.00000E+00         0.00000E+00        -0.26150E+08
 
   -0.30141E+08        -0.34243E+06         0.00000E+00
   -0.34243E+06        -0.49974E+08         0.00000E+00
    0.00000E+00         0.00000E+00        -0.26228E+08
 
   -0.30022E+08        -0.31708E+06         0.00000E+00
   -0.31708E+06        -0.49973E+08         0.00000E+00
    0.00000E+00         0.00000E+00        -0.26305E+08
 
   -0.29908E+08        -0.28969E+06         0.00000E+00
   -0.28969E+06        -0.49972E+08         0.00000E+00
    0.00000E+00         0.00000E+00        -0.26381E+08
 
   -0.29799E+08        -0.26044E+06         0.00000E+00
   -0.26044E+06        -0.49972E+08         0.00000E+00
    0.00000E+00         0.00000E+00        -0.26455E+08
 
   -0.29694E+08        -0.22947E+06         0.00000E+00
   -0.22947E+06        -0.49973E+08         0.00000E+00
    0.00000E+00         0.00000E+00        -0.26529E+08
 
   -0.29595E+08        -0.19682E+06         0.00000E+00
   -0.19682E+06        -0.49975E+08         0.00000E+00
    0.00000E+00         0.00000E+00        -0.26602E+08
 
   -0.29500E+08        -0.16265E+06         0.00000E+00
   -0.16265E+06        -0.49978E+08         0.00000E+00
    0.00000E+00         0.00000E+00        -0.26674E+08
 
   -0.29410E+08        -0.12705E+06         0.00000E+00
   -0.12705E+06        -0.49982E+08         0.00000E+00
    0.00000E+00         0.00000E+00        -0.26745E+08
 
   -0.29324E+08        -0.90027E+05         0.00000E+00
   -0.90027E+05        -0.49987E+08         0.00000E+00
    0.00000E+00         0.00000E+00        -0.26816E+08
 
   -0.29241E+08        -0.51661E+05         0.00000E+00
   -0.51661E+05        -0.49994E+08         0.00000E+00
    0.00000E+00         0.00000E+00        -0.26888E+08
 
   -0.29163E+08        -0.11920E+05         0.00000E+00
   -0.11920E+05        -0.50003E+08         0.00000E+00
    0.00000E+00         0.00000E+00        -0.26959E+08
 
   -0.29088E+08         0.29353E+05         0.00000E+00
    0.29353E+05        -0.50013E+08         0.00000E+00
    0.00000E+00         0.00000E+00        -0.27032E+08
 
   -0.29017E+08         0.72270E+05         0.00000E+00
    0.72270E+05        -0.50026E+08         0.00000E+00
    0.00000E+00         0.00000E+00        -0.27105E+08
 
   -0.28950E+08         0.11698E+06         0.00000E+00
    0.11698E+06        -0.50040E+08         0.00000E+00
    0.00000E+00         0.00000E+00        -0.27178E+08
 
   -0.28886E+08         0.16358E+06         0.00000E+00
    0.16358E+06        -0.50056E+08         0.00000E+00
    0.00000E+00         0.00000E+00        -0.27252E+08
 
   -0.28826E+08         0.21215E+06         0.00000E+00
    0.21215E+06        -0.50075E+08         0.00000E+00
    0.00000E+00         0.00000E+00        -0.27328E+08
 
   -0.28770E+08         0.26309E+06         0.00000E+00
    0.26309E+06        -0.50096E+08         0.00000E+00
    0.00000E+00         0.00000E+00        -0.27404E+08
 
   -0.28717E+08         0.31665E+06         0.00000E+00
    0.31665E+06        -0.50119E+08         0.00000E+00
    0.00000E+00         0.00000E+00        -0.27482E+08
 
   -0.28668E+08         0.37302E+06         0.00000E+00
    0.37302E+06        -0.50144E+08         0.00000E+00
    0.00000E+00         0.00000E+00        -0.27561E+08
 
   -0.28622E+08         0.43247E+06         0.00000E+00
    0.43247E+06        -0.50172E+08         0.00000E+00
    0.00000E+00         0.00000E+00        -0.27641E+08
 
   -0.28580E+08         0.49524E+06         0.00000E+00
    0.49524E+06        -0.50202E+08         0.00000E+00
    0.00000E+00         0.00000E+00        -0.27723E+08
 
   -0.28543E+08         0.56135E+06         0.00000E+00
    0.56135E+06        -0.50235E+08         0.00000E+00
    0.00000E+00         0.00000E+00        -0.27806E+08
 
   -0.28510E+08         0.63081E+06         0.00000E+00
    0.63081E+06        -0.50271E+08         0.00000E+00
    0.00000E+00         0.00000E+00        -0.27890E+08
 
   -0.28483E+08         0.70285E+06         0.00000E+00
    0.70285E+06        -0.50309E+08         0.00000E+00
    0.00000E+00         0.00000E+00        -0.27974E+08
 
   -0.28464E+08         0.77827E+06         0.00000E+00
    0.77827E+06        -0.50350E+08         0.00000E+00
    0.00000E+00         0.00000E+00        -0.28057E+08
 
   -0.28452E+08         0.85736E+06         0.00000E+00
    0.85736E+06        -0.50395E+08         0.00000E+00
    0.00000E+00         0.00000E+00        -0.28139E+08
 
   -0.28447E+08         0.94173E+06         0.00000E+00
    0.94173E+06        -0.50442E+08         0.00000E+00
    0.00000E+00         0.00000E+00        -0.28219E+08
 
   -0.28450E+08         0.10313E+07         0.00000E+00
    0.10313E+07        -0.50489E+08         0.00000E+00
    0.00000E+00         0.00000E+00        -0.28297E+08
 
   -0.28460E+08         0.11262E+07         0.00000E+00
    0.11262E+07        -0.50537E+08         0.00000E+00
    0.00000E+00         0.00000E+00        -0.28371E+08
 
   -0.28478E+08         0.12244E+07         0.00000E+00
    0.12244E+07        -0.50583E+08         0.00000E+00
    0.00000E+00         0.00000E+00        -0.28437E+08
 
   -0.28510E+08         0.13206E+07         0.00000E+00
    0.13206E+07        -0.50634E+08         0.00000E+00
    0.00000E+00         0.00000E+00        -0.28498E+08
 
   -0.33852E+08        -0.82288E+05         0.00000E+00
   -0.82288E+05        -0.50020E+08         0.00000E+00
    0.00000E+00         0.00000E+00        -0.24094E+08
 
   -0.33549E+08        -0.12523E+06         0.00000E+00
   -0.12523E+06        -0.50007E+08         0.00000E+00
    0.00000E+00         0.00000E+00        -0.24179E+08
 
   -0.33279E+08        -0.16693E+06         0.00000E+00
   -0.16693E+06        -0.49996E+08         0.00000E+00
    0.00000E+00         0.00000E+00        -0.24261E+08
 
   -0.33027E+08        -0.21067E+06         0.00000E+00
   -0.21067E+06        -0.49975E+08         0.00000E+00
    0.00000E+00         0.00000E+00        -0.24334E+08
 
   -0.32788E+08        -0.25493E+06         0.00000E+00
   -0.25493E+06        -0.49962E+08         0.00000E+00
    0.00000E+00         0.00000E+00        -0.24412E+08
 
   -0.32558E+08        -0.29505E+06         0.00000E+00
   -0.29505E+06        -0.49952E+08         0.00000E+00
    0.00000E+00         0.00000E+00        -0.24494E+08
 
   -0.32335E+08        -0.33038E+06         0.00000E+00
   -0.33038E+06        -0.49944E+08         0.00000E+00
    0.00000E+00         0.00000E+00        -0.24580E+08
 
   -0.32117E+08        -0.36032E+06         0.00000E+00
   -0.36032E+06        -0.49937E+08         0.00000E+00
    0.00000E+00         0.00000E+00        -0.24668E+08
 
   -0.31905E+08        -0.38417E+06         0.00000E+00
   -0.38417E+06        -0.49931E+08         0.00000E+00
    0.00000E+00         0.00000E+00        -0.24757E+08
 
   -0.31699E+08        -0.40122E+06         0.00000E+00
   -0.40122E+06        -0.49925E+08         0.00000E+00
    0.00000E+00         0.00000E+00        -0.24847E+08
 
   -0.31499E+08        -0.41184E+06         0.00000E+00
   -0.41184E+06        -0.49919E+08         0.00000E+00
    0.00000E+00         0.00000E+00        -0.24938E+08
 
   -0.31306E+08        -0.41664E+06         0.00000E+00
   -0.41664E+06        -0.49912E+08         0.00000E+00
    0.00000E+00         0.00000E+00        -0.25027E+08
 
   -0.31120E+08        -0.41606E+06         0.00000E+00
   -0.41606E+06        -0.49905E+08         0.00000E+00
    0.00000E+00         0.00000E+00        -0.25114E+08
 
   -0.30942E+08        -0.41061E+06         0.00000E+00
   -0.41061E+06        -0.49895E+08         0.00000E+00
    0.00000E+00         0.00000E+00        -0.25199E+08
 
   -0.30770E+08        -0.40100E+06         0.00000E+00
   -0.40100E+06        -0.49885E+08         0.00000E+00
    0.00000E+00         0.00000E+00        -0.25282E+08
 
   -0.30607E+08        -0.38789E+06         0.00000E+00
   -0.38789E+06        -0.49874E+08         0.00000E+00
    0.00000E+00         0.00000E+00        -0.25362E+08
 
   -0.30451E+08        -0.37193E+06         0.00000E+00
   -0.37193E+06        -0.49862E+08         0.00000E+00
    0.00000E+00         0.00000E+00        -0.25439E+08
 
   -0.30302E+08        -0.35361E+06         0.00000E+00
   -0.35361E+06        -0.49850E+08         0.00000E+00
    0.00000E+00         0.00000E+00        -0.25513E+08
 
   -0.30160E+08        -0.33335E+06         0.00000E+00
   -0.33335E+06        -0.49838E+08         0.00000E+00
    0.00000E+00         0.00000E+00        -0.25585E+08
 
   -0.30026E+08        -0.31149E+06         0.00000E+00
   -0.31149E+06        -0.49826E+08         0.00000E+00
    0.00000E+00         0.00000E+00        -0.25655E+08
 
   -0.29898E+08        -0.28829E+06         0.00000E+00
   -0.28829E+06        -0.49814E+08         0.00000E+00
    0.00000E+00         0.00000E+00        -0.25723E+08
 
   -0.29776E+08        -0.26394E+06         0.00000E+00
   -0.26394E+06        -0.49803E+08         0.00000E+00
    0.00000E+00         0.00000E+00        -0.25789E+08
 
   -0.29660E+08        -0.23862E+06         0.00000E+00
   -0.23862E+06        -0.49793E+08         0.00000E+00
    0.00000E+00         0.00000E+00        -0.25854E+08
 
   -0.29550E+08        -0.21249E+06         0.00000E+00
   -0.21249E+06        -0.49784E+08         0.00000E+00
    0.00000E+00         0.00000E+00        -0.25917E+08
 
   -0.29444E+08        -0.18569E+06         0.00000E+00
   -0.18569E+06        -0.49777E+08         0.00000E+00
    0.00000E+00         0.00000E+00        -0.25980E+08
 
   -0.29344E+08        -0.15818E+06         0.00000E+00
   -0.15818E+06        -0.49770E+08         0.00000E+00
    0.00000E+00         0.00000E+00        -0.26043E+08
 
   -0.29248E+08        -0.12988E+06         0.00000E+00
   -0.12988E+06        -0.49765E+08         0.00000E+00
    0.00000E+00         0.00000E+00        -0.26105E+08
 
   -0.29156E+08        -0.10082E+06         0.00000E+00
   -0.10082E+06        -0.49762E+08         0.00000E+00
    0.00000E+00         0.00000E+00        -0.26168E+08
 
   -0.29068E+08        -0.70951E+05         0.00000E+00
   -0.70951E+05        -0.49761E+08         0.00000E+00
    0.00000E+00         0.00000E+00        -0.26231E+08
 
   -0.28983E+08        -0.40233E+05         0.00000E+00
   -0.40233E+05        -0.49762E+08         0.00000E+00
    0.00000E+00         0.00000E+00        -0.26295E+08
 
   -0.28902E+08        -0.86581E+04         0.00000E+00
   -0.86581E+04        -0.49764E+08         0.00000E+00
    0.00000E+00         0.00000E+00        -0.26359E+08
 
   -0.28825E+08         0.23891E+05         0.00000E+00
    0.23891E+05        -0.49769E+08         0.00000E+00
    0.00000E+00         0.00000E+00        -0.26425E+08
 
   -0.28750E+08         0.57544E+05         0.00000E+00
    0.57544E+05        -0.49776E+08         0.00000E+00
    0.00000E+00         0.00000E+00        -0.26493E+08
 
   -0.28678E+08         0.92486E+05         0.00000E+00
    0.92486E+05        -0.49785E+08         0.00000E+00
    0.00000E+00         0.00000E+00        -0.26562E+08
 
   -0.28608E+08         0.12890E+06         0.00000E+00
    0.12890E+06        -0.49797E+08         0.00000E+00
    0.00000E+00         0.00000E+00        -0.26633E+08
 
   -0.28541E+08         0.16698E+06         0.00000E+00
    0.16698E+06        -0.49812E+08         0.00000E+00
    0.00000E+00         0.00000E+00        -0.26706E+08
 
   -0.28476E+08         0.20699E+06         0.00000E+00
    0.20699E+06        -0.49829E+08         0.00000E+00
    0.00000E+00         0.00000E+00        -0.26783E+08
 
   -0.28413E+08         0.24913E+06         0.00000E+00
    0.24913E+06        -0.49850E+08         0.00000E+00
    0.00000E+00         0.00000E+00        -0.26863E+08
 
   -0.28353E+08         0.29371E+06         0.00000E+00
    0.29371E+06        -0.49874E+08         0.00000E+00
    0.00000E+00         0.00000E+00        -0.26946E+08
 
   -0.28296E+08         0.34100E+06         0.00000E+00
    0.34100E+06        -0.49901E+08         0.00000E+00
    0.00000E+00         0.00000E+00        -0.27031E+08
 
   -0.28243E+08         0.39130E+06         0.00000E+00
    0.39130E+06        -0.49931E+08         0.00000E+00
    0.00000E+00         0.00000E+00        -0.27120E+08
 
   -0.28193E+08         0.44491E+06         0.00000E+00
    0.44491E+06        -0.49966E+08         0.00000E+00
    0.00000E+00         0.00000E+00        -0.27212E+08
 
   -0.28147E+08         0.50243E+06         0.00000E+00
    0.50243E+06        -0.50003E+08         0.00000E+00
    0.00000E+00         0.00000E+00        -0.27306E+08
 
   -0.28105E+08         0.56374E+06         0.00000E+00
    0.56374E+06        -0.50044E+08         0.00000E+00
    0.00000E+00         0.00000E+00        -0.27403E+08
 
   -0.28065E+08         0.63154E+06         0.00000E+00
    0.63154E+06        -0.50087E+08         0.00000E+00
    0.00000E+00         0.00000E+00        -0.27503E+08
 
   -0.28032E+08         0.70558E+06         0.00000E+00
    0.70558E+06        -0.50134E+08         0.00000E+00
    0.00000E+00         0.00000E+00        -0.27605E+08
 
   -0.28007E+08         0.78676E+06         0.00000E+00
    0.78676E+06        -0.50185E+08         0.00000E+00
    0.00000E+00         0.00000E+00        -0.27708E+08
 
   -0.27994E+08         0.87150E+06         0.00000E+00
    0.87150E+06        -0.50242E+08         0.00000E+00
    0.00000E+00         0.00000E+00        -0.27808E+08
 
   -0.27999E+08         0.96675E+06         0.00000E+00
    0.96675E+06        -0.50303E+08         0.00000E+00
    0.00000E+00         0.00000E+00        -0.27901E+08
 
   -0.28013E+08         0.10663E+07         0.00000E+00
    0.10663E+07        -0.50360E+08         0.00000E+00
    0.00000E+00         0.00000E+00        -0.27982E+08
 
   -0.34103E+08         0.59424E+05         0.00000E+00
    0.59424E+05        -0.49872E+08         0.00000E+00
    0.00000E+00         0.00000E+00        -0.23493E+08
 
   -0.33828E+08        -0.26464E+05         0.00000E+00
   -0.26464E+05        -0.49856E+08         0.00000E+00
    0.00000E+00         0.00000E+00        -0.23557E+08
 
   -0.33542E+08        -0.10423E+06         0.00000E+00
   -0.10423E+06        -0.49840E+08         0.00000E+00
    0.00000E+00         0.00000E+00        -0.23630E+08
 
   -0.33277E+08        -0.16521E+06         0.00000E+00
   -0.16521E+06        -0.49874E+08         0.00000E+00
    0.00000E+00         0.00000E+00        -0.23744E+08
 
   -0.33016E+08        -0.21828E+06         0.00000E+00
   -0.21828E+06        -0.49885E+08         0.00000E+00
    0.00000E+00         0.00000E+00        -0.23842E+08
 
   -0.32753E+08        -0.26559E+06         0.00000E+00
   -0.26559E+06        -0.49890E+08         0.00000E+00
    0.00000E+00         0.00000E+00        -0.23941E+08
 
   -0.32491E+08        -0.30149E+06         0.00000E+00
   -0.30149E+06        -0.49890E+08         0.00000E+00
    0.00000E+00         0.00000E+00        -0.24041E+08
 
   -0.32236E+08        -0.32587E+06         0.00000E+00
   -0.32587E+06        -0.49887E+08         0.00000E+00
    0.00000E+00         0.00000E+00        -0.24139E+08
 
   -0.31988E+08        -0.34102E+06         0.00000E+00
   -0.34102E+06        -0.49878E+08         0.00000E+00
    0.00000E+00         0.00000E+00        -0.24234E+08
 
   -0.31749E+08        -0.34987E+06         0.00000E+00
   -0.34987E+06        -0.49861E+08         0.00000E+00
    0.00000E+00         0.00000E+00        -0.24321E+08
 
   -0.31518E+08        -0.35210E+06         0.00000E+00
   -0.35210E+06        -0.49841E+08         0.00000E+00
    0.00000E+00         0.00000E+00        -0.24406E+08
 
   -0.31298E+08        -0.34788E+06         0.00000E+00
   -0.34788E+06        -0.49818E+08         0.00000E+00
    0.00000E+00         0.00000E+00        -0.24487E+08
 
   -0.31089E+08        -0.33872E+06         0.00000E+00
   -0.33872E+06        -0.49793E+08         0.00000E+00
    0.00000E+00         0.00000E+00        -0.24563E+08
 
   -0.30892E+08        -0.32624E+06         0.00000E+00
   -0.32624E+06        -0.49766E+08         0.00000E+00
    0.00000E+00         0.00000E+00        -0.24635E+08
 
   -0.30706E+08        -0.31158E+06         0.00000E+00
   -0.31158E+06        -0.49739E+08         0.00000E+00
    0.00000E+00         0.00000E+00        -0.24704E+08
 
   -0.30531E+08        -0.29550E+06         0.00000E+00
   -0.29550E+06        -0.49712E+08         0.00000E+00
    0.00000E+00         0.00000E+00        -0.24769E+08
 
   -0.30366E+08        -0.27846E+06         0.00000E+00
   -0.27846E+06        -0.49685E+08         0.00000E+00
    0.00000E+00         0.00000E+00        -0.24831E+08
 
   -0.30210E+08        -0.26076E+06         0.00000E+00
   -0.26076E+06        -0.49658E+08         0.00000E+00
    0.00000E+00         0.00000E+00        -0.24890E+08
 
   -0.30063E+08        -0.24265E+06         0.00000E+00
   -0.24265E+06        -0.49633E+08         0.00000E+00
    0.00000E+00         0.00000E+00        -0.24948E+08
 
   -0.29924E+08        -0.22429E+06         0.00000E+00
   -0.22429E+06        -0.49608E+08         0.00000E+00
    0.00000E+00         0.00000E+00        -0.25003E+08
 
   -0.29793E+08        -0.20578E+06         0.00000E+00
   -0.20578E+06        -0.49585E+08         0.00000E+00
    0.00000E+00         0.00000E+00        -0.25058E+08
 
   -0.29668E+08        -0.18717E+06         0.00000E+00
   -0.18717E+06        -0.49564E+08         0.00000E+00
    0.00000E+00         0.00000E+00        -0.25111E+08
 
   -0.29549E+08        -0.16848E+06         0.00000E+00
   -0.16848E+06        -0.49545E+08         0.00000E+00
    0.00000E+00         0.00000E+00        -0.25164E+08
 
   -0.29437E+08        -0.14970E+06         0.00000E+00
   -0.14970E+06        -0.49527E+08         0.00000E+00
    0.00000E+00         0.00000E+00        -0.25217E+08
 
   -0.29329E+08        -0.13080E+06         0.00000E+00
   -0.13080E+06        -0.49512E+08         0.00000E+00
    0.00000E+00         0.00000E+00        -0.25269E+08
 
   -0.29226E+08        -0.11177E+06         0.00000E+00
   -0.11177E+06        -0.49498E+08         0.00000E+00
    0.00000E+00         0.00000E+00        -0.25321E+08
 
   -0.29128E+08        -0.92630E+05         0.00000E+00
   -0.92630E+05        -0.49486E+08         0.00000E+00
    0.00000E+00         0.00000E+00        -0.25374E+08
 
   -0.29034E+08        -0.73328E+05         0.00000E+00
   -0.73328E+05        -0.49477E+08         0.00000E+00
    0.00000E+00         0.00000E+00        -0.25428E+08
 
   -0.28943E+08        -0.53802E+05         0.00000E+00
   -0.53802E+05        -0.49470E+08         0.00000E+00
    0.00000E+00         0.00000E+00        -0.25482E+08
 
   -0.28856E+08        -0.33979E+05         0.00000E+00
   -0.33979E+05        -0.49465E+08         0.00000E+00
    0.00000E+00         0.00000E+00        -0.25538E+08
 
   -0.28771E+08        -0.13750E+05         0.00000E+00
   -0.13750E+05        -0.49462E+08         0.00000E+00
    0.00000E+00         0.00000E+00        -0.25596E+08
 
   -0.28690E+08         0.69261E+04         0.00000E+00
    0.69261E+04        -0.49462E+08         0.00000E+00
    0.00000E+00         0.00000E+00        -0.25655E+08
 
   -0.28610E+08         0.28109E+05         0.00000E+00
    0.28109E+05        -0.49465E+08         0.00000E+00
    0.00000E+00         0.00000E+00        -0.25716E+08
 
   -0.28533E+08         0.49922E+05         0.00000E+00
    0.49922E+05        -0.49470E+08         0.00000E+00
    0.00000E+00         0.00000E+00        -0.25780E+08
 
   -0.28458E+08         0.72435E+05         0.00000E+00
    0.72435E+05        -0.49478E+08         0.00000E+00
    0.00000E+00         0.00000E+00        -0.25846E+08
 
   -0.28384E+08         0.95704E+05         0.00000E+00
    0.95704E+05        -0.49489E+08         0.00000E+00
    0.00000E+00         0.00000E+00        -0.25916E+08
 
   -0.28311E+08         0.11987E+06         0.00000E+00
    0.11987E+06        -0.49503E+08         0.00000E+00
    0.00000E+00         0.00000E+00        -0.25990E+08
 
   -0.28239E+08         0.14530E+06         0.00000E+00
    0.14530E+06        -0.49521E+08         0.00000E+00
    0.00000E+00         0.00000E+00        -0.26068E+08
 
   -0.28168E+08         0.17220E+06         0.00000E+00
    0.17220E+06        -0.49541E+08         0.00000E+00
    0.00000E+00         0.00000E+00        -0.26151E+08
 
   -0.28098E+08         0.20092E+06         0.00000E+00
    0.20092E+06        -0.49565E+08         0.00000E+00
    0.00000E+00         0.00000E+00        -0.26238E+08
 
   -0.28029E+08         0.23193E+06         0.00000E+00
    0.23193E+06        -0.49593E+08         0.00000E+00
    0.00000E+00         0.00000E+00        -0.26330E+08
 
   -0.27962E+08         0.26582E+06         0.00000E+00
    0.26582E+06        -0.49626E+08         0.00000E+00
    0.00000E+00         0.00000E+00        -0.26428E+08
 
   -0.27896E+08         0.30393E+06         0.00000E+00
    0.30393E+06        -0.49662E+08         0.00000E+00
    0.00000E+00         0.00000E+00        -0.26532E+08
 
   -0.27830E+08         0.34665E+06         0.00000E+00
    0.34665E+06        -0.49703E+08         0.00000E+00
    0.00000E+00         0.00000E+00        -0.26643E+08
 
   -0.27762E+08         0.39300E+06         0.00000E+00
    0.39300E+06        -0.49750E+08         0.00000E+00
    0.00000E+00         0.00000E+00        -0.26765E+08
 
   -0.27693E+08         0.44407E+06         0.00000E+00
    0.44407E+06        -0.49800E+08         0.00000E+00
    0.00000E+00         0.00000E+00        -0.26895E+08
 
   -0.27627E+08         0.50328E+06         0.00000E+00
    0.50328E+06        -0.49854E+08         0.00000E+00
    0.00000E+00         0.00000E+00        -0.27031E+08
 
   -0.27568E+08         0.57606E+06         0.00000E+00
    0.57606E+06        -0.49913E+08         0.00000E+00
    0.00000E+00         0.00000E+00        -0.27171E+08
 
   -0.27521E+08         0.65564E+06         0.00000E+00
    0.65564E+06        -0.49980E+08         0.00000E+00
    0.00000E+00         0.00000E+00        -0.27313E+08
 
   -0.27511E+08         0.75715E+06         0.00000E+00
    0.75715E+06        -0.50068E+08         0.00000E+00
    0.00000E+00         0.00000E+00        -0.27452E+08
 
   -0.34055E+08        -0.21027E+04         0.00000E+00
   -0.21027E+04        -0.50124E+08         0.00000E+00
    0.00000E+00         0.00000E+00        -0.25576E+08
 
   -0.33955E+08         0.78488E+04         0.00000E+00
    0.78488E+04        -0.50130E+08         0.00000E+00
    0.00000E+00         0.00000E+00        -0.24506E+08
 
   -0.33730E+08        -0.14761E+05         0.00000E+00
   -0.14761E+05        -0.50124E+08         0.00000E+00
    0.00000E+00         0.00000E+00        -0.23706E+08
 
   -0.33512E+08        -0.60780E+05         0.00000E+00
   -0.60780E+05        -0.50067E+08         0.00000E+00
    0.00000E+00         0.00000E+00        -0.23427E+08
 
   -0.33265E+08        -0.10768E+06         0.00000E+00
   -0.10768E+06        -0.50017E+08         0.00000E+00
    0.00000E+00         0.00000E+00        -0.23463E+08
 
   -0.32953E+08        -0.14043E+06         0.00000E+00
   -0.14043E+06        -0.49963E+08         0.00000E+00
    0.00000E+00         0.00000E+00        -0.23519E+08
 
   -0.32627E+08        -0.15893E+06         0.00000E+00
   -0.15893E+06        -0.49904E+08         0.00000E+00
    0.00000E+00         0.00000E+00        -0.23581E+08
 
   -0.32323E+08        -0.16796E+06         0.00000E+00
   -0.16796E+06        -0.49842E+08         0.00000E+00
    0.00000E+00         0.00000E+00        -0.23637E+08
 
   -0.32042E+08        -0.17139E+06         0.00000E+00
   -0.17139E+06        -0.49780E+08         0.00000E+00
    0.00000E+00         0.00000E+00        -0.23689E+08
 
   -0.31771E+08        -0.16987E+06         0.00000E+00
   -0.16987E+06        -0.49721E+08         0.00000E+00
    0.00000E+00         0.00000E+00        -0.23744E+08
 
   -0.31510E+08        -0.16279E+06         0.00000E+00
   -0.16279E+06        -0.49662E+08         0.00000E+00
    0.00000E+00         0.00000E+00        -0.23799E+08
 
   -0.31266E+08        -0.15328E+06         0.00000E+00
   -0.15328E+06        -0.49606E+08         0.00000E+00
    0.00000E+00         0.00000E+00        -0.23852E+08
 
   -0.31044E+08        -0.14347E+06         0.00000E+00
   -0.14347E+06        -0.49552E+08         0.00000E+00
    0.00000E+00         0.00000E+00        -0.23901E+08
 
   -0.30839E+08        -0.13392E+06         0.00000E+00
   -0.13392E+06        -0.49501E+08         0.00000E+00
    0.00000E+00         0.00000E+00        -0.23948E+08
 
   -0.30648E+08        -0.12472E+06         0.00000E+00
   -0.12472E+06        -0.49453E+08         0.00000E+00
    0.00000E+00         0.00000E+00        -0.23993E+08
 
   -0.30470E+08        -0.11578E+06         0.00000E+00
   -0.11578E+06        -0.49408E+08         0.00000E+00
    0.00000E+00         0.00000E+00        -0.24038E+08
 
   -0.30303E+08        -0.10711E+06         0.00000E+00
   -0.10711E+06        -0.49366E+08         0.00000E+00
    0.00000E+00         0.00000E+00        -0.24081E+08
 
   -0.30146E+08        -0.98774E+05         0.00000E+00
   -0.98774E+05        -0.49327E+08         0.00000E+00
    0.00000E+00         0.00000E+00        -0.24123E+08
 
   -0.29999E+08        -0.90762E+05         0.00000E+00
   -0.90762E+05        -0.49292E+08         0.00000E+00
    0.00000E+00         0.00000E+00        -0.24166E+08
 
   -0.29860E+08        -0.83011E+05         0.00000E+00
   -0.83011E+05        -0.49259E+08         0.00000E+00
    0.00000E+00         0.00000E+00        -0.24208E+08
 
   -0.29728E+08        -0.75477E+05         0.00000E+00
   -0.75477E+05        -0.49228E+08         0.00000E+00
    0.00000E+00         0.00000E+00        -0.24250E+08
 
   -0.29604E+08        -0.68128E+05         0.00000E+00
   -0.68128E+05        -0.49201E+08         0.00000E+00
    0.00000E+00         0.00000E+00        -0.24292E+08
 
   -0.29485E+08        -0.60919E+05         0.00000E+00
   -0.60919E+05        -0.49177E+08         0.00000E+00
    0.00000E+00         0.00000E+00        -0.24335E+08
 
   -0.29372E+08        -0.53817E+05         0.00000E+00
   -0.53817E+05        -0.49155E+08         0.00000E+00
    0.00000E+00         0.00000E+00        -0.24378E+08
 
   -0.29265E+08        -0.46788E+05         0.00000E+00
   -0.46788E+05        -0.49136E+08         0.00000E+00
    0.00000E+00         0.00000E+00        -0.24423E+08
 
   -0.29162E+08        -0.39805E+05         0.00000E+00
   -0.39805E+05        -0.49119E+08         0.00000E+00
    0.00000E+00         0.00000E+00        -0.24468E+08
 
   -0.29063E+08        -0.32851E+05         0.00000E+00
   -0.32851E+05        -0.49106E+08         0.00000E+00
    0.00000E+00         0.00000E+00        -0.24514E+08
 
   -0.28968E+08        -0.25913E+05         0.00000E+00
   -0.25913E+05        -0.49095E+08         0.00000E+00
    0.00000E+00         0.00000E+00        -0.24561E+08
 
   -0.28877E+08        -0.18957E+05         0.00000E+00
   -0.18957E+05        -0.49086E+08         0.00000E+00
    0.00000E+00         0.00000E+00        -0.24611E+08
 
   -0.28788E+08        -0.11970E+05         0.00000E+00
   -0.11970E+05        -0.49081E+08         0.00000E+00
    0.00000E+00         0.00000E+00        -0.24662E+08
 
   -0.28703E+08        -0.49338E+04         0.00000E+00
   -0.49338E+04        -0.49078E+08         0.00000E+00
    0.00000E+00         0.00000E+00        -0.24715E+08
 
   -0.28620E+08         0.22055E+04         0.00000E+00
    0.22055E+04        -0.49078E+08         0.00000E+00
    0.00000E+00         0.00000E+00        -0.24770E+08
 
   -0.28539E+08         0.94633E+04         0.00000E+00
    0.94633E+04        -0.49081E+08         0.00000E+00
    0.00000E+00         0.00000E+00        -0.24828E+08
 
   -0.28459E+08         0.16839E+05         0.00000E+00
    0.16839E+05        -0.49087E+08         0.00000E+00
    0.00000E+00         0.00000E+00        -0.24889E+08
 
   -0.28382E+08         0.24443E+05         0.00000E+00
    0.24443E+05        -0.49096E+08         0.00000E+00
    0.00000E+00         0.00000E+00        -0.24953E+08
 
   -0.28305E+08         0.32322E+05         0.00000E+00
    0.32322E+05        -0.49109E+08         0.00000E+00
    0.00000E+00         0.00000E+00        -0.25021E+08
 
   -0.28229E+08         0.40460E+05         0.00000E+00
    0.40460E+05        -0.49124E+08         0.00000E+00
    0.00000E+00         0.00000E+00        -0.25093E+08
 
   -0.28152E+08         0.48838E+05         0.00000E+00
    0.48838E+05        -0.49143E+08         0.00000E+00
    0.00000E+00         0.00000E+00        -0.25170E+08
 
   -0.28075E+08         0.57677E+05         0.00000E+00
    0.57677E+05        -0.49165E+08         0.00000E+00
    0.00000E+00         0.00000E+00        -0.25252E+08
 
   -0.27998E+08         0.67148E+05         0.00000E+00
    0.67148E+05        -0.49191E+08         0.00000E+00
    0.00000E+00         0.00000E+00        -0.25341E+08
 
   -0.27919E+08         0.77416E+05         0.00000E+00
    0.77416E+05        -0.49221E+08         0.00000E+00
    0.00000E+00         0.00000E+00        -0.25436E+08
 
   -0.27839E+08         0.88726E+05         0.00000E+00
    0.88726E+05        -0.49255E+08         0.00000E+00
    0.00000E+00         0.00000E+00        -0.25538E+08
 
   -0.27757E+08         0.10112E+06         0.00000E+00
    0.10112E+06        -0.49294E+08         0.00000E+00
    0.00000E+00         0.00000E+00        -0.25650E+08
 
   -0.27673E+08         0.11536E+06         0.00000E+00
    0.11536E+06        -0.49338E+08         0.00000E+00
    0.00000E+00         0.00000E+00        -0.25772E+08
 
   -0.27586E+08         0.13252E+06         0.00000E+00
    0.13252E+06        -0.49388E+08         0.00000E+00
    0.00000E+00         0.00000E+00        -0.25905E+08
 
   -0.27493E+08         0.15367E+06         0.00000E+00
    0.15367E+06        -0.49445E+08         0.00000E+00
    0.00000E+00         0.00000E+00        -0.26055E+08
 
   -0.27379E+08         0.17918E+06         0.00000E+00
    0.17918E+06        -0.49510E+08         0.00000E+00
    0.00000E+00         0.00000E+00        -0.26236E+08
 
   -0.27260E+08         0.21175E+06         0.00000E+00
    0.21175E+06        -0.49583E+08         0.00000E+00
    0.00000E+00         0.00000E+00        -0.26437E+08
 
   -0.27140E+08         0.25795E+06         0.00000E+00
    0.25795E+06        -0.49664E+08         0.00000E+00
    0.00000E+00         0.00000E+00        -0.26655E+08
 
   -0.27017E+08         0.31010E+06         0.00000E+00
    0.31010E+06        -0.49746E+08         0.00000E+00
    0.00000E+00         0.00000E+00        -0.26883E+08
 
SCALARS stresss double 
LOOKUP_TABLE default
  -55856297.4570933     
  -56118022.2315520     
  -56406570.6338851     
  -56697669.2082765     
  -56855199.5540772     
  -57011951.9661227     
  -57167460.6277728     
  -57320291.2085611     
  -57467121.1761205     
  -57608304.9091320     
  -57744182.9893381     
  -57875195.8886373     
  -58001462.0249655     
  -58123515.5454840     
  -58241070.5362083     
  -58354470.0541253     
  -58463615.8734004     
  -58568594.6108830     
  -58669607.3590932     
  -58766527.0353810     
  -58858249.8889440     
  -58945990.8699796     
  -59029655.8602980     
  -59109590.2196406     
  -59185852.3504179     
  -59258401.4029448     
  -59327569.7830337     
  -59393299.5273956     
  -59455692.6008461     
  -59514850.0654921     
  -59570826.5263848     
  -59623642.0273184     
  -59673286.6830378     
  -59719732.3161791     
  -59762910.2941984     
  -59802758.0120258     
  -59839182.3231527     
  -59872068.4490292     
  -59901300.9289112     
  -59926764.3002038     
  -59948323.6990627     
  -59965863.2416215     
  -59979314.1488619     
  -59988620.9143576     
  -59993742.9634516     
  -59994693.9381685     
  -59991549.9599280     
  -59983893.6511319     
  -59974010.6922912     
  -59972763.8573085     
  -57147476.5650214     
  -57226922.2825351     
  -57321038.6675125     
  -57400633.1620336     
  -57496179.0968534     
  -57586939.4379847     
  -57678033.4747101     
  -57768454.2352055     
  -57858229.8878473     
  -57947344.5414304     
  -58034747.3413878     
  -58121161.6104744     
  -58206812.5249526     
  -58290719.0773357     
  -58372507.6038981     
  -58452487.3053010     
  -58530677.4479951     
  -58606787.6747520     
  -58680599.7980661     
  -58752231.3832555     
  -58821758.3622433     
  -58888617.3379479     
  -58953168.7724375     
  -59015802.1428883     
  -59076452.0888182     
  -59135090.7263278     
  -59191558.3322843     
  -59245947.7677209     
  -59298165.2168099     
  -59347950.2035442     
  -59395211.5011491     
  -59439952.1419473     
  -59482143.5479818     
  -59521763.9674676     
  -59558814.8917316     
  -59593229.3365194     
  -59624935.4848861     
  -59653867.1294271     
  -59679891.5199719     
  -59702826.1992708     
  -59722544.3626324     
  -59738858.0490585     
  -59751445.5041637     
  -59759993.5425188     
  -59764181.3946393     
  -59763656.3159437     
  -59759402.5833839     
  -59751435.2636223     
  -59735052.3499430     
  -59690429.9870024     
  -57206508.0004933     
  -57403478.1366792     
  -57557382.0412803     
  -57688405.8284998     
  -57795274.4371912     
  -57887993.6688679     
  -57968648.1035367     
  -58040834.2011428     
  -58107280.7018716     
  -58170104.1346434     
  -58230728.9498641     
  -58290089.2463292     
  -58348787.0465815     
  -58407519.5586305     
  -58466306.6390971     
  -58524758.5094006     
  -58582638.3564626     
  -58639712.8453622     
  -58695821.9292952     
  -58750751.4071424     
  -58804173.1263827     
  -58855958.3788656     
  -58905931.4079711     
  -58953996.2873048     
  -59000107.4288142     
  -59044134.3166225     
  -59085938.0799153     
  -59125802.8197462     
  -59163967.9949536     
  -59200356.4226147     
  -59234998.0139811     
  -59267789.9138764     
  -59298586.9555891     
  -59327420.2953535     
  -59354103.9222107     
  -59378617.5258149     
  -59400946.2804962     
  -59421000.7132897     
  -59438727.0602225     
  -59454025.3506995     
  -59466504.6124774     
  -59475826.1049903     
  -59481721.0606840     
  -59483704.9434633     
  -59481253.8906247     
  -59473659.0012389     
  -59458168.2400031     
  -59433861.0993916     
  -59402398.9492577     
  -59371920.7956041     
  -57520502.1390584     
  -57635797.2922223     
  -57751055.2718504     
  -57857176.7015281     
  -57953583.4993225     
  -58038695.5915192     
  -58115104.5786515     
  -58183821.1516049     
  -58246090.7213049     
  -58303269.7393627     
  -58356627.2653535     
  -58407179.3463504     
  -58455600.3251509     
  -58502399.8966334     
  -58547913.7395307     
  -58592410.9517794     
  -58635858.9027014     
  -58678247.1107272     
  -58719324.1730486     
  -58758919.4387806     
  -58796927.5037358     
  -58833201.5328709     
  -58867609.5482842     
  -58900051.0119492     
  -58930493.9059494     
  -58959038.0615827     
  -58985715.1838451     
  -59010565.1574525     
  -59033701.6960034     
  -59055228.4531265     
  -59075265.6552685     
  -59093755.2934161     
  -59110707.5237201     
  -59126246.0659081     
  -59140129.6890384     
  -59152246.7142077     
  -59162325.6945985     
  -59170172.6600629     
  -59175581.6152591     
  -59178404.0565823     
  -59178722.1484700     
  -59176366.3806471     
  -59171102.3785041     
  -59162838.8823994     
  -59150863.3216649     
  -59134719.8558903     
  -59115143.1417246     
  -59090578.0297326     
  -59060793.8828191     
  -59028289.4400569     
  -57940276.6812290     
  -58004977.8844753     
  -58064285.4146236     
  -58122206.0337476     
  -58178770.8709788     
  -58233810.7773073     
  -58286318.5238342     
  -58335753.3346123     
  -58381972.5352888     
  -58425017.9697140     
  -58465199.7762907     
  -58502832.7795823     
  -58538436.9676883     
  -58572309.6718209     
  -58604716.9915381     
  -58635860.0225222     
  -58665746.1657257     
  -58694554.4516584     
  -58722142.6989591     
  -58748315.2129621     
  -58772855.3823223     
  -58795575.3966246     
  -58816326.0288016     
  -58834997.4332985     
  -58851543.2207006     
  -58865921.1019786     
  -58878214.6231515     
  -58888521.6782831     
  -58896933.5425246     
  -58903541.3540387     
  -58908485.0021678     
  -58911910.3882615     
  -58913902.5642392     
  -58914517.2488945     
  -58913765.6572053     
  -58911606.4151815     
  -58907766.8222861     
  -58902127.1363945     
  -58894517.6115375     
  -58884670.5465100     
  -58872222.2935361     
  -58857306.6654855     
  -58839815.6098508     
  -58819550.3881739     
  -58797502.9210476     
  -58774348.8871758     
  -58750241.9239088     
  -58726587.7958367     
  -58702017.0085883     
  -58672063.4530094     
  -58361855.5763280     
  -58385207.3020436     
  -58407346.9507029     
  -58427499.0580927     
  -58446020.9413536     
  -58464017.0655122     
  -58481768.4993534     
  -58499568.2636737     
  -58517515.3321591     
  -58535658.4939157     
  -58553710.5066872     
  -58571707.9169875     
  -58589742.0982310     
  -58607685.5742075     
  -58625423.9754858     
  -58642835.4504781     
  -58659752.5254247     
  -58676178.5980516     
  -58691889.9870725     
  -58706574.2948331     
  -58719989.2032284     
  -58731826.0587914     
  -58741811.5802508     
  -58749710.7576440     
  -58755274.8822796     
  -58758298.4474986     
  -58758754.4593190     
  -58756623.2268597     
  -58751963.3022378     
  -58744965.4575207     
  -58735746.1478113     
  -58724482.6099741     
  -58711378.2260115     
  -58696632.1828381     
  -58680427.7253418     
  -58662992.4931653     
  -58644471.6611640     
  -58624935.7280480     
  -58604380.9224202     
  -58582712.6512171     
  -58559453.5949448     
  -58534408.9067370     
  -58507847.0690003     
  -58480278.1994263     
  -58451489.7808740     
  -58421527.5694995     
  -58390528.4491840     
  -58358692.5655588     
  -58327669.3014760     
  -58299947.2927556     
  -58770063.9615887     
  -58762501.7701930     
  -58744794.8742940     
  -58722029.0227388     
  -58697790.9539271     
  -58674649.0192791     
  -58654072.5642322     
  -58637031.2355525     
  -58623582.7726742     
  -58613499.2361959     
  -58607097.1178188     
  -58603324.5475760     
  -58601736.4732092     
  -58602243.4326687     
  -58604476.9707388     
  -58608136.8790775     
  -58612834.4004421     
  -58617843.0416231     
  -58622715.4391323     
  -58627586.5632541     
  -58631846.4839068     
  -58635234.8313656     
  -58637263.0345998     
  -58637358.5609111     
  -58635122.5017543     
  -58630154.9703832     
  -58622200.1707719     
  -58611053.5955277     
  -58596596.5829965     
  -58578767.8611769     
  -58557836.7325144     
  -58534163.4300980     
  -58508153.8301607     
  -58480142.4924810     
  -58450472.3798294     
  -58419436.7832714     
  -58387385.0943058     
  -58354480.3736255     
  -58320942.0893414     
  -58287121.3794288     
  -58253710.2553333     
  -58220806.9251323     
  -58187639.2929828     
  -58153966.6141693     
  -58119493.5665947     
  -58083978.1407743     
  -58048314.0416142     
  -58012572.3373581     
  -57977288.4777167     
  -57941805.5447165     
  -59141806.0640658     
  -59073273.9511263     
  -58998780.5403771     
  -58926169.6464688     
  -58859273.5758011     
  -58799717.2797362     
  -58748023.2901140     
  -58704039.9387707     
  -58667185.2955720     
  -58636632.0745430     
  -58609150.2150192     
  -58586331.7429025     
  -58567676.5336824     
  -58552198.5684816     
  -58540335.3561251     
  -58531323.0294050     
  -58524027.7206870     
  -58518410.1753183     
  -58513975.7382891     
  -58510266.9707497     
  -58507434.4352014     
  -58504228.3828644     
  -58500148.9463411     
  -58494963.8027178     
  -58487748.3463445     
  -58478366.2664692     
  -58465800.4117725     
  -58449631.0803269     
  -58429562.2238923     
  -58405627.9151805     
  -58377737.6022873     
  -58346032.2962233     
  -58310808.6899118     
  -58272696.6604438     
  -58232325.4061904     
  -58190247.7465285     
  -58147047.4964132     
  -58103358.5924276     
  -58059569.8680297     
  -58015815.8833009     
  -57971943.3175895     
  -57928257.9891066     
  -57885365.1157080     
  -57843442.6154024     
  -57803052.9480849     
  -57764282.6483197     
  -57725510.2598416     
  -57686040.2697301     
  -57644142.2241466     
  -57600154.4570373     
  -59304072.4099930     
  -59193005.4398388     
  -59088628.5397236     
  -58992164.2439417     
  -58904205.9214331     
  -58824893.1258965     
  -58754128.6093333     
  -58691911.7944839     
  -58638016.5379177     
  -58592328.4657619     
  -58548864.8169928     
  -58512375.0312311     
  -58482629.8452284     
  -58459167.5283887     
  -58434962.4393048     
  -58410783.2714297     
  -58391996.2010378     
  -58377735.6116824     
  -58367041.1115999     
  -58358771.1472522     
  -58349024.9829592     
  -58339936.4305037     
  -58330905.5291302     
  -58320997.7848120     
  -58311793.6199622     
  -58299863.3031464     
  -58285361.3280632     
  -58267832.9377901     
  -58247311.6053577     
  -58222854.7008678     
  -58194123.8779414     
  -58160626.2185398     
  -58122608.6089360     
  -58080269.9798075     
  -58033835.9643709     
  -57984122.7509547     
  -57932065.2139426     
  -57878594.8980964     
  -57824541.1108948     
  -57770774.5496447     
  -57717983.2575161     
  -57666251.1756659     
  -57615490.7254542     
  -57565449.1258419     
  -57515243.3132585     
  -57464622.9598114     
  -57414880.1489275     
  -57366368.0217385     
  -57320476.2685435     
  -57276404.2090982     
  -59224255.0685470     
  -59133229.4235104     
  -59046085.7716967     
  -58962742.0306881     
  -58883421.2693882     
  -58808417.2429762     
  -58737972.5199407     
  -58672193.4623294     
  -58611113.1249070     
  -58554533.6764662     
  -58496783.7675368     
  -58443821.4130136     
  -58396582.8737231     
  -58355284.0911987     
  -58313968.5187276     
  -58274276.6160519     
  -58241407.3877942     
  -58214173.5853727     
  -58192039.2841790     
  -58174950.5382350     
  -58156084.5361071     
  -58141384.3911261     
  -58130578.6105302     
  -58121552.0994311     
  -58102897.5129767     
  -58087843.7893696     
  -58074881.9772744     
  -58062321.2012493     
  -58045283.4427436     
  -58024293.1141314     
  -57999104.5302499     
  -57970977.1104302     
  -57937515.6252142     
  -57897271.6194740     
  -57851357.5914729     
  -57800861.3747958     
  -57745833.8506905     
  -57686834.0459219     
  -57625694.4348251     
  -57563405.3507885     
  -57500293.5982019     
  -57437434.9780073     
  -57375465.3483475     
  -57314663.9372486     
  -57255875.0939851     
  -57199208.7417218     
  -57144046.3911038     
  -57089625.4926363     
  -57034792.9740755     
  -56979819.3575665     
  -59042792.7739686     
  -58971995.2511130     
  -58901894.8655425     
  -58833192.2188352     
  -58766293.9846837     
  -58701453.1967600     
  -58638824.8201962     
  -58578492.1513167     
  -58520447.0722919     
  -58464627.0390635     
  -58412420.9622838     
  -58362336.6750279     
  -58314205.3979129     
  -58267771.1532880     
  -58223646.0906398     
  -58181853.5742239     
  -58142251.5381711     
  -58105371.3062972     
  -58071348.5220786     
  -58040084.6306431     
  -58005121.5153081     
  -57973428.8415855     
  -57946020.0888843     
  -57921908.7648359     
  -57890544.1768981     
  -57865756.7513856     
  -57846082.7573453     
  -57831123.0413455     
  -57813683.4394920     
  -57797514.4665665     
  -57784233.7711670     
  -57760594.9770822     
  -57732045.3932405     
  -57704027.9076660     
  -57671677.3222637     
  -57629514.6777508     
  -57580303.8067535     
  -57526724.7044901     
  -57465261.1799461     
  -57396506.7916616     
  -57325074.1718500     
  -57251937.3130986     
  -57178242.7572862     
  -57107052.0732357     
  -57037602.7276763     
  -56969695.0799428     
  -56902748.1912847     
  -56836744.0155125     
  -56772914.4256561     
  -56710531.4717088     
  -58840539.3916275     
  -58776783.9226241     
  -58714555.4941750     
  -58653723.3688551     
  -58594297.9539652     
  -58536336.1461031     
  -58479906.3721692     
  -58425076.5807925     
  -58371923.4305960     
  -58320535.3165211     
  -58270584.3571272     
  -58222416.9012857     
  -58176003.2397599     
  -58131392.2165289     
  -58088443.3298522     
  -58047135.1293169     
  -58007445.0395376     
  -57969166.8049596     
  -57932155.2559462     
  -57896228.1452714     
  -57862913.2159949     
  -57830409.6598865     
  -57798454.3048831     
  -57766829.0962825     
  -57737056.6063212     
  -57707937.8311954     
  -57680510.5094572     
  -57655214.8395743     
  -57625571.7533723     
  -57596690.1956039     
  -57572742.6629096     
  -57542085.1052342     
  -57511196.2752177     
  -57486939.7258160     
  -57464690.1571583     
  -57436946.4350943     
  -57411985.5581068     
  -57368693.4684501     
  -57318550.8893636     
  -57265241.4005562     
  -57197188.9505005     
  -57120774.5121046     
  -57042688.8361334     
  -56956481.6193039     
  -56869633.4769113     
  -56784942.6856989     
  -56703654.2196609     
  -56627977.0141136     
  -56554145.1722506     
  -56481186.2210285     
  -58612051.0770956     
  -58554573.7396011     
  -58498148.5894516     
  -58442881.0806512     
  -58388814.2407709     
  -58335973.6109817     
  -58284379.7809631     
  -58234050.0514115     
  -58184992.3131396     
  -58137197.0581058     
  -58090757.1144506     
  -58045595.8518277     
  -58001730.5399214     
  -57959133.3189206     
  -57917805.6623165     
  -57877712.8882887     
  -57838815.9240807     
  -57801111.0211489     
  -57764579.0906070     
  -57729234.2473816     
  -57694623.6741531     
  -57661098.1400488     
  -57628604.3656299     
  -57597174.9794366     
  -57566399.5102078     
  -57536496.8635955     
  -57507068.3262460     
  -57477823.3777643     
  -57450312.0771015     
  -57423225.8344073     
  -57395414.9341284     
  -57368429.3905533     
  -57342119.5283987     
  -57316947.2767306     
  -57290571.8506312     
  -57257898.3883688     
  -57231168.4448104     
  -57191864.4068134     
  -57152799.6700622     
  -57120066.8735399     
  -57074994.9545078     
  -57032280.1426584     
  -56954776.9810378     
  -56875467.1380025     
  -56781641.6608397     
  -56679058.7446318     
  -56579989.0849414     
  -56477136.7614145     
  -56381040.0569556     
  -56291217.3023551     
  -58361504.1450765     
  -58309017.7186196     
  -58257583.9748223     
  -58207182.2933482     
  -58157815.5948833     
  -58109490.5368120     
  -58062212.6719910     
  -58015985.7045215     
  -57970813.2295585     
  -57926702.4516826     
  -57883630.5009464     
  -57841611.1253688     
  -57800627.8231589     
  -57760674.2405527     
  -57721733.3340151     
  -57683791.6148804     
  -57646831.7574756     
  -57610824.8725250     
  -57575740.5551398     
  -57541526.7675845     
  -57508252.6280797     
  -57475791.9157651     
  -57444122.6921378     
  -57413171.5036817     
  -57382970.5645984     
  -57353398.6685169     
  -57324496.7320788     
  -57296295.1839658     
  -57268339.1477111     
  -57240864.1222266     
  -57214092.5969585     
  -57187603.2201889     
  -57161344.0349092     
  -57134985.4613576     
  -57108910.8787826     
  -57084428.5984632     
  -57058321.5624801     
  -57033249.9657903     
  -57008791.3078686     
  -56985046.0781798     
  -56947910.2169911     
  -56918244.8944193     
  -56861083.1178715     
  -56810703.0079440     
  -56746452.1526654     
  -56677740.4010204     
  -56560163.1168750     
  -56441096.5721975     
  -56306520.8893873     
  -56178988.9975675     
  -58090876.6738353     
  -58043380.3583483     
  -57996774.3286582     
  -57951063.8084751     
  -57906246.8911492     
  -57862321.3914970     
  -57819285.6402674     
  -57777138.0812340     
  -57735876.2839108     
  -57695494.9766249     
  -57655994.9163893     
  -57617366.2118453     
  -57579605.0815348     
  -57542702.2650400     
  -57506648.7303318     
  -57471432.4151169     
  -57437039.7703696     
  -57403457.0501683     
  -57370668.4895823     
  -57338664.0671718     
  -57307399.4223147     
  -57276874.0600255     
  -57247056.6710336     
  -57217932.8734211     
  -57189460.0931253     
  -57161631.3081260     
  -57134395.8326420     
  -57107697.4655123     
  -57081604.1484977     
  -57056018.4635265     
  -57030836.3814167     
  -57006095.8448015     
  -56981745.0651391     
  -56957830.7425706     
  -56934228.8656386     
  -56910522.2863233     
  -56887482.8158260     
  -56864358.7916372     
  -56841035.7010235     
  -56817036.8720690     
  -56795916.3264543     
  -56772163.2546444     
  -56751074.9643963     
  -56730547.0512573     
  -56694359.6089921     
  -56659921.9504168     
  -56583283.4236773     
  -56505928.9568934     
  -56402575.9214979     
  -56251621.4862403     
  -57803505.7086575     
  -57761057.5070518     
  -57719354.5480169     
  -57678394.3270325     
  -57638177.0606460     
  -57598703.0524839     
  -57559972.3355986     
  -57521984.6187310     
  -57484739.3519235     
  -57448236.2321207     
  -57412472.6629880     
  -57377447.7336124     
  -57343157.8457946     
  -57309599.8181063     
  -57276769.2109386     
  -57244661.0231927     
  -57213269.3565227     
  -57182587.2621423     
  -57152607.0715484     
  -57123317.6435137     
  -57094715.4640175     
  -57066785.5021288     
  -57039520.0811213     
  -57012904.8923102     
  -56986931.8374283     
  -56961583.1565270     
  -56936851.1756928     
  -56912730.7828401     
  -56889184.3509083     
  -56866211.7567502     
  -56843815.4275223     
  -56821967.1084747     
  -56800661.1410947     
  -56779859.6922614     
  -56759562.2174476     
  -56739856.1761502     
  -56720512.4213744     
  -56701679.8398245     
  -56683368.9101692     
  -56665757.9116402     
  -56647905.1387140     
  -56631239.6893659     
  -56614260.8636199     
  -56596960.8777120     
  -56583259.5076495     
  -56568393.2373257     
  -56558845.9453501     
  -56545032.5151007     
  -56513833.7731065     
  -56442216.8825318     
  -57503320.2419462     
  -57465971.3655036     
  -57429202.4656692     
  -57393020.3422019     
  -57357430.7001399     
  -57322438.9466388     
  -57288050.1893648     
  -57254269.1834993     
  -57221100.2746818     
  -57188547.1804374     
  -57156613.6245141     
  -57125302.3222812     
  -57094616.0706524     
  -57064556.8942131     
  -57035126.5140512     
  -57006326.1984195     
  -56978156.8543364     
  -56950619.0576696     
  -56923713.0407806     
  -56897439.6960738     
  -56871797.6624471     
  -56846788.1280015     
  -56822410.1652620     
  -56798664.8787840     
  -56775551.9798609     
  -56753074.0207233     
  -56731231.7858808     
  -56710025.7778708     
  -56689465.9106160     
  -56669555.2750697     
  -56650298.1486301     
  -56631707.5477923     
  -56613793.3445299     
  -56596578.5339918     
  -56580082.7929255     
  -56564304.8556885     
  -56549334.0990080     
  -56535177.5680219     
  -56521886.0065120     
  -56509458.7103375     
  -56498218.7631477     
  -56487883.5828674     
  -56478971.9401403     
  -56471777.1170165     
  -56465597.4409645     
  -56462073.0325837     
  -56459734.4095760     
  -56461020.5567943     
  -56470136.9179161     
  -56490548.4061339     
  -57194595.1670824     
  -57162225.6043415     
  -57130280.0333926     
  -57098771.5386151     
  -57067712.6015081     
  -57037114.9169597     
  -57006989.4663685     
  -56977346.5845073     
  -56948196.0144679     
  -56919547.0178771     
  -56891408.2515920     
  -56863788.0650600     
  -56836694.2717893     
  -56810134.4309814     
  -56784115.7763527     
  -56758645.3185993     
  -56733729.9017200     
  -56709376.2943541     
  -56685591.2942985     
  -56662381.5224579     
  -56639754.3247508     
  -56617716.7319047     
  -56596276.8119442     
  -56575442.6958160     
  -56555223.7393888     
  -56535629.6650995     
  -56516671.9324498     
  -56498363.8724698     
  -56480718.4840892     
  -56463752.5920592     
  -56447485.5530686     
  -56431938.2334792     
  -56417136.4601845     
  -56403107.2660710     
  -56389883.7006019     
  -56377512.0533019     
  -56366022.9054342     
  -56355475.3053534     
  -56345927.7093856     
  -56337470.6428030     
  -56330122.2303210     
  -56324081.1431835     
  -56319363.3016544     
  -56316037.0140142     
  -56314457.9221328     
  -56314381.5724967     
  -56316446.2860317     
  -56320406.6355501     
  -56325402.7568467     
  -56329845.0183237     
  -56881470.9332510     
  -56853777.4839706     
  -56826371.2258011     
  -56799270.9993628     
  -56772494.4842371     
  -56746058.3780601     
  -56719978.4821414     
  -56694269.7850333     
  -56668946.5450713     
  -56644022.3490381     
  -56619510.2304618     
  -56595422.6789620     
  -56571771.7814624     
  -56548569.2320862     
  -56525826.4390167     
  -56503554.5877839     
  -56481764.7199463     
  -56460467.8056574     
  -56439674.8193333     
  -56419396.9206558     
  -56399645.3403895     
  -56380431.7687470     
  -56361768.1518676     
  -56343667.1184509     
  -56326141.8318142     
  -56309206.3996311     
  -56292875.7490725     
  -56277165.7511613     
  -56262094.0281153     
  -56247679.2552621     
  -56233941.7078669     
  -56220903.7293530     
  -56208589.1984509     
  -56197024.8743494     
  -56186239.5942853     
  -56176262.2406481     
  -56167129.7554949     
  -56158876.5584832     
  -56151541.8911989     
  -56145159.4881142     
  -56139786.6963122     
  -56135435.1157992     
  -56132161.6208032     
  -56130013.7351192     
  -56128956.4229209     
  -56129104.2257683     
  -56130312.2208417     
  -56132596.5323938     
  -56136112.8521377     
  -56141421.4284749     
  -56567584.3982917     
  -56544113.4177694     
  -56520820.7527537     
  -56497728.2228830     
  -56474856.5191548     
  -56452225.2798533     
  -56429853.1866526     
  -56407758.0523132     
  -56385956.9017562     
  -56364466.0554565     
  -56343301.1926972     
  -56322477.4393485     
  -56302009.4200400     
  -56281911.3426755     
  -56262197.0562951     
  -56242880.1206248     
  -56223973.8720959     
  -56205491.4931701     
  -56187446.0831362     
  -56169850.6989157     
  -56152718.4781048     
  -56136062.6367805     
  -56119896.6195096     
  -56104234.0849051     
  -56089089.0498259     
  -56074475.8846309     
  -56060409.4389077     
  -56046905.1253355     
  -56033978.8101286     
  -56021647.0508705     
  -56009927.0440812     
  -55998836.5820112     
  -55988394.2132480     
  -55978618.8833793     
  -55969530.0486688     
  -55961148.2192288     
  -55953492.6522117     
  -55946583.6039889     
  -55940439.9929867     
  -55935081.9436678     
  -55930521.7568860     
  -55926781.6799655     
  -55923870.0403039     
  -55921791.9725786     
  -55920569.6013305     
  -55920178.9020573     
  -55920659.9633083     
  -55922020.9139819     
  -55924238.5607774     
  -55927121.5525924     
  -56255843.0939054     
  -56236052.8979409     
  -56216361.6906589     
  -56196791.8692308     
  -56177364.7986997     
  -56158100.8919286     
  -56139019.6784626     
  -56120139.8717312     
  -56101479.4341522     
  -56083055.6376729     
  -56064885.1263954     
  -56046983.9700628     
  -56029367.7239688     
  -56012051.4782502     
  -55995049.9121702     
  -55978377.3433685     
  -55962047.7763776     
  -55946074.9484429     
  -55930472.3728618     
  -55915253.3894226     
  -55900431.1906892     
  -55886018.8776000     
  -55872029.4732594     
  -55858475.9762515     
  -55845371.3661709     
  -55832728.6431450     
  -55820560.8283608     
  -55808880.9594795     
  -55797702.1267454     
  -55787037.4143211     
  -55776899.8892689     
  -55767302.5661287     
  -55758258.3004977     
  -55749779.7878696     
  -55741879.4222724     
  -55734568.9589799     
  -55727859.9133481     
  -55721762.7897585     
  -55716287.4370925     
  -55711441.9864660     
  -55707235.1188198     
  -55703671.0387925     
  -55700755.1636251     
  -55698491.8082523     
  -55696878.3284796     
  -55695922.2581094     
  -55695611.9518348     
  -55695937.2961423     
  -55696888.2364525     
  -55698508.7352183     
  -55948361.6425443     
  -55931685.4366190     
  -55915055.8160045     
  -55898493.8300184     
  -55882019.7084692     
  -55865652.9030897     
  -55849412.1308109     
  -55833315.4158104     
  -55817380.1304355     
  -55801623.0356733     
  -55786060.3192577     
  -55770707.6342552     
  -55755580.1341222     
  -55740692.5085057     
  -55726059.0156555     
  -55711693.5139941     
  -55697609.4914995     
  -55683820.0932922     
  -55670338.1472375     
  -55657176.1843399     
  -55644346.4621026     
  -55631860.9765464     
  -55619731.4805136     
  -55607969.4865452     
  -55596586.2768568     
  -55585592.8976435     
  -55575000.1553971     
  -55564818.6079056     
  -55555058.5351135     
  -55545729.9218226     
  -55536842.4192745     
  -55528405.3013444     
  -55520427.4255078     
  -55512917.1545779     
  -55505882.2975256     
  -55499330.1037725     
  -55493267.0515291     
  -55487698.9204630     
  -55482630.5740484     
  -55478066.1482547     
  -55474008.2864616     
  -55470459.3570258     
  -55467419.9527686     
  -55464889.2115560     
  -55462866.3452625     
  -55461345.7841002     
  -55460324.6499451     
  -55459798.3934685     
  -55459762.0664554     
  -55460191.4437802     
  -55646521.4834208     
  -55632417.1975857     
  -55618328.8561096     
  -55604274.9968534     
  -55590273.5618834     
  -55576341.9152789     
  -55562496.8612657     
  -55548754.6632038     
  -55535131.0630229     
  -55521641.3005964     
  -55508300.1333027     
  -55495121.8547829     
  -55482120.3136734     
  -55469308.9309932     
  -55456700.7170280     
  -55444308.2868027     
  -55432143.8742832     
  -55420219.3449371     
  -55408546.2063991     
  -55397135.6179150     
  -55385998.3960505     
  -55375145.0200567     
  -55364585.6320528     
  -55354330.0373262     
  -55344387.6984309     
  -55334767.7288320     
  -55325478.8813352     
  -55316529.5323032     
  -55307927.6657113     
  -55299680.8492264     
  -55291796.2096591     
  -55284280.4043694     
  -55277139.5864980     
  -55270379.3754244     
  -55264004.8199418     
  -55258020.3406620     
  -55252429.7241962     
  -55247236.0450251     
  -55242441.6612396     
  -55238048.0931597     
  -55234056.1749098     
  -55230465.6723185     
  -55227275.5856017     
  -55224484.0516021     
  -55222087.8611358     
  -55220083.7678305     
  -55218466.5929654     
  -55217230.0848427     
  -55216366.1841302     
  -55215871.1514421     
  -55351099.9677000     
  -55339081.8486613     
  -55327065.0139956     
  -55315064.9743277     
  -55303096.8469304     
  -55291175.3546603     
  -55279314.8267341     
  -55267529.2007848     
  -55255832.0259546     
  -55244236.4668264     
  -55232755.3078122     
  -55221400.9579645     
  -55210185.4557413     
  -55199120.4738024     
  -55188217.3233782     
  -55177486.9582102     
  -55166939.9777954     
  -55156586.6298144     
  -55146436.8116115     
  -55136500.0703163     
  -55126785.6020867     
  -55117302.2494074     
  -55108058.4975179     
  -55099062.4684362     
  -55090321.9141165     
  -55081844.2071061     
  -55073636.3298181     
  -55065704.8622845     
  -55058055.9672682     
  -55050695.3746610     
  -55043628.3636645     
  -55036859.7436768     
  -55030393.8346444     
  -55024234.4443223     
  -55018384.8453439     
  -55012847.7573939     
  -55007625.3150760     
  -55002719.0534159     
  -54998129.8742027     
  -54993858.0467137     
  -54989903.1321466     
  -54986264.0529954     
  -54982938.9951516     
  -54979925.3998215     
  -54977220.0812634     
  -54974818.8481297     
  -54972716.9478647     
  -54970908.8841249     
  -54969388.7362083     
  -54968148.2617930     
  -55062419.9820771     
  -55052073.5799717     
  -55041724.5208449     
  -55031385.2447265     
  -55021067.9585912     
  -55010784.6247982     
  -55000546.9511625     
  -54990366.3825056     
  -54980254.0934570     
  -54970220.9822821     
  -54960277.6655792     
  -54950434.4736088     
  -54940701.4461453     
  -54931088.3286157     
  -54921604.5684374     
  -54912259.3113637     
  -54903061.3977281     
  -54894019.3584517     
  -54885141.4106883     
  -54876435.4530812     
  -54867909.0603765     
  -54859569.4775581     
  -54851423.6131337     
  -54843478.0318976     
  -54835738.9467066     
  -54828212.2096710     
  -54820903.3024735     
  -54813817.3258319     
  -54806958.9884503     
  -54800332.5950711     
  -54793942.0340434     
  -54787790.7643208     
  -54781881.8018305     
  -54776217.7060057     
  -54770800.5661225     
  -54765631.9859028     
  -54760713.0718572     
  -54756044.4175196     
  -54751626.0933051     
  -54747457.6273031     
  -54743538.0087381     
  -54739865.6542377     
  -54736438.4166017     
  -54733253.5762658     
  -54730307.7951894     
  -54727597.2105241     
  -54725117.3242124     
  -54722863.0383600     
  -54720828.5291502     
  -54719007.8149335     
  -54780488.2420329     
  -54771473.1911566     
  -54762458.0454277     
  -54753452.4140786     
  -54744465.7900099     
  -54735507.5332382     
  -54726586.8558086     
  -54717712.8080063     
  -54708894.2657330     
  -54700139.9189142     
  -54691458.2607988     
  -54682857.5780348     
  -54674345.9413845     
  -54665931.1969841     
  -54657620.9580198     
  -54649422.5967339     
  -54641343.2366595     
  -54633389.7450009     
  -54625568.7250878     
  -54617886.5088109     
  -54610349.1490262     
  -54602962.4118113     
  -54595731.7686141     
  -54588662.3881656     
  -54581759.1282472     
  -54575026.5271944     
  -54568468.7952038     
  -54562089.8054643     
  -54555893.0850491     
  -54549881.8057002     
  -54544058.7744721     
  -54538426.4243183     
  -54532986.8047229     
  -54527741.5722804     
  -54522691.9813620     
  -54517838.8754786     
  -54513182.6780000     
  -54508723.3843442     
  -54504460.5532317     
  -54500393.3012604     
  -54496520.2919466     
  -54492839.7354900     
  -54489349.3792535     
  -54486046.5028099     
  -54482927.9260985     
  -54479989.9806935     
  -54477228.5327182     
  -54474638.9734244     
  -54472216.2649029     
  -54469954.7772632     
  -54505107.3749085     
  -54497152.6588515     
  -54489203.8286528     
  -54481268.0401115     
  -54473352.4115053     
  -54465464.0058440     
  -54457609.8142428     
  -54449796.7403400     
  -54442031.5856798     
  -54434321.0359764     
  -54426671.6481849     
  -54419089.8382968     
  -54411581.8697900     
  -54404153.8426557     
  -54396811.6829397     
  -54389561.1327279     
  -54382407.7405195     
  -54375356.8519315     
  -54368413.6006810     
  -54361582.8998093     
  -54354869.4330943     
  -54348277.6466361     
  -54341811.7405670     
  -54335475.6608907     
  -54329273.0914063     
  -54323207.4457370     
  -54317281.8594441     
  -54311499.1822267     
  -54305861.9702367     
  -54300372.4785029     
  -54295032.6534985     
  -54289844.1258725     
  -54284808.2033603     
  -54279925.8639475     
  -54275197.7493222     
  -54270624.1584950     
  -54266205.0420043     
  -54261939.9962366     
  -54257828.2585607     
  -54253868.7021446     
  -54250059.8330206     
  -54246399.7851169     
  -54242886.3183421     
  -54239516.8166659     
  -54236288.2831261     
  -54233197.3457814     
  -54230240.2521800     
  -54227412.8726181     
  -54224710.6864778     
  -54222128.8313684     
  -54235958.8619955     
  -54228854.3009309     
  -54221762.9291289     
  -54214689.8667643     
  -54207640.2458687     
  -54200619.1934976     
  -54193631.8157117     
  -54186683.1823349     
  -54179778.3124502     
  -54172922.1605919     
  -54166119.6035936     
  -54159375.4280503     
  -54152694.3183531     
  -54146080.8452562     
  -54139539.4549374     
  -54133074.4585138     
  -54126690.0219789     
  -54120390.1565268     
  -54114178.7092341     
  -54108059.3540715     
  -54102035.5832226     
  -54096110.6986863     
  -54090287.8041495     
  -54084569.7971109     
  -54078959.3612524     
  -54073458.9590444     
  -54068070.8245868     
  -54062796.9566853     
  -54057639.1121644     
  -54052598.7994262     
  -54047677.2722634     
  -54042875.5239400     
  -54038194.2815583     
  -54033634.0007208     
  -54029194.8605019     
  -54024876.7587981     
  -54020679.3079793     
  -54016601.8309967     
  -54012643.3577941     
  -54008802.6223828     
  -54005078.0598945     
  -54001467.8047818     
  -53997969.6889295     
  -53994581.2403634     
  -53991299.6836400     
  -53988121.9380710     
  -53985044.6194270     
  -53982064.0401900     
  -53979176.2160968     
  -53976376.8552978     
  -53972660.2027930     
  -53966246.6787463     
  -53959853.6457623     
  -53953484.5905140     
  -53947143.0396047     
  -53940832.5446788     
  -53934556.6680899     
  -53928318.9691173     
  -53922122.9907148     
  -53915972.2467781     
  -53909870.2099120     
  -53903820.2996797     
  -53897825.8713166     
  -53891890.2048870     
  -53886016.4948681     
  -53880207.8401395     
  -53874467.2343621     
  -53868797.5567288     
  -53863201.5630710     
  -53857681.8773072     
  -53852240.9832184     
  -53846881.2165419     
  -53841604.7573704     
  -53836413.6228521     
  -53831309.6601823     
  -53826294.5398844     
  -53821369.7493781     
  -53816536.5868329     
  -53811796.1553098     
  -53807149.3571936     
  -53802596.8889207     
  -53798139.2360086     
  -53793776.6683946     
  -53789509.2360924     
  -53785336.7651810     
  -53781258.8541219     
  -53777274.8704420     
  -53773383.9477608     
  -53769584.9832202     
  -53765876.6352356     
  -53762257.3217754     
  -53758725.2188801     
  -53755278.2597450     
  -53751914.1342411     
  -53748630.2885393     
  -53745423.9258958     
  -53742292.0072142     
  -53739231.2526213     
  -53736238.1417191     
  -53733308.9194427     
  -53714801.8867620     
  -53708961.7819235     
  -53703148.7022719     
  -53697364.8596044     
  -53691612.5191424     
  -53685893.9869386     
  -53680211.5976493     
  -53674567.7026725     
  -53668964.6586546     
  -53663404.8163636     
  -53657890.5099239     
  -53652424.0464128     
  -53647007.6958092     
  -53641643.6812916     
  -53636334.1698791     
  -53631081.2634062     
  -53625886.9898290     
  -53620753.2948520     
  -53615682.0338719     
  -53610674.9642321     
  -53605733.7377809     
  -53600859.8937311     
  -53596054.8518145     
  -53591319.9057301     
  -53586656.2168818     
  -53582064.8084055     
  -53577546.5594841     
  -53573102.1999506     
  -53568732.3051810     
  -53564437.2912784     
  -53560217.4105515     
  -53556072.7472905     
  -53552003.2138459     
  -53548008.5470133     
  -53544088.3047300     
  -53540241.8630923     
  -53536468.4136934     
  -53532766.9612965     
  -53529136.3218375     
  -53525575.1207908     
  -53522081.7918502     
  -53518654.5760110     
  -53515291.5209817     
  -53511990.4809559     
  -53508749.1168579     
  -53505564.8967860     
  -53502435.0969990     
  -53499356.8031345     
  -53496326.9123728     
  -53493342.1345502     
  -53461969.7356522     
  -53456618.3266484     
  -53451299.3247661     
  -53446013.9717918     
  -53440763.5669475     
  -53435549.4565767     
  -53430373.0240544     
  -53425235.6799308     
  -53420138.8523167     
  -53415083.9775161     
  -53410072.4909108     
  -53405105.8181021     
  -53400185.3663096     
  -53395312.5160319     
  -53390488.6129694     
  -53385714.9602081     
  -53380992.8106684     
  -53376323.3598146     
  -53371707.7386289     
  -53367147.0068457     
  -53362642.1464494     
  -53358194.0554333     
  -53353803.5418191     
  -53349471.3179400     
  -53345197.9949839     
  -53340984.0778007     
  -53336829.9599726     
  -53332735.9191493     
  -53328702.1126508     
  -53324728.5733377     
  -53320815.2057532     
  -53316961.7825391     
  -53313167.9411277     
  -53309433.1807140     
  -53305756.8595116     
  -53302138.1922942     
  -53298576.2482294     
  -53295069.9490053     
  -53291618.0672580     
  -53288219.2252954     
  -53284871.8941372     
  -53281574.3928519     
  -53278324.8882165     
  -53275121.3946964     
  -53271961.7747149     
  -53268843.7392933     
  -53265764.8489762     
  -53262722.5151310     
  -53259714.0014067     
  -53256736.4259245     
  -53213757.2340198     
  -53208835.3296717     
  -53203949.9256076     
  -53199101.5442533     
  -53194290.7636635     
  -53189518.2092845     
  -53184784.5458418     
  -53180090.4693683     
  -53175436.6993803     
  -53170823.9712123     
  -53166253.0285199     
  -53161724.6159560     
  -53157239.4720298     
  -53152798.3221516     
  -53148401.8718711     
  -53144050.8003123     
  -53139745.7538099     
  -53135487.3397499     
  -53131276.1206195     
  -53127112.6082672     
  -53122997.2583770     
  -53118930.4651597     
  -53114912.5562621     
  -53110943.7878988     
  -53107024.3402070     
  -53103154.3128270     
  -53099333.7207112     
  -53095562.4901642     
  -53091840.4551150     
  -53088167.3536253     
  -53084542.8246351     
  -53080966.4049496     
  -53077437.5264677     
  -53073955.5136577     
  -53070519.5812804     
  -53067128.8323629     
  -53063782.2564268     
  -53060478.7279718     
  -53057217.0052184     
  -53053995.7291126     
  -53050813.4225919     
  -53047668.4901199     
  -53044559.2174874     
  -53041483.7718812     
  -53038440.2022322     
  -53035426.4398259     
  -53032440.2991952     
  -53029479.4792750     
  -53026541.5648822     
  -53023624.0283623     
  -52969771.3293326     
  -52965239.1837672     
  -52960746.3586863     
  -52956292.8580361     
  -52951878.7363047     
  -52947504.0920839     
  -52943169.0616911     
  -52938873.8128643     
  -52934618.5385417     
  -52930403.4507348     
  -52926228.7745076     
  -52922094.7420670     
  -52918001.5869763     
  -52913949.5384972     
  -52909938.8160678     
  -52905969.6239238     
  -52902042.1458674     
  -52898156.5401913     
  -52894312.9347614     
  -52890511.4222637     
  -52886752.0556192     
  -52883034.8435726     
  -52879359.7464562     
  -52875726.6721348     
  -52872135.4721340     
  -52868585.9379559     
  -52865077.7975843     
  -52861610.7121840     
  -52858184.2729958     
  -52854797.9984307     
  -52851451.3313655     
  -52848143.6366435     
  -52844874.1987816     
  -52841642.2198867     
  -52838446.8177848     
  -52835287.0243630     
  -52832161.7841289     
  -52829069.9529872     
  -52826010.2972375     
  -52822981.4927937     
  -52819982.1246277     
  -52817010.6864375     
  -52814065.5805429     
  -52811145.1180091     
  -52808247.5189977     
  -52805370.9133494     
  -52802513.3413954     
  -52799672.7550037     
  -52796847.0188414     
  -52794033.9118983     
  -52729634.1753183     
  -52725466.5800674     
  -52721339.9550776     
  -52717253.9433994     
  -52713208.2319581     
  -52709202.5466246     
  -52705236.6473032     
  -52701310.3230486     
  -52697423.3872218     
  -52693575.6726967     
  -52689767.0271249     
  -52685997.3082703     
  -52682266.3794191     
  -52678574.1048760     
  -52674920.3455517     
  -52671304.9546503     
  -52667727.7734628     
  -52664188.6272729     
  -52660687.3213805     
  -52657223.6372488     
  -52653797.3287809     
  -52650408.1187291     
  -52647055.6952426     
  -52643739.7085584     
  -52640459.7678371     
  -52637215.4381512     
  -52634006.2376255     
  -52630831.6347365     
  -52627691.0457710     
  -52624583.8324499     
  -52621509.2997176     
  -52618466.6937012     
  -52615455.1998420     
  -52612473.9412004     
  -52609521.9769388     
  -52606598.3009822     
  -52603701.8408600     
  -52600831.4567307     
  -52597985.9405898     
  -52595164.0156650     
  -52592364.3359966     
  -52589585.4862078     
  -52586825.9814630     
  -52584084.2676167     
  -52581358.7215525     
  -52578647.6517140     
  -52575949.2988260     
  -52573261.8368058     
  -52570583.3738709     
  -52567911.9538275     
  -52492982.5055667     
  -52489164.9107121     
  -52485388.9110449     
  -52481653.9099229     
  -52477959.3474370     
  -52474304.6967164     
  -52470689.4602243     
  -52467113.1660537     
  -52463575.3642333     
  -52460075.6230526     
  -52456613.5254149     
  -52453188.6652274     
  -52449800.6438348     
  -52446449.0665058     
  -52443133.5389791     
  -52439853.6640748     
  -52436609.0383795     
  -52433399.2490097     
  -52430223.8704609     
  -52427082.4615460     
  -52423974.5624302     
  -52420899.6917670     
  -52417857.3439378     
  -52414846.9864036     
  -52411868.0571688     
  -52408919.9623645     
  -52406002.0739525     
  -52403113.7275550     
  -52400254.2204134     
  -52397422.8094778     
  -52394618.7096319     
  -52391841.0920553     
  -52389089.0827249     
  -52386361.7610600     
  -52383658.1587106     
  -52380977.2584928     
  -52378317.9934726     
  -52375679.2461992     
  -52373059.8480906     
  -52370458.5789710     
  -52367874.1667628     
  -52365305.2873335     
  -52362750.5644973     
  -52360208.5701739     
  -52357677.8247038     
  -52355156.7973193     
  -52352643.9067735     
  -52350137.5221253     
  -52347635.9636798     
  -52345137.5040866     
  -52259465.7509101     
  -52255991.2524650     
  -52252558.1097337     
  -52249165.5777728     
  -52245812.9414446     
  -52242499.5127124     
  -52239224.6279115     
  -52235987.6450010     
  -52232787.9408081     
  -52229624.9082713     
  -52226497.9536903     
  -52223406.4939903     
  -52220349.9540081     
  -52217327.7638073     
  -52214339.3560274     
  -52211384.1632758     
  -52208461.6155661     
  -52205571.1378109     
  -52202712.1473722     
  -52199884.0516773     
  -52197086.2459026     
  -52194318.1107318     
  -52191579.0101924     
  -52188868.2895754     
  -52186185.2734404     
  -52183529.2637129     
  -52180899.5378745     
  -52178295.3472513     
  -52175715.9154035     
  -52173160.4366177     
  -52170628.0745071     
  -52168117.9607206     
  -52165629.1937624     
  -52163160.8379281     
  -52160711.9223544     
  -52158281.4401883     
  -52155868.3478748     
  -52153471.5645671     
  -52151089.9716578     
  -52148722.4124352     
  -52146367.6918634     
  -52144024.5764880     
  -52141691.7944678     
  -52139368.0357340     
  -52137051.9522745     
  -52134742.1585469     
  -52132437.2320167     
  -52130135.7138226     
  -52127836.1095685     
  -52125536.8902389     
  -52028743.6127649     
  -52025610.6510604     
  -52022518.0990798     
  -52019465.1310231     
  -52016450.9445884     
  -52013474.7590476     
  -52010535.8132893     
  -52007633.3638327     
  -52004766.6828229     
  -52001935.0560110     
  -51999137.7807291     
  -51996374.1638639     
  -51993643.5198372     
  -51990945.1685976     
  -51988278.4336304     
  -51985642.6399915     
  -51983037.1123687     
  -51980461.1731787     
  -51977914.1407016     
  -51975395.3272604     
  -51972904.0374474     
  -51970439.5664046     
  -51968001.1981599     
  -51965588.2040242     
  -51963199.8410532     
  -51960835.3505768     
  -51958493.9568001     
  -51956174.8654790     
  -51953877.2626729     
  -51951600.3135778     
  -51949343.1614430     
  -51947104.9265718     
  -51944884.7054110     
  -51942681.5697298     
  -51940494.5658899     
  -51938322.7142092     
  -51936165.0084207     
  -51934020.4152271     
  -51931887.8739536     
  -51929766.2962985     
  -51927654.5661840     
  -51925551.5397066     
  -51923456.0451883     
  -51921366.8833291     
  -51919282.8274604     
  -51917202.6238997     
  -51915124.9924065     
  -51913048.6267386     
  -51910972.1953088     
  -51908894.3419411     
  -51800483.5311814     
  -51797694.1616646     
  -51794943.6944842     
  -51792231.2715279     
  -51789556.0527082     
  -51786917.2146429     
  -51784313.9492982     
  -51781745.4625989     
  -51779210.9730122     
  -51776709.7101107     
  -51774240.9131210     
  -51771803.8294616     
  -51769397.7132775     
  -51767021.8239748     
  -51764675.4247617     
  -51762357.7811996     
  -51760068.1597697     
  -51757805.8264594     
  -51755570.0453730     
  -51753360.0773702     
  -51751175.1787370     
  -51749014.5998933     
  -51746877.5841395     
  -51744763.3664467     
  -51742671.1722935     
  -51740600.2165531     
  -51738549.7024323     
  -51736518.8204664     
  -51734506.7475736     
  -51732512.6461682     
  -51730535.6633388     
  -51728574.9300911     
  -51726629.5606585     
  -51724698.6518814     
  -51722781.2826588     
  -51720876.5134711     
  -51718983.3859780     
  -51717100.9226912     
  -51715228.1267236     
  -51713363.9816162     
  -51711507.4512421     
  -51709657.4797902     
  -51707812.9918277     
  -51705972.8924421     
  -51704136.0674624     
  -51702301.3837607     
  -51700467.6896327     
  -51698633.8152569     
  -51696798.5732335     
  -51694960.7591995     
  -51574358.3038208     
  -51571916.9212453     
  -51569512.4991904     
  -51567144.1811111     
  -51564811.1239389     
  -51562512.4972204     
  -51560247.4822191     
  -51558015.2709818     
  -51555815.0653769     
  -51553646.0761077     
  -51551507.5217065     
  -51549398.6275130     
  -51547318.6246423     
  -51545266.7489464     
  -51543242.2399731     
  -51541244.3399266     
  -51539272.2926346     
  -51537325.3425241     
  -51535402.7336110     
  -51533503.7085058     
  -51531627.5074406     
  -51529773.3673190     
  -51527940.5207927     
  -51526128.1953685     
  -51524335.6125469     
  -51522561.9869977     
  -51520806.5257720     
  -51519068.4275565     
  -51517346.8819690     
  -51515641.0689006     
  -51513950.1579040     
  -51512273.3076320     
  -51510609.6653259     
  -51508958.3663574     
  -51507318.5338243     
  -51505689.2782017     
  -51504069.6970502     
  -51502458.8747817     
  -51500855.8824844     
  -51499259.7778072     
  -51497669.6049046     
  -51496084.3944425     
  -51494503.1636651     
  -51492924.9165235     
  -51491348.6438662     
  -51489773.3236909     
  -51488197.9214575     
  -51486621.3904634     
  -51485042.6722781     
  -51483460.6972387     
  -51350043.9925710     
  -51347956.4089617     
  -51345903.5161950     
  -51343884.4820029     
  -51341898.4839780     
  -51339944.7090535     
  -51338022.3529457     
  -51336130.6195637     
  -51334268.7203890     
  -51332435.8738302     
  -51330631.3045558     
  -51328854.2428088     
  -51327103.9237064     
  -51325379.5865300     
  -51323680.4740061     
  -51322005.8315850     
  -51320354.9067170     
  -51318726.9481322     
  -51317121.2051253     
  -51315536.9268491     
  -51313973.3616195     
  -51312429.7562343     
  -51310905.3553101     
  -51309399.4006372     
  -51307911.1305574     
  -51306439.7793663     
  -51304984.5767417     
  -51303544.7472012     
  -51302119.5095902     
  -51300708.0766028     
  -51299309.6543376     
  -51297923.4418889     
  -51296548.6309759     
  -51295184.4056119     
  -51293829.9418123     
  -51292484.4073461     
  -51291146.9615289     
  -51289816.7550601     
  -51288492.9299049     
  -51287174.6192210     
  -51285860.9473314     
  -51284551.0297442     
  -51283243.9732180     
  -51281938.8758747     
  -51280634.8273599     
  -51279330.9090493     
  -51278026.1943023     
  -51276719.7487630     
  -51275410.6307058     
  -51274097.8914284     
  -51127218.1780655     
  -51125490.9726138     
  -51123795.9463560     
  -51122132.3056794     
  -51120499.2641098     
  -51118896.0420355     
  -51117321.8663986     
  -51115775.9703528     
  -51114257.5928951     
  -51112765.9784713     
  -51111300.3765593     
  -51109860.0412339     
  -51108444.2307152     
  -51107052.2069032     
  -51105683.2349030     
  -51104336.5825413     
  -51103011.5198786     
  -51101707.3187189     
  -51100423.2521195     
  -51099158.5939035     
  -51097912.6181778     
  -51096684.5988582     
  -51095473.8092047     
  -51094279.5213677     
  -51093101.0059494     
  -51091937.5315805     
  -51090788.3645147     
  -51089652.7682432     
  -51088530.0031303     
  -51087419.3260720     
  -51086319.9901796     
  -51085231.2444884     
  -51084152.3336947     
  -51083082.4979200     
  -51082020.9725064     
  -51080966.9878413     
  -51079919.7692142     
  -51078878.5367061     
  -51077842.5051117     
  -51076810.8838956     
  -51075782.8771821     
  -51074757.6837807     
  -51073734.4972459     
  -51072712.5059717     
  -51071690.8933225     
  -51070668.8377984     
  -51069645.5132360     
  -51068620.0890435     
  -51067591.7304717     
  -51066559.5989172     
  -50905558.5750337     
  -50904198.6496575     
  -50902868.2159990     
  -50901566.5274314     
  -50900292.8425672     
  -50899046.4251518     
  -50897826.5439261     
  -50896632.4724610     
  -50895463.4889648     
  -50894318.8760681     
  -50893197.9205867     
  -50892099.9132657     
  -50891024.1485073     
  -50889969.9240847     
  -50888936.5408430     
  -50887923.3023918     
  -50886929.5147897     
  -50885954.4862232     
  -50884997.5266830     
  -50884057.9476387     
  -50883135.0617146     
  -50882228.1823679     
  -50881336.6235717     
  -50880459.6995042     
  -50879596.7242461     
  -50878747.0114878     
  -50877909.8742477     
  -50877084.6246034     
  -50876270.5734371     
  -50875467.0301966     
  -50874673.3026734     
  -50873888.6967983     
  -50873112.5164567     
  -50872344.0633236     
  -50871582.6367207     
  -50870827.5334938     
  -50870078.0479148     
  -50869333.4716062     
  -50868593.0934898     
  -50867856.1997601     
  -50867122.0738828     
  -50866389.9966185     
  -50865659.2460727     
  -50864929.0977705     
  -50864198.8247586     
  -50863467.6977319     
  -50862734.9851873     
  -50861999.9536017     
  -50861261.8676373     
  -50860519.9903697     
  -50684741.9935660     
  -50683756.2811440     
  -50682797.2451364     
  -50681864.1899983     
  -50680956.4242642     
  -50680073.2605517     
  -50679214.0155362     
  -50678378.0099013     
  -50677564.5682654     
  -50676773.0190863     
  -50676002.6945471     
  -50675252.9304228     
  -50674523.0659327     
  -50673812.4435769     
  -50673120.4089624     
  -50672446.3106175     
  -50671789.4997975     
  -50671149.3302843     
  -50670525.1581800     
  -50669916.3416969     
  -50669322.2409460     
  -50668742.2177241     
  -50668175.6353031     
  -50667621.8582205     
  -50667080.2520752     
  -50666550.1833268     
  -50666031.0191032     
  -50665522.1270149     
  -50665022.8749783     
  -50664532.6310494     
  -50664050.7632682     
  -50663576.6395157     
  -50663109.6273834     
  -50662649.0940567     
  -50662194.4062133     
  -50661744.9299365     
  -50661300.0306450     
  -50660859.0730388     
  -50660421.4210627     
  -50659986.4378863     
  -50659553.4859041     
  -50659121.9267509     
  -50658691.1213382     
  -50658260.4299075     
  -50657829.2121035     
  -50657396.8270649     
  -50656962.6335351     
  -50656525.9899897     
  -50656086.2547844     
  -50655642.7863193     
  -50464443.6164320     
  -50463838.8998100     
  -50463257.9482660     
  -50462700.1186263     
  -50462164.7712872     
  -50461651.2702803     
  -50461158.9833138     
  -50460687.2817923     
  -50460235.5408156     
  -50459803.1391576     
  -50459389.4592290     
  -50458993.8870225     
  -50458615.8120438     
  -50458254.6272294     
  -50457909.7288523     
  -50457580.5164175     
  -50457266.3925480     
  -50456966.7628641     
  -50456681.0358555     
  -50456408.6227483     
  -50456148.9373691     
  -50455901.3960062     
  -50455665.4172693     
  -50455440.4219492     
  -50455225.8328789     
  -50455021.0747960     
  -50454825.5742097     
  -50454638.7592699     
  -50454460.0596436     
  -50454288.9063953     
  -50454124.7318760     
  -50453966.9696185     
  -50453815.0542418     
  -50453668.4213646     
  -50453526.5075286     
  -50453388.7501313     
  -50453254.5873714     
  -50453123.4582033     
  -50452994.8023059     
  -50452868.0600611     
  -50452742.6725470     
  -50452618.0815418     
  -50452493.7295422     
  -50452369.0597941     
  -50452243.5163364     
  -50452116.5440584     
  -50451987.5887698     
  -50451856.0972844     
  -50451721.5175157     
  -50451583.2985864     
  -50244336.5559997     
  -50244119.3649868     
  -50243922.9493202     
  -50243746.7177938     
  -50243590.0828211     
  -50243452.4605267     
  -50243333.2708179     
  -50243231.9374370     
  -50243147.8879965     
  -50243080.5539969     
  -50243029.3708299     
  -50242993.7777666     
  -50242973.2179330     
  -50242967.1382732     
  -50242974.9895019     
  -50242996.2260467     
  -50243030.3059824     
  -50243076.6909568     
  -50243134.8461105     
  -50243204.2399911     
  -50243284.3444622     
  -50243374.6346099     
  -50243474.5886457     
  -50243583.6878082     
  -50243701.4162640     
  -50243827.2610084     
  -50243960.7117674     
  -50244101.2609008     
  -50244248.4033081     
  -50244401.6363380     
  -50244560.4597006     
  -50244724.3753852     
  -50244892.8875830     
  -50245065.5026144     
  -50245241.7288641     
  -50245421.0767216     
  -50245603.0585295     
  -50245787.1885387     
  -50245972.9828721     
  -50246159.9594958     
  -50246347.6381988     
  -50246535.5405819     
  -50246723.1900549     
  -50246910.1118419     
  -50247095.8329973     
  -50247279.8824294     
  -50247461.7909334     
  -50247641.0912336     
  -50247817.3180337     
  -50247990.0080769     
  -50024091.6529556     
  -50024268.2139456     
  -50024462.4876673     
  -50024673.9336425     
  -50024902.0155342     
  -50025146.2012376     
  -50025405.9629524     
  -50025680.7772413     
  -50025970.1250733     
  -50026273.4918526     
  -50026590.3674343     
  -50026920.2461288     
  -50027262.6266939     
  -50027617.0123171     
  -50027982.9105877     
  -50028359.8334600     
  -50028747.2972101     
  -50029144.8223829     
  -50029551.9337353     
  -50029968.1601724     
  -50030393.0346796     
  -50030826.0942501     
  -50031266.8798099     
  -50031714.9361399     
  -50032169.8117956     
  -50032631.0590271     
  -50033098.2336967     
  -50033570.8951984     
  -50034048.6063764     
  -50034530.9334465     
  -50035017.4459179     
  -50035507.7165180     
  -50036001.3211201     
  -50036497.8386737     
  -50036996.8511388     
  -50037497.9434246     
  -50038000.7033312     
  -50038504.7214981     
  -50039009.5913552     
  -50039514.9090809     
  -50040020.2735647     
  -50040525.2863751     
  -50041029.5517344     
  -50041532.6764979     
  -50042034.2701397     
  -50042533.9447446     
  -50043031.3150051     
  -50043525.9982252     
  -50044017.6143294     
  -50044505.7858774     
  -49803377.4808122     
  -49803953.6996413     
  -49804544.4910240     
  -49805149.3637879     
  -49805767.8318125     
  -49806399.4140979     
  -49807043.6348187     
  -49807700.0233669     
  -49808368.1143818     
  -49809047.4477693     
  -49809737.5687100     
  -49810438.0276570     
  -49811148.3803256     
  -49811868.1876727     
  -49812597.0158687     
  -49813334.4362623     
  -49814080.0253377     
  -49814833.3646663     
  -49815594.0408518     
  -49816361.6454713     
  -49817135.7750110     
  -49817916.0307984     
  -49818702.0189314     
  -49819493.3502040     
  -49820289.6400301     
  -49821090.5083655     
  -49821895.5796284     
  -49822704.4826193     
  -49823516.8504402     
  -49824332.3204144     
  -49825150.5340061     
  -49825971.1367413     
  -49826793.7781297     
  -49827618.1115884     
  -49828443.7943668     
  -49829270.4874746     
  -49830097.8556115     
  -49830925.5670998     
  -49831753.2938197     
  -49832580.7111480     
  -49833407.4978998     
  -49834233.3362733     
  -49835057.9117990     
  -49835880.9132910     
  -49836702.0328037     
  -49837520.9655902     
  -49838337.4100662     
  -49839151.0677764     
  -49839961.6433646     
  -49840768.8445480     
  -49581860.5236611     
  -49582841.9870873     
  -49583834.7922584     
  -49584838.4961902     
  -49585852.6621719     
  -49586876.8597974     
  -49587910.6649853     
  -49588953.6599907     
  -49590005.4334069     
  -49591065.5801584     
  -49592133.7014861     
  -49593209.4049245     
  -49594292.3042710     
  -49595382.0195490     
  -49596478.1769641     
  -49597580.4088545     
  -49598688.3536355     
  -49599801.6557393     
  -49600919.9655493     
  -49602042.9393314     
  -49603170.2391598     
  -49604301.5328408     
  -49605436.4938323     
  -49606574.8011616     
  -49607716.1393405     
  -49608860.1982780     
  -49610006.6731921     
  -49611155.2645199     
  -49612305.6778271     
  -49613457.6237165     
  -49614610.8177361     
  -49615764.9802882     
  -49616919.8365367     
  -49618075.1163171     
  -49619230.5540453     
  -49620385.8886289     
  -49621540.8633781     
  -49622695.2259189     
  -49623848.7281074     
  -49625001.1259455     
  -49626152.1794988     
  -49627301.6528155     
  -49628449.3138480     
  -49629594.9343759     
  -49630738.2899313     
  -49631879.1597262     
  -49633017.3265814     
  -49634152.5768581     
  -49635284.7003910     
  -49636413.4904241     
  -49359205.4988084     
  -49360597.4838198     
  -49361997.4693470     
  -49363405.0601366     
  -49364819.8686672     
  -49366241.5151322     
  -49367669.6274157     
  -49369103.8410621     
  -49370543.7992386     
  -49371989.1526916     
  -49373439.5596974     
  -49374894.6860074     
  -49376354.2047876     
  -49377817.7965532     
  -49379285.1490985     
  -49380755.9574230     
  -49382229.9236514     
  -49383706.7569524     
  -49385186.1734515     
  -49386667.8961418     
  -49388151.6547915     
  -49389637.1858483     
  -49391124.2323415     
  -49392612.5437817     
  -49394101.8760587     
  -49395591.9913370     
  -49397082.6579508     
  -49398573.6502961     
  -49400064.7487233     
  -49401555.7394273     
  -49403046.4143384     
  -49404536.5710115     
  -49406026.0125149     
  -49407514.5473203     
  -49409001.9891902     
  -49410488.1570682     
  -49411972.8749674     
  -49413455.9718599     
  -49414937.2815670     
  -49416416.6426491     
  -49417893.8982972     
  -49419368.8962243     
  -49420841.4885579     
  -49422311.5317333     
  -49423778.8863875     
  -49425243.4172541     
  -49426704.9930591     
  -49428163.4864177     
  -49429618.7737315     
  -49431070.7350871     
  -49135075.8002074     
  -49136883.2834137     
  -49138695.2905133     
  -49140511.4744323     
  -49142331.4974537     
  -49144155.0311465     
  -49145981.7562892     
  -49147811.3627907     
  -49149643.5496069     
  -49151478.0246531     
  -49153314.5047135     
  -49155152.7153472     
  -49156992.3907908     
  -49158833.2738579     
  -49160675.1158354     
  -49162517.6763776     
  -49164360.7233972     
  -49166204.0329539     
  -49168047.3891400     
  -49169890.5839653     
  -49171733.4172379     
  -49173575.6964446     
  -49175417.2366287     
  -49177257.8602662     
  -49179097.3971405     
  -49180935.6842157     
  -49182772.5655083     
  -49184607.8919577     
  -49186441.5212959     
  -49188273.3179160     
  -49190103.1527395     
  -49191930.9030831     
  -49193756.4525248     
  -49195579.6907690     
  -49197400.5135118     
  -49199218.8223045     
  -49201034.5244181     
  -49202847.5327066     
  -49204657.7654703     
  -49206465.1463184     
  -49208269.6040324     
  -49210071.0724281     
  -49211869.4902186     
  -49213664.8008764     
  -49215456.9524958     
  -49217245.8976556     
  -49219031.5932805     
  -49220814.0005042     
  -49222593.0845316     
  -49224368.8145000     
  -48909134.0425517     
  -48911361.7043945     
  -48913590.2493870     
  -48915819.3801440     
  -48918048.8103622     
  -48920278.2646906     
  -48922507.4786001     
  -48924736.1982514     
  -48926964.1803617     
  -48929191.1920709     
  -48931417.0108053     
  -48933641.4241414     
  -48935864.2296677     
  -48938085.2348456     
  -48940304.2568692     
  -48942521.1225237     
  -48944735.6680429     
  -48946947.7389653     
  -48949157.1899897     
  -48951363.8848286     
  -48953567.6960616     
  -48955768.5049869     
  -48957966.2014724     
  -48960160.6838054     
  -48962351.8585408     
  -48964539.6403495     
  -48966723.9518643     
  -48968904.7235257     
  -48971081.8934270     
  -48973255.4071572     
  -48975425.2176441     
  -48977591.2849957     
  -48979753.5763412     
  -48981912.0656709     
  -48984066.7336745     
  -48986217.5675799     
  -48988364.5609894     
  -48990507.7137168     
  -48992647.0316219     
  -48994782.5264453     
  -48996914.2156420     
  -48999042.1222141     
  -49001166.2745427     
  -49003286.7062188     
  -49005403.4558738     
  -49007516.5670087     
  -49009626.0878229     
  -49011732.0710421     
  -49013834.5737453     
  -49015933.6571910     
  -48681042.6892825     
  -48683694.9098569     
  -48686344.1775820     
  -48688990.2474052     
  -48691632.8871143     
  -48694271.8771501     
  -48696907.0104205     
  -48699538.0921159     
  -48702164.9395266     
  -48704787.3818608     
  -48707405.2600639     
  -48710018.4266392     
  -48712626.7454687     
  -48715230.0916354     
  -48717828.3512456     
  -48720421.4212523     
  -48723009.2092782     
  -48725591.6334398     
  -48728168.6221710     
  -48730740.1140471     
  -48733306.0576082     
  -48735866.4111833     
  -48738421.1427132     
  -48740970.2295733     
  -48743513.6583962     
  -48746051.4248933     
  -48748583.5336758     
  -48751109.9980749     
  -48753630.8399617     
  -48756146.0895647     
  -48758655.7852883     
  -48761159.9735283     
  -48763658.7084876     
  -48766152.0519899     
  -48768640.0732925     
  -48771122.8488977     
  -48773600.4623625     
  -48776073.0041076     
  -48778540.5712242     
  -48781003.2672798     
  -48783461.2021219     
  -48785914.4916814     
  -48788363.2577727     
  -48790807.6278937     
  -48793247.7350238     
  -48795683.7174195     
  -48798115.7184100     
  -48800543.8861899     
  -48802968.3736111     
  -48805389.3379726     
  -48450464.7504654     
  -48453545.5955364     
  -48456619.4242562     
  -48459686.0476819     
  -48462745.2914384     
  -48465796.9954754     
  -48468841.0138302     
  -48471877.2143930     
  -48474905.4786781     
  -48477925.7015971     
  -48480937.7912367     
  -48483941.6686393     
  -48486937.2675859     
  -48489924.5343826     
  -48492903.4276492     
  -48495873.9181088     
  -48498835.9883810     
  -48501789.6327754     
  -48504734.8570870     
  -48507671.6783924     
  -48510600.1248469     
  -48513520.2354825     
  -48516432.0600059     
  -48519335.6585967     
  -48522231.1017059     
  -48525118.4698537     
  -48527997.8534272     
  -48530869.3524768     
  -48533733.0765131     
  -48536589.1443010     
  -48539437.6836540     
  -48542278.8312267     
  -48545112.7323060     
  -48547939.5405999     
  -48550759.4180258     
  -48553572.5344958     
  -48556379.0677010     
  -48559179.2028930     
  -48561973.1326635     
  -48564761.0567217     
  -48567543.1816693     
  -48570319.7207735     
  -48573090.8937371     
  -48575856.9264663     
  -48578618.0508366     
  -48581374.5044553     
  -48584126.5304222     
  -48586874.3770880     
  -48589618.2978095     
  -48592358.5507029     
  -48217064.5384578     
  -48220577.7359067     
  -48224079.5939060     
  -48227569.9844564     
  -48231048.7957566     
  -48234515.9319121     
  -48237971.3126516     
  -48241414.8730510     
  -48244846.5632626     
  -48248266.3482521     
  -48251674.2075401     
  -48255070.1349493     
  -48258454.1383568     
  -48261826.2394501     
  -48265186.4734883     
  -48268534.8890658     
  -48271871.5478796     
  -48275196.5244995     
  -48278509.9061407     
  -48281811.7924382     
  -48285102.2952227     
  -48288381.5382986     
  -48291649.6572216     
  -48294906.7990780     
  -48298153.1222634     
  -48301388.7962621     
  -48304614.0014250     
  -48307828.9287477     
  -48311033.7796473     
  -48314228.7657375     
  -48317414.1086028     
  -48320590.0395705     
  -48323756.7994807     
  -48326914.6384538     
  -48330063.8156564     
  -48333204.5990635     
  -48336337.2652185     
  -48339462.0989902     
  -48342579.3933265     
  -48345689.4490049     
  -48348792.5743798     
  -48351889.0851263     
  -48354979.3039806     
  -48358063.5604765     
  -48361142.1906786     
  -48364215.5369122     
  -48367283.9474888     
  -48370347.7764284     
  -48373407.3831786     
  -48376463.1323295     
  -47980508.4705383     
  -47984457.3791099     
  -47988390.3348622     
  -47992307.2764728     
  -47996208.1602845     
  -48000092.9599755     
  -48003961.6662405     
  -48007814.2864826     
  -48011650.8445128     
  -48015471.3802592     
  -48019275.9494837     
  -48023064.6235062     
  -48026837.4889357     
  -48030594.6474068     
  -48034336.2153228     
  -48038062.3236032     
  -48041773.1174353     
  -48045468.7560303     
  -48049149.4123821     
  -48052815.2730293     
  -48056466.5378182     
  -48060103.4196697     
  -48063726.1443448     
  -48067334.9502123     
  -48070930.0880167     
  -48074511.8206449     
  -48078080.4228928     
  -48081636.1812312     
  -48085179.3935689     
  -48088710.3690152     
  -48092229.4276394     
  -48095736.9002276     
  -48099233.1280369     
  -48102718.4625463     
  -48106193.2652038     
  -48109657.9071699     
  -48113112.7690570     
  -48116558.2406646     
  -48119994.7207099     
  -48123422.6165540     
  -48126842.3439230     
  -48130254.3266248     
  -48133658.9962599     
  -48137056.7919286     
  -48140448.1599312     
  -48143833.5534647     
  -48147213.4323134     
  -48150588.2625348     
  -48153958.5161397     
  -48157324.6707678     
  -47740465.9082652     
  -47744853.4822270     
  -47749220.1717525     
  -47753565.9885825     
  -47757890.9633585     
  -47762195.1452692     
  -47766478.6017125     
  -47770741.4179684     
  -47774983.6968844     
  -47779205.5585721     
  -47783407.1401132     
  -47787588.5952759     
  -47791750.0942380     
  -47795891.8233199     
  -47800013.9847223     
  -47804116.7962719     
  -47808200.4911705     
  -47812265.3177506     
  -47816311.5392332     
  -47820339.4334897     
  -47824349.2928054     
  -47828341.4236457     
  -47832316.1464220     
  -47836273.7952594     
  -47840214.7177627     
  -47844139.2747829     
  -47848047.8401812     
  -47851940.8005918     
  -47855818.5551814     
  -47859681.5154064     
  -47863530.1047665     
  -47867364.7585534     
  -47871185.9235966     
  -47874994.0580034     
  -47878789.6308941     
  -47882573.1221316     
  -47886345.0220451     
  -47890105.8311485     
  -47893856.0598511     
  -47897596.2281628     
  -47901326.8653926     
  -47905048.5098391     
  -47908761.7084753     
  -47912467.0166254     
  -47916164.9976343     
  -47919856.2225306     
  -47923541.2696814     
  -47927220.7244405     
  -47930895.1787889     
  -47934565.2309685     
  -47496610.0234172     
  -47501438.7787010     
  -47506241.3757128     
  -47511017.9059423     
  -47515768.4807147     
  -47520493.2308351     
  -47525192.3062494     
  -47529865.8757204     
  -47534514.1265183     
  -47539137.2641246     
  -47543735.5119474     
  -47548309.1110486     
  -47552858.3198807     
  -47557383.4140320     
  -47561884.6859806     
  -47566362.4448543     
  -47570817.0161974     
  -47575248.7417414     
  -47579657.9791802     
  -47584045.1019480     
  -47588410.4989998     
  -47592754.5745925     
  -47597077.7480668     
  -47601380.4536282     
  -47605663.1401275     
  -47609926.2708385     
  -47614170.3232333     
  -47618395.7887541     
  -47622603.1725814     
  -47626792.9933961     
  -47630965.7831378     
  -47635122.0867562     
  -47639262.4619563     
  -47643387.4789369     
  -47647497.7201209     
  -47651593.7798790     
  -47655676.2642436     
  -47659745.7906158     
  -47663802.9874619     
  -47667848.4940020     
  -47671882.9598881     
  -47675907.0448734     
  -47679921.4184713     
  -47683926.7596043     
  -47687923.7562435     
  -47691913.1050376     
  -47695895.5109316     
  -47699871.6867758     
  -47703842.3529244     
  -47707808.2368244     
  -47248618.6801434     
  -47253890.6698347     
  -47259130.8665573     
  -47264339.4480563     
  -47269516.6124782     
  -47274662.5780390     
  -47279777.5827114     
  -47284861.8839304     
  -47289915.7583148     
  -47294939.5014044     
  -47299933.4274108     
  -47304897.8689804     
  -47309833.1769692     
  -47314739.7202260     
  -47319617.8853855     
  -47324468.0766675     
  -47329290.7156824     
  -47334086.2412413     
  -47338855.1091694     
  -47343597.7921220     
  -47348314.7794017     
  -47353006.5767753     
  -47357673.7062896     
  -47362316.7060864     
  -47366936.1302130     
  -47371532.5484296     
  -47376106.5460120     
  -47380658.7235479     
  -47385189.6967277     
  -47389700.0961269     
  -47394190.5669815     
  -47398661.7689536     
  -47403114.3758890     
  -47407549.0755634     
  -47411966.5694189     
  -47416367.5722891     
  -47420752.8121131     
  -47425123.0296363     
  -47429478.9781009     
  -47433821.4229212     
  -47438151.1413481     
  -47442468.9221189     
  -47446775.5650942     
  -47451071.8808813     
  -47455358.6904432     
  -47459636.8246946     
  -47463907.1240837     
  -47468170.4381599     
  -47472427.6251286     
  -47476679.5513912     
  -46996175.3226904     
  -47001892.1324810     
  -47007571.1417550     
  -47013212.6202097     
  -47018816.8580741     
  -47024384.1658349     
  -47029914.8739842     
  -47035409.3327882     
  -47040867.9120731     
  -47046291.0010294     
  -47051679.0080298     
  -47057032.3604610     
  -47062351.5045673     
  -47067636.9053032     
  -47072889.0461953     
  -47078108.4292106     
  -47083295.5746295     
  -47088451.0209233     
  -47093575.3246330     
  -47098669.0602498     
  -47103732.8200940     
  -47108767.2141932     
  -47113772.8701557     
  -47118750.4330414     
  -47123700.5652253     
  -47128623.9462550     
  -47133521.2727008     
  -47138393.2579957     
  -47143240.6322666     
  -47148064.1421542     
  -47152864.5506211     
  -47157642.6367476     
  -47162399.1955141     
  -47167135.0375692     
  -47171850.9889835     
  -47176547.8909878     
  -47181226.5996950     
  -47185887.9858065     
  -47190532.9343006     
  -47195162.3441047     
  -47199777.1277489     
  -47204378.2110021     
  -47208966.5324900     
  -47213543.0432945     
  -47218108.7065344     
  -47222664.4969282     
  -47227211.4003373     
  -47231750.4132918     
  -47236282.5424964     
  -47240808.8043190     
  -46738969.8582233     
  -46745132.6357766     
  -46751251.2283434     
  -46757326.0016488     
  -46763357.3415831     
  -46769345.6540291     
  -46775291.3647143     
  -46781194.9190843     
  -46787056.7821966     
  -46792877.4386318     
  -46798657.3924203     
  -46804397.1669824     
  -46810097.3050795     
  -46815758.3687745     
  -46821380.9393997     
  -46826965.6175300     
  -46832513.0229594     
  -46838023.7946788     
  -46843498.5908547     
  -46848938.0888051     
  -46854342.9849724     
  -46859713.9948908     
  -46865051.8531478     
  -46870357.3133370     
  -46875631.1480020     
  -46880874.1485687     
  -46886087.1252663     
  -46891270.9070344     
  -46896426.3414159     
  -46901554.2944341     
  -46906655.6504537     
  -46911731.3120232     
  -46916782.1996996     
  -46921809.2518536     
  -46926813.4244543     
  -46931795.6908335     
  -46936757.0414278     
  -46941698.4834991     
  -46946621.0408325     
  -46951525.7534102     
  -46956413.6770632     
  -46961285.8830976     
  -46966143.4578980     
  -46970987.5025055     
  -46975819.1321715     
  -46980639.4758877     
  -46985449.6758892     
  -46990250.8871360     
  -46995044.2767668     
  -46999831.0235308     
  -46476699.5254197     
  -46483309.0616304     
  -46489867.6564414     
  -46496375.7730286     
  -46502833.8938205     
  -46509242.5204821     
  -46515602.1739245     
  -46521913.3943370     
  -46528176.7412398     
  -46534392.7935537     
  -46540562.1496852     
  -46546685.4276234     
  -46552763.2650465     
  -46558796.3194358     
  -46564785.2681952     
  -46570730.8087722     
  -46576633.6587800     
  -46582494.5561180     
  -46588314.2590882     
  -46594093.5465052     
  -46599833.2177997     
  -46605534.0931110     
  -46611197.0133693     
  -46616822.8403639     
  -46622412.4567972     
  -46627966.7663221     
  -46633486.6935618     
  -46638973.1841102     
  -46644427.2045117     
  -46649849.7422195     
  -46655241.8055305     
  -46660604.4234963     
  -46665938.6458088     
  -46671245.5426600     
  -46676526.2045745     
  -46681781.7422141     
  -46687013.2861537     
  -46692221.9866285     
  -46697409.0132503     
  -46702575.5546940     
  -46707722.8183532     
  -46712852.0299640     
  -46717964.4331975     
  -46723061.2892207     
  -46728143.8762241     
  -46733213.4889188     
  -46738271.4380000     
  -46743319.0495791     
  -46748357.6645832     
  -46753388.6381232     
  -46209069.7425560     
  -46216126.6275555     
  -46223125.4576742     
  -46230066.7910196     
  -46236951.2034648     
  -46243779.2888562     
  -46250551.6592469     
  -46257268.9451523     
  -46263931.7958250     
  -46270540.8795442     
  -46277096.8839199     
  -46283600.5162041     
  -46290052.5036104     
  -46296453.5936362     
  -46302804.5543864     
  -46309106.1748946     
  -46315359.2654403     
  -46321564.6578595     
  -46327723.2058451     
  -46333835.7852360     
  -46339903.2942930     
  -46345926.6539576     
  -46351906.8080937     
  -46357844.7237088     
  -46363741.3911534     
  -46369597.8242973     
  -46375415.0606797     
  -46381194.1616341     
  -46386936.2123826     
  -46392642.3221026     
  -46398313.6239609     
  -46403951.2751165     
  -46409556.4566890     
  -46415130.3736930     
  -46420674.2549368     
  -46426189.3528845     
  -46431676.9434808     
  -46437138.3259375     
  -46442574.8224815     
  -46447987.7780630     
  -46453378.5600243     
  -46458748.5577276     
  -46464099.1821426     
  -46469431.8653926     
  -46474748.0602598     
  -46480049.2396487     
  -46485336.8960084     
  -46490612.5407138     
  -46495877.7034048     
  -46501133.9312848     
  -45935794.9350046     
  -45943299.8175688     
  -45950739.1998274     
  -45958113.7267659     
  -45965424.0590789     
  -45972670.8736840     
  -45979854.8642588     
  -45986976.7417977     
  -45994037.2351848     
  -46001037.0917771     
  -46007977.0779976     
  -46014857.9799308     
  -46021680.6039212     
  -46028445.7771677     
  -46035154.3483135     
  -46041807.1880268     
  -46048405.1895706     
  -46054949.2693575     
  -46061440.3674871     
  -46067879.4482648     
  -46074267.5006977     
  -46080605.5389656     
  -46086894.6028663     
  -46093135.7582310     
  -46099330.0973094     
  -46105478.7391214     
  -46111582.8297748     
  -46117643.5427455     
  -46123662.0791210     
  -46129639.6678030     
  -46135577.5656696     
  -46141477.0576952     
  -46147339.4570261     
  -46153166.1050118     
  -46158958.3711905     
  -46164717.6532268     
  -46170445.3768021     
  -46176142.9954563     
  -46181811.9903800     
  -46187453.8701563     
  -46193070.1704521     
  -46198662.4536584     
  -46204232.3084782     
  -46209781.3494633     
  -46215311.2164987     
  -46220823.5742337     
  -46226320.1114623     
  -46231802.5404494     
  -46237272.5962058     
  -46242732.0357107     
  -45656599.3532569     
  -45664553.3390943     
  -45672434.0821636     
  -45680242.2988023     
  -45687978.7184890     
  -45695644.0847613     
  -45703239.1561522     
  -45710764.7071396     
  -45718221.5291062     
  -45725610.4313020     
  -45732932.2418083     
  -45740187.8084971     
  -45747377.9999831     
  -45754503.7065647     
  -45761565.8411485     
  -45768565.3401570     
  -45775503.1644135     
  -45782380.3000030     
  -45789197.7591047     
  -45795956.5807947     
  -45802657.8318150     
  -45809302.6073075     
  -45815892.0315092     
  -45822427.2584080     
  -45828909.4723552     
  -45835339.8886343     
  -45841719.7539827     
  -45848050.3470659     
  -45854332.9789011     
  -45860568.9932298     
  -45866759.7668370     
  -45872906.7098162     
  -45879011.2657780     
  -45885074.9120027     
  -45891099.1595336     
  -45897085.5532113     
  -45903035.6716481     
  -45908951.1271410     
  -45914833.5655223     
  -45920684.6659484     
  -45926506.1406239     
  -45932299.7344634     
  -45938067.2246875     
  -45943810.4203546     
  -45949531.1618280     
  -45955231.3201766     
  -45960912.7965119     
  -45966577.5212576     
  -45972227.4533556     
  -45977864.5794055     
  -45371217.9114485     
  -45379623.1436836     
  -45387947.1365730     
  -45396190.6524883     
  -45404354.4640001     
  -45412439.3553160     
  -45420446.1237263     
  -45428375.5810537     
  -45436228.5550995     
  -45444005.8910833     
  -45451708.4530698     
  -45459337.1253800     
  -45466892.8139808     
  -45474376.4478509     
  -45481788.9803170     
  -45489131.3903589     
  -45496404.6838789     
  -45503609.8949322     
  -45510748.0869162     
  -45517820.3537150     
  -45524827.8207971     
  -45531771.6462633     
  -45538653.0218421     
  -45545473.1738316     
  -45552233.3639844     
  -45558934.8903340     
  -45565579.0879612     
  -45572167.3296982     
  -45578701.0267680     
  -45585181.6293594     
  -45591610.6271347     
  -45597989.5496677     
  -45604319.9668137     
  -45610603.4890067     
  -45616841.7674852     
  -45623036.4944444     
  -45629189.4031133     
  -45635302.2677568     
  -45641376.9036019     
  -45647415.1666855     
  -45653418.9536257     
  -45659390.2013134     
  -45665330.8865258     
  -45671243.0254599     
  -45677128.6731859     
  -45682989.9230212     
  -45688828.9058231     
  -45694647.7892023     
  -45700448.7766534     
  -45706234.1066093     
  -45079397.1068528     
  -45088257.5806980     
  -45097028.6116794     
  -45105710.9703740     
  -45114305.4345005     
  -45122812.7910091     
  -45131233.8381613     
  -45139569.3875955     
  -45147820.2663734     
  -45155987.3189992     
  -45164071.4094098     
  -45172073.4229296     
  -45179994.2681856     
  -45187834.8789801     
  -45195596.2161160     
  -45203279.2691719     
  -45210885.0582237     
  -45218414.6355092     
  -45225869.0870339     
  -45233249.5341148     
  -45240557.1348592     
  -45247793.0855776     
  -45254958.6221267     
  -45262055.0211824     
  -45269083.6014393     
  -45276045.7247354     
  -45282942.7971010     
  -45289776.2697285     
  -45296547.6398623     
  -45303258.4516091     
  -45309910.2966628     
  -45316504.8149474     
  -45323043.6951729     
  -45329528.6753050     
  -45335961.5429467     
  -45342344.1356302     
  -45348678.3410189     
  -45354966.0970176     
  -45361209.3917908     
  -45367410.2636868     
  -45373570.8010688     
  -45379693.1420501     
  -45385779.4741342     
  -45391832.0337588     
  -45397853.1057430     
  -45403845.0226371     
  -45409810.1639761     
  -45415750.9554328     
  -45421669.8678793     
  -45427569.4163413     
  -44780896.1287078     
  -44790218.8013532     
  -44799443.6653092     
  -44808571.4459314     
  -44817602.8729820     
  -44826538.6835123     
  -44835379.6247094     
  -44844126.4567029     
  -44852779.9553230     
  -44861340.9148075     
  -44869810.1504513     
  -44878188.5011953     
  -44886476.8321508     
  -44894676.0370551     
  -44902787.0406568     
  -44910810.8010262     
  -44918748.3117900     
  -44926600.6042861     
  -44934368.7496380     
  -44942053.8607469     
  -44949657.0941972     
  -44957179.6520770     
  -44964622.7837102     
  -44971987.7872980     
  -44979276.0114706     
  -44986488.8567452     
  -44993627.7768904     
  -45000694.2801955     
  -45007689.9306417     
  -45014616.3489769     
  -45021475.2136899     
  -45028268.2618838     
  -45034997.2900470     
  -45041664.1547215     
  -45048270.7730653     
  -45054819.1233094     
  -45061311.2451063     
  -45067749.2397718     
  -45074135.2704145     
  -45080471.5619564     
  -45086760.4010405     
  -45093004.1358247     
  -45099205.1756646     
  -45105365.9906771     
  -45111489.1111923     
  -45117577.1270886     
  -45123632.6870076     
  -45129658.4974622     
  -45135657.3218053     
  -45141631.9791170     
  -44475488.3385589     
  -44485284.6035732     
  -44494974.5625491     
  -44504558.8232619     
  -44514037.9961717     
  -44523412.6982431     
  -44532683.5566882     
  -44541851.2126284     
  -44550916.3246693     
  -44559879.5723866     
  -44568741.6597179     
  -44577503.3182579     
  -44586165.3104563     
  -44594728.4327136     
  -44603193.5183769     
  -44611561.4406303     
  -44619833.1152825     
  -44628009.5034488     
  -44636091.6141265     
  -44644080.5066649     
  -44651977.2931276     
  -44659783.1405464     
  -44667499.2730687     
  -44675126.9739937     
  -44682667.5877015     
  -44690122.5214695     
  -44697493.2471787     
  -44704781.3029085     
  -44711988.2944165     
  -44719115.8965055     
  -44726165.8542739     
  -44733139.9842487     
  -44740040.1754013     
  -44746868.3900418     
  -44753626.6645924     
  -44760317.1102378     
  -44766941.9134494     
  -44773503.3363840     
  -44780003.7171554     
  -44786445.4699725     
  -44792831.0851500     
  -44799163.1289848     
  -44805444.2434947     
  -44811677.1460300     
  -44817864.6287397     
  -44824009.5579022     
  -44830114.8731275     
  -44836183.5863863     
  -44842218.7809772     
  -44848223.6102240     
  -44162963.4162810     
  -44173251.0170094     
  -44183423.6818273     
  -44193481.8063451     
  -44203425.7892129     
  -44213256.0369953     
  -44222972.9689113     
  -44232577.0214342     
  -44242068.6527505     
  -44251448.3470778     
  -44260716.6188380     
  -44269874.0166906     
  -44278921.1274231     
  -44287858.5797015     
  -44296687.0476824     
  -44305407.2544872     
  -44314019.9755419     
  -44322526.0417827     
  -44330926.3427299     
  -44339221.8294321     
  -44347413.5172818     
  -44355502.4887038     
  -44363489.8957174     
  -44371376.9623739     
  -44379164.9870684     
  -44386855.3447280     
  -44394449.4888749     
  -44401948.9535638     
  -44409355.3551945     
  -44416670.3941959     
  -44423895.8565830     
  -44431033.6153823     
  -44438085.6319255     
  -44445053.9570099     
  -44451940.7319197     
  -44458748.1893110     
  -44465478.6539520     
  -44472134.5433228     
  -44478718.3680614     
  -44485232.7322695     
  -44491680.3336566     
  -44498063.9635317     
  -44504386.5066522     
  -44510650.9408773     
  -44516860.3367013     
  -44523017.8566094     
  -44529126.7542330     
  -44535190.3734598     
  -44541212.1470960     
  -44547195.5958484     
  -43843130.6331051     
  -43853936.0872249     
  -43864617.7827647     
  -43875175.7837293     
  -43885610.1611611     
  -43895920.9991246     
  -43906108.4004679     
  -43916172.4923662     
  -43926113.4316494     
  -43935931.4099193     
  -43945626.6584624     
  -43955199.4529631     
  -43964650.1180251     
  -43973979.0315067     
  -43983186.6286779     
  -43992273.4062048     
  -44001239.9259694     
  -44010086.8187298     
  -44018814.7876274     
  -44027424.6115468     
  -44035917.1483321     
  -44044293.3378651     
  -44052554.2050089     
  -44060700.8624183     
  -44068734.5132208     
  -44076656.4535684     
  -44084468.0750615     
  -44092170.8670441     
  -44099766.4187698     
  -44107256.4214371     
  -44114642.6700907     
  -44121927.0653879     
  -44129111.6152266     
  -44136198.4362252     
  -44143189.7550636     
  -44150087.9096637     
  -44156895.3502209     
  -44163614.6400648     
  -44170248.4563739     
  -44176799.5906836     
  -44183270.9492569     
  -44189665.5532612     
  -44195986.5387108     
  -44202237.1563583     
  -44208420.7712216     
  -44214540.8619917     
  -44220601.0203640     
  -44226604.9497400     
  -44232556.4647404     
  -44238459.4886990     
  -43515823.9573015     
  -43527185.5466600     
  -43538414.2015872     
  -43549509.5093676     
  -43560471.0742088     
  -43571298.5242368     
  -43581991.5181561     
  -43592549.7515833     
  -43602972.9630720     
  -43613260.9398429     
  -43623413.5232342     
  -43633430.6138900     
  -43643312.1767025     
  -43653058.2455224     
  -43662668.9276562     
  -43672144.4081632     
  -43681484.9539661     
  -43690690.9177914     
  -43699762.7419484     
  -43708700.9619607     
  -43717506.2100572     
  -43726179.2185350     
  -43734720.8229959     
  -43743131.9654669     
  -43751413.6974048     
  -43759567.1825904     
  -43767593.6999115     
  -43775494.6460326     
  -43783271.5379545     
  -43790926.0154541     
  -43798459.8434061     
  -43805874.9139752     
  -43813173.2486733     
  -43820357.0002904     
  -43827428.4546473     
  -43834390.0322256     
  -43841244.2895985     
  -43847993.9207208     
  -43854641.7579642     
  -43861190.7730873     
  -43867644.0778468     
  -43874004.9244665     
  -43880276.7060449     
  -43886462.9562232     
  -43892567.3493225     
  -43898593.6998641     
  -43904545.9614362     
  -43910428.2268532     
  -43916244.7244217     
  -43921999.8206895     
  -43180910.0437731     
  -43192881.3756486     
  -43204709.9249789     
  -43216394.6346060     
  -43227934.4831204     
  -43239328.4924968     
  -43250575.7352459     
  -43261675.3411112     
  -43272626.5033459     
  -43283428.4846005     
  -43294080.6224549     
  -43304582.3346261     
  -43314933.1238851     
  -43325132.5827112     
  -43335180.3977141     
  -43345076.3538515     
  -43354820.3384673     
  -43364412.3451745     
  -43373852.4776046     
  -43383140.9530421     
  -43392278.1059622     
  -43401264.3914817     
  -43410100.3887434     
  -43418786.8042292     
  -43427324.4750236     
  -43435714.3720162     
  -43443957.6030504     
  -43452055.4160255     
  -43460009.2019206     
  -43467820.4977679     
  -43475490.9895317     
  -43483022.5149131     
  -43490417.0660530     
  -43497676.7920664     
  -43504804.0015578     
  -43511801.1648400     
  -43518670.9161155     
  -43525416.0553416     
  -43532039.5501168     
  -43538544.5368726     
  -43544934.3224461     
  -43551212.3850321     
  -43557382.3743656     
  -43563448.1134904     
  -43569413.5973733     
  -43575282.9929755     
  -43581060.6403478     
  -43586751.0477811     
  -43592358.8996788     
  -43597889.0392953     
  -42838300.6218909     
  -42850954.6667492     
  -42863454.8507732     
  -42875799.2923425     
  -42887986.1772415     
  -42900013.7660886     
  -42911880.4011097     
  -42923584.5123208     
  -42935124.6231755     
  -42946499.3557410     
  -42957707.4354552     
  -42968747.6955247     
  -42979619.0810146     
  -42990320.6526829     
  -43000851.5906058     
  -43011211.1976424     
  -43021398.9027768     
  -43031414.2643794     
  -43041256.9734206     
  -43050926.8566672     
  -43060423.8798861     
  -43069748.1510906     
  -43078899.9238155     
  -43087879.6004810     
  -43096687.7358006     
  -43105325.0402852     
  -43113792.3838189     
  -43122090.7992664     
  -43130221.4862044     
  -43138185.8146241     
  -43145985.3287192     
  -43153621.7506192     
  -43161096.9841006     
  -43168413.1184121     
  -43175572.4315839     
  -43182577.3941910     
  -43189430.6724236     
  -43196135.1314429     
  -43202693.8377372     
  -43209110.0628920     
  -43215387.2845611     
  -43221529.1888018     
  -43227539.6735095     
  -43233422.8446077     
  -43239183.0231644     
  -43244824.7439416     
  -43250352.7492227     
  -43255772.0028232     
  -43261087.6567396     
  -43266305.1078925     
  -42487971.3593870     
  -42501404.6823914     
  -42514670.9374011     
  -42527767.2485794     
  -42540690.8563934     
  -42553439.1232495     
  -42566009.5383281     
  -42578399.7217084     
  -42590607.4278861     
  -42602630.5487745     
  -42614467.1162806     
  -42626115.3045415     
  -42637573.4319009     
  -42648839.9627066     
  -42659913.5089984     
  -42670792.8321547     
  -42681476.8445665     
  -42691964.6113856     
  -42702255.3524131     
  -42712348.4441673     
  -42722243.4221813     
  -42731939.9835235     
  -42741437.9896784     
  -42750737.4696315     
  -42759838.6233827     
  -42768741.8256927     
  -42777447.6301735     
  -42785956.7738130     
  -42794270.1815394     
  -42802388.9713338     
  -42810314.4593360     
  -42818048.1653455     
  -42825591.8184197     
  -42832947.3620040     
  -42840116.9606646     
  -42847103.0044876     
  -42853908.1155325     
  -42860535.1523121     
  -42866987.2165774     
  -42873267.6538396     
  -42879380.0633506     
  -42885328.2998306     
  -42891116.4705443     
  -42896748.9566217     
  -42902230.3892046     
  -42907565.6610135     
  -42912759.9495188     
  -42917818.6624021     
  -42922747.5510911     
  -42927552.4950945     
  -42129989.8431589     
  -42144326.4315570     
  -42158479.2619040     
  -42172444.3458159     
  -42186217.8812661     
  -42199796.2538818     
  -42213176.0373544     
  -42226353.9931312     
  -42239327.0695224     
  -42252092.4003508     
  -42264647.3032691     
  -42276989.2778600     
  -42289116.0036341     
  -42301025.3380185     
  -42312715.3144480     
  -42324184.1406496     
  -42335430.1971910     
  -42346452.0364155     
  -42357248.3817924     
  -42367818.1277874     
  -42378160.3402895     
  -42388274.2577923     
  -42398159.2929808     
  -42407815.0354456     
  -42417241.2547263     
  -42426437.9044994     
  -42435405.1274302     
  -42444143.2603782     
  -42452652.8413308     
  -42460934.6159024     
  -42468989.5454465     
  -42476818.8149834     
  -42484423.8418894     
  -42491806.2867427     
  -42498968.0587487     
  -42505911.3304067     
  -42512638.5433849     
  -42519152.4209992     
  -42525455.9719590     
  -42531552.5143516     
  -42537445.6606964     
  -42543139.3370229     
  -42548637.8112723     
  -42553945.6306874     
  -42559067.7303528     
  -42564009.3842314     
  -42568776.1252704     
  -42573373.9532869     
  -42577808.9288748     
  -42582087.9473440     
  -41764555.6152994     
  -41779949.2314714     
  -41795137.0081963     
  -41810113.8430858     
  -41824874.9127448     
  -41839415.6660292     
  -41853731.8166621     
  -41867819.3352850     
  -41881674.4411330     
  -41895293.5934871     
  -41908673.4830466     
  -41921811.0233496     
  -41934703.3423598     
  -41947347.7743710     
  -41959741.8523020     
  -41971883.3005055     
  -41983770.0282692     
  -41995400.1239540     
  -42006771.8500918     
  -42017883.6394000     
  -42028734.0919020     
  -42039321.9728220     
  -42049646.2127858     
  -42059705.9078076     
  -42069500.3224190     
  -42079028.8928621     
  -42088291.2324263     
  -42097287.1397957     
  -42106016.6052860     
  -42114479.8233166     
  -42122677.2025370     
  -42130609.3802375     
  -42138277.2368158     
  -42145681.9059924     
  -42152824.8063103     
  -42159707.6376884     
  -42166332.4146395     
  -42172701.4743805     
  -42178817.5125667     
  -42184683.5473898     
  -42190303.0300152     
  -42195679.8026875     
  -42200818.0382771     
  -42205722.5057200     
  -42210398.1752339     
  -42214850.4802971     
  -42219085.6136887     
  -42223109.7308406     
  -42226930.3966127     
  -42230553.8102799     
  -41392054.7187722     
  -41408688.1027185     
  -41425085.6847231     
  -41441241.4543296     
  -41457149.7905494     
  -41472805.4431315     
  -41488203.5133699     
  -41503339.4349495     
  -41518208.9549075     
  -41532808.1148194     
  -41547133.2323321     
  -41561180.8831596     
  -41574947.8836748     
  -41588431.2740871     
  -41601628.3024809     
  -41614536.4097552     
  -41627153.2153315     
  -41639476.5043984     
  -41651504.2159379     
  -41663234.4322963     
  -41674665.3702489     
  -41685795.3749877     
  -41696622.9121660     
  -41707146.5681657     
  -41717365.0458869     
  -41727277.1687306     
  -41736881.8847607     
  -41746178.2692301     
  -41755165.5442558     
  -41763843.0829410     
  -41772210.4326524     
  -41780267.3312127     
  -41788013.7315132     
  -41795449.8448818     
  -41802576.1155887     
  -41809393.3363212     
  -41815902.6163281     
  -41822105.4470649     
  -41828003.6799864     
  -41833599.7492482     
  -41838896.3375661     
  -41843896.6839245     
  -41848604.8672623     
  -41853024.8899190     
  -41857162.2532620     
  -41861022.8243583     
  -41864611.8872744     
  -41867937.2865799     
  -41871004.2194235     
  -41873824.9975852     
  -41013129.1741755     
  -41031207.8272271     
  -41049009.8970147     
  -41066528.9803265     
  -41083759.1785211     
  -41100695.0620730     
  -41117331.6368415     
  -41133664.3109431     
  -41149688.8624498     
  -41165401.4080124     
  -41180798.3724298     
  -41195876.4591525     
  -41210632.6216790     
  -41225064.0362553     
  -41239168.0752238     
  -41252942.2814692     
  -41266384.3448328     
  -41279492.0780592     
  -41292263.3959597     
  -41304696.2953533     
  -41316788.8364035     
  -41328539.1220945     
  -41339945.2936937     
  -41351005.5045802     
  -41361717.9237230     
  -41372080.7200201     
  -41382092.0609179     
  -41391750.1295260     
  -41401053.0945265     
  -41409999.1618340     
  -41418586.5678600     
  -41426813.6180743     
  -41434678.7138923     
  -41442180.3450421     
  -41449317.3379477     
  -41456088.5766963     
  -41462493.3424650     
  -41468531.2837506     
  -41474202.6591034     
  -41479507.7393370     
  -41484448.2941861     
  -41489026.4122018     
  -41493243.7595423     
  -41497105.2236268     
  -41500613.1196522     
  -41503772.2083889     
  -41506592.6544448     
  -41509077.7577555     
  -41511243.1490781     
  -41513083.0138155     
  -40628757.4697224     
  -40648495.5187865     
  -40667902.3834848     
  -40686972.1767532     
  -40705699.6066291     
  -40724079.9274098     
  -40742108.8896109     
  -40759782.6924812     
  -40777097.9385156     
  -40794051.5895614     
  -40810640.9243667     
  -40826863.4975490     
  -40842717.1000220     
  -40858199.7194771     
  -40873309.5035541     
  -40888044.7235867     
  -40902403.7362040     
  -40916384.9526090     
  -40929986.8010432     
  -40943207.6929442     
  -40956045.9920513     
  -40968499.9950444     
  -40980567.8633652     
  -40992247.6498932     
  -41003537.2199121     
  -41014434.2611476     
  -41024936.2534542     
  -41035040.3990628     
  -41044743.7470273     
  -41054043.0164849     
  -41062934.6944269     
  -41071415.0045597     
  -41079479.9570365     
  -41087125.5180717     
  -41094346.9566873     
  -41101140.2644771     
  -41107501.1075534     
  -41113425.2893401     
  -41118908.4667686     
  -41123948.7607183     
  -41128541.5745637     
  -41132685.1717904     
  -41136383.1421271     
  -41139630.8352271     
  -41142437.4873571     
  -41144806.0765794     
  -41146725.9401306     
  -41148220.6532602     
  -41149275.5372534     
  -41149952.4972978     
  -40240335.4732396     
  -40261931.7534074     
  -40283126.0457884     
  -40303914.2786192     
  -40324293.0213666     
  -40344259.4119182     
  -40363811.0983072     
  -40382946.1818460     
  -40401663.1619679     
  -40419960.8832531     
  -40437838.4844436     
  -40455295.3488167     
  -40472331.0553190     
  -40488945.3343975     
  -40505138.0177040     
  -40520908.9910349     
  -40536258.1586170     
  -40551185.3798905     
  -40565690.4367468     
  -40579772.9888600     
  -40593432.5172825     
  -40606668.2393385     
  -40619479.1994151     
  -40631863.9961824     
  -40643820.9375173     
  -40655347.8554795     
  -40666442.0887768     
  -40677100.5849752     
  -40687319.3209666     
  -40697093.9488352     
  -40706419.3316828     
  -40715289.5785939     
  -40723697.8588674     
  -40731636.0272805     
  -40739097.0826734     
  -40746069.8713837     
  -40752543.9335401     
  -40758508.4625328     
  -40763953.4118579     
  -40768861.0239388     
  -40773226.7332792     
  -40777037.6416137     
  -40780268.0030347     
  -40782932.2640907     
  -40785002.1360869     
  -40786485.4662148     
  -40787439.7847843     
  -40787791.3630583     
  -40787618.6642220     
  -40786768.5151860     
  -39849739.8943515     
  -39873344.3685473     
  -39896458.9046150     
  -39919082.8577805     
  -39941216.1466799     
  -39962859.2195173     
  -39984012.9864938     
  -40004678.7580477     
  -40024858.1884705     
  -40044553.2220898     
  -40063766.0409333     
  -40082499.0142956     
  -40100754.6500774     
  -40118535.5342237     
  -40135844.2979391     
  -40152683.5687110     
  -40169055.8800127     
  -40184963.6903800     
  -40200409.2783595     
  -40215394.6794144     
  -40229921.6702668     
  -40243991.8146934     
  -40257605.8880321     
  -40270764.6928013     
  -40283468.1527135     
  -40295715.7158195     
  -40307506.1027417     
  -40318836.7362007     
  -40329705.5626275     
  -40340108.0088754     
  -40350038.5440768     
  -40359490.4196956     
  -40368456.0236406     
  -40376927.2447884     
  -40384886.4828307     
  -40392326.8996347     
  -40399232.0874040     
  -40405579.7957584     
  -40411340.7564142     
  -40416509.8252282     
  -40421027.5887027     
  -40424868.1909691     
  -40428046.7510399     
  -40430425.6579638     
  -40432040.3069422     
  -40432811.3441319     
  -40432550.5330115     
  -40431620.5527360     
  -40429798.1784085     
  -40427547.2091190     
  -39459352.5982109     
  -39485026.3094914     
  -39510106.2975444     
  -39534596.8552643     
  -39558502.8146510     
  -39581829.3815367     
  -39604582.0941462     
  -39626766.7833935     
  -39648389.5271633     
  -39669456.6035485     
  -39689974.4449882     
  -39709949.5912609     
  -39729388.6425370     
  -39748298.2528390     
  -39766685.0146479     
  -39784555.4252517     
  -39801916.0003414     
  -39818772.9428339     
  -39835132.2956169     
  -39850999.9294246     
  -39866381.3196205     
  -39881281.2020494     
  -39895705.3432465     
  -39909656.9673689     
  -39923140.0384416     
  -39936157.4208987     
  -39948711.4545287     
  -39960805.1539169     
  -39972435.0307996     
  -39983602.9154385     
  -39994308.6078043     
  -40004549.1987680     
  -40014317.0190109     
  -40023599.8360711     
  -40032411.3415508     
  -40040711.8338651     
  -40048489.3252306     
  -40055742.1268028     
  -40062470.6104300     
  -40068562.6263302     
  -40074090.2730084     
  -40078966.7742562     
  -40082959.7133533     
  -40086395.2154242     
  -40088891.2740706     
  -40090418.5652090     
  -40091159.3512608     
  -40089274.4513895     
  -40085557.4152197     
  -40079187.6830496     
  -39072028.4056611     
  -39099703.6965056     
  -39126668.9106532     
  -39152934.9792011     
  -39178512.7534868     
  -39203413.3410331     
  -39227648.0663639     
  -39251228.4076175     
  -39274165.9519022     
  -39296472.3624247     
  -39318159.3511711     
  -39339238.6590833     
  -39359722.0309149     
  -39379621.0640088     
  -39398947.4738547     
  -39417712.9641386     
  -39435928.5618448     
  -39453605.7351055     
  -39470755.6079083     
  -39487388.7530429     
  -39503515.8084026     
  -39519148.1663457     
  -39534291.5057256     
  -39548959.5670217     
  -39563160.5415155     
  -39576903.3645301     
  -39590195.1103294     
  -39603037.8992706     
  -39615454.5501031     
  -39627440.3723293     
  -39638993.5889543     
  -39650119.9945195     
  -39660838.1682399     
  -39671168.2966487     
  -39681024.1371333     
  -39690515.3844853     
  -39699622.8341130     
  -39708273.4467970     
  -39716400.7604873     
  -39724345.1890940     
  -39731704.4214374     
  -39738622.5163699     
  -39745595.3233734     
  -39750966.8295783     
  -39755852.7492006     
  -39760243.6506568     
  -39763742.7371716     
  -39772702.8996151     
  -39799980.3324284     
  -39838710.9467253     
  -38691004.1969233     
  -38720452.0514925     
  -38749067.3316582     
  -38776866.8808024     
  -38803868.6791972     
  -38830090.6651858     
  -38855550.6585134     
  -38880266.4354699     
  -38904255.7753486     
  -38927536.4630948     
  -38950126.2593846     
  -38972042.8442774     
  -38993303.7995912     
  -39013926.9752129     
  -39033929.2902208     
  -39053327.3313604     
  -39072139.8523413     
  -39090383.0928626     
  -39108073.4646787     
  -39125228.2877649     
  -39141863.4257300     
  -39157991.6647940     
  -39173644.9637687     
  -39188820.6003249     
  -39203536.1264063     
  -39217806.6158213     
  -39231654.0499569     
  -39245111.7373968     
  -39258130.9501767     
  -39270772.2877139     
  -39283078.4884850     
  -39295050.1448671     
  -39306635.0687098     
  -39317800.9414931     
  -39328910.5678774     
  -39339564.0494038     
  -39349861.6283027     
  -39360063.4530803     
  -39370291.7059245     
  -39379164.3239445     
  -39388248.6531004     
  -39397258.1791060     
  -39405079.7384254     
  -39418269.4709772     
  -39441132.0026219     
  -39479612.9880085     
  -39519801.1339683     
  -39582856.9767439     
  -39660702.3923229     
  -39746010.3077827     
  -38319765.8947735     
  -38350580.6530169     
  -38380435.0199911     
  -38409357.4448213     
  -38437372.4444860     
  -38464504.1240848     
  -38490776.7089718     
  -38516214.4452026     
  -38540841.4781219     
  -38564681.8474763     
  -38587759.5806897     
  -38610098.8184766     
  -38631723.7065165     
  -38652657.1324307     
  -38672925.2486355     
  -38692554.2022793     
  -38711560.2174173     
  -38729968.5576746     
  -38747804.2618803     
  -38765088.8562269     
  -38781848.0406779     
  -38798113.9515649     
  -38813848.5989111     
  -38829151.4163889     
  -38844037.9100063     
  -38858522.7868625     
  -38872587.5029496     
  -38886189.7206738     
  -38899602.6273108     
  -38912662.8121907     
  -38925287.6180825     
  -38937570.3584171     
  -38949785.0428406     
  -38962033.5047267     
  -38972961.2162878     
  -38984188.5782161     
  -38995500.9166005     
  -39006331.2260363     
  -39016857.9406180     
  -39032478.7517275     
  -39057957.0570513     
  -39093120.3742602     
  -39127095.6565665     
  -39180505.5316440     
  -39244575.0969643     
  -39318821.4642309     
  -39393742.3822783     
  -39471437.3065556     
  -39547705.4730778     
  -39622774.4040614     
  -37961899.1495459     
  -37993486.1611112     
  -38024005.3349319     
  -38053475.6515235     
  -38081927.3758837     
  -38109392.5839306     
  -38135902.8973882     
  -38161489.2807352     
  -38186182.2292961     
  -38210011.7995507     
  -38233007.5216303     
  -38255198.4737424     
  -38276614.3353754     
  -38297289.5092728     
  -38317245.6854365     
  -38336506.6668905     
  -38355136.2951003     
  -38373160.9924180     
  -38390599.6116229     
  -38407478.1463367     
  -38423808.6936144     
  -38439594.4996550     
  -38455092.9749014     
  -38470021.8702693     
  -38484437.4760140     
  -38498418.7441823     
  -38512177.1604025     
  -38525937.0735584     
  -38538707.3045224     
  -38551216.2673985     
  -38563876.1347255     
  -38576492.0047938     
  -38588314.8002536     
  -38599452.7093671     
  -38615190.9558168     
  -38633553.5664082     
  -38664925.0084456     
  -38694651.8658906     
  -38726180.0516501     
  -38776112.9119232     
  -38833104.7497023     
  -38897335.3311974     
  -38962747.9904611     
  -39031517.8999677     
  -39101154.3763979     
  -39169904.6438486     
  -39239066.1233565     
  -39307026.9420793     
  -39374647.7853733     
  -39441893.2089151     
  -37620920.3402675     
  -37652605.0506945     
  -37683057.4548275     
  -37712349.3463162     
  -37740520.4364170     
  -37767601.7915365     
  -37793624.4392890     
  -37818622.2674868     
  -37842632.6415058     
  -37865696.2071143     
  -37887855.7984627     
  -37909153.9066122     
  -37929627.1848263     
  -37949294.6932648     
  -37968226.6868412     
  -37986482.9398861     
  -38003967.0518923     
  -38020735.1935871     
  -38036901.0453431     
  -38052564.9477654     
  -38067849.0853464     
  -38082830.8568120     
  -38096640.7196519     
  -38110493.3784292     
  -38124285.4006022     
  -38137849.4014446     
  -38150535.7846328     
  -38161850.9927050     
  -38175869.8758250     
  -38189874.7222908     
  -38212832.1807685     
  -38238992.0460843     
  -38263333.3193667     
  -38288040.1844671     
  -38328703.5116044     
  -38372523.4063995     
  -38425886.8453274     
  -38480451.7489705     
  -38537373.5501432     
  -38598198.3644928     
  -38659819.2755936     
  -38721782.0360715     
  -38784639.7071163     
  -38846868.9165773     
  -38908801.8181608     
  -38970764.8664266     
  -39032563.0319190     
  -39094676.0343981     
  -39156769.8074067     
  -39218986.9254100     
  -37300326.4590643     
  -37331205.5008670     
  -37360919.0794005     
  -37389371.8894629     
  -37416545.3248724     
  -37442456.1574728     
  -37467137.3394240     
  -37490629.3255487     
  -37512977.4129859     
  -37534232.2443064     
  -37554453.6607439     
  -37573717.7567975     
  -37592127.9830384     
  -37609832.4229275     
  -37626745.7668658     
  -37642798.2565595     
  -37658520.9897441     
  -37673866.2361513     
  -37688504.8406216     
  -37702138.8916631     
  -37714532.0018631     
  -37725882.1399322     
  -37739901.6094070     
  -37752998.0964609     
  -37775829.0664452     
  -37797069.4810727     
  -37816654.2586643     
  -37834400.0657938     
  -37862021.6498004     
  -37894175.5454573     
  -37933099.2493479     
  -37975859.5972774     
  -38020136.9850822     
  -38066976.3896287     
  -38117922.4473113     
  -38171169.0484338     
  -38224778.3630762     
  -38280418.4251311     
  -38336753.6571904     
  -38392798.8554852     
  -38449127.4020583     
  -38505695.1050234     
  -38562369.6233053     
  -38619491.3837292     
  -38676858.8185567     
  -38734395.5720440     
  -38792224.5035629     
  -38850168.5136748     
  -38908352.5053819     
  -38966525.3970315     
  -37003743.7815124     
  -37034281.9080473     
  -37062763.5930455     
  -37089472.5090898     
  -37114594.6176583     
  -37138254.7946836     
  -37160536.5569525     
  -37181493.5340507     
  -37201154.5743563     
  -37219527.0611437     
  -37236596.9123309     
  -37252328.6481338     
  -37266667.9082503     
  -37279548.7081427     
  -37291948.3067634     
  -37304817.2489344     
  -37322877.8211669     
  -37341049.7458935     
  -37357897.6890621     
  -37373450.2838325     
  -37387595.0651970     
  -37401077.1848147     
  -37424534.3007950     
  -37448646.4837562     
  -37479799.1182592     
  -37511727.4122283     
  -37544963.7428370     
  -37580285.2191393     
  -37619146.4388594     
  -37661456.6284404     
  -37705079.8600017     
  -37750722.2705474     
  -37798543.4806482     
  -37847589.1424406     
  -37896994.4648968     
  -37946996.0048530     
  -37997840.7121083     
  -38048981.5449797     
  -38100680.5422568     
  -38153006.8129709     
  -38205677.4049157     
  -38258670.0943438     
  -38312038.8484669     
  -38365657.8051325     
  -38419620.4946981     
  -38473874.5260591     
  -38528156.0212302     
  -38582469.3450255     
  -38636992.2611714     
  -38691985.3097368     
  -36754926.8126310     
  -36777913.8632093     
  -36800022.9219123     
  -36821205.9281807     
  -36841430.8279648     
  -36860676.9694992     
  -36878931.6771777     
  -36896184.6781365     
  -36912426.4222692     
  -36927638.5792753     
  -36941789.9308974     
  -36954825.2857402     
  -36966641.8416393     
  -36977055.4395623     
  -36988786.2548924     
  -37005331.5493457     
  -37025414.0296480     
  -37046420.4969053     
  -37067789.0193063     
  -37089947.9636613     
  -37113437.6623899     
  -37139013.6509992     
  -37167872.5185160     
  -37199476.1554349     
  -37232085.3509157     
  -37267362.0218054     
  -37304980.5442550     
  -37344444.2675665     
  -37385038.5940321     
  -37426604.6980745     
  -37469531.1073384     
  -37513462.6086015     
  -37558233.9786835     
  -37603902.8197820     
  -37650453.9125361     
  -37697662.0327666     
  -37745365.1565753     
  -37793642.5203801     
  -37842389.5512948     
  -37891547.4479489     
  -37941183.1502163     
  -37991198.6307041     
  -38041391.5590876     
  -38091754.3497010     
  -38142283.6753994     
  -38193056.0448427     
  -38244316.0407064     
  -38296153.1127808     
  -38348235.9119828     
  -38400249.4676111     
  -36581124.0156280     
  -36588041.6093416     
  -36596777.5321216     
  -36606697.3728367     
  -36617358.9912352     
  -36628464.0364351     
  -36639820.9383572     
  -36651321.0645664     
  -36662920.4962074     
  -36674641.0715826     
  -36686568.1089106     
  -36698864.2516234     
  -36711784.3159567     
  -36725718.8717838     
  -36741326.3757549     
  -36759183.0642289     
  -36778053.0141132     
  -36798700.6607476     
  -36821342.5350912     
  -36845959.9612562     
  -36872484.2484262     
  -36900664.7213813     
  -36930102.0843979     
  -36960936.0146256     
  -36993590.3945414     
  -37027606.3936168     
  -37063003.1395337     
  -37099743.2455348     
  -37137802.1293782     
  -37177033.7544509     
  -37217203.7768696     
  -37258274.5067997     
  -37300184.4590526     
  -37342868.4577288     
  -37386267.2007246     
  -37430358.2802564     
  -37475117.3950184     
  -37520395.4504835     
  -37566081.8336107     
  -37612147.5736871     
  -37658540.6271915     
  -37705314.7654812     
  -37752619.3317481     
  -37800503.4087145     
  -37848770.0634477     
  -37897186.8374338     
  -37945489.1155473     
  -37993663.2276593     
  -38041907.2471831     
  -38090480.7452165     
  -36454214.5679224     
  -36450667.5557230     
  -36448481.7915972     
  -36447729.5646865     
  -36448390.6542206     
  -36450403.3965533     
  -36453702.6479910     
  -36458244.1878045     
  -36464012.5239479     
  -36471037.0771012     
  -36479383.8669817     
  -36489115.1237829     
  -36500301.7888149     
  -36512943.6152482     
  -36526904.6738416     
  -36542069.5542747     
  -36558857.0811612     
  -36577207.4101747     
  -36597181.1875810     
  -36618790.4690621     
  -36641981.8630934     
  -36666728.7932126     
  -36693053.7324897     
  -36720844.8232400     
  -36749939.8284383     
  -36780381.3704946     
  -36812076.6757850     
  -36844994.9002428     
  -36879091.8325629     
  -36914323.6278886     
  -36950659.2476928     
  -36988040.3368878     
  -37026388.6339076     
  -37065601.3478222     
  -37105587.8596201     
  -37146276.3337957     
  -37187587.1488887     
  -37229531.5717076     
  -37272191.5213815     
  -37315524.7367894     
  -37359355.9864743     
  -37403496.8271615     
  -37447783.8258309     
  -37492095.6793841     
  -37536566.9940164     
  -37581379.9467101     
  -37626768.6264030     
  -37672776.2955921     
  -37719334.6419835     
  -37766336.5780259     
  -36341237.3432522     
  -36332399.4409211     
  -36324297.4257684     
  -36317185.0956303     
  -36311215.3459786     
  -36306503.8385635     
  -36303149.7766925     
  -36301219.9337335     
  -36300776.2909861     
  -36301866.3356373     
  -36304498.3787715     
  -36308655.4138923     
  -36314334.1877269     
  -36321517.4559188     
  -36330212.7695412     
  -36340469.1929525     
  -36352192.2153236     
  -36365417.3178214     
  -36380122.3275905     
  -36396300.2355780     
  -36413985.3601266     
  -36433181.8535089     
  -36453858.4816875     
  -36475996.2581619     
  -36499571.7931927     
  -36524543.5357690     
  -36550907.6261297     
  -36578623.4181846     
  -36607647.6188193     
  -36637948.3464491     
  -36669470.5449989     
  -36702146.5172141     
  -36735930.8227782     
  -36770815.9333856     
  -36806814.9574684     
  -36843894.7733264     
  -36881942.0243211     
  -36920788.9113623     
  -36960204.0174396     
  -37000039.8463587     
  -37040373.7950218     
  -37081255.1958034     
  -37122701.9057981     
  -37164765.4069588     
  -37207324.4531845     
  -37250348.5642775     
  -37293888.2678941     
  -37337762.1155985     
  -37381855.2703022     
  -37426121.6024673     
  -36239212.7792467     
  -36224209.6046774     
  -36210494.4143809     
  -36197849.6587875     
  -36186316.8500240     
  -36175931.5925591     
  -36166785.0581742     
  -36158930.6253133     
  -36152361.4778047     
  -36147120.3011904     
  -36143210.4892134     
  -36140674.4541049     
  -36139552.6886094     
  -36139853.1811048     
  -36141597.0691684     
  -36144817.1521899     
  -36149538.1979400     
  -36155730.9075220     
  -36163397.2489661     
  -36172536.0822651     
  -36183162.0870104     
  -36195278.0286818     
  -36208885.0852825     
  -36224003.2225523     
  -36240656.7579223     
  -36258838.5646031     
  -36278488.8340376     
  -36299602.4196136     
  -36322197.0409167     
  -36346277.3768550     
  -36371845.8866480     
  -36398921.9659138     
  -36427490.7174285     
  -36457476.6192699     
  -36488743.3217564     
  -36521154.0343580     
  -36554680.1527406     
  -36589370.9978828     
  -36625260.9886868     
  -36662344.2385412     
  -36700431.3465061     
  -36739433.8758033     
  -36779286.4184064     
  -36819750.6839165     
  -36860786.2217157     
  -36902101.6434856     
  -36943044.7701027     
  -36983436.0097438     
  -37023150.0335256     
  -37062220.4305707     
  -36151003.2353516     
  -36128650.6452731     
  -36107226.6620994     
  -36087318.4750080     
  -36068794.9526288     
  -36051615.1824085     
  -36035675.3856901     
  -36020899.5755758     
  -36007247.3326343     
  -35994778.0839996     
  -35983553.5750144     
  -35973542.6796235     
  -35964827.7700150     
  -35957429.0490203     
  -35951405.1576574     
  -35946805.3488592     
  -35943598.4202030     
  -35941809.0689913     
  -35941505.5672929     
  -35942711.1536677     
  -35945428.2901822     
  -35949593.9379767     
  -35955235.0513239     
  -35962395.0389802     
  -35971097.7198669     
  -35981371.9824688     
  -35993269.4101275     
  -36006841.8012283     
  -36022092.2875447     
  -36039034.9066587     
  -36057673.9205001     
  -36077969.9312466     
  -36099889.7321677     
  -36123447.9036074     
  -36148713.8752275     
  -36175765.5901624     
  -36204621.3532358     
  -36235155.1340497     
  -36267307.7280739     
  -36300985.9718692     
  -36336118.8961163     
  -36372491.5295936     
  -36409771.0966082     
  -36447700.5482822     
  -36485787.6162954     
  -36523848.0100518     
  -36562407.4073186     
  -36601693.1037761     
  -36642143.1938715     
  -36684284.2652218     
  -36078471.2476252     
  -36044656.7476635     
  -36014327.3174682     
  -35985468.8221365     
  -35958061.3738734     
  -35931669.0489244     
  -35906407.1439803     
  -35882308.2240785     
  -35859483.0461385     
  -35838068.0375360     
  -35818054.5618080     
  -35799454.3596030     
  -35782351.6987748     
  -35766757.8870842     
  -35752608.8392813     
  -35739849.7657736     
  -35728467.8270782     
  -35718490.3587117     
  -35709905.1355365     
  -35702724.4338415     
  -35696962.2186538     
  -35692650.3808128     
  -35689853.7449027     
  -35688601.8569276     
  -35688919.9486459     
  -35690852.4257180     
  -35694456.8871831     
  -35699757.3999935     
  -35706818.7343054     
  -35715659.8222089     
  -35726299.4636681     
  -35738842.9608416     
  -35753376.6537862     
  -35769960.1212996     
  -35788625.8819030     
  -35809356.0829411     
  -35832109.7091794     
  -35856930.5230263     
  -35883729.7715137     
  -35912400.1332305     
  -35942887.3552278     
  -35975182.7882213     
  -36009293.0797249     
  -36045152.0575070     
  -36083109.9078411     
  -36123338.7832022     
  -36165451.1028816     
  -36209033.6431886     
  -36253049.8863310     
  -36295251.7480210     
  -36018415.2930664     
  -35977570.6515849     
  -35933626.8766843     
  -35891347.4529426     
  -35849261.9151269     
  -35809036.1032058     
  -35770983.1311669     
  -35735261.0688602     
  -35701931.8179913     
  -35670646.9506356     
  -35641352.3554111     
  -35613905.5350240     
  -35588166.8143767     
  -35563985.0844106     
  -35541192.8549753     
  -35519767.6361650     
  -35499721.5519419     
  -35481039.6282404     
  -35463714.4134543     
  -35447779.4782511     
  -35433271.6779678     
  -35420228.1252433     
  -35408687.2590359     
  -35398740.8684791     
  -35390446.7948951     
  -35383834.5190209     
  -35378909.4916762     
  -35375759.9739556     
  -35374451.5430222     
  -35375062.9443567     
  -35377713.5504261     
  -35382445.9467108     
  -35389315.0519115     
  -35398364.6876864     
  -35409666.7402271     
  -35423290.8111902     
  -35439254.2331085     
  -35457607.7510906     
  -35478458.5462805     
  -35501903.1607395     
  -35527988.1145006     
  -35556751.7197286     
  -35588406.5775470     
  -35623527.0031241     
  -35661870.5092427     
  -35702784.6228998     
  -35745499.4151955     
  -35788991.4968810     
  -35833107.0708532     
  -35880640.1705501     
  -35988735.1041956     
  -35911615.3561735     
  -35845432.7295924     
  -35778563.9870110     
  -35720791.0047644     
  -35668115.4400566     
  -35619489.7161328     
  -35573962.4273591     
  -35530901.4705365     
  -35490595.8543554     
  -35452107.1136941     
  -35415245.7773918     
  -35379772.1914716     
  -35345514.2512271     
  -35312514.3806589     
  -35280832.7106337     
  -35250540.9810959     
  -35221728.4858939     
  -35194475.8671515     
  -35168857.7313867     
  -35144932.3276134     
  -35122750.5605040     
  -35102358.2818736     
  -35083787.7216723     
  -35067079.3206901     
  -35052295.6661353     
  -35039478.3811704     
  -35028692.3042362     
  -35019964.1336863     
  -35013289.0193556     
  -35008713.4431827     
  -35006292.5735691     
  -35006114.1294807     
  -35008258.7572768     
  -35012799.0205321     
  -35019804.8786864     
  -35029444.5787544     
  -35041937.1773741     
  -35057425.6727704     
  -35076069.1042877     
  -35098045.4734713     
  -35123496.0467248     
  -35152307.9690297     
  -35183898.3977458     
  -35218419.1248157     
  -35256829.8963320     
  -35299741.9497634     
  -35347893.4960812     
  -35401079.7265497     
  -35451585.0200483     
  -35822445.9909997     
  -35747020.2906958     
  -35670741.3781835     
  -35631473.3773898     
  -35580855.7457723     
  -35528132.2376025     
  -35474377.3366724     
  -35420508.1228725     
  -35366515.4764613     
  -35310280.4141389     
  -35255027.1064088     
  -35200982.8036388     
  -35148490.5293389     
  -35098010.2411340     
  -35049672.2568479     
  -35003766.3150350     
  -34960374.3084916     
  -34919511.3333647     
  -34881168.3824646     
  -34845340.1205458     
  -34812019.8152198     
  -34781179.0296151     
  -34752785.2020849     
  -34726804.6275799     
  -34703191.0557070     
  -34681880.4367093     
  -34662858.2874146     
  -34646125.3031323     
  -34631687.2441860     
  -34619540.1668269     
  -34609698.7378262     
  -34602200.8008990     
  -34597070.7790856     
  -34594360.1307168     
  -34594149.1604554     
  -34596502.5080774     
  -34601487.8329117     
  -34609232.3590198     
  -34619929.2585747     
  -34633785.2082788     
  -34650995.7003566     
  -34671800.0980339     
  -34696517.8318275     
  -34725492.5709318     
  -34758677.6613041     
  -34795760.2389842     
  -34837270.4683398     
  -34884011.7007707     
  -34937760.4945490     
  -35010515.4280537     
  -36585151.9020283     
  -36196904.6677614     
  -35853199.5119137     
  -35668420.1967525     
  -35581724.1949250     
  -35478343.0342133     
  -35370533.1670963     
  -35267430.0523436     
  -35170331.3224231     
  -35078497.0193004     
  -34990442.3106953     
  -34908111.6899392     
  -34832425.8259586     
  -34762656.8021522     
  -34698136.8319851     
  -34638518.1332664     
  -34583353.9176093     
  -34532409.6070811     
  -34485401.3951744     
  -34442077.0127208     
  -34402224.7301230     
  -34365663.2692038     
  -34332225.5201089     
  -34301781.9220817     
  -34274226.8241120     
  -34249475.1213232     
  -34227442.6125027     
  -34208054.5569224     
  -34191255.4084973     
  -34177004.6486389     
  -34165274.4560614     
  -34156071.7274776     
  -34149392.9306700     
  -34145248.3883572     
  -34143680.8697586     
  -34144733.9962693     
  -34148423.8732409     
  -34154858.4561962     
  -34164146.2249600     
  -34176441.9864654     
  -34191965.0091424     
  -34210963.8987246     
  -34233794.9055223     
  -34260966.2445215     
  -34293153.2342533     
  -34331147.6270539     
  -34375153.2721545     
  -34426791.1519393     
  -34486180.8615952     
  -34548574.7280288     
SCALARS 2waySource double 
LOOKUP_TABLE default
  2.132262419659061E-005
  1.947467871298316E-005
  1.602016722147382E-005
  1.422260862969659E-005
  9.817463220100404E-006
  7.295752293406323E-006
  4.768615081637033E-006
  2.225667939605363E-006
 -2.701895892885192E-007
 -2.706255839523380E-006
 -5.049745500647255E-006
 -7.298537450807497E-006
 -9.432285319402423E-006
 -1.144584912043591E-005
 -1.328882661221244E-005
 -1.497993915981361E-005
 -1.650049964310881E-005
 -1.783760429183842E-005
 -1.898957729317513E-005
 -1.995486786857904E-005
 -2.085178458337336E-005
 -2.166104829417421E-005
 -2.236939793801764E-005
 -2.290985408625353E-005
 -2.332570719775628E-005
 -2.367295903649661E-005
 -2.392299288108349E-005
 -2.408259635224422E-005
 -2.416509122265870E-005
 -2.417348100086129E-005
 -2.411703408904071E-005
 -2.401176169352598E-005
 -2.386074898280575E-005
 -2.363856475268195E-005
 -2.332178950763972E-005
 -2.290848035567096E-005
 -2.246718733082436E-005
 -2.198599027926304E-005
 -2.142166705086001E-005
 -2.079923627859254E-005
 -2.011813004043494E-005
 -1.937738130509786E-005
 -1.856077949868723E-005
 -1.766250635033644E-005
 -1.666919642277321E-005
 -1.556800637705447E-005
 -1.435472989700789E-005
 -1.298105081560985E-005
 -1.141722218070459E-005
 -9.626532574625225E-006
  1.646272330005458E-005
  1.515728931213648E-005
  1.270808778012843E-005
  1.090550355269130E-005
  8.937571011466420E-006
  6.672045120019280E-006
  4.424859594618472E-006
  2.214015990490447E-006
  5.841453335824669E-008
 -2.031364264053589E-006
 -4.014200906553556E-006
 -5.891278207160763E-006
 -7.658854730684572E-006
 -9.302458945985358E-006
 -1.079463500918658E-005
 -1.214980420812386E-005
 -1.336977630983245E-005
 -1.445242650121436E-005
 -1.540642646703182E-005
 -1.623616539236030E-005
 -1.694079668355973E-005
 -1.755371869712015E-005
 -1.808053309585714E-005
 -1.848477427273166E-005
 -1.877789257159979E-005
 -1.898043461949244E-005
 -1.912670832084808E-005
 -1.919061079348306E-005
 -1.916389963246253E-005
 -1.908935059888570E-005
 -1.897461773236028E-005
 -1.880123737504874E-005
 -1.857439187620137E-005
 -1.830343740738402E-005
 -1.798032532176080E-005
 -1.758356981922454E-005
 -1.715437932523976E-005
 -1.669814492624719E-005
 -1.616492240667584E-005
 -1.554990920008366E-005
 -1.487324956405471E-005
 -1.410829245574627E-005
 -1.328211899464977E-005
 -1.236955487734227E-005
 -1.136671016750613E-005
 -1.026451804019679E-005
 -9.061533411340763E-006
 -7.748559090869058E-006
 -6.321746603770287E-006
 -4.804212568363775E-006
  1.044966303225469E-005
  9.079277486193054E-006
  7.964711747539595E-006
  6.949651349902317E-006
  5.801450199996846E-006
  4.422464185617122E-006
  2.960649043871307E-006
  1.467660198825622E-006
 -1.430911555952942E-008
 -1.455372933079423E-006
 -2.831534945279959E-006
 -4.134221661001173E-006
 -5.361499612636268E-006
 -6.509321168564408E-006
 -7.580582953731948E-006
 -8.576383078366219E-006
 -9.502407608278373E-006
 -1.035687640986587E-005
 -1.113846996044016E-005
 -1.184021047734656E-005
 -1.245745645982100E-005
 -1.298389705625762E-005
 -1.342131362520452E-005
 -1.377512735261886E-005
 -1.404376566505309E-005
 -1.422932005235445E-005
 -1.434881814954350E-005
 -1.438854259912522E-005
 -1.433823168625005E-005
 -1.422067605501307E-005
 -1.402913422044605E-005
 -1.378469446509675E-005
 -1.349848083400040E-005
 -1.314928608923203E-005
 -1.277295580180171E-005
 -1.237369606453135E-005
 -1.193024853628257E-005
 -1.144906632814756E-005
 -1.091543438262079E-005
 -1.032922699845245E-005
 -9.704468205326164E-006
 -8.936705262052742E-006
 -8.054863409431266E-006
 -7.122141559069525E-006
 -6.116165417707561E-006
 -5.038494605356761E-006
 -3.894667002595085E-006
 -2.691652612677038E-006
 -1.456098374213811E-006
 -2.055091121942034E-007
  4.342874634614536E-006
  3.773746946531249E-006
  3.381594409548679E-006
  3.013166491380229E-006
  2.426415961744111E-006
  1.735854862977465E-006
  1.087541037984770E-006
  4.688901517276820E-007
 -1.288173437051919E-007
 -7.128411346086141E-007
 -1.292466833259470E-006
 -1.873721132524372E-006
 -2.460156246951435E-006
 -3.061210234026182E-006
 -3.677026608497992E-006
 -4.305372374504423E-006
 -4.935684304602611E-006
 -5.566287362803094E-006
 -6.185235949399196E-006
 -6.783631501197735E-006
 -7.349216174446388E-006
 -7.868380874508369E-006
 -8.328361567525698E-006
 -8.718148581643857E-006
 -9.031392933318463E-006
 -9.263682446816878E-006
 -9.405775700850662E-006
 -9.459216883253278E-006
 -9.425399036556895E-006
 -9.311076310058800E-006
 -9.119819687967433E-006
 -8.866162248842463E-006
 -8.555511806585489E-006
 -8.177375060378134E-006
 -7.752688903094990E-006
 -7.270442994863308E-006
 -6.760330227189175E-006
 -6.221310215755763E-006
 -5.669526022331402E-006
 -5.102884433624451E-006
 -4.503203087748110E-006
 -3.844944819722302E-006
 -3.066510693654935E-006
 -2.124732980981749E-006
 -1.150574218089008E-006
 -1.477056106130431E-007
  8.902556897306121E-007
  1.950672035174483E-006
  3.040947287955349E-006
  4.162041747565342E-006
 -2.278861466711627E-006
 -1.814541300403150E-006
 -1.637081862770377E-006
 -1.454709154392574E-006
 -1.158008558000861E-006
 -7.287477536001366E-007
 -2.503330843373251E-007
  2.209481576802218E-007
  6.423189387290175E-007
  9.809399715310624E-007
  1.219891158778145E-006
  1.347172612807799E-006
  1.345663860461661E-006
  1.231156185897734E-006
  1.020978361271356E-006
  7.270267208901039E-007
  3.597263914340542E-007
 -7.679315770887044E-008
 -5.674741691520120E-007
 -1.097042553121298E-006
 -1.650539118271464E-006
 -2.210491077947582E-006
 -2.753288446645165E-006
 -3.260154740120093E-006
 -3.709120608161046E-006
 -4.075177110691306E-006
 -4.344405757998681E-006
 -4.504796251277879E-006
 -4.553301649255940E-006
 -4.491933624583446E-006
 -4.331095822637811E-006
 -4.079696024390808E-006
 -3.749627774432319E-006
 -3.354644680362969E-006
 -2.906229068948040E-006
 -2.406031573575996E-006
 -1.864592030461956E-006
 -1.279432000927826E-006
 -6.618554708966479E-007
 -2.015403290113669E-008
  5.986725880675033E-007
  1.181444876333224E-006
  1.801271375668809E-006
  2.512765296280042E-006
  3.410183982215865E-006
  4.359378004023677E-006
  5.301544039376568E-006
  6.264043396548073E-006
  7.242482330296281E-006
  8.224571891537962E-006
 -8.938046006100767E-006
 -8.449943075240012E-006
 -6.826481150157793E-006
 -4.689451755479081E-006
 -2.465563125732479E-006
 -5.024144150806089E-007
  1.217771732701518E-006
  2.682326567714613E-006
  3.855989453482580E-006
  4.760774351504257E-006
  5.411366591613403E-006
  5.845812594537866E-006
  6.153577250080794E-006
  6.345883126743037E-006
  6.408298776951401E-006
  6.339549934347023E-006
  6.146634315440904E-006
  5.832558101927180E-006
  5.416775777306703E-006
  4.924137855094841E-006
  4.372252307843942E-006
  3.778894583792100E-006
  3.143415922079177E-006
  2.504673950660945E-006
  1.903387154888422E-006
  1.366751252144501E-006
  9.194114177478600E-007
  5.751555955931959E-007
  3.473374627574607E-007
  2.453701946053562E-007
  2.787466754232228E-007
  4.375776157749057E-007
  7.071918967922287E-007
  1.072692277533074E-006
  1.523270648040621E-006
  2.041483369201102E-006
  2.614350149371574E-006
  3.230084462793236E-006
  3.877983446887322E-006
  4.546222388623181E-006
  5.214713191252308E-006
  5.878192353065584E-006
  6.477705352038836E-006
  7.034560856451425E-006
  7.664786101769738E-006
  8.426150778928378E-006
  9.306991763744033E-006
  1.020217889401464E-005
  1.109351938164423E-005
  1.199391626172752E-005
 -1.680614477157244E-005
 -1.004580734342611E-005
 -4.429858769963554E-006
 -2.999852587899494E-007
  2.587520437429452E-006
  5.057725838519836E-006
  6.946139552802206E-006
  8.355190515695170E-006
  9.503036570557079E-006
  1.031364554826951E-005
  1.090325510015440E-005
  1.145344410335172E-005
  1.182778258886935E-005
  1.205774480240124E-005
  1.217462412484427E-005
  1.214706590005773E-005
  1.199999255197540E-005
  1.177755274812283E-005
  1.145198677771795E-005
  1.099126819081278E-005
  1.043993780936744E-005
  9.804275277872210E-006
  9.187672107932398E-006
  8.566949716727203E-006
  7.920337582701771E-006
  7.261647897932175E-006
  6.598598277133012E-006
  5.987324136222158E-006
  5.468005594770442E-006
  5.067778085422052E-006
  4.795137355423908E-006
  4.681136998531532E-006
  4.749619872452570E-006
  5.004642643535732E-006
  5.405069379216802E-006
  5.921976305794443E-006
  6.519166295981654E-006
  7.168865833450999E-006
  7.833512787622580E-006
  8.501886922487583E-006
  9.177373972746468E-006
  9.851779624670009E-006
  1.051270441907238E-005
  1.114665183656609E-005
  1.172737456674319E-005
  1.229666548920920E-005
  1.297031151524318E-005
  1.374816298103370E-005
  1.453949670022105E-005
  1.534454886985575E-005
  3.081831273817691E-007
  7.342973016045828E-006
  1.103513645747294E-005
  1.295252453465218E-005
  1.385393392430996E-005
  1.476213007792464E-005
  1.532323362283103E-005
  1.556408691559137E-005
  1.548934587563183E-005
  1.626583888622264E-005
  1.758919638882891E-005
  1.823879492520617E-005
  1.842498399213822E-005
  1.814607658930773E-005
  1.771929049764184E-005
  1.755109729173113E-005
  1.748132086213106E-005
  1.729111272071355E-005
  1.708543463384357E-005
  1.683839915285061E-005
  1.638887020894162E-005
  1.601838075461610E-005
  1.554972877558054E-005
  1.503848181049197E-005
  1.442170217670169E-005
  1.364056454032278E-005
  1.281949647641514E-005
  1.191937124051133E-005
  1.101637655985270E-005
  1.017352909373063E-005
  9.474425710322858E-006
  8.977109570714879E-006
  8.713040136264522E-006
  8.646046527023355E-006
  8.824261247210858E-006
  9.189539105987580E-006
  9.709638392331873E-006
  1.030513836622145E-005
  1.096594596888866E-005
  1.167527061164848E-005
  1.240139331714982E-005
  1.313308890962096E-005
  1.386586391497312E-005
  1.456963752289741E-005
  1.522432165278425E-005
  1.579894710367097E-005
  1.634001932804215E-005
  1.691518392272886E-005
  1.763401781341193E-005
  1.840750483299786E-005
  2.177005400953471E-005
  1.997102689640430E-005
  1.829952280711947E-005
  1.686510617861505E-005
  1.576433086356489E-005
  1.535836824422937E-005
  1.528770227141883E-005
  1.548749120473633E-005
  1.593851885816048E-005
  1.719184932507031E-005
  1.867837726164027E-005
  2.009020692996226E-005
  2.160106240644834E-005
  2.321471834693276E-005
  2.334591910803655E-005
  2.268098966344673E-005
  2.256381742783403E-005
  2.235933839679199E-005
  2.196890061226473E-005
  2.197283998564536E-005
  2.303136900388132E-005
  2.323324171913259E-005
  2.277001254283064E-005
  2.168518041458083E-005
  2.070892881758954E-005
  2.007852966400118E-005
  1.920858019304239E-005
  1.830852341441417E-005
  1.716421313467692E-005
  1.600730022668751E-005
  1.507873008972923E-005
  1.426515171917472E-005
  1.341469974747058E-005
  1.276066968741087E-005
  1.222661290982668E-005
  1.202291466867297E-005
  1.200991904704555E-005
  1.234187254973391E-005
  1.299240769079209E-005
  1.381362846813421E-005
  1.472577244729071E-005
  1.563625171547572E-005
  1.646062776658951E-005
  1.720201922645553E-005
  1.790692083506375E-005
  1.860226578349239E-005
  1.927261822229578E-005
  1.988365413401312E-005
  2.046234769226816E-005
  2.113987477148789E-005
  3.203709971798530E-005
  2.939883316468931E-005
  2.736784913206137E-005
  2.569640476728600E-005
  2.429610070043209E-005
  2.306230240786981E-005
  2.207138717535038E-005
  2.131621320645668E-005
  2.079622350916920E-005
  2.045810887304594E-005
  1.987161726991647E-005
  1.947996362779783E-005
  1.929123333038899E-005
  1.931635696292971E-005
  1.891714167754712E-005
  1.859371177140813E-005
  1.893808320010942E-005
  1.954576988564023E-005
  2.036481434243738E-005
  2.173109371297739E-005
  2.346893904569019E-005
  2.512415870937280E-005
  2.684625215386999E-005
  2.823808910995608E-005
  2.663624879924319E-005
  2.619909783161308E-005
  2.553055069213516E-005
  2.438972238218691E-005
  2.431159352716149E-005
  2.421604579893896E-005
  2.280722455978160E-005
  2.092520015745729E-005
  1.960539481078218E-005
  1.808701951347980E-005
  1.678272519930837E-005
  1.508258410785054E-005
  1.434017748097974E-005
  1.417376201076464E-005
  1.423780262195582E-005
  1.476540257061266E-005
  1.561319179054220E-005
  1.654720898523309E-005
  1.755435559450906E-005
  1.860658905310358E-005
  1.962711310866956E-005
  2.056172077036119E-005
  2.140218004993167E-005
  2.210495035352411E-005
  2.273616225086983E-005
  2.334977342026774E-005
  3.278915868867582E-005
  3.203119430016753E-005
  3.108986440300337E-005
  3.013143483144142E-005
  2.921413405631199E-005
  2.837743260685353E-005
  2.760887130570287E-005
  2.691291065008728E-005
  2.627905953277916E-005
  2.569542510677034E-005
  2.524728574752370E-005
  2.481911919302673E-005
  2.441944251718510E-005
  2.402918619631211E-005
  2.367687577086809E-005
  2.330610000365536E-005
  2.295918056227583E-005
  2.276239615118158E-005
  2.273194201036200E-005
  2.285357396949536E-005
  2.262069624916942E-005
  2.258775359745055E-005
  2.276556614165263E-005
  2.303143552680881E-005
  2.230950081143746E-005
  2.272875781398570E-005
  2.353615862343748E-005
  2.464536423128797E-005
  2.627051918043893E-005
  2.831256229868325E-005
  3.031064275113744E-005
  2.912768420437568E-005
  2.747825148252447E-005
  2.568992942311225E-005
  2.258683995735409E-005
  2.257385526418363E-005
  2.055225900285491E-005
  1.804705768777293E-005
  1.679972577767497E-005
  1.561242392764992E-005
  1.467593731961725E-005
  1.488347607842287E-005
  1.607618075243619E-005
  1.776507153863610E-005
  1.956827156553139E-005
  2.110397186925125E-005
  2.216370035531365E-005
  2.309101313332964E-005
  2.402888927397514E-005
  2.500348018463911E-005
  3.460584612669766E-005
  3.395928373277377E-005
  3.336620086392983E-005
  3.277958790638565E-005
  3.219773799237648E-005
  3.162383868327632E-005
  3.106972092343773E-005
  3.053864323327140E-005
  3.003635846645303E-005
  2.956952372424693E-005
  2.911805764366504E-005
  2.870690687903746E-005
  2.832604109677790E-005
  2.797869803277083E-005
  2.765925218891104E-005
  2.738414559683101E-005
  2.714764638253438E-005
  2.692758466358601E-005
  2.672231079531598E-005
  2.651824948616587E-005
  2.642601452030761E-005
  2.630800177225434E-005
  2.617596462676911E-005
  2.601262943851272E-005
  2.589677250228130E-005
  2.566071311049280E-005
  2.558213847483700E-005
  2.571937534349575E-005
  2.556223584572168E-005
  2.551328191388333E-005
  2.587417961765217E-005
  2.531155014261223E-005
  2.526855563237224E-005
  2.600393948267106E-005
  2.657622228391653E-005
  2.870578343369251E-005
  3.073425530384514E-005
  2.775844259947612E-005
  2.461068455353466E-005
  2.033411165535296E-005
  1.784509021654141E-005
  1.565316203684529E-005
  1.429547230889450E-005
  1.422262703562083E-005
  1.493306512563861E-005
  1.645404224190649E-005
  1.925369628641925E-005
  2.205374003851013E-005
  2.415844007054743E-005
  2.518655402307563E-005
  3.619722489114322E-005
  3.577903596946919E-005
  3.534152502712074E-005
  3.490491384579137E-005
  3.447264796785630E-005
  3.404700627084375E-005
  3.362869125881254E-005
  3.322070264335575E-005
  3.282472162351895E-005
  3.244098099740293E-005
  3.207591459015797E-005
  3.172504892585536E-005
  3.139302457507524E-005
  3.107947968404838E-005
  3.078582243303121E-005
  3.050784633833166E-005
  3.024590655097200E-005
  3.000252292944949E-005
  2.977563375507097E-005
  2.957009022143780E-005
  2.935865590971931E-005
  2.917146193276982E-005
  2.899817270644148E-005
  2.884529636058805E-005
  2.869629322200084E-005
  2.859690647827827E-005
  2.848302132044995E-005
  2.834002793849492E-005
  2.828572386955599E-005
  2.822141951576383E-005
  2.808248431480569E-005
  2.797523739478100E-005
  2.774291112861713E-005
  2.761971969084799E-005
  2.759029991222342E-005
  2.717329074524478E-005
  2.741946415748454E-005
  2.618948959118791E-005
  2.592850168330061E-005
  2.598519574813861E-005
  2.659972971549278E-005
  2.819384175822233E-005
  2.158019727297287E-005
  1.606391204009584E-005
  1.062198923434417E-005
  9.797815315082976E-006
  1.091107847869335E-005
  1.406404401245745E-005
  1.744562231304906E-005
  2.166621489222314E-005
  3.775975188001402E-005
  3.741138282544081E-005
  3.706519039916463E-005
  3.671775049377392E-005
  3.637104564026831E-005
  3.602691474089994E-005
  3.568716525117392E-005
  3.535274524871259E-005
  3.502479645784886E-005
  3.470479500778747E-005
  3.439246903135129E-005
  3.408988032265043E-005
  3.379639247113376E-005
  3.351263725655460E-005
  3.323845329477879E-005
  3.297469394495905E-005
  3.272097746390497E-005
  3.247662509594666E-005
  3.224188206548054E-005
  3.201420157326597E-005
  3.179922341799043E-005
  3.158934698684174E-005
  3.138791870921431E-005
  3.119190189813717E-005
  3.100415193022254E-005
  3.081154541096863E-005
  3.062729470666592E-005
  3.045348580722269E-005
  3.026151668929786E-005
  3.007328600211433E-005
  2.990056754626305E-005
  2.971704719564059E-005
  2.956474700491148E-005
  2.938470355887391E-005
  2.917577145757007E-005
  2.906235380375566E-005
  2.879341902660949E-005
  2.856943785297884E-005
  2.815570574007361E-005
  2.799193604250850E-005
  2.707791169234522E-005
  2.697223921237066E-005
  2.425545588560278E-005
  2.304288015212956E-005
  2.106488200771703E-005
  2.129516914154820E-005
  1.082520729825757E-005
  2.135071200680515E-006
  1.317124289618799E-006
  5.940955616770408E-006
  3.914804739309815E-005
  3.884718589220201E-005
  3.854636251194897E-005
  3.824756952310283E-005
  3.795111984576834E-005
  3.765745822396544E-005
  3.736704862448753E-005
  3.708051367083591E-005
  3.679833172450769E-005
  3.652076209506281E-005
  3.624838480404697E-005
  3.598110681737392E-005
  3.571941732551226E-005
  3.546329572360407E-005
  3.521283009077378E-005
  3.496777486651320E-005
  3.472805069785248E-005
  3.449343242890625E-005
  3.426334213477808E-005
  3.403801056318955E-005
  3.381546323288242E-005
  3.359666008400859E-005
  3.337946938707537E-005
  3.316366959293125E-005
  3.294723276555947E-005
  3.273204474119485E-005
  3.251364156763370E-005
  3.228986362817479E-005
  3.206544959304812E-005
  3.183340914547826E-005
  3.158939590465265E-005
  3.133702134582564E-005
  3.106161821847195E-005
  3.077387030866693E-005
  3.047161928510669E-005
  3.011958471777620E-005
  2.977544317818612E-005
  2.937802974513122E-005
  2.897689938805073E-005
  2.843313078455624E-005
  2.799755558583606E-005
  2.728519326076081E-005
  2.652147514297784E-005
  2.557522002544343E-005
  2.374846288167323E-005
  2.207486202026912E-005
  1.639317733244364E-005
  1.035789493190518E-005
  5.838592987028284E-006
 -8.584757838034325E-006
  4.027565221738911E-005
  4.000486694695241E-005
  3.973788561468285E-005
  3.947425702067148E-005
  3.921407724011945E-005
  3.895740026592227E-005
  3.870428041287996E-005
  3.845473413487008E-005
  3.820880150181928E-005
  3.796655691273359E-005
  3.772795744019514E-005
  3.749307554705574E-005
  3.726177671101322E-005
  3.703400730502724E-005
  3.680960652929901E-005
  3.658841030348624E-005
  3.637013426877061E-005
  3.615446531086013E-005
  3.594109187484452E-005
  3.572934771532710E-005
  3.551901537895323E-005
  3.530907966690319E-005
  3.509923084903288E-005
  3.488845696199530E-005
  3.467614305071439E-005
  3.446054330659378E-005
  3.424122064362376E-005
  3.401705877522652E-005
  3.378515533666666E-005
  3.354497260229409E-005
  3.329492052407741E-005
  3.303136819143056E-005
  3.275508821602424E-005
  3.246006431521044E-005
  3.214232962747766E-005
  3.180568187469162E-005
  3.142942132003770E-005
  3.102189626417549E-005
  3.056089420835299E-005
  3.007588318864222E-005
  2.949155500344600E-005
  2.889052080629797E-005
  2.818339915851944E-005
  2.734815035972602E-005
  2.651800414289901E-005
  2.538760599044785E-005
  2.412510617088910E-005
  2.228922093992515E-005
  1.912542672243971E-005
  1.055857998476272E-005
  4.106682992117419E-005
  4.082923411888929E-005
  4.059618586438215E-005
  4.036747402568067E-005
  4.014280024505677E-005
  3.992194184837868E-005
  3.970471610996801E-005
  3.949097510182223E-005
  3.928058087688915E-005
  3.907339195430240E-005
  3.886929303144531E-005
  3.866812944684043E-005
  3.846978024050023E-005
  3.827407423413944E-005
  3.808083751055933E-005
  3.788986152429633E-005
  3.770092474715492E-005
  3.751376085052809E-005
  3.732804835844826E-005
  3.714351066982086E-005
  3.695970021017928E-005
  3.677629817942252E-005
  3.659273224163368E-005
  3.640855776733493E-005
  3.622312884757145E-005
  3.603599898356596E-005
  3.584633772636458E-005
  3.565336644997266E-005
  3.545660902335274E-005
  3.525497526558296E-005
  3.504755207714048E-005
  3.483376157389130E-005
  3.461174528683846E-005
  3.438115619616952E-005
  3.414112220153299E-005
  3.388860270514486E-005
  3.362667706764962E-005
  3.335112668150287E-005
  3.306602383559830E-005
  3.276088017142940E-005
  3.245247180330711E-005
  3.211691630240425E-005
  3.177651757983690E-005
  3.144359766953922E-005
  3.109360203434124E-005
  3.081316751404049E-005
  3.055012419153187E-005
  3.039505601968718E-005
  3.061111367562627E-005
  3.164153096261132E-005
  4.148935720473621E-005
  4.129319477573992E-005
  4.110127311506185E-005
  4.091326096188252E-005
  4.072890777984646E-005
  4.054798663598861E-005
  4.037029877397475E-005
  4.019566760746489E-005
  4.002393708524366E-005
  3.985496873693472E-005
  3.968862820845040E-005
  3.952479616401691E-005
  3.936334519309352E-005
  3.920415771272173E-005
  3.904710879381991E-005
  3.889207117815847E-005
  3.873890757862518E-005
  3.858747740337556E-005
  3.843763805765996E-005
  3.828921536600192E-005
  3.814205925927230E-005
  3.799597015659524E-005
  3.785079623600585E-005
  3.770633184450583E-005
  3.756241542974444E-005
  3.741882678053164E-005
  3.727542915732143E-005
  3.713208245571532E-005
  3.698859599938272E-005
  3.684493649077940E-005
  3.670105985569686E-005
  3.655690606364224E-005
  3.641282921605460E-005
  3.626894788568502E-005
  3.612565371300864E-005
  3.598415099175439E-005
  3.584440617231200E-005
  3.570859040082617E-005
  3.557709089315607E-005
  3.545504988776087E-005
  3.534153706667818E-005
  3.524770517279991E-005
  3.517483787524115E-005
  3.512784002926511E-005
  3.512352318508658E-005
  3.515392983376796E-005
  3.525656406088235E-005
  3.544892357016973E-005
  3.570229805414306E-005
  3.585609258333046E-005
  4.155104271227057E-005
  4.140455201011558E-005
  4.126082393735736E-005
  4.111972222811103E-005
  4.098111842351348E-005
  4.084490480851048E-005
  4.071098891162400E-005
  4.057929193438792E-005
  4.044974649396279E-005
  4.032229457817191E-005
  4.019688841520212E-005
  4.007348553774656E-005
  3.995205266230090E-005
  3.983255936866861E-005
  3.971498155650570E-005
  3.959929928688123E-005
  3.948549832100659E-005
  3.937356838878038E-005
  3.926350324635348E-005
  3.915531006531406E-005
  3.904899689922912E-005
  3.894459354094317E-005
  3.884213031904750E-005
  3.874166976050022E-005
  3.864328416349973E-005
  3.854708958975254E-005
  3.845322086591943E-005
  3.836185910651409E-005
  3.827325331114898E-005
  3.818769082193456E-005
  3.810555276072414E-005
  3.802733418357143E-005
  3.795356179186380E-005
  3.788497923873095E-005
  3.782246667892386E-005
  3.776692423175165E-005
  3.771984337026840E-005
  3.768250701742078E-005
  3.765712511521383E-005
  3.764510538117116E-005
  3.764999353647777E-005
  3.767273419625200E-005
  3.771724442195817E-005
  3.778730185382843E-005
  3.788420194819007E-005
  3.801601117360289E-005
  3.817767317749066E-005
  3.836367994896852E-005
  3.857520555028444E-005
  3.886391828299698E-005
  4.128909468432218E-005
  4.119658805880970E-005
  4.110489971924058E-005
  4.101408619659286E-005
  4.092420483188212E-005
  4.083531096058824E-005
  4.074746020594690E-005
  4.066070920392239E-005
  4.057511631564761E-005
  4.049074230987181E-005
  4.040765028923951E-005
  4.032590709968147E-005
  4.024558261285078E-005
  4.016675176169769E-005
  4.008949416205619E-005
  4.001389547526014E-005
  3.994004805287014E-005
  3.986805272892423E-005
  3.979802058632491E-005
  3.973007250589370E-005
  3.966434490275479E-005
  3.960098749001246E-005
  3.954017219009814E-005
  3.948208884602943E-005
  3.942695643222321E-005
  3.937501962257534E-005
  3.932656065030610E-005
  3.928190055126531E-005
  3.924140241994706E-005
  3.920548582040616E-005
  3.917462391803247E-005
  3.914934924434147E-005
  3.913028543146278E-005
  3.911811512871083E-005
  3.911360890421916E-005
  3.911767282265281E-005
  3.913121411117481E-005
  3.915534715432306E-005
  3.919108627804008E-005
  3.923980692529227E-005
  3.930243562777596E-005
  3.938065657940877E-005
  3.947545748696283E-005
  3.958773670974309E-005
  3.971878076046082E-005
  3.986761442613680E-005
  4.003621387874980E-005
  4.022737278281079E-005
  4.044357725485002E-005
  4.067012756196710E-005
  4.075488820654717E-005
  4.071584818924382E-005
  4.067570408074166E-005
  4.063468597196267E-005
  4.059300758833116E-005
  4.055087005839569E-005
  4.050846380640005E-005
  4.046597062709743E-005
  4.042356551071633E-005
  4.038141824947697E-005
  4.033969509209823E-005
  4.029855993218567E-005
  4.025817597820253E-005
  4.021870670293298E-005
  4.018031745066361E-005
  4.014317663290467E-005
  4.010745720980574E-005
  4.007333799346841E-005
  4.004100506388576E-005
  4.001065397134167E-005
  3.998249051398774E-005
  3.995673374073930E-005
  3.993361634170749E-005
  3.991338871210093E-005
  3.989631903264459E-005
  3.988269753090415E-005
  3.987283718296352E-005
  3.986707680060649E-005
  3.986578375323838E-005
  3.986935451057005E-005
  3.987821856868240E-005
  3.989284027582802E-005
  3.991371363398904E-005
  3.994137127834662E-005
  3.997637846725287E-005
  4.001931743885630E-005
  4.007081641152516E-005
  4.013148955093909E-005
  4.020200834434677E-005
  4.028296057216761E-005
  4.037504790616425E-005
  4.047874561316809E-005
  4.059463509760662E-005
  4.072324812500601E-005
  4.086493268295805E-005
  4.102059810440147E-005
  4.119039395045480E-005
  4.137395368769311E-005
  4.157027318699058E-005
  4.178341630459781E-005
  4.000080688012675E-005
  4.001061238600035E-005
  4.001775591127263E-005
  4.002257609356619E-005
  4.002539068233499E-005
  4.002649889049704E-005
  4.002618395439605E-005
  4.002471534227293E-005
  4.002235078999483E-005
  4.001933819724926E-005
  4.001591734114682E-005
  4.001232156712978E-005
  4.000877924734799E-005
  4.000551533796754E-005
  4.000275270192152E-005
  4.000071349953805E-005
  3.999962047491946E-005
  3.999969827503630E-005
  4.000117475057120E-005
  4.000428204807886E-005
  4.000925808050322E-005
  4.001634743836527E-005
  4.002580296588395E-005
  4.003788636130663E-005
  4.005286981583797E-005
  4.007103646143209E-005
  4.009268156988798E-005
  4.011811308267024E-005
  4.014765198260783E-005
  4.018163272863250E-005
  4.022040261257433E-005
  4.026432095107037E-005
  4.031375932345706E-005
  4.036909767541611E-005
  4.043072270157145E-005
  4.049902840811791E-005
  4.057440404256130E-005
  4.065724358597415E-005
  4.074791952297262E-005
  4.084681335136500E-005
  4.095425432514387E-005
  4.107060074395708E-005
  4.119615316557619E-005
  4.133118414010724E-005
  4.147596728245129E-005
  4.163055451760034E-005
  4.179508001247339E-005
  4.196975130403508E-005
  4.215502137908271E-005
  4.234978767597436E-005
  3.907183816129021E-005
  3.912325349803968E-005
  3.917094756706506E-005
  3.921530522877667E-005
  3.925669053134854E-005
  3.929544886521908E-005
  3.933190886856843E-005
  3.936638425834144E-005
  3.939917554510039E-005
  3.943057163616948E-005
  3.946085135349149E-005
  3.949028483869126E-005
  3.951913490985197E-005
  3.954765829659880E-005
  3.957610684910401E-005
  3.960472864926859E-005
  3.963376907767323E-005
  3.966347180369279E-005
  3.969407970968958E-005
  3.972583580337985E-005
  3.975898395975539E-005
  3.979376972537570E-005
  3.983044086068076E-005
  3.986924803104485E-005
  3.991044509232106E-005
  3.995428954273140E-005
  4.000104261750706E-005
  4.005096932081522E-005
  4.010433825544843E-005
  4.016142119592647E-005
  4.022249256523587E-005
  4.028782864913100E-005
  4.035770618637391E-005
  4.043240154448131E-005
  4.051218910512296E-005
  4.059733853287146E-005
  4.068811497099219E-005
  4.078477343629536E-005
  4.088756248254668E-005
  4.099671238472092E-005
  4.111244803720863E-005
  4.123496414233418E-005
  4.136444188715793E-005
  4.150103752406440E-005
  4.164486903340514E-005
  4.179607543605485E-005
  4.195474734269389E-005
  4.212091750907978E-005
  4.229446917561392E-005
  4.247567662357869E-005
  3.800212348089475E-005
  3.808679107620428E-005
  3.816716886039807E-005
  3.824363902013861E-005
  3.831656645103053E-005
  3.838630005938038E-005
  3.845317405705590E-005
  3.851750919678136E-005
  3.857961395944102E-005
  3.863978569205476E-005
  3.869831168936980E-005
  3.875547022731504E-005
  3.881153153315791E-005
  3.886675871226746E-005
  3.892140860778794E-005
  3.897573261231468E-005
  3.902997741671030E-005
  3.908438570317441E-005
  3.913919677869732E-005
  3.919464712953565E-005
  3.925097093346617E-005
  3.930840046400018E-005
  3.936716646212135E-005
  3.942749836006659E-005
  3.948962449381564E-005
  3.955377214207775E-005
  3.962016751374147E-005
  3.968903560647497E-005
  3.976059995698659E-005
  3.983508227932446E-005
  3.991270196844226E-005
  3.999367548290552E-005
  4.007821570874183E-005
  4.016653102813424E-005
  4.025882437995493E-005
  4.035529250654755E-005
  4.045612431391077E-005
  4.056150061811990E-005
  4.067159132994935E-005
  4.078655674376243E-005
  4.090654208209263E-005
  4.103168191699312E-005
  4.116209446981555E-005
  4.129788290065780E-005
  4.143913822781137E-005
  4.158592190239323E-005
  4.173827895376175E-005
  4.189624022925642E-005
  4.205985870703427E-005
  4.222905185945099E-005
  3.681504027739380E-005
  3.692462121420151E-005
  3.702974979266594E-005
  3.713077478087592E-005
  3.722803209303318E-005
  3.732184548471333E-005
  3.741252724592503E-005
  3.750037889766150E-005
  3.758569188071780E-005
  3.766874823073305E-005
  3.774982123608336E-005
  3.782917607186634E-005
  3.790707040979373E-005
  3.798375499520231E-005
  3.805947419415110E-005
  3.813446650206907E-005
  3.820896501504159E-005
  3.828319785844994E-005
  3.835738857019821E-005
  3.843175644043781E-005
  3.850651679425148E-005
  3.858188123031926E-005
  3.865805779205224E-005
  3.873525109720459E-005
  3.881366238601353E-005
  3.889348952690211E-005
  3.897492694589645E-005
  3.905816549531771E-005
  3.914339225609256E-005
  3.923079027680972E-005
  3.932053825045732E-005
  3.941281013459498E-005
  3.950777469074572E-005
  3.960559501174567E-005
  3.970642799168115E-005
  3.981042367265625E-005
  3.991772476785406E-005
  4.002846578297343E-005
  4.014277279606577E-005
  4.026076212344975E-005
  4.038254083170277E-005
  4.050820472604585E-005
  4.063783887303984E-005
  4.077151647225916E-005
  4.090929702805911E-005
  4.105123022621348E-005
  4.119735300477043E-005
  4.134768886671088E-005
  4.150223456301884E-005
  4.166100472303850E-005
  3.552511484056541E-005
  3.565199720957312E-005
  3.577456248964422E-005
  3.589311045272060E-005
  3.600793225602269E-005
  3.611931068135836E-005
  3.622752040504643E-005
  3.633282828764042E-005
  3.643549367837286E-005
  3.653576872834825E-005
  3.663389870675263E-005
  3.673012231585988E-005
  3.682467199941216E-005
  3.691777424164681E-005
  3.700964985191962E-005
  3.710051423269394E-005
  3.719057762701285E-005
  3.728004534309818E-005
  3.736911795358289E-005
  3.745799146579237E-005
  3.754685746365993E-005
  3.763590321540611E-005
  3.772531175082497E-005
  3.781526189930741E-005
  3.790592829763493E-005
  3.799748135619002E-005
  3.809008719145922E-005
  3.818390752132053E-005
  3.827909952485113E-005
  3.837581566663277E-005
  3.847420348877231E-005
  3.857440537020093E-005
  3.867655826371489E-005
  3.878079339978150E-005
  3.888723596827988E-005
  3.899600480779802E-005
  3.910721202898937E-005
  3.922096273129396E-005
  3.933735454000341E-005
  3.945647744917926E-005
  3.957841317664811E-005
  3.970323518537548E-005
  3.983100810642988E-005
  3.996178759702143E-005
  4.009562054003812E-005
  4.023254377224292E-005
  4.037258434037806E-005
  4.051575929300507E-005
  4.066207997980573E-005
  4.081153956568627E-005
  3.414047019788993E-005
  3.427811572189605E-005
  3.441177567339014E-005
  3.454169591372510E-005
  3.466811718499389E-005
  3.479127507599533E-005
  3.491140002004732E-005
  3.502871732063529E-005
  3.514344719938863E-005
  3.525580486188375E-005
  3.536600057698731E-005
  3.547423976567198E-005
  3.558072309564819E-005
  3.568564657814079E-005
  3.578920166398771E-005
  3.589157533575290E-005
  3.599295019355977E-005
  3.609350453201017E-005
  3.619341240597945E-005
  3.629284368385480E-005
  3.639196408575698E-005
  3.649093520635086E-005
  3.658991451979978E-005
  3.668905536786523E-005
  3.678850692796952E-005
  3.688841416360053E-005
  3.698891775504051E-005
  3.709015401149442E-005
  3.719225476484565E-005
  3.729534724636435E-005
  3.739955394672426E-005
  3.750499246182385E-005
  3.761177532402929E-005
  3.772000982377745E-005
  3.782979782346854E-005
  3.794123555786123E-005
  3.805441344465766E-005
  3.816941586719042E-005
  3.828632100604494E-005
  3.840520059280702E-005
  3.852611980505768E-005
  3.864913700641734E-005
  3.877430365457987E-005
  3.890166413051717E-005
  3.903125547305811E-005
  3.916310752440858E-005
  3.929724279228119E-005
  3.943367649217103E-005
  3.957241512914917E-005
  3.971345991212878E-005
  3.266508026258117E-005
  3.280812252083871E-005
  3.294762453725121E-005
  3.308377978482931E-005
  3.321677927588730E-005
  3.334681137932301E-005
  3.347406166769749E-005
  3.359871279030120E-005
  3.372094436908885E-005
  3.384093291435356E-005
  3.395885175695783E-005
  3.407487099440825E-005
  3.418915744786308E-005
  3.430187462772540E-005
  3.441318270524217E-005
  3.452323848799756E-005
  3.463219539728436E-005
  3.474020344545928E-005
  3.484740921161551E-005
  3.495395581415430E-005
  3.505998287893955E-005
  3.516562650186775E-005
  3.527101920516489E-005
  3.537628988628558E-005
  3.548156375954116E-005
  3.558696228938948E-005
  3.569260311585082E-005
  3.579859997177900E-005
  3.590506259243808E-005
  3.601209661756167E-005
  3.611980348683110E-005
  3.622828032913727E-005
  3.633761984714878E-005
  3.644791019760157E-005
  3.655923486826196E-005
  3.667167255526673E-005
  3.678529703663300E-005
  3.690017705422584E-005
  3.701637618593895E-005
  3.713395274496461E-005
  3.725295964937756E-005
  3.737344434114332E-005
  3.749544867512879E-005
  3.761900883901742E-005
  3.774415532273053E-005
  3.787091280287186E-005
  3.799930010049715E-005
  3.812933009685872E-005
  3.826101013997189E-005
  3.839434111570508E-005
  3.110054232004122E-005
  3.124473886166857E-005
  3.138589302975548E-005
  3.152415079377043E-005
  3.165965757371084E-005
  3.179255799182349E-005
  3.192299564823464E-005
  3.205111291858417E-005
  3.217705077147345E-005
  3.230094860399659E-005
  3.242294409312651E-005
  3.254317306133911E-005
  3.266176935444942E-005
  3.277886473010491E-005
  3.289458875516737E-005
  3.300906871052143E-005
  3.312242950182438E-005
  3.323479357494533E-005
  3.334628083477780E-005
  3.345700856650525E-005
  3.356709135814014E-005
  3.367664102376186E-005
  3.378576652646495E-005
  3.389457390072004E-005
  3.400316617342019E-005
  3.411164328349924E-005
  3.422010199983979E-005
  3.432863583732973E-005
  3.443733497117671E-005
  3.454628614967464E-005
  3.465557260550321E-005
  3.476527396612204E-005
  3.487546616353034E-005
  3.498622134398740E-005
  3.509760777854018E-005
  3.520968977425367E-005
  3.532252758838243E-005
  3.543617734339829E-005
  3.555069094885725E-005
  3.566611602136710E-005
  3.578249581894568E-005
  3.589986917054615E-005
  3.601827042192514E-005
  3.613772938468868E-005
  3.625827128126747E-005
  3.637991672191203E-005
  3.650268167960787E-005
  3.662657749559979E-005
  3.675161074701935E-005
  3.687778349927352E-005
  2.944733555925766E-005
  2.958944747056906E-005
  2.972902460489846E-005
  2.986617170616825E-005
  3.000099428441453E-005
  3.013359835013130E-005
  3.026409016691902E-005
  3.039257602137248E-005
  3.051916200902742E-005
  3.064395383525945E-005
  3.076705662996595E-005
  3.088857477488153E-005
  3.100861174240909E-005
  3.112726994490852E-005
  3.124465059335897E-005
  3.136085356436823E-005
  3.147597727465792E-005
  3.159011856205124E-005
  3.170337257219996E-005
  3.181583265025848E-005
  3.192759023681635E-005
  3.203873476753384E-005
  3.214935357589212E-005
  3.225953179860682E-005
  3.236935228338737E-005
  3.247889549867446E-005
  3.258823944514732E-005
  3.269745956892549E-005
  3.280662867625521E-005
  3.291581684983136E-005
  3.302509136666565E-005
  3.313451661773358E-005
  3.324415402951752E-005
  3.335406198770370E-005
  3.346429576320684E-005
  3.357490744108565E-005
  3.368594585218010E-005
  3.379745650869188E-005
  3.390948154264987E-005
  3.402205965018026E-005
  3.413522603792834E-005
  3.424901237712212E-005
  3.436344676048820E-005
  3.447855366547634E-005
  3.459435392698227E-005
  3.471086471089602E-005
  3.482809949607013E-005
  3.494606805518250E-005
  3.506477648707429E-005
  3.518422715315534E-005
  2.770564516017729E-005
  2.784329008950055E-005
  2.797888916747432E-005
  2.811251245013766E-005
  2.824423162762404E-005
  2.837411976709742E-005
  2.850225106916844E-005
  2.862870063741231E-005
  2.875354426028535E-005
  2.887685820486807E-005
  2.899871902183661E-005
  2.911920336095641E-005
  2.923838779648143E-005
  2.935634866182921E-005
  2.947316189286806E-005
  2.958890287922232E-005
  2.970364632299935E-005
  2.981746610435494E-005
  2.993043515339075E-005
  3.004262532786400E-005
  3.015410729623926E-005
  3.026495042571175E-005
  3.037522267473401E-005
  3.048499048983397E-005
  3.059431870629598E-005
  3.070327045261485E-005
  3.081190705834628E-005
  3.092028796539125E-005
  3.102847064243518E-005
  3.113651050257569E-005
  3.124446082406284E-005
  3.135237267417968E-005
  3.146029483626988E-005
  3.156827374001653E-005
  3.167635339506839E-005
  3.178457532806102E-005
  3.189297852335539E-005
  3.200159936734502E-005
  3.211047159696325E-005
  3.221962625182767E-005
  3.232909163130546E-005
  3.243889325530375E-005
  3.254905383034617E-005
  3.265959322037159E-005
  3.277052842146452E-005
  3.288187354294636E-005
  3.299363979328309E-005
  3.310583547413351E-005
  3.321846596659724E-005
  3.333153375092442E-005
  2.587586003152320E-005
  2.600736432141653E-005
  2.613727517112209E-005
  2.626563415729501E-005
  2.639248503364510E-005
  2.651787349475669E-005
  2.664184694972574E-005
  2.676445430550104E-005
  2.688574575961478E-005
  2.700577260199685E-005
  2.712458702559605E-005
  2.724224194546657E-005
  2.735879082595503E-005
  2.747428751566426E-005
  2.758878608981521E-005
  2.770234069966857E-005
  2.781500542867483E-005
  2.792683415496124E-005
  2.803788041987629E-005
  2.814819730226769E-005
  2.825783729819359E-005
  2.836685220578766E-005
  2.847529301506221E-005
  2.858320980234575E-005
  2.869065162924229E-005
  2.879766644584656E-005
  2.890430099810784E-005
  2.901060073920536E-005
  2.911660974479722E-005
  2.922237063209841E-005
  2.932792448270575E-005
  2.943331076911091E-005
  2.953856728493889E-005
  2.964373007884902E-005
  2.974883339214391E-005
  2.985390960012831E-005
  2.995898915722143E-005
  3.006410054594781E-005
  3.016927022973747E-005
  3.027452260984698E-005
  3.037987998611671E-005
  3.048536252204325E-005
  3.059098821390521E-005
  3.069677286411820E-005
  3.080273005919490E-005
  3.090887115186916E-005
  3.101520524774458E-005
  3.112173919548674E-005
  3.122847758544814E-005
  3.133542274526699E-005
  2.395884306267788E-005
  2.408310558621278E-005
  2.420618016017202E-005
  2.432808549734357E-005
  2.444884279900093E-005
  2.456847554425948E-005
  2.468700928658004E-005
  2.480447145732918E-005
  2.492089117636265E-005
  2.503629906946779E-005
  2.515072709263279E-005
  2.526420836287613E-005
  2.537677699559248E-005
  2.548846794817486E-005
  2.559931686974625E-005
  2.570935995683671E-005
  2.581863381480537E-005
  2.592717532482375E-005
  2.603502151622902E-005
  2.614220944407177E-005
  2.624877607168867E-005
  2.635475815812653E-005
  2.646019215025584E-005
  2.656511407944434E-005
  2.666955946262716E-005
  2.677356320767375E-005
  2.687715952293174E-005
  2.698038183083492E-005
  2.708326268552779E-005
  2.718583369436196E-005
  2.728812544330537E-005
  2.739016742611530E-005
  2.749198797729715E-005
  2.759361420881577E-005
  2.769507195050938E-005
  2.779638569426662E-005
  2.789757854187157E-005
  2.799867215662097E-005
  2.809968671865708E-005
  2.820064088407350E-005
  2.830155174781404E-005
  2.840243481033491E-005
  2.850330394814656E-005
  2.860417138822676E-005
  2.870504768623631E-005
  2.880594170870686E-005
  2.890686061914000E-005
  2.900780986835582E-005
  2.910879318772251E-005
  2.920981258839924E-005
  2.195605153027705E-005
  2.207242422938272E-005
  2.218796225073939E-005
  2.230266638189081E-005
  2.241654004721021E-005
  2.252958912346712E-005
  2.264182176038937E-005
  2.275324820654390E-005
  2.286388064024804E-005
  2.297373300575342E-005
  2.308282085453247E-005
  2.319116119169391E-005
  2.329877232747154E-005
  2.340567373369028E-005
  2.351188590518111E-005
  2.361743022605363E-005
  2.372232884071052E-005
  2.382660452957279E-005
  2.393028058936599E-005
  2.403338071789246E-005
  2.413592890324168E-005
  2.423794931726738E-005
  2.433946621330639E-005
  2.444050382801968E-005
  2.454108628729114E-005
  2.464123751609033E-005
  2.474098115224588E-005
  2.484034046405085E-005
  2.493933827164229E-005
  2.503799687210152E-005
  2.513633796823266E-005
  2.523438260095836E-005
  2.533215108533926E-005
  2.542966295012815E-005
  2.552693688087994E-005
  2.562399066659488E-005
  2.572084114984463E-005
  2.581750418042003E-005
  2.591399457244072E-005
  2.601032606498579E-005
  2.610651128617587E-005
  2.620256172074802E-005
  2.629848768114058E-005
  2.639429828202589E-005
  2.649000141838146E-005
  2.658560374701899E-005
  2.668111067165542E-005
  2.677652633136332E-005
  2.687185359284443E-005
  2.696709404565331E-005
  1.986956390443131E-005
  1.997774996102873E-005
  2.008540053603371E-005
  2.019250276216591E-005
  2.029904644334637E-005
  2.040502389495983E-005
  2.051042978774239E-005
  2.061526099546578E-005
  2.071951644638878E-005
  2.082319697860876E-005
  2.092630519926174E-005
  2.102884534766648E-005
  2.113082316238081E-005
  2.123224575217097E-005
  2.133312147092396E-005
  2.143345979642425E-005
  2.153327121300406E-005
  2.163256709809431E-005
  2.173135961250606E-005
  2.182966159454882E-005
  2.192748645786161E-005
  2.202484809292602E-005
  2.212176077226147E-005
  2.221823905920581E-005
  2.231429772025967E-005
  2.240995164097800E-005
  2.250521574532297E-005
  2.260010491847400E-005
  2.269463393305168E-005
  2.278881737869820E-005
  2.288266959501794E-005
  2.297620460782200E-005
  2.306943606866878E-005
  2.316237719764677E-005
  2.325504072941749E-005
  2.334743886246694E-005
  2.343958321156135E-005
  2.353148476339510E-005
  2.362315383540258E-005
  2.371460003775407E-005
  2.380583223846991E-005
  2.389685853169977E-005
  2.398768620914080E-005
  2.407832173455777E-005
  2.416877072144846E-005
  2.425903791378945E-005
  2.434912716991782E-005
  2.443904144949786E-005
  2.452878280352387E-005
  2.461835236752462E-005
  1.770205183109374E-005
  1.780202042479308E-005
  1.790169907847398E-005
  1.800106492393975E-005
  1.810009771939587E-005
  1.819877971211493E-005
  1.829709550374872E-005
  1.839503191833482E-005
  1.849257787309405E-005
  1.858972425209914E-005
  1.868646378287059E-005
  1.878279091593437E-005
  1.887870170740457E-005
  1.897419370461907E-005
  1.906926583483539E-005
  1.916391829703990E-005
  1.925815245684357E-005
  1.935197074450449E-005
  1.944537655606258E-005
  1.953837415757521E-005
  1.963096859248701E-005
  1.972316559205278E-005
  1.981497148891091E-005
  1.990639313364003E-005
  1.999743781446634E-005
  2.008811317994759E-005
  2.017842716470013E-005
  2.026838791814236E-005
  2.035800373619338E-005
  2.044728299597743E-005
  2.053623409346038E-005
  2.062486538400734E-005
  2.071318512589576E-005
  2.080120142668025E-005
  2.088892219248284E-005
  2.097635508012348E-005
  2.106350745211643E-005
  2.115038633452670E-005
  2.123699837760140E-005
  2.132334981928249E-005
  2.140944645145721E-005
  2.149529358904022E-005
  2.158089604181883E-005
  2.166625808905711E-005
  2.175138345685563E-005
  2.183627529825594E-005
  2.192093617606228E-005
  2.200536804836893E-005
  2.208957225683027E-005
  2.217354951752975E-005
  1.545672311447372E-005
  1.554863890140295E-005
  1.564045853303158E-005
  1.573215224559080E-005
  1.582369280238640E-005
  1.591505537636693E-005
  1.600621743452033E-005
  1.609715862426195E-005
  1.618786066183426E-005
  1.627830722282117E-005
  1.636848383486643E-005
  1.645837777261797E-005
  1.654797795500211E-005
  1.663727484483059E-005
  1.672626035081642E-005
  1.681492773202923E-005
  1.690327150480237E-005
  1.699128735215233E-005
  1.707897203568306E-005
  1.716632331005974E-005
  1.725333984001061E-005
  1.734002111988168E-005
  1.742636739575983E-005
  1.751237959018463E-005
  1.759805922938875E-005
  1.768340837317241E-005
  1.776842954728498E-005
  1.785312567841009E-005
  1.793750003172111E-005
  1.802155615096152E-005
  1.810529780109389E-005
  1.818872891350199E-005
  1.827185353369919E-005
  1.835467577160706E-005
  1.843719975428120E-005
  1.851942958121811E-005
  1.860136928210379E-005
  1.868302277708922E-005
  1.876439383948609E-005
  1.884548606098133E-005
  1.892630281927105E-005
  1.900684724813211E-005
  1.908712220993888E-005
  1.916713027056689E-005
  1.924687367671343E-005
  1.932635433558909E-005
  1.940557379698858E-005
  1.948453323769610E-005
  1.956323344825254E-005
  1.964167482200291E-005
  1.313725240570900E-005
  1.322141763656313E-005
  1.330563156671183E-005
  1.338986016417307E-005
  1.347407178768373E-005
  1.355823708660626E-005
  1.364232890217210E-005
  1.372632217009831E-005
  1.381019382468278E-005
  1.389392270446048E-005
  1.397748945948476E-005
  1.406087646028566E-005
  1.414406770860849E-005
  1.422704874993548E-005
  1.430980658787256E-005
  1.439232960045187E-005
  1.447460745836395E-005
  1.455663104517812E-005
  1.463839237957005E-005
  1.471988453961261E-005
  1.480110158908205E-005
  1.488203850593052E-005
  1.496269111278631E-005
  1.504305600963333E-005
  1.512313050859721E-005
  1.520291257088950E-005
  1.528240074589901E-005
  1.536159411245270E-005
  1.544049222223444E-005
  1.551909504537643E-005
  1.559740291821803E-005
  1.567541649323068E-005
  1.575313669112054E-005
  1.583056465507806E-005
  1.590770170720162E-005
  1.598454930707836E-005
  1.606110901249765E-005
  1.613738244232148E-005
  1.621337124147484E-005
  1.628907704808314E-005
  1.636450146268430E-005
  1.643964601959316E-005
  1.651451216031341E-005
  1.658910120905304E-005
  1.666341435028947E-005
  1.673745260840096E-005
  1.681121682931102E-005
  1.688470766416694E-005
  1.695792555500254E-005
  1.703087072238029E-005
  1.074771007581012E-005
  1.082451734649632E-005
  1.090147262472114E-005
  1.097853982641932E-005
  1.105568509718994E-005
  1.113287672726456E-005
  1.121008506735837E-005
  1.128728244551102E-005
  1.136444308499232E-005
  1.144154302333356E-005
  1.151856003258015E-005
  1.159547354077587E-005
  1.167226455480873E-005
  1.174891558462182E-005
  1.182541056885438E-005
  1.190173480197573E-005
  1.197787486293422E-005
  1.205381854537536E-005
  1.212955478945338E-005
  1.220507361529334E-005
  1.228036605810071E-005
  1.235542410497220E-005
  1.243024063341997E-005
  1.250480935162567E-005
  1.257912474047354E-005
  1.265318199732110E-005
  1.272697698159034E-005
  1.280050616212828E-005
  1.287376656640375E-005
  1.294675573150176E-005
  1.301947165693442E-005
  1.309191275931366E-005
  1.316407782881146E-005
  1.323596598747393E-005
  1.330757664937350E-005
  1.337890948257000E-005
  1.344996437291787E-005
  1.352074138967166E-005
  1.359124075294210E-005
  1.366146280292791E-005
  1.373140797097499E-005
  1.380107675240878E-005
  1.387046968116469E-005
  1.393958730618026E-005
  1.400843016953456E-005
  1.407699878635770E-005
  1.414529362644895E-005
  1.421331509759217E-005
  1.428106353060602E-005
  1.434853916602402E-005
  8.292495574545859E-006
  8.362389403097035E-006
  8.432488691284808E-006
  8.502757168028692E-006
  8.573160614926980E-006
  8.643666794151927E-006
  8.714245376946692E-006
  8.784867872825854E-006
  8.855507559503261E-006
  8.926139413660211E-006
  8.996740042605062E-006
  9.067287616847029E-006
  9.137761803704597E-006
  9.208143701935006E-006
  9.278415777488641E-006
  9.348561800397435E-006
  9.418566782858145E-006
  9.488416918551560E-006
  9.558099523212343E-006
  9.627602976519275E-006
  9.696916665319883E-006
  9.766030928192147E-006
  9.834937001421759E-006
  9.903626966375182E-006
  9.972093698315510E-006
  1.004033081666253E-005
  1.010833263672836E-005
  1.017609412293331E-005
  1.024361084352727E-005
  1.031087892679244E-005
  1.037789501880948E-005
  1.044465624269937E-005
  1.051116015943044E-005
  1.057740473014417E-005
  1.064338828001076E-005
  1.070910946364180E-005
  1.077456723202096E-005
  1.083976080097802E-005
  1.090468962119694E-005
  1.096935334973903E-005
  1.103375182309745E-005
  1.109788503175422E-005
  1.116175309624724E-005
  1.122535624473130E-005
  1.128869479201031E-005
  1.135176912004903E-005
  1.141457965993831E-005
  1.147712687528710E-005
  1.153941124704598E-005
  1.160143325974082E-005
  5.776278811836957E-006
  5.839724475307709E-006
  5.903395024652816E-006
  5.967255568637776E-006
  6.031273081844654E-006
  6.095416343674889E-006
  6.159655877716483E-006
  6.223963891611612E-006
  6.288314217450414E-006
  6.352682252742060E-006
  6.417044902054087E-006
  6.481380519341134E-006
  6.545668851023678E-006
  6.609890979883673E-006
  6.674029269769838E-006
  6.738067311242299E-006
  6.801989868102479E-006
  6.865782824896840E-006
  6.929433135442298E-006
  6.992928772364625E-006
  7.056258677708833E-006
  7.119412714641435E-006
  7.182381620264210E-006
  7.245156959593993E-006
  7.307731080670181E-006
  7.370097070872005E-006
  7.432248714428744E-006
  7.494180451154631E-006
  7.555887336391743E-006
  7.617365002227636E-006
  7.678609619940406E-006
  7.739617863720532E-006
  7.800386875653180E-006
  7.860914231981385E-006
  7.921197910640703E-006
  7.981236260089507E-006
  8.041027969394060E-006
  8.100572039615089E-006
  8.159867756474184E-006
  8.218914664291339E-006
  8.277712541175926E-006
  8.336261375514217E-006
  8.394561343686970E-006
  8.452612789053119E-006
  8.510416202157711E-006
  8.567972202169492E-006
  8.625281519552502E-006
  8.682344979894859E-006
  8.739163488964827E-006
  8.795738018908112E-006
  3.203951287664170E-006
  3.261409591657581E-006
  3.319078044893993E-006
  3.376924450184378E-006
  3.434918283590995E-006
  3.493030642901096E-006
  3.551234196350969E-006
  3.609503131699724E-006
  3.667813105642086E-006
  3.726141193692794E-006
  3.784465840503235E-006
  3.842766810736880E-006
  3.901025140474683E-006
  3.959223089274401E-006
  4.017344092845978E-006
  4.075372716421898E-006
  4.133294608872882E-006
  4.191096457549072E-006
  4.248765943942851E-006
  4.306291700152945E-006
  4.363663266204331E-006
  4.420871048242682E-006
  4.477906277633740E-006
  4.534760970968229E-006
  4.591427891035388E-006
  4.647900508725386E-006
  4.704172965930010E-006
  4.760240039438807E-006
  4.816097105833739E-006
  4.871740107405351E-006
  4.927165519092683E-006
  4.982370316475036E-006
  5.037351944805276E-006
  5.092108289081201E-006
  5.146637645183378E-006
  5.200938692084084E-006
  5.255010465103428E-006
  5.308852330214781E-006
  5.362463959439413E-006
  5.415845307285077E-006
  5.468996588226827E-006
  5.521918255253632E-006
  5.574610979453121E-006
  5.627075630625534E-006
  5.679313258935427E-006
  5.731325077574705E-006
  5.783112446420373E-006
  5.834676856701591E-006
  5.886019916644700E-006
  5.937143338054807E-006
  5.805875263486098E-007
  6.324943994183193E-007
  6.845663523007567E-007
  7.367749822167752E-007
  7.890933640142156E-007
  8.414960067605944E-007
  8.939588105209971E-007
  9.464590233430887E-007
  9.989751985257497E-007
  1.051487152184413E-006
  1.103975921197073E-006
  1.156423721510911E-006
  1.208813906918693E-006
  1.261130928280446E-006
  1.313360293251104E-006
  1.365488526568091E-006
  1.417503130871634E-006
  1.469392548167342E-006
  1.521146121878272E-006
  1.572754059579794E-006
  1.624207396395488E-006
  1.675497959098339E-006
  1.726618330946273E-006
  1.777561817246274E-006
  1.828322411696023E-006
  1.878894763487873E-006
  1.929274145227106E-006
  1.979456421637916E-006
  2.029438019112557E-006
  2.079215896073448E-006
  2.128787514190198E-006
  2.178150810444650E-006
  2.227304170048177E-006
  2.276246400226676E-006
  2.324976704880413E-006
  2.373494660093105E-006
  2.421800190545473E-006
  2.469893546774588E-006
  2.517775283320113E-006
  2.565446237731903E-006
  2.612907510466012E-006
  2.660160445617706E-006
  2.707206612535913E-006
  2.754047788273738E-006
  2.800685940901910E-006
  2.847123213631361E-006
  2.893361909799489E-006
  2.939404478628244E-006
  2.985253501828676E-006
  3.030911680962685E-006
 -2.088583372285539E-006
 -2.041833372763174E-006
 -1.994989934143214E-006
 -1.948076745688619E-006
 -1.901116216138991E-006
 -1.854129510129694E-006
 -1.807136584509108E-006
 -1.760156224454387E-006
 -1.713206079438114E-006
 -1.666302698895623E-006
 -1.619461567666458E-006
 -1.572697141099432E-006
 -1.526022879834037E-006
 -1.479451284208725E-006
 -1.432993928247294E-006
 -1.386661493261147E-006
 -1.340463800957007E-006
 -1.294409846089908E-006
 -1.248507828595523E-006
 -1.202765185208487E-006
 -1.157188620540092E-006
 -1.111784137566209E-006
 -1.066557067556545E-006
 -1.021512099378894E-006
 -9.766533082043471E-007
 -9.319841835659594E-007
 -8.875076567856771E-007
 -8.432261277231631E-007
 -7.991414908690357E-007
 -7.552551607724702E-007
 -7.115680967455948E-007
 -6.680808269075969E-007
 -6.247934715125346E-007
 -5.817057655733834E-007
 -5.388170807851761E-007
 -4.961264467143137E-007
 -4.536325713041690E-007
 -4.113338606325697E-007
 -3.692284379909233E-007
 -3.273141622256338E-007
 -2.855886453662557E-007
 -2.440492695716655E-007
 -2.026932033522410E-007
 -1.615174171084428E-007
 -1.205186979714237E-007
 -7.969366395171510E-008
 -3.903877744956247E-008
  1.449641937729474E-009
  4.177540524564488E-008
  8.194244262230999E-008
 -4.798196712248596E-006
 -4.756263727744588E-006
 -4.714331837035638E-006
 -4.672419251031035E-006
 -4.630543097973743E-006
 -4.588719453831735E-006
 -4.546963372597528E-006
 -4.505288916424274E-006
 -4.463709185626329E-006
 -4.422236348445454E-006
 -4.380881670637461E-006
 -4.339655544748871E-006
 -4.298567519179153E-006
 -4.257626326881225E-006
 -4.216839913777609E-006
 -4.176215466812729E-006
 -4.135759441629886E-006
 -4.095477589855327E-006
 -4.055374985996459E-006
 -4.015456053867992E-006
 -3.975724592633947E-006
 -3.936183802312753E-006
 -3.896836308871139E-006
 -3.857684188796433E-006
 -3.818728993169681E-006
 -3.779971771221209E-006
 -3.741413093369845E-006
 -3.703053073714159E-006
 -3.664891391988557E-006
 -3.626927314961173E-006
 -3.589159717277224E-006
 -3.551587101734243E-006
 -3.514207618984385E-006
 -3.477019086668043E-006
 -3.440019007976973E-006
 -3.403204589611596E-006
 -3.366572759193340E-006
 -3.330120182075987E-006
 -3.293843277577122E-006
 -3.257738234636187E-006
 -3.221801026895636E-006
 -3.186027427211652E-006
 -3.150413021597453E-006
 -3.114953222589671E-006
 -3.079643282073365E-006
 -3.044478303537037E-006
 -3.009453253819171E-006
 -2.974562974268305E-006
 -2.939802191417100E-006
 -2.905165527122036E-006
 -7.542762632724444E-006
 -7.505372264782133E-006
 -7.468096816955518E-006
 -7.430948389290912E-006
 -7.393938197751117E-006
 -7.357076599311822E-006
 -7.320373116971573E-006
 -7.283836464612679E-006
 -7.247474571714825E-006
 -7.211294607867073E-006
 -7.175303007116976E-006
 -7.139505492056170E-006
 -7.103907097688649E-006
 -7.068512195028201E-006
 -7.033324514436921E-006
 -6.998347168635934E-006
 -6.963582675421910E-006
 -6.929032980067299E-006
 -6.894699477349949E-006
 -6.860583033255853E-006
 -6.826684006290363E-006
 -6.793002268418873E-006
 -6.759537225611239E-006
 -6.726287837994004E-006
 -6.693252639563662E-006
 -6.660429757512404E-006
 -6.627816931094563E-006
 -6.595411530068337E-006
 -6.563210572708994E-006
 -6.531210743338913E-006
 -6.499408409426502E-006
 -6.467799638234160E-006
 -6.436380212986596E-006
 -6.405145648575780E-006
 -6.374091206815280E-006
 -6.343211911213646E-006
 -6.312502561294620E-006
 -6.281957746424532E-006
 -6.251571859199752E-006
 -6.221339108358929E-006
 -6.191253531237279E-006
 -6.161309005751035E-006
 -6.131499261942069E-006
 -6.101817893066868E-006
 -6.072258366230087E-006
 -6.042814032592846E-006
 -6.013478137144322E-006
 -5.984243828040445E-006
 -5.955104165530436E-006
 -5.926052130478822E-006
 -1.031666906630661E-005
 -1.028362104714301E-005
 -1.025081753549164E-005
 -1.021826400314325E-005
 -1.018596523754048E-005
 -1.015392536217476E-005
 -1.012214785683634E-005
 -1.009063557773515E-005
 -1.005939077743569E-005
 -1.002841512462487E-005
 -9.997709723674893E-006
 -9.967275133999256E-006
 -9.937111389182786E-006
 -9.907218015878515E-006
 -9.877594052435350E-006
 -9.848238067304261E-006
 -9.819148177127627E-006
 -9.790322064566327E-006
 -9.761756995836837E-006
 -9.733449837930523E-006
 -9.705397075535929E-006
 -9.677594827628470E-006
 -9.650038863742357E-006
 -9.622724619905321E-006
 -9.595647214217635E-006
 -9.568801462114828E-006
 -9.542181891247558E-006
 -9.515782756022896E-006
 -9.489598051781946E-006
 -9.463621528611451E-006
 -9.437846704781132E-006
 -9.412266879836231E-006
 -9.386875147291513E-006
 -9.361664406967002E-006
 -9.336627376950561E-006
 -9.311756605198638E-006
 -9.287044480735999E-006
 -9.262483244521652E-006
 -9.238064999916211E-006
 -9.213781722802492E-006
 -9.189625271332343E-006
 -9.165587395318600E-006
 -9.141659745257275E-006
 -9.117833881022461E-006
 -9.094101280182430E-006
 -9.070453346003715E-006
 -9.046881415090008E-006
 -9.023376764719559E-006
 -8.999930619827651E-006
 -8.976534159699799E-006
 -1.311417837737514E-005
 -1.308535351809819E-005
 -1.305691502635415E-005
 -1.302886133044741E-005
 -1.300119037607109E-005
 -1.297389964238489E-005
 -1.294698615790190E-005
 -1.292044651621128E-005
 -1.289427689152210E-005
 -1.286847305398011E-005
 -1.284303038481368E-005
 -1.281794389124256E-005
 -1.279320822118303E-005
 -1.276881767771360E-005
 -1.274476623330167E-005
 -1.272104754380236E-005
 -1.269765496220627E-005
 -1.267458155211311E-005
 -1.265182010098283E-005
 -1.262936313308821E-005
 -1.260720292221525E-005
 -1.258533150409160E-005
 -1.256374068853580E-005
 -1.254242207131314E-005
 -1.252136704574112E-005
 -1.250056681397105E-005
 -1.248001239800498E-005
 -1.245969465042505E-005
 -1.243960426481203E-005
 -1.241973178589772E-005
 -1.240006761939767E-005
 -1.238060204157295E-005
 -1.236132520849101E-005
 -1.234222716499209E-005
 -1.232329785336922E-005
 -1.230452712175305E-005
 -1.228590473221092E-005
 -1.226742036856502E-005
 -1.224906364392084E-005
 -1.223082410791621E-005
 -1.221269125368687E-005
 -1.219465452457687E-005
 -1.217670332054891E-005
 -1.215882700436100E-005
 -1.214101490745036E-005
 -1.212325633559001E-005
 -1.210554057427848E-005
 -1.208785689387189E-005
 -1.207019455449743E-005
 -1.205254281072691E-005
 -1.592941886663332E-005
 -1.590478455778252E-005
 -1.588068727582501E-005
 -1.585711808363637E-005
 -1.583406776630817E-005
 -1.581152684312862E-005
 -1.578948557931868E-005
 -1.576793399757747E-005
 -1.574686188939314E-005
 -1.572625882615659E-005
 -1.570611417001173E-005
 -1.568641708454100E-005
 -1.566715654516743E-005
 -1.564832134935626E-005
 -1.562990012659995E-005
 -1.561188134814291E-005
 -1.559425333649225E-005
 -1.557700427469855E-005
 -1.556012221539397E-005
 -1.554359508958904E-005
 -1.552741071526617E-005
 -1.551155680569635E-005
 -1.549602097755384E-005
 -1.548079075878588E-005
 -1.546585359623868E-005
 -1.545119686306723E-005
 -1.543680786589626E-005
 -1.542267385175950E-005
 -1.540878201480797E-005
 -1.539511950278723E-005
 -1.538167342327475E-005
 -1.536843084972681E-005
 -1.535537882725447E-005
 -1.534250437822219E-005
 -1.532979450759209E-005
 -1.531723620808298E-005
 -1.530481646509340E-005
 -1.529252226141844E-005
 -1.528034058177175E-005
 -1.526825841709677E-005
 -1.525626276866626E-005
 -1.524434065200421E-005
 -1.523247910061672E-005
 -1.522066516950705E-005
 -1.520888593854862E-005
 -1.519712851565179E-005
 -1.518538003974897E-005
 -1.517362768365069E-005
 -1.516185865669290E-005
 -1.515006020725960E-005
 -1.875637233643568E-005
 -1.873598679253304E-005
 -1.871629424326390E-005
 -1.869727815237769E-005
 -1.867892191502431E-005
 -1.866120886566789E-005
 -1.864412228574832E-005
 -1.862764541107225E-005
 -1.861176143897542E-005
 -1.859645353520967E-005
 -1.858170484062001E-005
 -1.856749847756307E-005
 -1.855381755609050E-005
 -1.854064517990574E-005
 -1.852796445210196E-005
 -1.851575848065920E-005
 -1.850401038374121E-005
 -1.849270329475204E-005
 -1.848182036721114E-005
 -1.847134477939476E-005
 -1.846125973877754E-005
 -1.845154848629162E-005
 -1.844219430036185E-005
 -1.843318050076200E-005
 -1.842449045228394E-005
 -1.841610756822043E-005
 -1.840801531364605E-005
 -1.840019720854826E-005
 -1.839263683076739E-005
 -1.838531781877881E-005
 -1.837822387427631E-005
 -1.837133876463647E-005
 -1.836464632520408E-005
 -1.835813046139897E-005
 -1.835177515071821E-005
 -1.834556444455920E-005
 -1.833948246990303E-005
 -1.833351343086700E-005
 -1.832764161012678E-005
 -1.832185137018934E-005
 -1.831612715455942E-005
 -1.831045348876728E-005
 -1.830481498129633E-005
 -1.829919632438363E-005
 -1.829358229471104E-005
 -1.828795775400723E-005
 -1.828230764952955E-005
 -1.827661701446544E-005
 -1.827087096823399E-005
 -1.826505471670778E-005
 -2.158885890886306E-005
 -2.157287427382596E-005
 -2.155774036567429E-005
 -2.154343290229143E-005
 -2.152992774778186E-005
 -2.151720091623058E-005
 -2.150522857517833E-005
 -2.149398704874757E-005
 -2.148345282054832E-005
 -2.147360253627090E-005
 -2.146441300604076E-005
 -2.145586120650898E-005
 -2.144792428269277E-005
 -2.144057954960846E-005
 -2.143380449365683E-005
 -2.142757677379716E-005
 -2.142187422252557E-005
 -2.141667484665093E-005
 -2.141195682786100E-005
 -2.140769852314041E-005
 -2.140387846498494E-005
 -2.140047536146959E-005
 -2.139746809613464E-005
 -2.139483572775139E-005
 -2.139255748990738E-005
 -2.139061279047794E-005
 -2.138898121095829E-005
 -2.138764250566650E-005
 -2.138657660083732E-005
 -2.138576359358723E-005
 -2.138518375079239E-005
 -2.138481750785384E-005
 -2.138464546736759E-005
 -2.138464839770999E-005
 -2.138480723153500E-005
 -2.138510306419497E-005
 -2.138551715209963E-005
 -2.138603091097476E-005
 -2.138662591409058E-005
 -2.138728389042439E-005
 -2.138798672275229E-005
 -2.138871644570833E-005
 -2.138945524380655E-005
 -2.139018544938421E-005
 -2.139088954057162E-005
 -2.139155013916854E-005
 -2.139215000853234E-005
 -2.139267205142748E-005
 -2.139309930786508E-005
 -2.139341495291630E-005
 -2.442052028394590E-005
 -2.440918464500721E-005
 -2.439885559710296E-005
 -2.438950105472844E-005
 -2.438108930035233E-005
 -2.437358898372209E-005
 -2.436696912088269E-005
 -2.436119909282211E-005
 -2.435624864383464E-005
 -2.435208787958849E-005
 -2.434868726492051E-005
 -2.434601762136560E-005
 -2.434405012444286E-005
 -2.434275630072468E-005
 -2.434210802465858E-005
 -2.434207751523445E-005
 -2.434263733241770E-005
 -2.434376037342471E-005
 -2.434541986884231E-005
 -2.434758937860074E-005
 -2.435024278777232E-005
 -2.435335430228680E-005
 -2.435689844449197E-005
 -2.436085004864506E-005
 -2.436518425626676E-005
 -2.436987651143523E-005
 -2.437490255600807E-005
 -2.438023842474457E-005
 -2.438586044041003E-005
 -2.439174520878733E-005
 -2.439786961368851E-005
 -2.440421081188679E-005
 -2.441074622805746E-005
 -2.441745354968117E-005
 -2.442431072193380E-005
 -2.443129594257733E-005
 -2.443838765683204E-005
 -2.444556455229441E-005
 -2.445280555379895E-005
 -2.446008981837042E-005
 -2.446739673015241E-005
 -2.447470589536213E-005
 -2.448199713730140E-005
 -2.448925049138550E-005
 -2.449644620021374E-005
 -2.450356470869040E-005
 -2.451058665918900E-005
 -2.451749288676941E-005
 -2.452426441444100E-005
 -2.453088244850926E-005
 -2.724480262339695E-005
 -2.723846091585498E-005
 -2.723327603907528E-005
 -2.722920814175567E-005
 -2.722621797031059E-005
 -2.722426686333993E-005
 -2.722331674574658E-005
 -2.722333012250414E-005
 -2.722427007208935E-005
 -2.722610023965351E-005
 -2.722878482985150E-005
 -2.723228859949531E-005
 -2.723657684989534E-005
 -2.724161541904340E-005
 -2.724737067356624E-005
 -2.725380950051273E-005
 -2.726089929897655E-005
 -2.726860797157515E-005
 -2.727690391581477E-005
 -2.728575601532866E-005
 -2.729513363102479E-005
 -2.730500659216515E-005
 -2.731534518735265E-005
 -2.732612015550266E-005
 -2.733730267674789E-005
 -2.734886436331836E-005
 -2.736077725042342E-005
 -2.737301378712286E-005
 -2.738554682719133E-005
 -2.739834962002820E-005
 -2.741139580158262E-005
 -2.742465938530392E-005
 -2.743811475316393E-005
 -2.745173664672332E-005
 -2.746550015825319E-005
 -2.747938072194533E-005
 -2.749335410518532E-005
 -2.750739639991632E-005
 -2.752148401410532E-005
 -2.753559366329109E-005
 -2.754970236223941E-005
 -2.756378741670761E-005
 -2.757782641533220E-005
 -2.759179722160823E-005
 -2.760567796602770E-005
 -2.761944703829814E-005
 -2.763308307972198E-005
 -2.764656497570376E-005
 -2.765987184836342E-005
 -2.767298304933059E-005
 -3.005494024858530E-005
 -3.005403397017911E-005
 -3.005442522560860E-005
 -3.005606653977557E-005
 -3.005891127392319E-005
 -3.006291361466051E-005
 -3.006802856262433E-005
 -3.007421192081846E-005
 -3.008142028258999E-005
 -3.008961101934216E-005
 -3.009874226797224E-005
 -3.010877291808445E-005
 -3.011966259897464E-005
 -3.013137166644372E-005
 -3.014386118944086E-005
 -3.015709293655901E-005
 -3.017102936244335E-005
 -3.018563359406399E-005
 -3.020086941693797E-005
 -3.021670126129471E-005
 -3.023309418820530E-005
 -3.025001387567596E-005
 -3.026742660475928E-005
 -3.028529924569195E-005
 -3.030359924401931E-005
 -3.032229460682168E-005
 -3.034135388896483E-005
 -3.036074617943410E-005
 -3.038044108776094E-005
 -3.040040873055932E-005
 -3.042061971813226E-005
 -3.044104514126991E-005
 -3.046165655810690E-005
 -3.048242598118086E-005
 -3.050332586460566E-005
 -3.052432909142061E-005
 -3.054540896111208E-005
 -3.056653917729282E-005
 -3.058769383557872E-005
 -3.060884741165143E-005
 -3.062997474950696E-005
 -3.065105104991237E-005
 -3.067205185905328E-005
 -3.069295305740696E-005
 -3.071373084880568E-005
 -3.073436174973533E-005
 -3.075482257882328E-005
 -3.077509044657088E-005
 -3.079514274529892E-005
 -3.081495713929541E-005
 -3.284394134982191E-005
 -3.284900694059803E-005
 -3.285549713557221E-005
 -3.286335709513488E-005
 -3.287253306397600E-005
 -3.288297235393893E-005
 -3.289462332653746E-005
 -3.290743537512726E-005
 -3.292135890677625E-005
 -3.293634532387874E-005
 -3.295234700556433E-005
 -3.296931728885350E-005
 -3.298721044971344E-005
 -3.300598168392459E-005
 -3.302558708787052E-005
 -3.304598363923343E-005
 -3.306712917764221E-005
 -3.308898238528774E-005
 -3.311150276753149E-005
 -3.313465063354085E-005
 -3.315838707695854E-005
 -3.318267395663764E-005
 -3.320747387744771E-005
 -3.323275017120721E-005
 -3.325846687771175E-005
 -3.328458872591101E-005
 -3.331108111523078E-005
 -3.333791009707626E-005
 -3.336504235651044E-005
 -3.339244519412893E-005
 -3.342008650816028E-005
 -3.344793477675925E-005
 -3.347595904056930E-005
 -3.350412888549743E-005
 -3.353241442576981E-005
 -3.356078628722962E-005
 -3.358921559091479E-005
 -3.361767393692413E-005
 -3.364613338854309E-005
 -3.367456645669700E-005
 -3.370294608464933E-005
 -3.373124563306995E-005
 -3.375943886534902E-005
 -3.378749993324209E-005
 -3.381540336283797E-005
 -3.384312404081621E-005
 -3.387063720105476E-005
 -3.389791841150537E-005
 -3.392494356143578E-005
 -3.395168884895171E-005
 -3.560457691548028E-005
 -3.561624259474700E-005
 -3.562944201453373E-005
 -3.564411336355778E-005
 -3.566019617212160E-005
 -3.567763128793750E-005
 -3.569636085159854E-005
 -3.571632827177385E-005
 -3.573747820016438E-005
 -3.575975650625592E-005
 -3.578311025188657E-005
 -3.580748766571073E-005
 -3.583283811754485E-005
 -3.585911209267550E-005
 -3.588626116611474E-005
 -3.591423797688321E-005
 -3.594299620230547E-005
 -3.597249053239467E-005
 -3.600267664430433E-005
 -3.603351117689912E-005
 -3.606495170548484E-005
 -3.609695671668069E-005
 -3.612948558350645E-005
 -3.616249854064666E-005
 -3.619595665997405E-005
 -3.622982182630608E-005
 -3.626405671343880E-005
 -3.629862476044516E-005
 -3.633349014830458E-005
 -3.636861777681504E-005
 -3.640397324185895E-005
 -3.643952281299450E-005
 -3.647523341140991E-005
 -3.651107258823665E-005
 -3.654700850323470E-005
 -3.658300990387110E-005
 -3.661904610478234E-005
 -3.665508696763131E-005
 -3.669110288138049E-005
 -3.672706474296888E-005
 -3.676294393840439E-005
 -3.679871232427091E-005
 -3.683434220967845E-005
 -3.686980633861056E-005
 -3.690507787271682E-005
 -3.694013037452768E-005
 -3.697493779109387E-005
 -3.700947443806233E-005
 -3.704371498417831E-005
 -3.707763443619123E-005
 -3.832937409926079E-005
 -3.834835488480078E-005
 -3.836895609352193E-005
 -3.839110948862725E-005
 -3.841474844090466E-005
 -3.843980789645365E-005
 -3.846622434413894E-005
 -3.849393578284162E-005
 -3.852288168856042E-005
 -3.855300298137915E-005
 -3.858424199238133E-005
 -3.861654243051136E-005
 -3.864984934949531E-005
 -3.868410911472366E-005
 -3.871926937031751E-005
 -3.875527900623698E-005
 -3.879208812558176E-005
 -3.882964801206201E-005
 -3.886791109769672E-005
 -3.890683093073642E-005
 -3.894636214387115E-005
 -3.898646042273838E-005
 -3.902708247474692E-005
 -3.906818599823657E-005
 -3.910972965203048E-005
 -3.915167302534011E-005
 -3.919397660810442E-005
 -3.923660176174073E-005
 -3.927951069034734E-005
 -3.932266641232996E-005
 -3.936603273256005E-005
 -3.940957421493789E-005
 -3.945325615551724E-005
 -3.949704455610761E-005
 -3.954090609838577E-005
 -3.958480811855308E-005
 -3.962871858249739E-005
 -3.967260606151813E-005
 -3.971643970858714E-005
 -3.976018923515141E-005
 -3.980382488850003E-005
 -3.984731742967428E-005
 -3.989063811194633E-005
 -3.993375865984446E-005
 -3.997665124875737E-005
 -4.001928848506805E-005
 -4.006164338686808E-005
 -4.010368936521643E-005
 -4.014540020595083E-005
 -4.018675005204578E-005
 -4.101061524558261E-005
 -4.103770580983499E-005
 -4.106647628636160E-005
 -4.109685273553289E-005
 -4.112876309863161E-005
 -4.116213715627421E-005
 -4.119690648671003E-005
 -4.123300442405002E-005
 -4.127036601641506E-005
 -4.130892798416075E-005
 -4.134862867810352E-005
 -4.138940803791226E-005
 -4.143120755060248E-005
 -4.147397020926503E-005
 -4.151764047199437E-005
 -4.156216422111122E-005
 -4.160748872269961E-005
 -4.165356258645820E-005
 -4.170033572594486E-005
 -4.174775931923164E-005
 -4.179578576998248E-005
 -4.184436866900298E-005
 -4.189346275626675E-005
 -4.194302388347007E-005
 -4.199300897710556E-005
 -4.204337600209277E-005
 -4.209408392600168E-005
 -4.214509268386104E-005
 -4.219636314355092E-005
 -4.224785707185508E-005
 -4.229953710114876E-005
 -4.235136669670964E-005
 -4.240331012472850E-005
 -4.245533242095820E-005
 -4.250739936007805E-005
 -4.255947742571941E-005
 -4.261153378120101E-005
 -4.266353624096450E-005
 -4.271545324270267E-005
 -4.276725382022878E-005
 -4.281890757700777E-005
 -4.287038466044314E-005
 -4.292165573685936E-005
 -4.297269196718934E-005
 -4.302346498337480E-005
 -4.307394686548450E-005
 -4.312411011951616E-005
 -4.317392765593310E-005
 -4.322337276883433E-005
 -4.327241911588615E-005
 -4.364034377565971E-005
 -4.367640871803789E-005
 -4.371418091984366E-005
 -4.375358166455248E-005
 -4.379453439481927E-005
 -4.383696466032422E-005
 -4.388080006565462E-005
 -4.392597021824904E-005
 -4.397240667649099E-005
 -4.402004289798402E-005
 -4.406881418810906E-005
 -4.411865764881542E-005
 -4.416951212781131E-005
 -4.422131816809266E-005
 -4.427401795794246E-005
 -4.432755528136570E-005
 -4.438187546903992E-005
 -4.443692534982885E-005
 -4.449265320282788E-005
 -4.454900871007400E-005
 -4.460594290983739E-005
 -4.466340815062999E-005
 -4.472135804586297E-005
 -4.477974742925541E-005
 -4.483853231096010E-005
 -4.489766983444775E-005
 -4.495711823419108E-005
 -4.501683679412036E-005
 -4.507678580690614E-005
 -4.513692653405539E-005
 -4.519722116686283E-005
 -4.525763278819053E-005
 -4.531812533512685E-005
 -4.537866356249393E-005
 -4.543921300725187E-005
 -4.549973995376021E-005
 -4.556021139994650E-005
 -4.562059502434293E-005
 -4.568085915403711E-005
 -4.574097273348697E-005
 -4.580090529425654E-005
 -4.586062692561650E-005
 -4.592010824605685E-005
 -4.597932037566559E-005
 -4.603823490939816E-005
 -4.609682389122643E-005
 -4.615505978915372E-005
 -4.621291547109041E-005
 -4.627036418158882E-005
 -4.632737951943822E-005
 -4.621037808571408E-005
 -4.625633911810488E-005
 -4.630399748760740E-005
 -4.635327086007899E-005
 -4.640407934034466E-005
 -4.645634540803374E-005
 -4.650999385362237E-005
 -4.656495171480143E-005
 -4.662114821321386E-005
 -4.667851469159101E-005
 -4.673698455143908E-005
 -4.679649319119316E-005
 -4.685697794497179E-005
 -4.691837802199629E-005
 -4.698063444663505E-005
 -4.704368999920495E-005
 -4.710748915750054E-005
 -4.717197803913193E-005
 -4.723710434467597E-005
 -4.730281730170071E-005
 -4.736906760965321E-005
 -4.743580738568494E-005
 -4.750299011140801E-005
 -4.757057058060909E-005
 -4.763850484794975E-005
 -4.770675017867117E-005
 -4.777526499932028E-005
 -4.784400884951247E-005
 -4.791294233471815E-005
 -4.798202708016258E-005
 -4.805122568573254E-005
 -4.812050168202236E-005
 -4.818981948742787E-005
 -4.825914436633307E-005
 -4.832844238844200E-005
 -4.839768038913546E-005
 -4.846682593099380E-005
 -4.853584726640170E-005
 -4.860471330123130E-005
 -4.867339355967576E-005
 -4.874185815012358E-005
 -4.881007773217258E-005
 -4.887802348471587E-005
 -4.894566707509186E-005
 -4.901298062934987E-005
 -4.907993670353850E-005
 -4.914650825608839E-005
 -4.921266862123089E-005
 -4.927839148343960E-005
 -4.934365085292135E-005
 -4.871233450214095E-005
 -4.876915395463717E-005
 -4.882761829685462E-005
 -4.888764300324416E-005
 -4.894914626375354E-005
 -4.901204890602797E-005
 -4.907627431814554E-005
 -4.914174837198347E-005
 -4.920839934721656E-005
 -4.927615785607001E-005
 -4.934495676886706E-005
 -4.941473114039436E-005
 -4.948541813716025E-005
 -4.955695696562189E-005
 -4.962928880136677E-005
 -4.970235671930460E-005
 -4.977610562496910E-005
 -4.985048218688438E-005
 -4.992543477005430E-005
 -5.000091337064103E-005
 -5.007686955180929E-005
 -5.015325638079117E-005
 -5.023002836717978E-005
 -5.030714140249454E-005
 -5.038455270099716E-005
 -5.046222074181467E-005
 -5.054010521235200E-005
 -5.061816695302842E-005
 -5.069636790333736E-005
 -5.077467104923199E-005
 -5.085304037186383E-005
 -5.093144079764547E-005
 -5.100983814968471E-005
 -5.108819910054330E-005
 -5.116649112637968E-005
 -5.124468246239459E-005
 -5.132274205967457E-005
 -5.140063954333118E-005
 -5.147834517203487E-005
 -5.155582979881380E-005
 -5.163306483325119E-005
 -5.171002220496000E-005
 -5.178667432836832E-005
 -5.186299406883570E-005
 -5.193895471002970E-005
 -5.201452992260219E-005
 -5.208969373412553E-005
 -5.216442050028461E-005
 -5.223868487731013E-005
 -5.231246179562806E-005
 -5.113766014502542E-005
 -5.120632010014735E-005
 -5.127652466757993E-005
 -5.134818886053012E-005
 -5.142123067443515E-005
 -5.149557099388209E-005
 -5.157113350044804E-005
 -5.164784458152741E-005
 -5.172563324022859E-005
 -5.180443100636010E-005
 -5.188417184860723E-005
 -5.196479208791633E-005
 -5.204623031216722E-005
 -5.212842729216514E-005
 -5.221132589899810E-005
 -5.229487102278189E-005
 -5.237900949286027E-005
 -5.246368999945752E-005
 -5.254886301685804E-005
 -5.263448072804888E-005
 -5.272049695100518E-005
 -5.280686706642824E-005
 -5.289354794716733E-005
 -5.298049788918505E-005
 -5.306767654413092E-005
 -5.315504485358373E-005
 -5.324256498486014E-005
 -5.333020026851999E-005
 -5.341791513746640E-005
 -5.350567506770876E-005
 -5.359344652076928E-005
 -5.368119688772646E-005
 -5.376889443490826E-005
 -5.385650825121510E-005
 -5.394400819706585E-005
 -5.403136485500021E-005
 -5.411854948186367E-005
 -5.420553396264186E-005
 -5.429229076585397E-005
 -5.437879290058078E-005
 -5.446501387503975E-005
 -5.455092765674799E-005
 -5.463650863424232E-005
 -5.472173158032042E-005
 -5.480657161683064E-005
 -5.489100418098363E-005
 -5.497500499311680E-005
 -5.505855002599468E-005
 -5.514161547552359E-005
 -5.522417773295257E-005
 -5.347767622539049E-005
 -5.355915248112516E-005
 -5.364202000179937E-005
 -5.372619541364006E-005
 -5.381159857347170E-005
 -5.389815245863378E-005
 -5.398578305828670E-005
 -5.407441926615208E-005
 -5.416399277485800E-005
 -5.425443797182891E-005
 -5.434569183683148E-005
 -5.443769384128757E-005
 -5.453038584923229E-005
 -5.462371202015831E-005
 -5.471761871363679E-005
 -5.481205439582564E-005
 -5.490696954784189E-005
 -5.500231657608663E-005
 -5.509804972445274E-005
 -5.519412498854039E-005
 -5.529050003181337E-005
 -5.538713410373441E-005
 -5.548398795990597E-005
 -5.558102378418667E-005
 -5.567820511281852E-005
 -5.577549676056575E-005
 -5.587286474882700E-005
 -5.597027623577529E-005
 -5.606769944845838E-005
 -5.616510361693529E-005
 -5.626245891033828E-005
 -5.635973637495473E-005
 -5.645690787424376E-005
 -5.655394603081580E-005
 -5.665082417035557E-005
 -5.674751626745452E-005
 -5.684399689339923E-005
 -5.694024116580324E-005
 -5.703622470017283E-005
 -5.713192356330651E-005
 -5.722731422857605E-005
 -5.732237353301960E-005
 -5.741707863628015E-005
 -5.751140698130326E-005
 -5.760533625685570E-005
 -5.769884436180376E-005
 -5.779190937110218E-005
 -5.788450950352836E-005
 -5.797662309114205E-005
 -5.806822855036764E-005
 -5.572363177443201E-005
 -5.581886172156432E-005
 -5.591527150233108E-005
 -5.601278181719843E-005
 -5.611131681608981E-005
 -5.621080396947845E-005
 -5.631117394146840E-005
 -5.641236046501112E-005
 -5.651430021924771E-005
 -5.661693270905929E-005
 -5.672020014686922E-005
 -5.682404733677816E-005
 -5.692842156097761E-005
 -5.703327246858009E-005
 -5.713855196682967E-005
 -5.724421411470820E-005
 -5.735021501898547E-005
 -5.745651273274097E-005
 -5.756306715627755E-005
 -5.766983994054766E-005
 -5.777679439301222E-005
 -5.788389538594403E-005
 -5.799110926721186E-005
 -5.809840377349250E-005
 -5.820574794590416E-005
 -5.831311204808698E-005
 -5.842046748669627E-005
 -5.852778673425792E-005
 -5.863504325443553E-005
 -5.874221142965549E-005
 -5.884926649107407E-005
 -5.895618445085569E-005
 -5.906294203678890E-005
 -5.916951662916812E-005
 -5.927588619993753E-005
 -5.938202925410057E-005
 -5.948792477334651E-005
 -5.959355216185898E-005
 -5.969889119434235E-005
 -5.980392196618431E-005
 -5.990862484574977E-005
 -6.001298042881532E-005
 -6.011696949508024E-005
 -6.022057296674706E-005
 -6.032377186914800E-005
 -6.042654729341705E-005
 -6.052888036112926E-005
 -6.063075219097755E-005
 -6.073214386729022E-005
 -6.083303641065777E-005
 -5.786676697280676E-005
 -5.797661035643122E-005
 -5.808735949391874E-005
 -5.819894205284953E-005
 -5.831128932484018E-005
 -5.842433607614365E-005
 -5.853802040097458E-005
 -5.865228357775295E-005
 -5.876706992830177E-005
 -5.888232667997234E-005
 -5.899800383079640E-005
 -5.911405401768924E-005
 -5.923043238770057E-005
 -5.934709647229044E-005
 -5.946400606476428E-005
 -5.958112310068058E-005
 -5.969841154142268E-005
 -5.981583726076423E-005
 -5.993336793450735E-005
 -6.005097293315259E-005
 -6.016862321757325E-005
 -6.028629123768261E-005
 -6.040395083405322E-005
 -6.052157714247942E-005
 -6.063914650145204E-005
 -6.075663636248409E-005
 -6.087402520331497E-005
 -6.099129244391709E-005
 -6.110841836526286E-005
 -6.122538403088890E-005
 -6.134217121114092E-005
 -6.145876231012604E-005
 -6.157514029531713E-005
 -6.169128862978339E-005
 -6.180719120702172E-005
 -6.192283228834925E-005
 -6.203819644284156E-005
 -6.215326848976198E-005
 -6.226803344349318E-005
 -6.238247646090518E-005
 -6.249658279115729E-005
 -6.261033772790438E-005
 -6.272372656384666E-005
 -6.283673454767689E-005
 -6.294934684328884E-005
 -6.306154849132815E-005
 -6.317332437300967E-005
 -6.328465917605639E-005
 -6.339553736321385E-005
 -6.350594314234472E-005
 -5.989838396070728E-005
 -6.002357539535653E-005
 -6.014933205032597E-005
 -6.027559192863935E-005
 -6.040229676842230E-005
 -6.052939187142250E-005
 -6.065682593531218E-005
 -6.078455089003626E-005
 -6.091252173794706E-005
 -6.104069639795476E-005
 -6.116903555360475E-005
 -6.129750250510586E-005
 -6.142606302530143E-005
 -6.155468521947852E-005
 -6.168333938917536E-005
 -6.181199789972522E-005
 -6.194063505166199E-005
 -6.206922695589412E-005
 -6.219775141254585E-005
 -6.232618779350514E-005
 -6.245451692855136E-005
 -6.258272099506521E-005
 -6.271078341120607E-005
 -6.283868873255526E-005
 -6.296642255213639E-005
 -6.309397140377098E-005
 -6.322132266871396E-005
 -6.334846448550230E-005
 -6.347538566300664E-005
 -6.360207559656946E-005
 -6.372852418724814E-005
 -6.385472176407928E-005
 -6.398065900934820E-005
 -6.410632688675440E-005
 -6.423171657255890E-005
 -6.435681938953260E-005
 -6.448162674378176E-005
 -6.460613006435692E-005
 -6.473032074561441E-005
 -6.485419009234836E-005
 -6.497772926760027E-005
 -6.510092924313506E-005
 -6.522378075264135E-005
 -6.534627424741323E-005
 -6.546839985478729E-005
 -6.559014733903637E-005
 -6.571150606475699E-005
 -6.583246496328287E-005
 -6.595301250019941E-005
 -6.607313664768904E-005
 -6.180992103460787E-005
 -6.195101309290122E-005
 -6.209226076822260E-005
 -6.223361628138611E-005
 -6.237503560996738E-005
 -6.251647829385936E-005
 -6.265790724607859E-005
 -6.279928856878888E-005
 -6.294059137449158E-005
 -6.308178761246556E-005
 -6.322285190019236E-005
 -6.336376135998781E-005
 -6.350449546047291E-005
 -6.364503586308333E-005
 -6.378536627325547E-005
 -6.392547229643697E-005
 -6.406534129868505E-005
 -6.420496227175217E-005
 -6.434432570265367E-005
 -6.448342344745328E-005
 -6.462224860938294E-005
 -6.476079542096002E-005
 -6.489905913015318E-005
 -6.503703589049345E-005
 -6.517472265495881E-005
 -6.531211707361441E-005
 -6.544921739489164E-005
 -6.558602237046506E-005
 -6.572253116359354E-005
 -6.585874326089541E-005
 -6.599465838753716E-005
 -6.613027642564903E-005
 -6.626559733606824E-005
 -6.640062108326338E-005
 -6.653534756339969E-005
 -6.666977653557173E-005
 -6.680390755607240E-005
 -6.693773991574541E-005
 -6.707127258038625E-005
 -6.720450413403751E-005
 -6.733743272538143E-005
 -6.747005601702951E-005
 -6.760237113752815E-005
 -6.773437463678753E-005
 -6.786606244374977E-005
 -6.799742982732946E-005
 -6.812847136037403E-005
 -6.825918088463962E-005
 -6.838955148359918E-005
 -6.851957544911817E-005
 -6.359302313854043E-005
 -6.375031890643092E-005
 -6.390729079290863E-005
 -6.406390965578809E-005
 -6.422015000729632E-005
 -6.437598979704247E-005
 -6.453141020206818E-005
 -6.468639542381898E-005
 -6.484093249197155E-005
 -6.499501107496799E-005
 -6.514862329703766E-005
 -6.530176356172248E-005
 -6.545442838148407E-005
 -6.560661621345039E-005
 -6.575832730092244E-005
 -6.590956352057182E-005
 -6.606032823506210E-005
 -6.621062615095799E-005
 -6.636046318169823E-005
 -6.650984631543174E-005
 -6.665878348761375E-005
 -6.680728345813037E-005
 -6.695535569276939E-005
 -6.710301024901653E-005
 -6.725025766584235E-005
 -6.739710885755297E-005
 -6.754357501146516E-005
 -6.768966748929402E-005
 -6.783539773227157E-005
 -6.798077716977483E-005
 -6.812581713149543E-005
 -6.827052876305471E-005
 -6.841492294495103E-005
 -6.855901021498616E-005
 -6.870280069380588E-005
 -6.884630401391044E-005
 -6.898952925181926E-005
 -6.913248486354359E-005
 -6.927517862309143E-005
 -6.941761756460566E-005
 -6.955980792723148E-005
 -6.970175510336058E-005
 -6.984346359084288E-005
 -6.998493694625790E-005
 -7.012617774419721E-005
 -7.026718753770352E-005
 -7.040796682156674E-005
 -7.054851500484631E-005
 -7.068883036838917E-005
 -7.082891005890797E-005
 -6.523959706912307E-005
 -6.541307140029839E-005
 -6.558567426392286E-005
 -6.575740009922305E-005
 -6.592824672665312E-005
 -6.609821511119145E-005
 -6.626730913513553E-005
 -6.643553538001546E-005
 -6.660290291749371E-005
 -6.676942310878725E-005
 -6.693510941237113E-005
 -6.709997719960315E-005
 -6.726404357788430E-005
 -6.742732722102808E-005
 -6.758984820650023E-005
 -6.775162785912028E-005
 -6.791268860091129E-005
 -6.807305380682839E-005
 -6.823274766591059E-005
 -6.839179504769131E-005
 -6.855022137354897E-005
 -6.870805249265265E-005
 -6.886531456243175E-005
 -6.902203393316601E-005
 -6.917823703668666E-005
 -6.933395027887072E-005
 -6.948919993585720E-005
 -6.964401205391054E-005
 -6.979841235268434E-005
 -6.995242613196145E-005
 -7.010607818171369E-005
 -7.025939269550822E-005
 -7.041239318717741E-005
 -7.056510241064648E-005
 -7.071754228334440E-005
 -7.086973381253019E-005
 -7.102169702517805E-005
 -7.117345090103540E-005
 -7.132501330965981E-005
 -7.147640094940931E-005
 -7.162762929180139E-005
 -7.177871252836203E-005
 -7.192966351867404E-005
 -7.208049374986738E-005
 -7.223121328836073E-005
 -7.238183074383974E-005
 -7.253235323715978E-005
 -7.268278635130732E-005
 -7.283313415086717E-005
 -7.298339908017333E-005
 -6.674183324915819E-005
 -6.693104282300308E-005
 -6.711877087109037E-005
 -6.730504080115661E-005
 -6.748987889536690E-005
 -6.767331406169771E-005
 -6.785537759792410E-005
 -6.803610296759896E-005
 -6.821552558748656E-005
 -6.839368262576228E-005
 -6.857061281035655E-005
 -6.874635624678883E-005
 -6.892095424480862E-005
 -6.909444915329682E-005
 -6.926688420267028E-005
 -6.943830335435977E-005
 -6.960875115657500E-005
 -6.977827260607765E-005
 -6.994691301520688E-005
 -7.011471788387017E-005
 -7.028173277599121E-005
 -7.044800320011345E-005
 -7.061357449370019E-005
 -7.077849171103232E-005
 -7.094279951423593E-005
 -7.110654206747387E-005
 -7.126976293402622E-005
 -7.143250497601538E-005
 -7.159481025711378E-005
 -7.175671994765596E-005
 -7.191827423274704E-005
 -7.207951222265360E-005
 -7.224047186630680E-005
 -7.240118986796606E-005
 -7.256170160562742E-005
 -7.272204105410937E-005
 -7.288224071013222E-005
 -7.304233152142739E-005
 -7.320234281743688E-005
 -7.336230224886540E-005
 -7.352223572339171E-005
 -7.368216735033292E-005
 -7.384211939617328E-005
 -7.400211221542903E-005
 -7.416216423152042E-005
 -7.432229188497112E-005
 -7.448250958847983E-005
 -7.464282975656848E-005
 -7.480326260942749E-005
 -7.496381644540544E-005
 -6.809216670970053E-005
 -6.829615087408257E-005
 -6.849799201581540E-005
 -6.869774812329630E-005
 -6.889547923707800E-005
 -6.909124720584071E-005
 -6.928511545894211E-005
 -6.947714879429244E-005
 -6.966741318047678E-005
 -6.985597557192541E-005
 -7.004290373598194E-005
 -7.022826609067036E-005
 -7.041213155214185E-005
 -7.059456939062155E-005
 -7.077564909392580E-005
 -7.095544023748518E-005
 -7.113401236005916E-005
 -7.131143484421442E-005
 -7.148777680087219E-005
 -7.166310695728615E-005
 -7.183749354771308E-005
 -7.201100420630100E-005
 -7.218370586201944E-005
 -7.235566463469066E-005
 -7.252694573270674E-005
 -7.269761335128617E-005
 -7.286773057177937E-005
 -7.303735926235791E-005
 -7.320655997852043E-005
 -7.337539186580324E-005
 -7.354391256237960E-005
 -7.371217810453908E-005
 -7.388024283245125E-005
 -7.404815929679026E-005
 -7.421597817212760E-005
 -7.438374816626259E-005
 -7.455151593777220E-005
 -7.471932601406096E-005
 -7.488722071856321E-005
 -7.505524008360101E-005
 -7.522342179783640E-005
 -7.539180113473395E-005
 -7.556041086770180E-005
 -7.572928129466018E-005
 -7.589844008588738E-005
 -7.606791229613423E-005
 -7.623772036153658E-005
 -7.640788386114271E-005
 -7.657842010030498E-005
 -7.674934298841300E-005
 -6.928313791295014E-005
 -6.950031594913488E-005
 -6.971465658961557E-005
 -6.992625778049828E-005
 -7.013521828224968E-005
 -7.034163746207875E-005
 -7.054561510699836E-005
 -7.074725125582454E-005
 -7.094664604783178E-005
 -7.114389958623762E-005
 -7.133911181435621E-005
 -7.153238240280599E-005
 -7.172381064563964E-005
 -7.191349536401046E-005
 -7.210153481549908E-005
 -7.228802660783963E-005
 -7.247306761543540E-005
 -7.265675389774458E-005
 -7.283918061806671E-005
 -7.302044196211819E-005
 -7.320063105511825E-005
 -7.337983987776089E-005
 -7.355815917838864E-005
 -7.373567838419998E-005
 -7.391248550737991E-005
 -7.408866704992140E-005
 -7.426430790469501E-005
 -7.443949125151420E-005
 -7.461429845483848E-005
 -7.478880895401298E-005
 -7.496310015660670E-005
 -7.513724732447248E-005
 -7.531132346456690E-005
 -7.548539922193383E-005
 -7.565954275679590E-005
 -7.583381964923269E-005
 -7.600829278310814E-005
 -7.618302224424426E-005
 -7.635806520739020E-005
 -7.653347588959850E-005
 -7.670930539010918E-005
 -7.688560164292470E-005
 -7.706240941858985E-005
 -7.723976996192625E-005
 -7.741772135554156E-005
 -7.759629821873404E-005
 -7.777553154142803E-005
 -7.795544937413675E-005
 -7.813607464599898E-005
 -7.831742926165322E-005
 -7.030710056506171E-005
 -7.053517757395419E-005
 -7.075971856511761E-005
 -7.098086571922618E-005
 -7.119876027311888E-005
 -7.141354240358951E-005
 -7.162535113592603E-005
 -7.183432427328252E-005
 -7.204059834378125E-005
 -7.224430856212325E-005
 -7.244558880271104E-005
 -7.264457158141630E-005
 -7.284138804315207E-005
 -7.303616795303155E-005
 -7.322903968850030E-005
 -7.342013023024010E-005
 -7.360956515044148E-005
 -7.379746859565085E-005
 -7.398396326384069E-005
 -7.416917037354496E-005
 -7.435320962469984E-005
 -7.453619914755522E-005
 -7.471825544617971E-005
 -7.489949332420096E-005
 -7.508002580747277E-005
 -7.525996404828468E-005
 -7.543941722195065E-005
 -7.561849242003673E-005
 -7.579729451685088E-005
 -7.597592604795183E-005
 -7.615448706088913E-005
 -7.633307498156848E-005
 -7.651178445345391E-005
 -7.669070717025592E-005
 -7.686993176496244E-005
 -7.704954359444853E-005
 -7.722962462290361E-005
 -7.741025326025289E-005
 -7.759150424173994E-005
 -7.777344831271371E-005
 -7.795615238334638E-005
 -7.813967922213166E-005
 -7.832408709434314E-005
 -7.850943072608864E-005
 -7.869575948902602E-005
 -7.888311843422138E-005
 -7.907154867402547E-005
 -7.926108474778782E-005
 -7.945176219132811E-005
 -7.964360234605614E-005
 -7.115571346199573E-005
 -7.139161783635144E-005
 -7.162332451952680E-005
 -7.185102162947962E-005
 -7.207489398879566E-005
 -7.229512318937138E-005
 -7.251188767994559E-005
 -7.272536287365167E-005
 -7.293572126981065E-005
 -7.314313258610244E-005
 -7.334776389638620E-005
 -7.354977977086997E-005
 -7.374934241489116E-005
 -7.394661180267035E-005
 -7.414174580312086E-005
 -7.433490029571128E-005
 -7.452622927124202E-005
 -7.471588491923853E-005
 -7.490401769520149E-005
 -7.509077636875273E-005
 -7.527630804903061E-005
 -7.546075819495857E-005
 -7.564427058277603E-005
 -7.582698727672812E-005
 -7.600904854353894E-005
 -7.619059277175880E-005
 -7.637175635251506E-005
 -7.655267351366247E-005
 -7.673347619722683E-005
 -7.691429383247849E-005
 -7.709525316977172E-005
 -7.727647801638598E-005
 -7.745808904243584E-005
 -7.764020356655337E-005
 -7.782293513269363E-005
 -7.800639349295325E-005
 -7.819068417441304E-005
 -7.837590825254324E-005
 -7.856216205511145E-005
 -7.874953749591277E-005
 -7.893812064748557E-005
 -7.912799237190242E-005
 -7.931922887832496E-005
 -7.951189767359365E-005
 -7.970606426148647E-005
 -7.990178705992054E-005
 -8.009911569430747E-005
 -8.029810041666002E-005
 -8.049876537519066E-005
 -8.070116399288915E-005
 -7.181915844261496E-005
 -7.205904951715429E-005
 -7.229417320758869E-005
 -7.252476044289832E-005
 -7.275103596109318E-005
 -7.297321867155881E-005
 -7.319152203777172E-005
 -7.340615446693703E-005
 -7.361731970382619E-005
 -7.382521722256580E-005
 -7.403004261337111E-005
 -7.423198795850816E-005
 -7.443124219431773E-005
 -7.462799145644983E-005
 -7.482241940414745E-005
 -7.501470751795656E-005
 -7.520503537595912E-005
 -7.539358089017067E-005
 -7.558052051863192E-005
 -7.576602943755380E-005
 -7.595028167616875E-005
 -7.613345018462814E-005
 -7.631570692684497E-005
 -7.649722281808550E-005
 -7.667816773874589E-005
 -7.685871038238859E-005
 -7.703901811731932E-005
 -7.721925687478420E-005
 -7.739959074263616E-005
 -7.758018185248665E-005
 -7.776118990740130E-005
 -7.794277197214992E-005
 -7.812508191806307E-005
 -7.830826994330696E-005
 -7.849248273414421E-005
 -7.867786200010901E-005
 -7.886454475416822E-005
 -7.905266271975067E-005
 -7.924234181897467E-005
 -7.943369985884694E-005
 -7.962685090826160E-005
 -7.982190093903431E-005
 -8.001894508709377E-005
 -8.021808127093444E-005
 -8.041938313015883E-005
 -8.062292148413576E-005
 -8.082876950099913E-005
 -8.103696656292181E-005
 -8.124761183774955E-005
 -8.146066456848332E-005
 -7.228506904513467E-005
 -7.252447200590757E-005
 -7.275869631403421E-005
 -7.298800482391190E-005
 -7.321265104832277E-005
 -7.343287997402134E-005
 -7.364892884776888E-005
 -7.386102795450846E-005
 -7.406940137404270E-005
 -7.427426771784069E-005
 -7.447584083680863E-005
 -7.467433050519477E-005
 -7.486994307407370E-005
 -7.506288209102987E-005
 -7.525334888656494E-005
 -7.544154313296463E-005
 -7.562766334036816E-005
 -7.581190734826272E-005
 -7.599447273162125E-005
 -7.617555716935080E-005
 -7.635535875760575E-005
 -7.653407633760759E-005
 -7.671190950020622E-005
 -7.688905894076583E-005
 -7.706572623952581E-005
 -7.724211401021077E-005
 -7.741842569363136E-005
 -7.759486502317920E-005
 -7.777163631766936E-005
 -7.794894331879449E-005
 -7.812698922487293E-005
 -7.830597554186057E-005
 -7.848610199507250E-005
 -7.866756575741059E-005
 -7.885055853455706E-005
 -7.903526983771035E-005
 -7.922188281126886E-005
 -7.941057372476144E-005
 -7.960151186301906E-005
 -7.979486435543306E-005
 -7.999077640098037E-005
 -8.018938849569749E-005
 -8.039084285882368E-005
 -8.059523191886916E-005
 -8.080269999971216E-005
 -8.101334939815635E-005
 -8.122722440872344E-005
 -8.144445099091077E-005
 -8.166490545154247E-005
 -8.188892348656943E-005
 -7.253726722205773E-005
 -7.277140540982948E-005
 -7.300018010070263E-005
 -7.322386450085960E-005
 -7.344271987552347E-005
 -7.365699682049698E-005
 -7.386693654214994E-005
 -7.407277205646317E-005
 -7.427472934011341E-005
 -7.447302841864179E-005
 -7.466788442117916E-005
 -7.485950857652658E-005
 -7.504810917152371E-005
 -7.523389247982910E-005
 -7.541706364685848E-005
 -7.559782751119602E-005
 -7.577638948063240E-005
 -7.595295621961459E-005
 -7.612773645546211E-005
 -7.630094168613807E-005
 -7.647278680340770E-005
 -7.664349043149410E-005
 -7.681327612098156E-005
 -7.698237179695270E-005
 -7.715101106476355E-005
 -7.731943261993273E-005
 -7.748788057034101E-005
 -7.765660526039809E-005
 -7.782586049726926E-005
 -7.799590600906251E-005
 -7.816700442036041E-005
 -7.833942201075907E-005
 -7.851342523155247E-005
 -7.868928012597239E-005
 -7.886725779373364E-005
 -7.904761598665854E-005
 -7.923061181004819E-005
 -7.941649875232830E-005
 -7.960551959389588E-005
 -7.979788720212578E-005
 -7.999385472842674E-005
 -8.019363301895228E-005
 -8.039736879519852E-005
 -8.060533123942564E-005
 -8.081752606113718E-005
 -8.103408480879726E-005
 -8.125529254374427E-005
 -8.148103260661270E-005
 -8.171197417497570E-005
 -8.194709471402684E-005
 -7.255461790290023E-005
 -7.277900194855167E-005
 -7.299811213249351E-005
 -7.321219897316096E-005
 -7.342150004641327E-005
 -7.362624189579346E-005
 -7.382664157855650E-005
 -7.402290817055634E-005
 -7.421524414932446E-005
 -7.440384674191383E-005
 -7.458890914535700E-005
 -7.477062174656538E-005
 -7.494917328192176E-005
 -7.512475193045427E-005
 -7.529754643346893E-005
 -7.546774729253584E-005
 -7.563554762283256E-005
 -7.580114462576411E-005
 -7.596474043491623E-005
 -7.612654319708029E-005
 -7.628676838434407E-005
 -7.644564072299838E-005
 -7.660339278944885E-005
 -7.676027004934640E-005
 -7.691652804209636E-005
 -7.707243637526410E-005
 -7.722827845503216E-005
 -7.738434927361477E-005
 -7.754096526072470E-005
 -7.769845205462484E-005
 -7.785715336646032E-005
 -7.801742455921918E-005
 -7.817963934439475E-005
 -7.834418151042927E-005
 -7.851141904964844E-005
 -7.868176693003608E-005
 -7.885561952628454E-005
 -7.903334978185906E-005
 -7.921533401058344E-005
 -7.940200108813030E-005
 -7.959356047361290E-005
 -7.979034756721281E-005
 -7.999285992030313E-005
 -8.020104067659443E-005
 -8.041570438999218E-005
 -8.063695510406127E-005
 -8.086423697963886E-005
 -8.109853207925211E-005
 -8.133798511960614E-005
 -8.158639622176712E-005
 -7.231061087413021E-005
 -7.252188155924827E-005
 -7.272823735966263E-005
 -7.292986492534164E-005
 -7.312694107596739E-005
 -7.331963389388605E-005
 -7.350810444771593E-005
 -7.369250816189154E-005
 -7.387299615231698E-005
 -7.404971627169243E-005
 -7.422281432017537E-005
 -7.439243500391191E-005
 -7.455872296391696E-005
 -7.472182395221016E-005
 -7.488188580665398E-005
 -7.503905923042782E-005
 -7.519349996469635E-005
 -7.534536859304245E-005
 -7.549483300993076E-005
 -7.564207015582480E-005
 -7.578726682091641E-005
 -7.593061917722733E-005
 -7.607234430972694E-005
 -7.621266689063463E-005
 -7.635183723833831E-005
 -7.649012289050396E-005
 -7.662781626449505E-005
 -7.676524642879270E-005
 -7.690274739679708E-005
 -7.704071283219602E-005
 -7.717956211568812E-005
 -7.731976031986024E-005
 -7.746179182383433E-005
 -7.760619441300202E-005
 -7.775363003584171E-005
 -7.790462084925042E-005
 -7.805981554624968E-005
 -7.821996325225823E-005
 -7.838574945285610E-005
 -7.855761272633914E-005
 -7.873671951763014E-005
 -7.892350872735378E-005
 -7.911771593388769E-005
 -7.932110933886851E-005
 -7.953216606636132E-005
 -7.975219714218801E-005
 -7.998437406645957E-005
 -8.022512776482721E-005
 -8.048079373277237E-005
 -8.073904339571989E-005
 -7.177454902759515E-005
 -7.197143629894269E-005
 -7.216393921426122E-005
 -7.235214584222755E-005
 -7.253613939596192E-005
 -7.271600139752303E-005
 -7.289181191468754E-005
 -7.306365017827450E-005
 -7.323159475031323E-005
 -7.339572442531189E-005
 -7.355611816987780E-005
 -7.371285585992471E-005
 -7.386601863330711E-005
 -7.401568875556609E-005
 -7.416195061811433E-005
 -7.430489241907687E-005
 -7.444460289903821E-005
 -7.458117812984013E-005
 -7.471471838934668E-005
 -7.484532855315313E-005
 -7.497312356127375E-005
 -7.509823678845217E-005
 -7.522078759463774E-005
 -7.534094608705701E-005
 -7.545887395728643E-005
 -7.557476941130480E-005
 -7.568885320676441E-005
 -7.580135034484245E-005
 -7.591262417669571E-005
 -7.602297139525510E-005
 -7.613278326732128E-005
 -7.624250788771305E-005
 -7.635275959611701E-005
 -7.646417244356018E-005
 -7.657720145508887E-005
 -7.669314620585617E-005
 -7.681300994281338E-005
 -7.693759452510662E-005
 -7.706822064718036E-005
 -7.720722966156885E-005
 -7.735425165736249E-005
 -7.751184748543737E-005
 -7.768449882714179E-005
 -7.786804796078501E-005
 -7.806975539101328E-005
 -7.828547968946691E-005
 -7.850641608243594E-005
 -7.875147384302926E-005
 -7.900151292762504E-005
 -7.929369030319446E-005
 -7.091520620085722E-005
 -7.109927185433978E-005
 -7.127945206856850E-005
 -7.145571682529914E-005
 -7.162805022742263E-005
 -7.179644190969780E-005
 -7.196088735837423E-005
 -7.212138701434838E-005
 -7.227794675218223E-005
 -7.243057509120016E-005
 -7.257928403209012E-005
 -7.272408677164897E-005
 -7.286499712063558E-005
 -7.300203083773115E-005
 -7.313520233091210E-005
 -7.326452056780199E-005
 -7.339000452172920E-005
 -7.351165894661432E-005
 -7.362949003355569E-005
 -7.374350938828032E-005
 -7.385371846593249E-005
 -7.396009275666899E-005
 -7.406270773811860E-005
 -7.416149398758703E-005
 -7.425648994682663E-005
 -7.434769479938596E-005
 -7.443514207632439E-005
 -7.451896035212505E-005
 -7.459891928198472E-005
 -7.467530549581689E-005
 -7.474829898386979E-005
 -7.481810149208772E-005
 -7.488463248987274E-005
 -7.494828371636225E-005
 -7.501056310432366E-005
 -7.507028958659175E-005
 -7.512843904070284E-005
 -7.518772379026089E-005
 -7.524941318034609E-005
 -7.531188524056133E-005
 -7.538467330666991E-005
 -7.546668566836985E-005
 -7.555255867620465E-005
 -7.567151583724518E-005
 -7.580927361992821E-005
 -7.598935544265005E-005
 -7.623755553124383E-005
 -7.646701254085160E-005
 -7.674590910548143E-005
 -7.698902303661240E-005
 -6.970720063481668E-005
 -6.988290033017636E-005
 -7.005487017120661E-005
 -7.022301925806934E-005
 -7.038725424007550E-005
 -7.054750270599174E-005
 -7.070370832535503E-005
 -7.085582800454050E-005
 -7.100382335778582E-005
 -7.114766539377254E-005
 -7.128732517786150E-005
 -7.142277695071138E-005
 -7.155399482707299E-005
 -7.168094332368549E-005
 -7.180358783347453E-005
 -7.192190320083905E-005
 -7.203580787819373E-005
 -7.214525818591821E-005
 -7.225018791897705E-005
 -7.235048867955130E-005
 -7.244606820699142E-005
 -7.253688375077854E-005
 -7.262249851622263E-005
 -7.270305294617213E-005
 -7.277825268388215E-005
 -7.284790714683100E-005
 -7.291167128672700E-005
 -7.296895824280398E-005
 -7.302058080240292E-005
 -7.306525431952909E-005
 -7.310223944489600E-005
 -7.313113427319087E-005
 -7.315286109576868E-005
 -7.316642480866640E-005
 -7.316721854020399E-005
 -7.316158118464793E-005
 -7.314745279967262E-005
 -7.311724519578970E-005
 -7.307211736816459E-005
 -7.302651577316742E-005
 -7.295518631802368E-005
 -7.287545787358236E-005
 -7.281569455784632E-005
 -7.267629191581106E-005
 -7.253595023567303E-005
 -7.236487948100078E-005
 -7.217597913933694E-005
 -7.239627954570504E-005
 -7.275999987710246E-005
 -7.332396352585482E-005
 -6.813908233700464E-005
 -6.831262750881410E-005
 -6.848204463656788E-005
 -6.864716847138067E-005
 -6.880793992024905E-005
 -6.896431429770128E-005
 -6.911625579451173E-005
 -6.926373259751606E-005
 -6.940673654110712E-005
 -6.954525130490130E-005
 -6.967927654258945E-005
 -6.980880396231928E-005
 -6.993381840011440E-005
 -7.005431973634592E-005
 -7.017026440158007E-005
 -7.028153479643512E-005
 -7.038819423975460E-005
 -7.049009811230754E-005
 -7.058710035269338E-005
 -7.067912936985793E-005
 -7.076596687731102E-005
 -7.084719310371357E-005
 -7.092371495462236E-005
 -7.099394190312138E-005
 -7.105785010300532E-005
 -7.111503932638662E-005
 -7.116563070212928E-005
 -7.121009941581655E-005
 -7.124339919048535E-005
 -7.126882588753311E-005
 -7.128705466489281E-005
 -7.129625471182194E-005
 -7.128933600342280E-005
 -7.126781537618425E-005
 -7.124609870298351E-005
 -7.119628076970847E-005
 -7.112384041060347E-005
 -7.105209610094492E-005
 -7.096349637163209E-005
 -7.078919087987937E-005
 -7.061531380417335E-005
 -7.038254546743837E-005
 -7.002585085106249E-005
 -6.995699134544209E-005
 -6.986288937934848E-005
 -6.971432976129376E-005
 -6.921021117566738E-005
 -6.670100016443164E-005
 -5.970126418703597E-005
 -4.956733385724817E-005
 -6.622054399980028E-005
 -6.639769216628655E-005
 -6.656929545924976E-005
 -6.673561857339900E-005
 -6.689668086078932E-005
 -6.705251992669646E-005
 -6.720321258316301E-005
 -6.734887822160418E-005
 -6.748958481885966E-005
 -6.762545741852778E-005
 -6.775656496648357E-005
 -6.788299339862474E-005
 -6.800482529273103E-005
 -6.812205107955936E-005
 -6.823479708844430E-005
 -6.834337536581886E-005
 -6.844724093193165E-005
 -6.854653845583480E-005
 -6.864138682095529E-005
 -6.873153603363046E-005
 -6.881710828401389E-005
 -6.889853106653561E-005
 -6.897127339704951E-005
 -6.904068878723615E-005
 -6.910565479707515E-005
 -6.916550048159559E-005
 -6.921690586179101E-005
 -6.925629056912742E-005
 -6.930081449307710E-005
 -6.933388466888528E-005
 -6.934955650729759E-005
 -6.935310931777445E-005
 -6.936741432898719E-005
 -6.937557529234099E-005
 -6.931187797556135E-005
 -6.927204471225595E-005
 -6.922541820861887E-005
 -6.909034076837904E-005
 -6.895791946374171E-005
 -6.909844810107210E-005
 -6.914741707035900E-005
 -6.918636390032131E-005
 -6.920464051571226E-005
 -6.751293442829466E-005
 -6.349651137280339E-005
 -5.555058773098651E-005
 -4.845642389961998E-005
 -4.082436221062158E-005
 -3.802484336633796E-005
 -3.507765234068496E-005
 -6.398587777390749E-005
 -6.416783363440774E-005
 -6.434316281328886E-005
 -6.451132039847959E-005
 -6.467265243961334E-005
 -6.482761252003772E-005
 -6.497660544185679E-005
 -6.511991958410529E-005
 -6.525803610700332E-005
 -6.539115606118327E-005
 -6.551962609570956E-005
 -6.564366231868615E-005
 -6.576342628067767E-005
 -6.587932614741791E-005
 -6.599108766827615E-005
 -6.609773357292264E-005
 -6.620174330984732E-005
 -6.630282353071982E-005
 -6.640016125940795E-005
 -6.649386747155039E-005
 -6.658267919829307E-005
 -6.666509222627597E-005
 -6.675741648714727E-005
 -6.683657082965115E-005
 -6.690519079201759E-005
 -6.696641520956276E-005
 -6.703415737329657E-005
 -6.711764742632055E-005
 -6.714566639282893E-005
 -6.717884121793969E-005
 -6.723464455466187E-005
 -6.728693995729048E-005
 -6.725353000092512E-005
 -6.722103369055993E-005
 -6.745227583664314E-005
 -6.757852377034010E-005
 -6.766304172317565E-005
 -6.787271984824213E-005
 -6.770374766919432E-005
 -6.610252422781107E-005
 -6.218268127788104E-005
 -5.566213174799280E-005
 -5.001032295046244E-005
 -4.353079235034600E-005
 -4.127987208203328E-005
 -3.871240438926615E-005
 -3.773782389142264E-005
 -3.836859018947831E-005
 -4.036119689130437E-005
 -4.233968781940640E-005
 -6.149181098633996E-005
 -6.167476806709225E-005
 -6.184548930868385E-005
 -6.200760286984734E-005
 -6.216213884956602E-005
 -6.230955670631965E-005
 -6.245035059536323E-005
 -6.258535401594165E-005
 -6.271464607396685E-005
 -6.283945532023324E-005
 -6.296038942139209E-005
 -6.307828669153573E-005
 -6.319380234673022E-005
 -6.330633598078576E-005
 -6.341777874185830E-005
 -6.353216583116954E-005
 -6.363921075400186E-005
 -6.373923035587453E-005
 -6.383667937502464E-005
 -6.393397861535023E-005
 -6.403729412366872E-005
 -6.414890468121512E-005
 -6.420481067343162E-005
 -6.429429335832563E-005
 -6.440568347223681E-005
 -6.452115357576097E-005
 -6.458179020443701E-005
 -6.456533567909486E-005
 -6.476062281391787E-005
 -6.494400884075143E-005
 -6.504525600421556E-005
 -6.512302500099253E-005
 -6.540096584438859E-005
 -6.544526365263141E-005
 -6.423306835270286E-005
 -6.234046808478163E-005
 -5.714545204053722E-005
 -5.192670083460799E-005
 -4.793352706978142E-005
 -4.300611625334846E-005
 -4.164481683124672E-005
 -3.956502105263627E-005
 -3.854562942268164E-005
 -3.890575728395726E-005
 -4.031181875631484E-005
 -4.184528020207902E-005
 -4.341037026204632E-005
 -4.510515194301988E-005
 -4.658683473677260E-005
 -4.810860547237699E-005
 -5.881740288427090E-005
 -5.896706792654594E-005
 -5.911454470974095E-005
 -5.925302153367471E-005
 -5.938232667736187E-005
 -5.950429737292390E-005
 -5.962082010437321E-005
 -5.973265517219579E-005
 -5.984323416111333E-005
 -5.995095053474684E-005
 -6.005639458303740E-005
 -6.015971839024850E-005
 -6.026222156045035E-005
 -6.036951677573815E-005
 -6.047584806235203E-005
 -6.056599786576111E-005
 -6.068098555012138E-005
 -6.082087502522790E-005
 -6.096149742545062E-005
 -6.108104923096411E-005
 -6.115206548222954E-005
 -6.118219748021623E-005
 -6.143148273400713E-005
 -6.156756587341483E-005
 -6.163170957678332E-005
 -6.167129594303211E-005
 -6.188216821899143E-005
 -6.228221299687029E-005
 -6.171627920751627E-005
 -6.103519355912420E-005
 -5.820614233465442E-005
 -5.428887304638096E-005
 -5.029184624412936E-005
 -4.746136201897485E-005
 -4.305058557999045E-005
 -4.223696845612644E-005
 -4.066867099813792E-005
 -3.884319716938080E-005
 -3.874557746833084E-005
 -3.897771229305572E-005
 -4.003642469941734E-005
 -4.112253827912745E-005
 -4.228574136243828E-005
 -4.367546898177750E-005
 -4.496022463246147E-005
 -4.632245817907689E-005
 -4.764946552921621E-005
 -4.885993423196967E-005
 -5.003940847434514E-005
 -5.115525050763461E-005
 -5.601555972885090E-005
 -5.612271113839757E-005
 -5.618416934031452E-005
 -5.622753753012077E-005
 -5.626718000287366E-005
 -5.631165517862638E-005
 -5.636731270336157E-005
 -5.644048341629151E-005
 -5.652310500328707E-005
 -5.662347823301889E-005
 -5.673768362691521E-005
 -5.685919471981049E-005
 -5.697570763174061E-005
 -5.706307339490594E-005
 -5.715137427611518E-005
 -5.731614830856838E-005
 -5.740817028066572E-005
 -5.741728610523291E-005
 -5.744046452255243E-005
 -5.758019166832241E-005
 -5.792937201360524E-005
 -5.838506419759131E-005
 -5.788242372156823E-005
 -5.752775636349096E-005
 -5.472706960566799E-005
 -5.203832119654855E-005
 -4.928773745050309E-005
 -4.687066368147430E-005
 -4.413964867135060E-005
 -4.209011229378867E-005
 -4.146084535312989E-005
 -4.018569370489268E-005
 -3.852703284959378E-005
 -3.825277419684326E-005
 -3.807116057666505E-005
 -3.857494225018059E-005
 -3.920084255632164E-005
 -3.981591493864333E-005
 -4.067182855345300E-005
 -4.172884850916989E-005
 -4.274568026484033E-005
 -4.388048033205071E-005
 -4.500813165749656E-005
 -4.604305711590714E-005
 -4.706123064719183E-005
 -4.802630087449280E-005
 -4.898835125874855E-005
 -4.996450870419710E-005
 -5.092425345246498E-005
 -5.186527186569890E-005
 -5.319444061123035E-005
 -5.289646385642461E-005
 -5.269358100596780E-005
 -5.255770522752805E-005
 -5.247130570603006E-005
 -5.241954824224608E-005
 -5.238810893337928E-005
 -5.236377810032647E-005
 -5.238952443286101E-005
 -5.244227870200779E-005
 -5.254378834505472E-005
 -5.272319492691883E-005
 -5.301701815028073E-005
 -5.347463364522715E-005
 -5.389420888537537E-005
 -5.387214128851796E-005
 -5.246020223937192E-005
 -5.084976581576599E-005
 -4.932069528742331E-005
 -4.773625652459790E-005
 -4.599157779972687E-005
 -4.430405476588979E-005
 -4.209441856219801E-005
 -4.110203716403457E-005
 -4.066263213834999E-005
 -3.978460422979658E-005
 -3.850120453282963E-005
 -3.737329286975783E-005
 -3.711310446008926E-005
 -3.688250530430932E-005
 -3.704524930568198E-005
 -3.718914221852900E-005
 -3.735954793556229E-005
 -3.777141262816031E-005
 -3.844053659969556E-005
 -3.911589270873427E-005
 -3.993604547600173E-005
 -4.085222889281319E-005
 -4.173353164030997E-005
 -4.257554740632992E-005
 -4.343043610309029E-005
 -4.425692301023926E-005
 -4.509411734395580E-005
 -4.595371782836282E-005
 -4.680742951085071E-005
 -4.765928955385832E-005
 -4.849432136134201E-005
 -4.931209143663067E-005
 -5.011998624976094E-005
 -5.091726084037022E-005
 -4.498507103802587E-005
 -4.567064107291598E-005
 -4.613596594146591E-005
 -4.640814570726791E-005
 -4.651088990913507E-005
 -4.648133345689192E-005
 -4.636904272470864E-005
 -4.622298027335351E-005
 -4.589172378981533E-005
 -4.550808309773567E-005
 -4.505508842958498E-005
 -4.449733482406384E-005
 -4.379892900920881E-005
 -4.292175644152126E-005
 -4.153895739243534E-005
 -3.992046852665229E-005
 -3.920223384297040E-005
 -3.918336831303132E-005
 -3.880068099344659E-005
 -3.807205417948131E-005
 -3.698990555700430E-005
 -3.592127665487211E-005
 -3.553862608178912E-005
 -3.521716820014749E-005
 -3.511230974058360E-005
 -3.490431696660994E-005
 -3.468422561884248E-005
 -3.458136535995262E-005
 -3.473498135155590E-005
 -3.503483448948208E-005
 -3.540639326473647E-005
 -3.594416194197722E-005
 -3.658268824433718E-005
 -3.722654759510588E-005
 -3.786284879023450E-005
 -3.854524044440763E-005
 -3.922812238566310E-005
 -3.992397626296315E-005
 -4.065436737604649E-005
 -4.140429301526380E-005
 -4.215374342034470E-005
 -4.290982018283306E-005
 -4.366117843065996E-005
 -4.440772232946787E-005
 -4.515492120345308E-005
 -4.589845194052892E-005
 -4.663957399193794E-005
 -4.737525683606208E-005
 -4.810243184423875E-005
 -4.882273992760217E-005
 -2.978391479479557E-005
 -3.154513018848769E-005
 -3.314767679998270E-005
 -3.423993001296271E-005
 -3.480934396723958E-005
 -3.489777042116362E-005
 -3.465914914367511E-005
 -3.439962743980722E-005
 -3.493168935391723E-005
 -3.535646620126512E-005
 -3.555424252284682E-005
 -3.551089453822897E-005
 -3.520750380015651E-005
 -3.461741142646035E-005
 -3.369376609726724E-005
 -3.316487432103194E-005
 -3.301128326065954E-005
 -3.286904972568921E-005
 -3.258093355728346E-005
 -3.220394884765385E-005
 -3.180802447027481E-005
 -3.149534477001288E-005
 -3.138312803870845E-005
 -3.135951912947604E-005
 -3.140570725599188E-005
 -3.160430084692448E-005
 -3.191174247625907E-005
 -3.227533399294271E-005
 -3.265239179819587E-005
 -3.307315769479242E-005
 -3.355061452430323E-005
 -3.405488132424713E-005
 -3.459596375219613E-005
 -3.518183877121802E-005
 -3.579891798212940E-005
 -3.642550700994172E-005
 -3.706842178269994E-005
 -3.772075893876007E-005
 -3.837829061838548E-005
 -3.904469068816361E-005
 -3.972073700962662E-005
 -4.040056150799795E-005
 -4.108390033934888E-005
 -4.176693976310068E-005
 -4.244766090119519E-005
 -4.312694791575065E-005
 -4.380426904665398E-005
 -4.448077355266884E-005
 -4.515533192573498E-005
 -4.582574892995619E-005
 -2.004641913406240E-005
 -2.192329199095462E-005
 -2.356878678558115E-005
 -2.492024787865480E-005
 -2.595149685786509E-005
 -2.665548241074836E-005
 -2.704181588341404E-005
 -2.714269772418550E-005
 -2.771341194310455E-005
 -2.813844429461332E-005
 -2.835988989085666E-005
 -2.840574451150204E-005
 -2.831239060168576E-005
 -2.812859191674571E-005
 -2.791935658342078E-005
 -2.778262353174197E-005
 -2.766007623474212E-005
 -2.756263284703979E-005
 -2.753738189463649E-005
 -2.757683128038453E-005
 -2.767154288149106E-005
 -2.779770726551471E-005
 -2.793103974923187E-005
 -2.811067653528503E-005
 -2.834734883046920E-005
 -2.862422559880533E-005
 -2.894973209416416E-005
 -2.932559624475047E-005
 -2.974881161390509E-005
 -3.020169099977676E-005
 -3.067592342522458E-005
 -3.117452901056490E-005
 -3.169230323108303E-005
 -3.222740364858155E-005
 -3.278164536332517E-005
 -3.335581912866352E-005
 -3.394357919205383E-005
 -3.454302798562552E-005
 -3.515152481224752E-005
 -3.576550999590061E-005
 -3.638374932623875E-005
 -3.700647669288473E-005
 -3.763260503368507E-005
 -3.826232275302160E-005
 -3.889429920244943E-005
 -3.952738612247223E-005
 -4.016122930108936E-005
 -4.079470930645998E-005
 -4.142930065356839E-005
 -4.206646279125121E-005
 -1.889745041213463E-005
 -1.956205051603358E-005
 -2.019278349842069E-005
 -2.077562782764221E-005
 -2.129020176857382E-005
 -2.172456836013874E-005
 -2.207373825476011E-005
 -2.233732884138113E-005
 -2.256358526033775E-005
 -2.276191544679100E-005
 -2.292776175671359E-005
 -2.306518490518683E-005
 -2.318357478532290E-005
 -2.329022128217142E-005
 -2.338220226266933E-005
 -2.344384780882891E-005
 -2.350343543920653E-005
 -2.357736054085356E-005
 -2.367050726339893E-005
 -2.379301305355316E-005
 -2.394727669352891E-005
 -2.413604024547960E-005
 -2.436207812023817E-005
 -2.461411755339514E-005
 -2.488953422236107E-005
 -2.519161209390033E-005
 -2.551799446259485E-005
 -2.586948345365155E-005
 -2.624661892467113E-005
 -2.665103679369543E-005
 -2.708061731432506E-005
 -2.753145605827315E-005
 -2.800191155067120E-005
 -2.848961128234838E-005
 -2.899231617660951E-005
 -2.950859975592659E-005
 -3.003833514706426E-005
 -3.058007623448287E-005
 -3.113268469654313E-005
 -3.169526096057796E-005
 -3.226636554190785E-005
 -3.284453748581383E-005
 -3.342880522602948E-005
 -3.401775915991289E-005
 -3.461144013109811E-005
 -3.520925164585209E-005
 -3.581011023267854E-005
 -3.641456352649278E-005
 -3.702279415366022E-005
 -3.763530092432078E-005
 -2.051915230523510E-005
 -2.044923085147064E-005
 -2.036523832354061E-005
 -2.028811716252299E-005
 -2.022564561432520E-005
 -2.017886816232462E-005
 -2.014342067336174E-005
 -2.011336605778563E-005
 -2.007338564618045E-005
 -2.002938192202694E-005
 -1.999239485039172E-005
 -1.996768507575729E-005
 -1.995595445391764E-005
 -1.995556823486832E-005
 -1.996762988695392E-005
 -1.999894290024986E-005
 -2.004564192377103E-005
 -2.010625132028976E-005
 -2.018284208683030E-005
 -2.027664274953566E-005
 -2.039165798769503E-005
 -2.053017890827918E-005
 -2.069261051805571E-005
 -2.088144099355513E-005
 -2.109624343170393E-005
 -2.133537439027128E-005
 -2.159828533542846E-005
 -2.188414170281572E-005
 -2.219251825908914E-005
 -2.252306866878558E-005
 -2.287601236402577E-005
 -2.325126083290136E-005
 -2.364764893838341E-005
 -2.406420850916274E-005
 -2.449971532238375E-005
 -2.495281204829731E-005
 -2.542238714555052E-005
 -2.590765350169305E-005
 -2.640777473819954E-005
 -2.692156763317646E-005
 -2.744812364507034E-005
 -2.798656324414134E-005
 -2.853557015861631E-005
 -2.909434649255093E-005
 -2.966209685387739E-005
 -3.023796676880259E-005
 -3.082172558041203E-005
 -3.141296591208469E-005
 -3.201113923336304E-005
 -3.261509807645787E-005
 -2.227934562108748E-005
 -2.183225714637048E-005
 -2.140092035125074E-005
 -2.097198916701084E-005
 -2.054847691952499E-005
 -2.013014855951410E-005
 -1.972816148858266E-005
 -1.934853150968251E-005
 -1.899726396315087E-005
 -1.867426849416174E-005
 -1.837724544758926E-005
 -1.810416138820809E-005
 -1.785708572828111E-005
 -1.763721789512684E-005
 -1.744572403805162E-005
 -1.728165519950097E-005
 -1.714477304775935E-005
 -1.703527089615343E-005
 -1.695352672644580E-005
 -1.689946744009323E-005
 -1.687236438963719E-005
 -1.687109897956008E-005
 -1.689694324168143E-005
 -1.695036315248683E-005
 -1.703195954412601E-005
 -1.714203408709513E-005
 -1.728040378216431E-005
 -1.744709462641129E-005
 -1.764167133324548E-005
 -1.786375896664342E-005
 -1.811274984534913E-005
 -1.838829335477305E-005
 -1.869016604654970E-005
 -1.901810609952137E-005
 -1.937170657123741E-005
 -1.975033557850673E-005
 -2.015306103203166E-005
 -2.057859834910380E-005
 -2.102562486806777E-005
 -2.149284269397933E-005
 -2.197907377625895E-005
 -2.248318278258973E-005
 -2.300427038240453E-005
 -2.354159525935147E-005
 -2.409471651425893E-005
 -2.466361181306070E-005
 -2.524600086198147E-005
 -2.583974727397958E-005
 -2.644394179480302E-005
 -2.705713973187365E-005
 -2.394840234398522E-005
 -2.324736040419850E-005
 -2.251217014548775E-005
 -2.177269344712562E-005
 -2.103281547722215E-005
 -2.033151493720050E-005
 -1.966222109300249E-005
 -1.902194260244803E-005
 -1.840760645745865E-005
 -1.781841916293676E-005
 -1.725362143375402E-005
 -1.671405987531769E-005
 -1.620204219527834E-005
 -1.571936007840260E-005
 -1.526683142604355E-005
 -1.484626176090494E-005
 -1.445994369411606E-005
 -1.410968369034827E-005
 -1.379609193201652E-005
 -1.351963435354141E-005
 -1.328036610016401E-005
 -1.307788165105336E-005
 -1.291183143128096E-005
 -1.278204550542594E-005
 -1.268796750240175E-005
 -1.262930706391782E-005
 -1.260592089757839E-005
 -1.261740104131190E-005
 -1.266379895949497E-005
 -1.274462629513741E-005
 -1.285986687316629E-005
 -1.300988096279397E-005
 -1.319459483676819E-005
 -1.341390993823241E-005
 -1.366808712368998E-005
 -1.395707291676664E-005
 -1.428012414859522E-005
 -1.463671700839967E-005
 -1.502599535651224E-005
 -1.544665063205655E-005
 -1.589721603573618E-005
 -1.637603227024437E-005
 -1.688163682546805E-005
 -1.741279453568013E-005
 -1.796711223593446E-005
 -1.854284201618822E-005
 -1.913898652972139E-005
 -1.975518300095852E-005
 -2.039001367208682E-005
 -2.103890061793889E-005
 -2.612006181825326E-005
 -2.480766680403738E-005
 -2.357418358279322E-005
 -2.245336116275129E-005
 -2.150017295478727E-005
 -2.056064887471174E-005
 -1.963667679230694E-005
 -1.871968821141274E-005
 -1.781213384554828E-005
 -1.691752403646611E-005
 -1.604381081652114E-005
 -1.519740299909462E-005
 -1.438352143126443E-005
 -1.360636073868480E-005
 -1.286891763961635E-005
 -1.217469546647620E-005
 -1.152585440515306E-005
 -1.092346421100297E-005
 -1.036788354232384E-005
 -9.859340812356240E-006
 -9.397532119562448E-006
 -8.981850297726280E-006
 -8.611443793180010E-006
 -8.285723108697072E-006
 -8.003666733058284E-006
 -7.764318731718124E-006
 -7.566571356253314E-006
 -7.410352864588782E-006
 -7.295297373639507E-006
 -7.220991826386117E-006
 -7.187712081170054E-006
 -7.195575244885999E-006
 -7.245343447205307E-006
 -7.337504487456732E-006
 -7.472849073109655E-006
 -7.652111597398549E-006
 -7.875989667927192E-006
 -8.145866363868813E-006
 -8.462617500596362E-006
 -8.826630786822843E-006
 -9.237689682214494E-006
 -9.694790741123637E-006
 -1.019586020442129E-005
 -1.073828825730407E-005
 -1.131737205224177E-005
 -1.192808358042218E-005
 -1.256567174505365E-005
 -1.322839915535134E-005
 -1.391615566308619E-005
 -1.464195587762223E-005
 -2.714712574458039E-005
 -2.567111242234206E-005
 -2.468184710476611E-005
 -2.371773765294821E-005
 -2.228828962838819E-005
 -2.088345926320134E-005
 -1.946824149246254E-005
 -1.807178803353243E-005
 -1.671231312720699E-005
 -1.540646511844053E-005
 -1.415350345975541E-005
 -1.295936474410112E-005
 -1.182704766390959E-005
 -1.075706104852528E-005
 -9.749854166700657E-006
 -8.804585475503683E-006
 -7.920255021212185E-006
 -7.095605809100605E-006
 -6.329159421753723E-006
 -5.619344879803675E-006
 -4.964519983410264E-006
 -4.363137916478472E-006
 -3.813696087847025E-006
 -3.314781354166616E-006
 -2.865048744454940E-006
 -2.463065525561231E-006
 -2.107663539800341E-006
 -1.798482334373056E-006
 -1.534808380609546E-006
 -1.315958892248744E-006
 -1.141995125460469E-006
 -1.012916568695282E-006
 -9.292477544208160E-007
 -8.919416745397469E-007
 -9.021190351845271E-007
 -9.608481426525139E-007
 -1.070057845173723E-006
 -1.233124295563519E-006
 -1.452860753423556E-006
 -1.732323060151720E-006
 -2.074770608723110E-006
 -2.483241299390775E-006
 -2.959944686019350E-006
 -3.504866552622193E-006
 -4.118060814607401E-006
 -4.799638625573835E-006
 -5.543605618991433E-006
 -6.334001543804581E-006
 -7.152174533689956E-006
 -7.961136261961011E-006
 -3.368968671983965E-005
 -3.210717708387991E-005
 -2.827340925657217E-005
 -2.429236679235178E-005
 -2.214387398538817E-005
 -1.993545177013631E-005
 -1.787810685558781E-005
 -1.596718808578254E-005
 -1.418418962040287E-005
 -1.249135265395236E-005
 -1.090913663150862E-005
 -9.428411642418857E-006
 -8.041454232308569E-006
 -6.743219045757090E-006
 -5.526743220083793E-006
 -4.389743127299828E-006
 -3.327824493082939E-006
 -2.336813496939363E-006
 -1.412924150837107E-006
 -5.531719990212059E-007
  2.450214794233693E-007
  9.841892987455624E-007
  1.666571701338995E-006
  2.294176539191496E-006
  2.868785178326043E-006
  3.392033441756335E-006
  3.865214689570883E-006
  4.289397265466575E-006
  4.665410968598298E-006
  4.994253577972910E-006
  5.276396479716399E-006
  5.511645446182341E-006
  5.700075094529984E-006
  5.841428751661991E-006
  5.934457734510445E-006
  5.978150883436763E-006
  5.970935003807087E-006
  5.910427153961074E-006
  5.792917469987955E-006
  5.613859577017194E-006
  5.368168667326431E-006
  5.049490442457374E-006
  4.649995647842591E-006
  4.160968319525306E-006
  3.573384841617156E-006
  2.875927895379823E-006
  2.055338354780661E-006
  1.094026464983319E-006
 -1.460678987550723E-008
 -1.279385239984087E-006
 -4.256434065854148E-005
 -3.908039436429894E-005
 -3.536825153245246E-005
 -2.239583677257850E-005
 -1.811160015417801E-005
 -1.584230391550827E-005
 -1.359618919748971E-005
 -1.148728138364212E-005
 -9.521028655563693E-006
 -7.679578722588013E-006
 -5.914429924839993E-006
 -4.251977443478692E-006
 -2.709877025379155E-006
 -1.274941259864446E-006
  6.402900538998087E-008
  1.314110120927266E-006
  2.482924661894956E-006
  3.573836231159120E-006
  4.591218516001508E-006
  5.539170766428366E-006
  6.421171740663536E-006
  7.240120859544678E-006
  7.998857007617899E-006
  8.699565783508959E-006
  9.344206727186104E-006
  9.934528094730817E-006
  1.047212727450318E-005
  1.095842881139736E-005
  1.139462460412136E-005
  1.178150484380628E-005
  1.211983744742122E-005
  1.240984664483239E-005
  1.265169688154460E-005
  1.284528258206707E-005
  1.299014332139427E-005
  1.308547250085234E-005
  1.313095635862629E-005
  1.312400093064939E-005
  1.306205972972852E-005
  1.294158428955254E-005
  1.275736781525977E-005
  1.250331021017501E-005
  1.217131352844887E-005
  1.175063829018605E-005
  1.122675329406876E-005
  1.058139089959122E-005
  9.796582325598182E-006
  8.821114135971185E-006
  7.604670196058515E-006
  6.088494866540558E-006
SCALARS elementIsPlast double 
LOOKUP_TABLE default
  0.000000000000000E+000
  0.000000000000000E+000
   1.00000000000000     
   1.00000000000000     
   1.00000000000000     
   1.00000000000000     
   1.00000000000000     
   1.00000000000000     
   1.00000000000000     
   1.00000000000000     
   1.00000000000000     
   1.00000000000000     
   1.00000000000000     
   1.00000000000000     
   1.00000000000000     
   1.00000000000000     
   1.00000000000000     
   1.00000000000000     
   1.00000000000000     
   1.00000000000000     
   1.00000000000000     
   1.00000000000000     
   1.00000000000000     
   1.00000000000000     
   1.00000000000000     
   1.00000000000000     
   1.00000000000000     
   1.00000000000000     
   1.00000000000000     
   1.00000000000000     
   1.00000000000000     
   1.00000000000000     
   1.00000000000000     
   1.00000000000000     
   1.00000000000000     
   1.00000000000000     
   1.00000000000000     
   1.00000000000000     
   1.00000000000000     
   1.00000000000000     
   1.00000000000000     
   1.00000000000000     
   1.00000000000000     
   1.00000000000000     
   1.00000000000000     
   1.00000000000000     
   1.00000000000000     
   1.00000000000000     
   1.00000000000000     
   1.00000000000000     
   1.00000000000000     
   1.00000000000000     
   1.00000000000000     
   1.00000000000000     
   1.00000000000000     
   1.00000000000000     
   1.00000000000000     
   1.00000000000000     
   1.00000000000000     
   1.00000000000000     
   1.00000000000000     
   1.00000000000000     
   1.00000000000000     
   1.00000000000000     
   1.00000000000000     
   1.00000000000000     
   1.00000000000000     
   1.00000000000000     
   1.00000000000000     
   1.00000000000000     
   1.00000000000000     
   1.00000000000000     
   1.00000000000000     
   1.00000000000000     
   1.00000000000000     
   1.00000000000000     
   1.00000000000000     
   1.00000000000000     
   1.00000000000000     
   1.00000000000000     
   1.00000000000000     
   1.00000000000000     
   1.00000000000000     
   1.00000000000000     
   1.00000000000000     
   1.00000000000000     
   1.00000000000000     
   1.00000000000000     
   1.00000000000000     
   1.00000000000000     
   1.00000000000000     
   1.00000000000000     
   1.00000000000000     
   1.00000000000000     
   1.00000000000000     
   1.00000000000000     
   1.00000000000000     
   1.00000000000000     
   1.00000000000000     
   1.00000000000000     
   1.00000000000000     
   1.00000000000000     
   1.00000000000000     
   1.00000000000000     
   1.00000000000000     
   1.00000000000000     
   1.00000000000000     
   1.00000000000000     
   1.00000000000000     
   1.00000000000000     
   1.00000000000000     
   1.00000000000000     
   1.00000000000000     
   1.00000000000000     
   1.00000000000000     
   1.00000000000000     
   1.00000000000000     
   1.00000000000000     
   1.00000000000000     
   1.00000000000000     
   1.00000000000000     
   1.00000000000000     
   1.00000000000000     
   1.00000000000000     
   1.00000000000000     
   1.00000000000000     
   1.00000000000000     
   1.00000000000000     
   1.00000000000000     
   1.00000000000000     
   1.00000000000000     
   1.00000000000000     
   1.00000000000000     
   1.00000000000000     
   1.00000000000000     
   1.00000000000000     
   1.00000000000000     
   1.00000000000000     
   1.00000000000000     
   1.00000000000000     
   1.00000000000000     
   1.00000000000000     
   1.00000000000000     
   1.00000000000000     
   1.00000000000000     
   1.00000000000000     
   1.00000000000000     
   1.00000000000000     
   1.00000000000000     
   1.00000000000000     
   1.00000000000000     
   1.00000000000000     
   1.00000000000000     
   1.00000000000000     
   1.00000000000000     
   1.00000000000000     
   1.00000000000000     
   1.00000000000000     
   1.00000000000000     
   1.00000000000000     
   1.00000000000000     
   1.00000000000000     
   1.00000000000000     
   1.00000000000000     
   1.00000000000000     
   1.00000000000000     
   1.00000000000000     
   1.00000000000000     
   1.00000000000000     
   1.00000000000000     
   1.00000000000000     
   1.00000000000000     
   1.00000000000000     
   1.00000000000000     
   1.00000000000000     
   1.00000000000000     
   1.00000000000000     
   1.00000000000000     
   1.00000000000000     
   1.00000000000000     
   1.00000000000000     
   1.00000000000000     
   1.00000000000000     
   1.00000000000000     
   1.00000000000000     
   1.00000000000000     
   1.00000000000000     
   1.00000000000000     
   1.00000000000000     
   1.00000000000000     
   1.00000000000000     
   1.00000000000000     
   1.00000000000000     
   1.00000000000000     
   1.00000000000000     
   1.00000000000000     
   1.00000000000000     
   1.00000000000000     
   1.00000000000000     
   1.00000000000000     
   1.00000000000000     
   1.00000000000000     
   1.00000000000000     
   1.00000000000000     
   1.00000000000000     
   1.00000000000000     
   1.00000000000000     
   1.00000000000000     
   1.00000000000000     
   1.00000000000000     
   1.00000000000000     
   1.00000000000000     
   1.00000000000000     
   1.00000000000000     
   1.00000000000000     
   1.00000000000000     
   1.00000000000000     
   1.00000000000000     
   1.00000000000000     
   1.00000000000000     
   1.00000000000000     
   1.00000000000000     
   1.00000000000000     
   1.00000000000000     
   1.00000000000000     
   1.00000000000000     
   1.00000000000000     
   1.00000000000000     
   1.00000000000000     
   1.00000000000000     
   1.00000000000000     
   1.00000000000000     
   1.00000000000000     
   1.00000000000000     
   1.00000000000000     
   1.00000000000000     
   1.00000000000000     
   1.00000000000000     
   1.00000000000000     
   1.00000000000000     
   1.00000000000000     
   1.00000000000000     
   1.00000000000000     
   1.00000000000000     
   1.00000000000000     
   1.00000000000000     
   1.00000000000000     
   1.00000000000000     
   1.00000000000000     
   1.00000000000000     
   1.00000000000000     
   1.00000000000000     
   1.00000000000000     
   1.00000000000000     
   1.00000000000000     
   1.00000000000000     
   1.00000000000000     
   1.00000000000000     
   1.00000000000000     
   1.00000000000000     
   1.00000000000000     
   1.00000000000000     
   1.00000000000000     
   1.00000000000000     
   1.00000000000000     
   1.00000000000000     
   1.00000000000000     
   1.00000000000000     
   1.00000000000000     
   1.00000000000000     
   1.00000000000000     
   1.00000000000000     
   1.00000000000000     
   1.00000000000000     
   1.00000000000000     
   1.00000000000000     
   1.00000000000000     
   1.00000000000000     
   1.00000000000000     
   1.00000000000000     
   1.00000000000000     
   1.00000000000000     
   1.00000000000000     
   1.00000000000000     
   1.00000000000000     
   1.00000000000000     
   1.00000000000000     
   1.00000000000000     
   1.00000000000000     
   1.00000000000000     
   1.00000000000000     
   1.00000000000000     
   1.00000000000000     
   1.00000000000000     
   1.00000000000000     
   1.00000000000000     
   1.00000000000000     
   1.00000000000000     
   1.00000000000000     
   1.00000000000000     
   1.00000000000000     
   1.00000000000000     
   1.00000000000000     
   1.00000000000000     
   1.00000000000000     
   1.00000000000000     
   1.00000000000000     
   1.00000000000000     
   1.00000000000000     
   1.00000000000000     
   1.00000000000000     
   1.00000000000000     
   1.00000000000000     
   1.00000000000000     
   1.00000000000000     
   1.00000000000000     
   1.00000000000000     
   1.00000000000000     
   1.00000000000000     
   1.00000000000000     
   1.00000000000000     
   1.00000000000000     
   1.00000000000000     
   1.00000000000000     
   1.00000000000000     
   1.00000000000000     
   1.00000000000000     
   1.00000000000000     
   1.00000000000000     
   1.00000000000000     
   1.00000000000000     
   1.00000000000000     
   1.00000000000000     
   1.00000000000000     
   1.00000000000000     
   1.00000000000000     
   1.00000000000000     
   1.00000000000000     
   1.00000000000000     
   1.00000000000000     
   1.00000000000000     
   1.00000000000000     
   1.00000000000000     
   1.00000000000000     
   1.00000000000000     
   1.00000000000000     
   1.00000000000000     
   1.00000000000000     
   1.00000000000000     
   1.00000000000000     
   1.00000000000000     
   1.00000000000000     
   1.00000000000000     
   1.00000000000000     
   1.00000000000000     
   1.00000000000000     
   1.00000000000000     
   1.00000000000000     
   1.00000000000000     
   1.00000000000000     
   1.00000000000000     
   1.00000000000000     
   1.00000000000000     
   1.00000000000000     
   1.00000000000000     
   1.00000000000000     
   1.00000000000000     
   1.00000000000000     
   1.00000000000000     
   1.00000000000000     
   1.00000000000000     
   1.00000000000000     
   1.00000000000000     
   1.00000000000000     
   1.00000000000000     
   1.00000000000000     
   1.00000000000000     
   1.00000000000000     
   1.00000000000000     
   1.00000000000000     
   1.00000000000000     
   1.00000000000000     
   1.00000000000000     
   1.00000000000000     
   1.00000000000000     
   1.00000000000000     
   1.00000000000000     
   1.00000000000000     
   1.00000000000000     
   1.00000000000000     
   1.00000000000000     
   1.00000000000000     
   1.00000000000000     
   1.00000000000000     
   1.00000000000000     
   1.00000000000000     
   1.00000000000000     
   1.00000000000000     
   1.00000000000000     
   1.00000000000000     
   1.00000000000000     
   1.00000000000000     
   1.00000000000000     
   1.00000000000000     
   1.00000000000000     
   1.00000000000000     
   1.00000000000000     
   1.00000000000000     
   1.00000000000000     
   1.00000000000000     
   1.00000000000000     
   1.00000000000000     
   1.00000000000000     
   1.00000000000000     
   1.00000000000000     
   1.00000000000000     
   1.00000000000000     
   1.00000000000000     
   1.00000000000000     
   1.00000000000000     
   1.00000000000000     
   1.00000000000000     
   1.00000000000000     
   1.00000000000000     
   1.00000000000000     
   1.00000000000000     
   1.00000000000000     
   1.00000000000000     
   1.00000000000000     
   1.00000000000000     
   1.00000000000000     
   1.00000000000000     
   1.00000000000000     
   1.00000000000000     
   1.00000000000000     
   1.00000000000000     
   1.00000000000000     
   1.00000000000000     
   1.00000000000000     
   1.00000000000000     
   1.00000000000000     
   1.00000000000000     
   1.00000000000000     
   1.00000000000000     
   1.00000000000000     
   1.00000000000000     
   1.00000000000000     
   1.00000000000000     
   1.00000000000000     
   1.00000000000000     
  0.000000000000000E+000
  0.000000000000000E+000
  0.000000000000000E+000
  0.000000000000000E+000
  0.000000000000000E+000
  0.000000000000000E+000
  0.000000000000000E+000
  0.000000000000000E+000
  0.000000000000000E+000
  0.000000000000000E+000
  0.000000000000000E+000
  0.000000000000000E+000
  0.000000000000000E+000
  0.000000000000000E+000
   1.00000000000000     
   1.00000000000000     
   1.00000000000000     
   1.00000000000000     
   1.00000000000000     
   1.00000000000000     
   1.00000000000000     
   1.00000000000000     
   1.00000000000000     
   1.00000000000000     
   1.00000000000000     
   1.00000000000000     
   1.00000000000000     
   1.00000000000000     
   1.00000000000000     
   1.00000000000000     
   1.00000000000000     
   1.00000000000000     
   1.00000000000000     
   1.00000000000000     
   1.00000000000000     
   1.00000000000000     
   1.00000000000000     
   1.00000000000000     
   1.00000000000000     
   1.00000000000000     
   1.00000000000000     
   1.00000000000000     
   1.00000000000000     
   1.00000000000000     
   1.00000000000000     
   1.00000000000000     
   1.00000000000000     
   1.00000000000000     
   1.00000000000000     
   1.00000000000000     
  0.000000000000000E+000
  0.000000000000000E+000
  0.000000000000000E+000
  0.000000000000000E+000
  0.000000000000000E+000
  0.000000000000000E+000
  0.000000000000000E+000
  0.000000000000000E+000
  0.000000000000000E+000
  0.000000000000000E+000
  0.000000000000000E+000
  0.000000000000000E+000
  0.000000000000000E+000
  0.000000000000000E+000
  0.000000000000000E+000
  0.000000000000000E+000
  0.000000000000000E+000
  0.000000000000000E+000
  0.000000000000000E+000
  0.000000000000000E+000
  0.000000000000000E+000
  0.000000000000000E+000
  0.000000000000000E+000
   1.00000000000000     
   1.00000000000000     
   1.00000000000000     
   1.00000000000000     
   1.00000000000000     
   1.00000000000000     
   1.00000000000000     
   1.00000000000000     
   1.00000000000000     
   1.00000000000000     
   1.00000000000000     
   1.00000000000000     
   1.00000000000000     
   1.00000000000000     
   1.00000000000000     
   1.00000000000000     
   1.00000000000000     
   1.00000000000000     
   1.00000000000000     
   1.00000000000000     
   1.00000000000000     
   1.00000000000000     
   1.00000000000000     
   1.00000000000000     
   1.00000000000000     
   1.00000000000000     
   1.00000000000000     
  0.000000000000000E+000
  0.000000000000000E+000
  0.000000000000000E+000
  0.000000000000000E+000
  0.000000000000000E+000
  0.000000000000000E+000
  0.000000000000000E+000
  0.000000000000000E+000
  0.000000000000000E+000
  0.000000000000000E+000
  0.000000000000000E+000
  0.000000000000000E+000
  0.000000000000000E+000
  0.000000000000000E+000
  0.000000000000000E+000
  0.000000000000000E+000
  0.000000000000000E+000
  0.000000000000000E+000
  0.000000000000000E+000
  0.000000000000000E+000
  0.000000000000000E+000
  0.000000000000000E+000
  0.000000000000000E+000
  0.000000000000000E+000
  0.000000000000000E+000
  0.000000000000000E+000
  0.000000000000000E+000
  0.000000000000000E+000
  0.000000000000000E+000
  0.000000000000000E+000
  0.000000000000000E+000
   1.00000000000000     
   1.00000000000000     
   1.00000000000000     
   1.00000000000000     
   1.00000000000000     
   1.00000000000000     
   1.00000000000000     
   1.00000000000000     
   1.00000000000000     
   1.00000000000000     
   1.00000000000000     
   1.00000000000000     
   1.00000000000000     
   1.00000000000000     
   1.00000000000000     
   1.00000000000000     
   1.00000000000000     
   1.00000000000000     
   1.00000000000000     
  0.000000000000000E+000
  0.000000000000000E+000
  0.000000000000000E+000
  0.000000000000000E+000
  0.000000000000000E+000
  0.000000000000000E+000
  0.000000000000000E+000
  0.000000000000000E+000
  0.000000000000000E+000
  0.000000000000000E+000
  0.000000000000000E+000
  0.000000000000000E+000
  0.000000000000000E+000
  0.000000000000000E+000
  0.000000000000000E+000
  0.000000000000000E+000
  0.000000000000000E+000
  0.000000000000000E+000
  0.000000000000000E+000
  0.000000000000000E+000
  0.000000000000000E+000
  0.000000000000000E+000
  0.000000000000000E+000
  0.000000000000000E+000
  0.000000000000000E+000
  0.000000000000000E+000
  0.000000000000000E+000
  0.000000000000000E+000
  0.000000000000000E+000
  0.000000000000000E+000
  0.000000000000000E+000
  0.000000000000000E+000
  0.000000000000000E+000
  0.000000000000000E+000
  0.000000000000000E+000
  0.000000000000000E+000
  0.000000000000000E+000
   1.00000000000000     
   1.00000000000000     
   1.00000000000000     
   1.00000000000000     
   1.00000000000000     
   1.00000000000000     
   1.00000000000000     
   1.00000000000000     
   1.00000000000000     
   1.00000000000000     
   1.00000000000000     
   1.00000000000000     
   1.00000000000000     
  0.000000000000000E+000
  0.000000000000000E+000
  0.000000000000000E+000
  0.000000000000000E+000
  0.000000000000000E+000
  0.000000000000000E+000
  0.000000000000000E+000
  0.000000000000000E+000
  0.000000000000000E+000
  0.000000000000000E+000
  0.000000000000000E+000
  0.000000000000000E+000
  0.000000000000000E+000
  0.000000000000000E+000
  0.000000000000000E+000
  0.000000000000000E+000
  0.000000000000000E+000
  0.000000000000000E+000
  0.000000000000000E+000
  0.000000000000000E+000
  0.000000000000000E+000
  0.000000000000000E+000
  0.000000000000000E+000
  0.000000000000000E+000
  0.000000000000000E+000
  0.000000000000000E+000
  0.000000000000000E+000
  0.000000000000000E+000
  0.000000000000000E+000
  0.000000000000000E+000
  0.000000000000000E+000
  0.000000000000000E+000
  0.000000000000000E+000
  0.000000000000000E+000
  0.000000000000000E+000
  0.000000000000000E+000
  0.000000000000000E+000
  0.000000000000000E+000
  0.000000000000000E+000
  0.000000000000000E+000
  0.000000000000000E+000
   1.00000000000000     
   1.00000000000000     
   1.00000000000000     
   1.00000000000000     
   1.00000000000000     
   1.00000000000000     
   1.00000000000000     
   1.00000000000000     
   1.00000000000000     
  0.000000000000000E+000
  0.000000000000000E+000
  0.000000000000000E+000
  0.000000000000000E+000
  0.000000000000000E+000
  0.000000000000000E+000
  0.000000000000000E+000
  0.000000000000000E+000
  0.000000000000000E+000
  0.000000000000000E+000
  0.000000000000000E+000
  0.000000000000000E+000
  0.000000000000000E+000
  0.000000000000000E+000
  0.000000000000000E+000
  0.000000000000000E+000
  0.000000000000000E+000
  0.000000000000000E+000
  0.000000000000000E+000
  0.000000000000000E+000
  0.000000000000000E+000
  0.000000000000000E+000
  0.000000000000000E+000
  0.000000000000000E+000
  0.000000000000000E+000
  0.000000000000000E+000
  0.000000000000000E+000
  0.000000000000000E+000
  0.000000000000000E+000
  0.000000000000000E+000
  0.000000000000000E+000
  0.000000000000000E+000
  0.000000000000000E+000
  0.000000000000000E+000
  0.000000000000000E+000
  0.000000000000000E+000
  0.000000000000000E+000
  0.000000000000000E+000
  0.000000000000000E+000
  0.000000000000000E+000
  0.000000000000000E+000
  0.000000000000000E+000
  0.000000000000000E+000
  0.000000000000000E+000
  0.000000000000000E+000
   1.00000000000000     
   1.00000000000000     
   1.00000000000000     
   1.00000000000000     
   1.00000000000000     
  0.000000000000000E+000
  0.000000000000000E+000
  0.000000000000000E+000
  0.000000000000000E+000
  0.000000000000000E+000
  0.000000000000000E+000
  0.000000000000000E+000
  0.000000000000000E+000
  0.000000000000000E+000
  0.000000000000000E+000
  0.000000000000000E+000
  0.000000000000000E+000
  0.000000000000000E+000
  0.000000000000000E+000
  0.000000000000000E+000
  0.000000000000000E+000
  0.000000000000000E+000
  0.000000000000000E+000
  0.000000000000000E+000
  0.000000000000000E+000
  0.000000000000000E+000
  0.000000000000000E+000
  0.000000000000000E+000
  0.000000000000000E+000
  0.000000000000000E+000
  0.000000000000000E+000
  0.000000000000000E+000
  0.000000000000000E+000
  0.000000000000000E+000
  0.000000000000000E+000
  0.000000000000000E+000
  0.000000000000000E+000
  0.000000000000000E+000
  0.000000000000000E+000
  0.000000000000000E+000
  0.000000000000000E+000
  0.000000000000000E+000
  0.000000000000000E+000
  0.000000000000000E+000
  0.000000000000000E+000
  0.000000000000000E+000
  0.000000000000000E+000
  0.000000000000000E+000
  0.000000000000000E+000
  0.000000000000000E+000
  0.000000000000000E+000
  0.000000000000000E+000
  0.000000000000000E+000
  0.000000000000000E+000
   1.00000000000000     
  0.000000000000000E+000
  0.000000000000000E+000
  0.000000000000000E+000
  0.000000000000000E+000
  0.000000000000000E+000
  0.000000000000000E+000
  0.000000000000000E+000
  0.000000000000000E+000
  0.000000000000000E+000
  0.000000000000000E+000
  0.000000000000000E+000
  0.000000000000000E+000
  0.000000000000000E+000
  0.000000000000000E+000
  0.000000000000000E+000
  0.000000000000000E+000
  0.000000000000000E+000
  0.000000000000000E+000
  0.000000000000000E+000
  0.000000000000000E+000
  0.000000000000000E+000
  0.000000000000000E+000
  0.000000000000000E+000
  0.000000000000000E+000
  0.000000000000000E+000
  0.000000000000000E+000
  0.000000000000000E+000
  0.000000000000000E+000
  0.000000000000000E+000
  0.000000000000000E+000
  0.000000000000000E+000
  0.000000000000000E+000
  0.000000000000000E+000
  0.000000000000000E+000
  0.000000000000000E+000
  0.000000000000000E+000
  0.000000000000000E+000
  0.000000000000000E+000
  0.000000000000000E+000
  0.000000000000000E+000
  0.000000000000000E+000
  0.000000000000000E+000
  0.000000000000000E+000
  0.000000000000000E+000
  0.000000000000000E+000
  0.000000000000000E+000
  0.000000000000000E+000
  0.000000000000000E+000
  0.000000000000000E+000
  0.000000000000000E+000
  0.000000000000000E+000
  0.000000000000000E+000
  0.000000000000000E+000
  0.000000000000000E+000
  0.000000000000000E+000
  0.000000000000000E+000
  0.000000000000000E+000
  0.000000000000000E+000
  0.000000000000000E+000
  0.000000000000000E+000
  0.000000000000000E+000
  0.000000000000000E+000
  0.000000000000000E+000
  0.000000000000000E+000
  0.000000000000000E+000
  0.000000000000000E+000
  0.000000000000000E+000
  0.000000000000000E+000
  0.000000000000000E+000
  0.000000000000000E+000
  0.000000000000000E+000
  0.000000000000000E+000
  0.000000000000000E+000
  0.000000000000000E+000
  0.000000000000000E+000
  0.000000000000000E+000
  0.000000000000000E+000
  0.000000000000000E+000
  0.000000000000000E+000
  0.000000000000000E+000
  0.000000000000000E+000
  0.000000000000000E+000
  0.000000000000000E+000
  0.000000000000000E+000
  0.000000000000000E+000
  0.000000000000000E+000
  0.000000000000000E+000
  0.000000000000000E+000
  0.000000000000000E+000
  0.000000000000000E+000
  0.000000000000000E+000
  0.000000000000000E+000
  0.000000000000000E+000
  0.000000000000000E+000
  0.000000000000000E+000
  0.000000000000000E+000
  0.000000000000000E+000
  0.000000000000000E+000
  0.000000000000000E+000
  0.000000000000000E+000
  0.000000000000000E+000
  0.000000000000000E+000
  0.000000000000000E+000
  0.000000000000000E+000
  0.000000000000000E+000
  0.000000000000000E+000
  0.000000000000000E+000
  0.000000000000000E+000
  0.000000000000000E+000
  0.000000000000000E+000
  0.000000000000000E+000
  0.000000000000000E+000
  0.000000000000000E+000
  0.000000000000000E+000
  0.000000000000000E+000
  0.000000000000000E+000
  0.000000000000000E+000
  0.000000000000000E+000
  0.000000000000000E+000
  0.000000000000000E+000
  0.000000000000000E+000
  0.000000000000000E+000
  0.000000000000000E+000
  0.000000000000000E+000
  0.000000000000000E+000
  0.000000000000000E+000
  0.000000000000000E+000
  0.000000000000000E+000
  0.000000000000000E+000
  0.000000000000000E+000
  0.000000000000000E+000
  0.000000000000000E+000
  0.000000000000000E+000
  0.000000000000000E+000
  0.000000000000000E+000
  0.000000000000000E+000
  0.000000000000000E+000
  0.000000000000000E+000
  0.000000000000000E+000
  0.000000000000000E+000
  0.000000000000000E+000
  0.000000000000000E+000
  0.000000000000000E+000
  0.000000000000000E+000
  0.000000000000000E+000
  0.000000000000000E+000
  0.000000000000000E+000
  0.000000000000000E+000
  0.000000000000000E+000
  0.000000000000000E+000
  0.000000000000000E+000
  0.000000000000000E+000
  0.000000000000000E+000
  0.000000000000000E+000
  0.000000000000000E+000
  0.000000000000000E+000
  0.000000000000000E+000
  0.000000000000000E+000
  0.000000000000000E+000
  0.000000000000000E+000
  0.000000000000000E+000
  0.000000000000000E+000
  0.000000000000000E+000
  0.000000000000000E+000
  0.000000000000000E+000
  0.000000000000000E+000
  0.000000000000000E+000
  0.000000000000000E+000
  0.000000000000000E+000
  0.000000000000000E+000
  0.000000000000000E+000
  0.000000000000000E+000
  0.000000000000000E+000
  0.000000000000000E+000
  0.000000000000000E+000
  0.000000000000000E+000
  0.000000000000000E+000
  0.000000000000000E+000
  0.000000000000000E+000
  0.000000000000000E+000
  0.000000000000000E+000
  0.000000000000000E+000
  0.000000000000000E+000
  0.000000000000000E+000
  0.000000000000000E+000
  0.000000000000000E+000
  0.000000000000000E+000
  0.000000000000000E+000
  0.000000000000000E+000
  0.000000000000000E+000
  0.000000000000000E+000
  0.000000000000000E+000
  0.000000000000000E+000
  0.000000000000000E+000
  0.000000000000000E+000
  0.000000000000000E+000
  0.000000000000000E+000
  0.000000000000000E+000
  0.000000000000000E+000
  0.000000000000000E+000
  0.000000000000000E+000
  0.000000000000000E+000
  0.000000000000000E+000
  0.000000000000000E+000
  0.000000000000000E+000
  0.000000000000000E+000
  0.000000000000000E+000
  0.000000000000000E+000
  0.000000000000000E+000
  0.000000000000000E+000
  0.000000000000000E+000
  0.000000000000000E+000
  0.000000000000000E+000
  0.000000000000000E+000
  0.000000000000000E+000
  0.000000000000000E+000
  0.000000000000000E+000
  0.000000000000000E+000
  0.000000000000000E+000
  0.000000000000000E+000
  0.000000000000000E+000
  0.000000000000000E+000
  0.000000000000000E+000
  0.000000000000000E+000
  0.000000000000000E+000
  0.000000000000000E+000
  0.000000000000000E+000
  0.000000000000000E+000
  0.000000000000000E+000
  0.000000000000000E+000
  0.000000000000000E+000
  0.000000000000000E+000
  0.000000000000000E+000
  0.000000000000000E+000
  0.000000000000000E+000
  0.000000000000000E+000
  0.000000000000000E+000
  0.000000000000000E+000
  0.000000000000000E+000
  0.000000000000000E+000
  0.000000000000000E+000
  0.000000000000000E+000
  0.000000000000000E+000
  0.000000000000000E+000
  0.000000000000000E+000
  0.000000000000000E+000
  0.000000000000000E+000
  0.000000000000000E+000
  0.000000000000000E+000
  0.000000000000000E+000
  0.000000000000000E+000
  0.000000000000000E+000
  0.000000000000000E+000
  0.000000000000000E+000
  0.000000000000000E+000
  0.000000000000000E+000
  0.000000000000000E+000
  0.000000000000000E+000
  0.000000000000000E+000
  0.000000000000000E+000
  0.000000000000000E+000
  0.000000000000000E+000
  0.000000000000000E+000
  0.000000000000000E+000
  0.000000000000000E+000
  0.000000000000000E+000
  0.000000000000000E+000
  0.000000000000000E+000
  0.000000000000000E+000
  0.000000000000000E+000
  0.000000000000000E+000
  0.000000000000000E+000
  0.000000000000000E+000
  0.000000000000000E+000
  0.000000000000000E+000
  0.000000000000000E+000
  0.000000000000000E+000
  0.000000000000000E+000
  0.000000000000000E+000
  0.000000000000000E+000
  0.000000000000000E+000
  0.000000000000000E+000
  0.000000000000000E+000
  0.000000000000000E+000
  0.000000000000000E+000
  0.000000000000000E+000
  0.000000000000000E+000
  0.000000000000000E+000
  0.000000000000000E+000
  0.000000000000000E+000
  0.000000000000000E+000
  0.000000000000000E+000
  0.000000000000000E+000
  0.000000000000000E+000
  0.000000000000000E+000
  0.000000000000000E+000
  0.000000000000000E+000
  0.000000000000000E+000
  0.000000000000000E+000
  0.000000000000000E+000
  0.000000000000000E+000
  0.000000000000000E+000
  0.000000000000000E+000
  0.000000000000000E+000
  0.000000000000000E+000
  0.000000000000000E+000
  0.000000000000000E+000
  0.000000000000000E+000
  0.000000000000000E+000
  0.000000000000000E+000
  0.000000000000000E+000
  0.000000000000000E+000
  0.000000000000000E+000
  0.000000000000000E+000
  0.000000000000000E+000
  0.000000000000000E+000
  0.000000000000000E+000
  0.000000000000000E+000
  0.000000000000000E+000
  0.000000000000000E+000
  0.000000000000000E+000
  0.000000000000000E+000
  0.000000000000000E+000
  0.000000000000000E+000
  0.000000000000000E+000
  0.000000000000000E+000
  0.000000000000000E+000
  0.000000000000000E+000
  0.000000000000000E+000
  0.000000000000000E+000
  0.000000000000000E+000
  0.000000000000000E+000
  0.000000000000000E+000
  0.000000000000000E+000
  0.000000000000000E+000
  0.000000000000000E+000
  0.000000000000000E+000
  0.000000000000000E+000
  0.000000000000000E+000
  0.000000000000000E+000
  0.000000000000000E+000
  0.000000000000000E+000
  0.000000000000000E+000
  0.000000000000000E+000
  0.000000000000000E+000
  0.000000000000000E+000
  0.000000000000000E+000
  0.000000000000000E+000
  0.000000000000000E+000
  0.000000000000000E+000
  0.000000000000000E+000
  0.000000000000000E+000
  0.000000000000000E+000
  0.000000000000000E+000
  0.000000000000000E+000
  0.000000000000000E+000
  0.000000000000000E+000
  0.000000000000000E+000
  0.000000000000000E+000
  0.000000000000000E+000
  0.000000000000000E+000
  0.000000000000000E+000
  0.000000000000000E+000
  0.000000000000000E+000
  0.000000000000000E+000
  0.000000000000000E+000
  0.000000000000000E+000
  0.000000000000000E+000
  0.000000000000000E+000
  0.000000000000000E+000
  0.000000000000000E+000
  0.000000000000000E+000
  0.000000000000000E+000
  0.000000000000000E+000
  0.000000000000000E+000
  0.000000000000000E+000
  0.000000000000000E+000
  0.000000000000000E+000
  0.000000000000000E+000
  0.000000000000000E+000
  0.000000000000000E+000
  0.000000000000000E+000
  0.000000000000000E+000
  0.000000000000000E+000
  0.000000000000000E+000
  0.000000000000000E+000
  0.000000000000000E+000
  0.000000000000000E+000
  0.000000000000000E+000
  0.000000000000000E+000
  0.000000000000000E+000
  0.000000000000000E+000
  0.000000000000000E+000
  0.000000000000000E+000
  0.000000000000000E+000
  0.000000000000000E+000
  0.000000000000000E+000
  0.000000000000000E+000
  0.000000000000000E+000
  0.000000000000000E+000
  0.000000000000000E+000
  0.000000000000000E+000
  0.000000000000000E+000
  0.000000000000000E+000
  0.000000000000000E+000
  0.000000000000000E+000
  0.000000000000000E+000
  0.000000000000000E+000
  0.000000000000000E+000
  0.000000000000000E+000
  0.000000000000000E+000
  0.000000000000000E+000
  0.000000000000000E+000
  0.000000000000000E+000
  0.000000000000000E+000
  0.000000000000000E+000
  0.000000000000000E+000
  0.000000000000000E+000
  0.000000000000000E+000
  0.000000000000000E+000
  0.000000000000000E+000
  0.000000000000000E+000
  0.000000000000000E+000
  0.000000000000000E+000
  0.000000000000000E+000
  0.000000000000000E+000
  0.000000000000000E+000
  0.000000000000000E+000
  0.000000000000000E+000
  0.000000000000000E+000
  0.000000000000000E+000
  0.000000000000000E+000
  0.000000000000000E+000
  0.000000000000000E+000
  0.000000000000000E+000
  0.000000000000000E+000
  0.000000000000000E+000
  0.000000000000000E+000
  0.000000000000000E+000
  0.000000000000000E+000
  0.000000000000000E+000
  0.000000000000000E+000
  0.000000000000000E+000
  0.000000000000000E+000
  0.000000000000000E+000
  0.000000000000000E+000
  0.000000000000000E+000
  0.000000000000000E+000
  0.000000000000000E+000
  0.000000000000000E+000
  0.000000000000000E+000
  0.000000000000000E+000
  0.000000000000000E+000
  0.000000000000000E+000
  0.000000000000000E+000
  0.000000000000000E+000
  0.000000000000000E+000
  0.000000000000000E+000
  0.000000000000000E+000
  0.000000000000000E+000
  0.000000000000000E+000
  0.000000000000000E+000
  0.000000000000000E+000
  0.000000000000000E+000
  0.000000000000000E+000
  0.000000000000000E+000
  0.000000000000000E+000
  0.000000000000000E+000
  0.000000000000000E+000
  0.000000000000000E+000
  0.000000000000000E+000
  0.000000000000000E+000
  0.000000000000000E+000
  0.000000000000000E+000
  0.000000000000000E+000
  0.000000000000000E+000
  0.000000000000000E+000
  0.000000000000000E+000
  0.000000000000000E+000
  0.000000000000000E+000
  0.000000000000000E+000
  0.000000000000000E+000
  0.000000000000000E+000
  0.000000000000000E+000
  0.000000000000000E+000
  0.000000000000000E+000
  0.000000000000000E+000
  0.000000000000000E+000
  0.000000000000000E+000
  0.000000000000000E+000
  0.000000000000000E+000
  0.000000000000000E+000
  0.000000000000000E+000
  0.000000000000000E+000
  0.000000000000000E+000
  0.000000000000000E+000
  0.000000000000000E+000
  0.000000000000000E+000
  0.000000000000000E+000
  0.000000000000000E+000
  0.000000000000000E+000
  0.000000000000000E+000
  0.000000000000000E+000
  0.000000000000000E+000
  0.000000000000000E+000
  0.000000000000000E+000
  0.000000000000000E+000
  0.000000000000000E+000
  0.000000000000000E+000
  0.000000000000000E+000
  0.000000000000000E+000
  0.000000000000000E+000
  0.000000000000000E+000
  0.000000000000000E+000
  0.000000000000000E+000
  0.000000000000000E+000
  0.000000000000000E+000
  0.000000000000000E+000
  0.000000000000000E+000
  0.000000000000000E+000
  0.000000000000000E+000
  0.000000000000000E+000
  0.000000000000000E+000
  0.000000000000000E+000
  0.000000000000000E+000
  0.000000000000000E+000
  0.000000000000000E+000
  0.000000000000000E+000
  0.000000000000000E+000
  0.000000000000000E+000
  0.000000000000000E+000
  0.000000000000000E+000
  0.000000000000000E+000
  0.000000000000000E+000
  0.000000000000000E+000
  0.000000000000000E+000
  0.000000000000000E+000
  0.000000000000000E+000
  0.000000000000000E+000
  0.000000000000000E+000
  0.000000000000000E+000
  0.000000000000000E+000
  0.000000000000000E+000
  0.000000000000000E+000
  0.000000000000000E+000
  0.000000000000000E+000
  0.000000000000000E+000
  0.000000000000000E+000
  0.000000000000000E+000
  0.000000000000000E+000
  0.000000000000000E+000
  0.000000000000000E+000
  0.000000000000000E+000
  0.000000000000000E+000
  0.000000000000000E+000
  0.000000000000000E+000
  0.000000000000000E+000
  0.000000000000000E+000
  0.000000000000000E+000
  0.000000000000000E+000
  0.000000000000000E+000
  0.000000000000000E+000
  0.000000000000000E+000
  0.000000000000000E+000
  0.000000000000000E+000
  0.000000000000000E+000
  0.000000000000000E+000
  0.000000000000000E+000
  0.000000000000000E+000
  0.000000000000000E+000
  0.000000000000000E+000
  0.000000000000000E+000
  0.000000000000000E+000
  0.000000000000000E+000
  0.000000000000000E+000
  0.000000000000000E+000
  0.000000000000000E+000
  0.000000000000000E+000
  0.000000000000000E+000
  0.000000000000000E+000
  0.000000000000000E+000
  0.000000000000000E+000
  0.000000000000000E+000
  0.000000000000000E+000
  0.000000000000000E+000
  0.000000000000000E+000
  0.000000000000000E+000
  0.000000000000000E+000
  0.000000000000000E+000
  0.000000000000000E+000
  0.000000000000000E+000
  0.000000000000000E+000
  0.000000000000000E+000
  0.000000000000000E+000
  0.000000000000000E+000
  0.000000000000000E+000
  0.000000000000000E+000
  0.000000000000000E+000
  0.000000000000000E+000
  0.000000000000000E+000
  0.000000000000000E+000
  0.000000000000000E+000
  0.000000000000000E+000
  0.000000000000000E+000
  0.000000000000000E+000
  0.000000000000000E+000
  0.000000000000000E+000
  0.000000000000000E+000
  0.000000000000000E+000
  0.000000000000000E+000
  0.000000000000000E+000
  0.000000000000000E+000
  0.000000000000000E+000
  0.000000000000000E+000
  0.000000000000000E+000
  0.000000000000000E+000
  0.000000000000000E+000
  0.000000000000000E+000
  0.000000000000000E+000
  0.000000000000000E+000
  0.000000000000000E+000
  0.000000000000000E+000
  0.000000000000000E+000
  0.000000000000000E+000
  0.000000000000000E+000
  0.000000000000000E+000
  0.000000000000000E+000
  0.000000000000000E+000
  0.000000000000000E+000
  0.000000000000000E+000
  0.000000000000000E+000
  0.000000000000000E+000
  0.000000000000000E+000
  0.000000000000000E+000
  0.000000000000000E+000
  0.000000000000000E+000
  0.000000000000000E+000
  0.000000000000000E+000
  0.000000000000000E+000
  0.000000000000000E+000
  0.000000000000000E+000
  0.000000000000000E+000
  0.000000000000000E+000
  0.000000000000000E+000
  0.000000000000000E+000
  0.000000000000000E+000
  0.000000000000000E+000
  0.000000000000000E+000
  0.000000000000000E+000
  0.000000000000000E+000
  0.000000000000000E+000
  0.000000000000000E+000
  0.000000000000000E+000
  0.000000000000000E+000
  0.000000000000000E+000
  0.000000000000000E+000
  0.000000000000000E+000
  0.000000000000000E+000
  0.000000000000000E+000
  0.000000000000000E+000
  0.000000000000000E+000
  0.000000000000000E+000
  0.000000000000000E+000
  0.000000000000000E+000
  0.000000000000000E+000
  0.000000000000000E+000
  0.000000000000000E+000
  0.000000000000000E+000
  0.000000000000000E+000
  0.000000000000000E+000
  0.000000000000000E+000
  0.000000000000000E+000
  0.000000000000000E+000
  0.000000000000000E+000
  0.000000000000000E+000
  0.000000000000000E+000
  0.000000000000000E+000
  0.000000000000000E+000
  0.000000000000000E+000
  0.000000000000000E+000
  0.000000000000000E+000
  0.000000000000000E+000
  0.000000000000000E+000
  0.000000000000000E+000
  0.000000000000000E+000
  0.000000000000000E+000
  0.000000000000000E+000
  0.000000000000000E+000
  0.000000000000000E+000
  0.000000000000000E+000
  0.000000000000000E+000
  0.000000000000000E+000
  0.000000000000000E+000
  0.000000000000000E+000
  0.000000000000000E+000
  0.000000000000000E+000
  0.000000000000000E+000
  0.000000000000000E+000
  0.000000000000000E+000
  0.000000000000000E+000
  0.000000000000000E+000
  0.000000000000000E+000
  0.000000000000000E+000
  0.000000000000000E+000
  0.000000000000000E+000
  0.000000000000000E+000
  0.000000000000000E+000
  0.000000000000000E+000
  0.000000000000000E+000
  0.000000000000000E+000
  0.000000000000000E+000
  0.000000000000000E+000
  0.000000000000000E+000
  0.000000000000000E+000
  0.000000000000000E+000
  0.000000000000000E+000
  0.000000000000000E+000
  0.000000000000000E+000
  0.000000000000000E+000
  0.000000000000000E+000
  0.000000000000000E+000
  0.000000000000000E+000
  0.000000000000000E+000
  0.000000000000000E+000
  0.000000000000000E+000
  0.000000000000000E+000
  0.000000000000000E+000
  0.000000000000000E+000
  0.000000000000000E+000
  0.000000000000000E+000
  0.000000000000000E+000
  0.000000000000000E+000
  0.000000000000000E+000
  0.000000000000000E+000
  0.000000000000000E+000
  0.000000000000000E+000
  0.000000000000000E+000
  0.000000000000000E+000
  0.000000000000000E+000
  0.000000000000000E+000
  0.000000000000000E+000
  0.000000000000000E+000
  0.000000000000000E+000
  0.000000000000000E+000
  0.000000000000000E+000
  0.000000000000000E+000
  0.000000000000000E+000
  0.000000000000000E+000
  0.000000000000000E+000
  0.000000000000000E+000
  0.000000000000000E+000
  0.000000000000000E+000
  0.000000000000000E+000
  0.000000000000000E+000
  0.000000000000000E+000
  0.000000000000000E+000
  0.000000000000000E+000
  0.000000000000000E+000
  0.000000000000000E+000
  0.000000000000000E+000
  0.000000000000000E+000
  0.000000000000000E+000
  0.000000000000000E+000
  0.000000000000000E+000
  0.000000000000000E+000
  0.000000000000000E+000
  0.000000000000000E+000
  0.000000000000000E+000
  0.000000000000000E+000
  0.000000000000000E+000
  0.000000000000000E+000
  0.000000000000000E+000
  0.000000000000000E+000
  0.000000000000000E+000
  0.000000000000000E+000
  0.000000000000000E+000
  0.000000000000000E+000
  0.000000000000000E+000
  0.000000000000000E+000
  0.000000000000000E+000
  0.000000000000000E+000
  0.000000000000000E+000
  0.000000000000000E+000
  0.000000000000000E+000
  0.000000000000000E+000
  0.000000000000000E+000
  0.000000000000000E+000
  0.000000000000000E+000
  0.000000000000000E+000
  0.000000000000000E+000
  0.000000000000000E+000
  0.000000000000000E+000
  0.000000000000000E+000
  0.000000000000000E+000
  0.000000000000000E+000
  0.000000000000000E+000
  0.000000000000000E+000
  0.000000000000000E+000
  0.000000000000000E+000
  0.000000000000000E+000
  0.000000000000000E+000
  0.000000000000000E+000
  0.000000000000000E+000
  0.000000000000000E+000
  0.000000000000000E+000
  0.000000000000000E+000
  0.000000000000000E+000
  0.000000000000000E+000
  0.000000000000000E+000
  0.000000000000000E+000
  0.000000000000000E+000
  0.000000000000000E+000
  0.000000000000000E+000
  0.000000000000000E+000
  0.000000000000000E+000
  0.000000000000000E+000
  0.000000000000000E+000
  0.000000000000000E+000
  0.000000000000000E+000
  0.000000000000000E+000
  0.000000000000000E+000
  0.000000000000000E+000
  0.000000000000000E+000
  0.000000000000000E+000
  0.000000000000000E+000
  0.000000000000000E+000
  0.000000000000000E+000
  0.000000000000000E+000
  0.000000000000000E+000
  0.000000000000000E+000
  0.000000000000000E+000
  0.000000000000000E+000
  0.000000000000000E+000
  0.000000000000000E+000
  0.000000000000000E+000
  0.000000000000000E+000
  0.000000000000000E+000
  0.000000000000000E+000
  0.000000000000000E+000
  0.000000000000000E+000
  0.000000000000000E+000
  0.000000000000000E+000
  0.000000000000000E+000
  0.000000000000000E+000
  0.000000000000000E+000
  0.000000000000000E+000
  0.000000000000000E+000
  0.000000000000000E+000
  0.000000000000000E+000
  0.000000000000000E+000
  0.000000000000000E+000
  0.000000000000000E+000
  0.000000000000000E+000
  0.000000000000000E+000
  0.000000000000000E+000
  0.000000000000000E+000
  0.000000000000000E+000
  0.000000000000000E+000
  0.000000000000000E+000
  0.000000000000000E+000
  0.000000000000000E+000
  0.000000000000000E+000
  0.000000000000000E+000
  0.000000000000000E+000
  0.000000000000000E+000
  0.000000000000000E+000
  0.000000000000000E+000
  0.000000000000000E+000
  0.000000000000000E+000
  0.000000000000000E+000
  0.000000000000000E+000
  0.000000000000000E+000
  0.000000000000000E+000
  0.000000000000000E+000
  0.000000000000000E+000
  0.000000000000000E+000
  0.000000000000000E+000
  0.000000000000000E+000
  0.000000000000000E+000
  0.000000000000000E+000
  0.000000000000000E+000
  0.000000000000000E+000
  0.000000000000000E+000
  0.000000000000000E+000
  0.000000000000000E+000
  0.000000000000000E+000
  0.000000000000000E+000
  0.000000000000000E+000
  0.000000000000000E+000
  0.000000000000000E+000
  0.000000000000000E+000
  0.000000000000000E+000
  0.000000000000000E+000
  0.000000000000000E+000
  0.000000000000000E+000
  0.000000000000000E+000
  0.000000000000000E+000
  0.000000000000000E+000
  0.000000000000000E+000
  0.000000000000000E+000
  0.000000000000000E+000
  0.000000000000000E+000
  0.000000000000000E+000
  0.000000000000000E+000
  0.000000000000000E+000
  0.000000000000000E+000
  0.000000000000000E+000
  0.000000000000000E+000
  0.000000000000000E+000
  0.000000000000000E+000
  0.000000000000000E+000
  0.000000000000000E+000
  0.000000000000000E+000
  0.000000000000000E+000
  0.000000000000000E+000
  0.000000000000000E+000
  0.000000000000000E+000
  0.000000000000000E+000
  0.000000000000000E+000
  0.000000000000000E+000
  0.000000000000000E+000
  0.000000000000000E+000
  0.000000000000000E+000
  0.000000000000000E+000
  0.000000000000000E+000
  0.000000000000000E+000
  0.000000000000000E+000
  0.000000000000000E+000
  0.000000000000000E+000
  0.000000000000000E+000
  0.000000000000000E+000
  0.000000000000000E+000
  0.000000000000000E+000
  0.000000000000000E+000
  0.000000000000000E+000
  0.000000000000000E+000
  0.000000000000000E+000
  0.000000000000000E+000
  0.000000000000000E+000
  0.000000000000000E+000
  0.000000000000000E+000
  0.000000000000000E+000
  0.000000000000000E+000
  0.000000000000000E+000
  0.000000000000000E+000
  0.000000000000000E+000
  0.000000000000000E+000
  0.000000000000000E+000
  0.000000000000000E+000
  0.000000000000000E+000
  0.000000000000000E+000
  0.000000000000000E+000
  0.000000000000000E+000
  0.000000000000000E+000
  0.000000000000000E+000
  0.000000000000000E+000
  0.000000000000000E+000
  0.000000000000000E+000
  0.000000000000000E+000
  0.000000000000000E+000
  0.000000000000000E+000
  0.000000000000000E+000
  0.000000000000000E+000
  0.000000000000000E+000
  0.000000000000000E+000
  0.000000000000000E+000
  0.000000000000000E+000
  0.000000000000000E+000
  0.000000000000000E+000
  0.000000000000000E+000
  0.000000000000000E+000
  0.000000000000000E+000
  0.000000000000000E+000
  0.000000000000000E+000
  0.000000000000000E+000
  0.000000000000000E+000
  0.000000000000000E+000
  0.000000000000000E+000
  0.000000000000000E+000
  0.000000000000000E+000
  0.000000000000000E+000
  0.000000000000000E+000
  0.000000000000000E+000
  0.000000000000000E+000
  0.000000000000000E+000
  0.000000000000000E+000
  0.000000000000000E+000
  0.000000000000000E+000
  0.000000000000000E+000
  0.000000000000000E+000
  0.000000000000000E+000
  0.000000000000000E+000
  0.000000000000000E+000
  0.000000000000000E+000
  0.000000000000000E+000
  0.000000000000000E+000
  0.000000000000000E+000
  0.000000000000000E+000
  0.000000000000000E+000
  0.000000000000000E+000
  0.000000000000000E+000
  0.000000000000000E+000
  0.000000000000000E+000
  0.000000000000000E+000
  0.000000000000000E+000
  0.000000000000000E+000
  0.000000000000000E+000
  0.000000000000000E+000
  0.000000000000000E+000
  0.000000000000000E+000
  0.000000000000000E+000
  0.000000000000000E+000
  0.000000000000000E+000
  0.000000000000000E+000
  0.000000000000000E+000
  0.000000000000000E+000
  0.000000000000000E+000
  0.000000000000000E+000
  0.000000000000000E+000
  0.000000000000000E+000
  0.000000000000000E+000
  0.000000000000000E+000
  0.000000000000000E+000
  0.000000000000000E+000
  0.000000000000000E+000
  0.000000000000000E+000
  0.000000000000000E+000
  0.000000000000000E+000
  0.000000000000000E+000
  0.000000000000000E+000
  0.000000000000000E+000
  0.000000000000000E+000
  0.000000000000000E+000
  0.000000000000000E+000
  0.000000000000000E+000
  0.000000000000000E+000
  0.000000000000000E+000
  0.000000000000000E+000
  0.000000000000000E+000
  0.000000000000000E+000
  0.000000000000000E+000
  0.000000000000000E+000
  0.000000000000000E+000
  0.000000000000000E+000
  0.000000000000000E+000
  0.000000000000000E+000
  0.000000000000000E+000
  0.000000000000000E+000
  0.000000000000000E+000
  0.000000000000000E+000
  0.000000000000000E+000
  0.000000000000000E+000
  0.000000000000000E+000
  0.000000000000000E+000
  0.000000000000000E+000
  0.000000000000000E+000
  0.000000000000000E+000
  0.000000000000000E+000
  0.000000000000000E+000
  0.000000000000000E+000
  0.000000000000000E+000
  0.000000000000000E+000
  0.000000000000000E+000
  0.000000000000000E+000
  0.000000000000000E+000
  0.000000000000000E+000
  0.000000000000000E+000
  0.000000000000000E+000
  0.000000000000000E+000
  0.000000000000000E+000
  0.000000000000000E+000
  0.000000000000000E+000
  0.000000000000000E+000
  0.000000000000000E+000
  0.000000000000000E+000
  0.000000000000000E+000
  0.000000000000000E+000
  0.000000000000000E+000
  0.000000000000000E+000
  0.000000000000000E+000
  0.000000000000000E+000
  0.000000000000000E+000
  0.000000000000000E+000
  0.000000000000000E+000
  0.000000000000000E+000
  0.000000000000000E+000
  0.000000000000000E+000
  0.000000000000000E+000
  0.000000000000000E+000
  0.000000000000000E+000
  0.000000000000000E+000
  0.000000000000000E+000
  0.000000000000000E+000
  0.000000000000000E+000
  0.000000000000000E+000
  0.000000000000000E+000
  0.000000000000000E+000
  0.000000000000000E+000
  0.000000000000000E+000
  0.000000000000000E+000
  0.000000000000000E+000
  0.000000000000000E+000
  0.000000000000000E+000
  0.000000000000000E+000
  0.000000000000000E+000
  0.000000000000000E+000
  0.000000000000000E+000
  0.000000000000000E+000
  0.000000000000000E+000
  0.000000000000000E+000
  0.000000000000000E+000
  0.000000000000000E+000
  0.000000000000000E+000
  0.000000000000000E+000
  0.000000000000000E+000
  0.000000000000000E+000
  0.000000000000000E+000
  0.000000000000000E+000
  0.000000000000000E+000
  0.000000000000000E+000
  0.000000000000000E+000
  0.000000000000000E+000
  0.000000000000000E+000
  0.000000000000000E+000
  0.000000000000000E+000
  0.000000000000000E+000
  0.000000000000000E+000
  0.000000000000000E+000
  0.000000000000000E+000
  0.000000000000000E+000
  0.000000000000000E+000
  0.000000000000000E+000
  0.000000000000000E+000
  0.000000000000000E+000
  0.000000000000000E+000
  0.000000000000000E+000
  0.000000000000000E+000
  0.000000000000000E+000
  0.000000000000000E+000
  0.000000000000000E+000
  0.000000000000000E+000
  0.000000000000000E+000
  0.000000000000000E+000
  0.000000000000000E+000
  0.000000000000000E+000
  0.000000000000000E+000
  0.000000000000000E+000
  0.000000000000000E+000
  0.000000000000000E+000
  0.000000000000000E+000
  0.000000000000000E+000
  0.000000000000000E+000
  0.000000000000000E+000
  0.000000000000000E+000
  0.000000000000000E+000
  0.000000000000000E+000
  0.000000000000000E+000
  0.000000000000000E+000
  0.000000000000000E+000
  0.000000000000000E+000
  0.000000000000000E+000
  0.000000000000000E+000
  0.000000000000000E+000
  0.000000000000000E+000
  0.000000000000000E+000
  0.000000000000000E+000
  0.000000000000000E+000
  0.000000000000000E+000
  0.000000000000000E+000
  0.000000000000000E+000
  0.000000000000000E+000
  0.000000000000000E+000
  0.000000000000000E+000
  0.000000000000000E+000
  0.000000000000000E+000
  0.000000000000000E+000
  0.000000000000000E+000
  0.000000000000000E+000
  0.000000000000000E+000
  0.000000000000000E+000
  0.000000000000000E+000
  0.000000000000000E+000
  0.000000000000000E+000
  0.000000000000000E+000
  0.000000000000000E+000
  0.000000000000000E+000
  0.000000000000000E+000
  0.000000000000000E+000
  0.000000000000000E+000
  0.000000000000000E+000
  0.000000000000000E+000
  0.000000000000000E+000
  0.000000000000000E+000
  0.000000000000000E+000
  0.000000000000000E+000
  0.000000000000000E+000
  0.000000000000000E+000
  0.000000000000000E+000
  0.000000000000000E+000
  0.000000000000000E+000
  0.000000000000000E+000
  0.000000000000000E+000
  0.000000000000000E+000
  0.000000000000000E+000
  0.000000000000000E+000
  0.000000000000000E+000
  0.000000000000000E+000
  0.000000000000000E+000
  0.000000000000000E+000
  0.000000000000000E+000
  0.000000000000000E+000
  0.000000000000000E+000
  0.000000000000000E+000
  0.000000000000000E+000
  0.000000000000000E+000
  0.000000000000000E+000
  0.000000000000000E+000
  0.000000000000000E+000
  0.000000000000000E+000
  0.000000000000000E+000
  0.000000000000000E+000
  0.000000000000000E+000
  0.000000000000000E+000
  0.000000000000000E+000
  0.000000000000000E+000
  0.000000000000000E+000
  0.000000000000000E+000
  0.000000000000000E+000
  0.000000000000000E+000
  0.000000000000000E+000
  0.000000000000000E+000
  0.000000000000000E+000
  0.000000000000000E+000
  0.000000000000000E+000
  0.000000000000000E+000
  0.000000000000000E+000
  0.000000000000000E+000
  0.000000000000000E+000
  0.000000000000000E+000
  0.000000000000000E+000
  0.000000000000000E+000
  0.000000000000000E+000
  0.000000000000000E+000
  0.000000000000000E+000
  0.000000000000000E+000
  0.000000000000000E+000
  0.000000000000000E+000
  0.000000000000000E+000
  0.000000000000000E+000
  0.000000000000000E+000
  0.000000000000000E+000
  0.000000000000000E+000
  0.000000000000000E+000
  0.000000000000000E+000
  0.000000000000000E+000
  0.000000000000000E+000
  0.000000000000000E+000
  0.000000000000000E+000
  0.000000000000000E+000
  0.000000000000000E+000
  0.000000000000000E+000
  0.000000000000000E+000
  0.000000000000000E+000
  0.000000000000000E+000
  0.000000000000000E+000
  0.000000000000000E+000
  0.000000000000000E+000
  0.000000000000000E+000
  0.000000000000000E+000
  0.000000000000000E+000
  0.000000000000000E+000
  0.000000000000000E+000
  0.000000000000000E+000
  0.000000000000000E+000
  0.000000000000000E+000
  0.000000000000000E+000
  0.000000000000000E+000
  0.000000000000000E+000
  0.000000000000000E+000
  0.000000000000000E+000
  0.000000000000000E+000
  0.000000000000000E+000
  0.000000000000000E+000
  0.000000000000000E+000
  0.000000000000000E+000
  0.000000000000000E+000
  0.000000000000000E+000
  0.000000000000000E+000
  0.000000000000000E+000
  0.000000000000000E+000
  0.000000000000000E+000
  0.000000000000000E+000
  0.000000000000000E+000
  0.000000000000000E+000
  0.000000000000000E+000
  0.000000000000000E+000
  0.000000000000000E+000
  0.000000000000000E+000
  0.000000000000000E+000
  0.000000000000000E+000
  0.000000000000000E+000
  0.000000000000000E+000
  0.000000000000000E+000
  0.000000000000000E+000
  0.000000000000000E+000
  0.000000000000000E+000
  0.000000000000000E+000
  0.000000000000000E+000
  0.000000000000000E+000
  0.000000000000000E+000
  0.000000000000000E+000
  0.000000000000000E+000
  0.000000000000000E+000
  0.000000000000000E+000
  0.000000000000000E+000
  0.000000000000000E+000
  0.000000000000000E+000
  0.000000000000000E+000
  0.000000000000000E+000
  0.000000000000000E+000
  0.000000000000000E+000
  0.000000000000000E+000
  0.000000000000000E+000
  0.000000000000000E+000
  0.000000000000000E+000
  0.000000000000000E+000
  0.000000000000000E+000
  0.000000000000000E+000
  0.000000000000000E+000
  0.000000000000000E+000
  0.000000000000000E+000
  0.000000000000000E+000
  0.000000000000000E+000
  0.000000000000000E+000
  0.000000000000000E+000
  0.000000000000000E+000
  0.000000000000000E+000
  0.000000000000000E+000
  0.000000000000000E+000
  0.000000000000000E+000
  0.000000000000000E+000
  0.000000000000000E+000
  0.000000000000000E+000
  0.000000000000000E+000
  0.000000000000000E+000
  0.000000000000000E+000
  0.000000000000000E+000
  0.000000000000000E+000
  0.000000000000000E+000
  0.000000000000000E+000
  0.000000000000000E+000
  0.000000000000000E+000
  0.000000000000000E+000
  0.000000000000000E+000
  0.000000000000000E+000
  0.000000000000000E+000
  0.000000000000000E+000
  0.000000000000000E+000
  0.000000000000000E+000
  0.000000000000000E+000
  0.000000000000000E+000
  0.000000000000000E+000
  0.000000000000000E+000
  0.000000000000000E+000
  0.000000000000000E+000
  0.000000000000000E+000
  0.000000000000000E+000
  0.000000000000000E+000
  0.000000000000000E+000
  0.000000000000000E+000
  0.000000000000000E+000
  0.000000000000000E+000
  0.000000000000000E+000
  0.000000000000000E+000
  0.000000000000000E+000
  0.000000000000000E+000
  0.000000000000000E+000
  0.000000000000000E+000
  0.000000000000000E+000
  0.000000000000000E+000
  0.000000000000000E+000
  0.000000000000000E+000
  0.000000000000000E+000
  0.000000000000000E+000
  0.000000000000000E+000
  0.000000000000000E+000
  0.000000000000000E+000
  0.000000000000000E+000
  0.000000000000000E+000
  0.000000000000000E+000
  0.000000000000000E+000
  0.000000000000000E+000
  0.000000000000000E+000
  0.000000000000000E+000
  0.000000000000000E+000
  0.000000000000000E+000
  0.000000000000000E+000
  0.000000000000000E+000
  0.000000000000000E+000
  0.000000000000000E+000
  0.000000000000000E+000
  0.000000000000000E+000
  0.000000000000000E+000
  0.000000000000000E+000
  0.000000000000000E+000
  0.000000000000000E+000
  0.000000000000000E+000
  0.000000000000000E+000
  0.000000000000000E+000
  0.000000000000000E+000
  0.000000000000000E+000
  0.000000000000000E+000
  0.000000000000000E+000
  0.000000000000000E+000
  0.000000000000000E+000
  0.000000000000000E+000
  0.000000000000000E+000
  0.000000000000000E+000
  0.000000000000000E+000
  0.000000000000000E+000
  0.000000000000000E+000
  0.000000000000000E+000
  0.000000000000000E+000
  0.000000000000000E+000
  0.000000000000000E+000
  0.000000000000000E+000
  0.000000000000000E+000
  0.000000000000000E+000
  0.000000000000000E+000
  0.000000000000000E+000
  0.000000000000000E+000
  0.000000000000000E+000
  0.000000000000000E+000
  0.000000000000000E+000
  0.000000000000000E+000
  0.000000000000000E+000
  0.000000000000000E+000
  0.000000000000000E+000
  0.000000000000000E+000
  0.000000000000000E+000
  0.000000000000000E+000
  0.000000000000000E+000
  0.000000000000000E+000
  0.000000000000000E+000
  0.000000000000000E+000
  0.000000000000000E+000
  0.000000000000000E+000
  0.000000000000000E+000
  0.000000000000000E+000
  0.000000000000000E+000
  0.000000000000000E+000
  0.000000000000000E+000
  0.000000000000000E+000
  0.000000000000000E+000
  0.000000000000000E+000
  0.000000000000000E+000
  0.000000000000000E+000
  0.000000000000000E+000
  0.000000000000000E+000
  0.000000000000000E+000
  0.000000000000000E+000
  0.000000000000000E+000
  0.000000000000000E+000
  0.000000000000000E+000
  0.000000000000000E+000
  0.000000000000000E+000
  0.000000000000000E+000
  0.000000000000000E+000
  0.000000000000000E+000
  0.000000000000000E+000
  0.000000000000000E+000
  0.000000000000000E+000
  0.000000000000000E+000
  0.000000000000000E+000
  0.000000000000000E+000
  0.000000000000000E+000
  0.000000000000000E+000
  0.000000000000000E+000
  0.000000000000000E+000
  0.000000000000000E+000
  0.000000000000000E+000
  0.000000000000000E+000
  0.000000000000000E+000
  0.000000000000000E+000
  0.000000000000000E+000
  0.000000000000000E+000
  0.000000000000000E+000
  0.000000000000000E+000
  0.000000000000000E+000
  0.000000000000000E+000
  0.000000000000000E+000
  0.000000000000000E+000
  0.000000000000000E+000
  0.000000000000000E+000
  0.000000000000000E+000
  0.000000000000000E+000
  0.000000000000000E+000
  0.000000000000000E+000
  0.000000000000000E+000
  0.000000000000000E+000
  0.000000000000000E+000
  0.000000000000000E+000
  0.000000000000000E+000
  0.000000000000000E+000
  0.000000000000000E+000
  0.000000000000000E+000
  0.000000000000000E+000
  0.000000000000000E+000
  0.000000000000000E+000
  0.000000000000000E+000
  0.000000000000000E+000
  0.000000000000000E+000
  0.000000000000000E+000
  0.000000000000000E+000
  0.000000000000000E+000
  0.000000000000000E+000
  0.000000000000000E+000
  0.000000000000000E+000
  0.000000000000000E+000
  0.000000000000000E+000
  0.000000000000000E+000
  0.000000000000000E+000
  0.000000000000000E+000
  0.000000000000000E+000
  0.000000000000000E+000
  0.000000000000000E+000
  0.000000000000000E+000
  0.000000000000000E+000
  0.000000000000000E+000
  0.000000000000000E+000
  0.000000000000000E+000
  0.000000000000000E+000
  0.000000000000000E+000
  0.000000000000000E+000
  0.000000000000000E+000
  0.000000000000000E+000
  0.000000000000000E+000
  0.000000000000000E+000
  0.000000000000000E+000
  0.000000000000000E+000
  0.000000000000000E+000
  0.000000000000000E+000
  0.000000000000000E+000
  0.000000000000000E+000
  0.000000000000000E+000
  0.000000000000000E+000
  0.000000000000000E+000
  0.000000000000000E+000
  0.000000000000000E+000
  0.000000000000000E+000
  0.000000000000000E+000
  0.000000000000000E+000
  0.000000000000000E+000
  0.000000000000000E+000
  0.000000000000000E+000
  0.000000000000000E+000
  0.000000000000000E+000
  0.000000000000000E+000
  0.000000000000000E+000
  0.000000000000000E+000
  0.000000000000000E+000
  0.000000000000000E+000
  0.000000000000000E+000
  0.000000000000000E+000
  0.000000000000000E+000
  0.000000000000000E+000
  0.000000000000000E+000
  0.000000000000000E+000
  0.000000000000000E+000
  0.000000000000000E+000
  0.000000000000000E+000
  0.000000000000000E+000
  0.000000000000000E+000
  0.000000000000000E+000
  0.000000000000000E+000
  0.000000000000000E+000
  0.000000000000000E+000
  0.000000000000000E+000
  0.000000000000000E+000
  0.000000000000000E+000
  0.000000000000000E+000
  0.000000000000000E+000
  0.000000000000000E+000
  0.000000000000000E+000
  0.000000000000000E+000
  0.000000000000000E+000
  0.000000000000000E+000
  0.000000000000000E+000
  0.000000000000000E+000
  0.000000000000000E+000
  0.000000000000000E+000
  0.000000000000000E+000
  0.000000000000000E+000
  0.000000000000000E+000
  0.000000000000000E+000
  0.000000000000000E+000
  0.000000000000000E+000
  0.000000000000000E+000
  0.000000000000000E+000
  0.000000000000000E+000
  0.000000000000000E+000
  0.000000000000000E+000
  0.000000000000000E+000
  0.000000000000000E+000
  0.000000000000000E+000
  0.000000000000000E+000
  0.000000000000000E+000
  0.000000000000000E+000
  0.000000000000000E+000
  0.000000000000000E+000
  0.000000000000000E+000
  0.000000000000000E+000
  0.000000000000000E+000
  0.000000000000000E+000
  0.000000000000000E+000
  0.000000000000000E+000
  0.000000000000000E+000
  0.000000000000000E+000
  0.000000000000000E+000
  0.000000000000000E+000
  0.000000000000000E+000
  0.000000000000000E+000
  0.000000000000000E+000
  0.000000000000000E+000
  0.000000000000000E+000
  0.000000000000000E+000
  0.000000000000000E+000
  0.000000000000000E+000
  0.000000000000000E+000
  0.000000000000000E+000
  0.000000000000000E+000
  0.000000000000000E+000
  0.000000000000000E+000
  0.000000000000000E+000
  0.000000000000000E+000
  0.000000000000000E+000
  0.000000000000000E+000
  0.000000000000000E+000
  0.000000000000000E+000
  0.000000000000000E+000
  0.000000000000000E+000
  0.000000000000000E+000
  0.000000000000000E+000
  0.000000000000000E+000
  0.000000000000000E+000
  0.000000000000000E+000
  0.000000000000000E+000
  0.000000000000000E+000
  0.000000000000000E+000
  0.000000000000000E+000
  0.000000000000000E+000
  0.000000000000000E+000
  0.000000000000000E+000
  0.000000000000000E+000
  0.000000000000000E+000
  0.000000000000000E+000
  0.000000000000000E+000
  0.000000000000000E+000
  0.000000000000000E+000
  0.000000000000000E+000
  0.000000000000000E+000
  0.000000000000000E+000
  0.000000000000000E+000
  0.000000000000000E+000
  0.000000000000000E+000
  0.000000000000000E+000
  0.000000000000000E+000
  0.000000000000000E+000
  0.000000000000000E+000
  0.000000000000000E+000
  0.000000000000000E+000
  0.000000000000000E+000
  0.000000000000000E+000
  0.000000000000000E+000
  0.000000000000000E+000
  0.000000000000000E+000
  0.000000000000000E+000
  0.000000000000000E+000
  0.000000000000000E+000
  0.000000000000000E+000
  0.000000000000000E+000
  0.000000000000000E+000
  0.000000000000000E+000
  0.000000000000000E+000
  0.000000000000000E+000
  0.000000000000000E+000
  0.000000000000000E+000
  0.000000000000000E+000
  0.000000000000000E+000
  0.000000000000000E+000
  0.000000000000000E+000
  0.000000000000000E+000
  0.000000000000000E+000
  0.000000000000000E+000
  0.000000000000000E+000
  0.000000000000000E+000
  0.000000000000000E+000
  0.000000000000000E+000
  0.000000000000000E+000
  0.000000000000000E+000
  0.000000000000000E+000
  0.000000000000000E+000
  0.000000000000000E+000
  0.000000000000000E+000
  0.000000000000000E+000
  0.000000000000000E+000
  0.000000000000000E+000
  0.000000000000000E+000
  0.000000000000000E+000
  0.000000000000000E+000
  0.000000000000000E+000
  0.000000000000000E+000
  0.000000000000000E+000
  0.000000000000000E+000
  0.000000000000000E+000
  0.000000000000000E+000
  0.000000000000000E+000
  0.000000000000000E+000
  0.000000000000000E+000
  0.000000000000000E+000
  0.000000000000000E+000
  0.000000000000000E+000
  0.000000000000000E+000
  0.000000000000000E+000
  0.000000000000000E+000
  0.000000000000000E+000
  0.000000000000000E+000
  0.000000000000000E+000
  0.000000000000000E+000
  0.000000000000000E+000
  0.000000000000000E+000
  0.000000000000000E+000
  0.000000000000000E+000
  0.000000000000000E+000
  0.000000000000000E+000
  0.000000000000000E+000
  0.000000000000000E+000
  0.000000000000000E+000
  0.000000000000000E+000
  0.000000000000000E+000
  0.000000000000000E+000
  0.000000000000000E+000
  0.000000000000000E+000
  0.000000000000000E+000
  0.000000000000000E+000
  0.000000000000000E+000
  0.000000000000000E+000
  0.000000000000000E+000
  0.000000000000000E+000
  0.000000000000000E+000
  0.000000000000000E+000
  0.000000000000000E+000
  0.000000000000000E+000
  0.000000000000000E+000
  0.000000000000000E+000
  0.000000000000000E+000
  0.000000000000000E+000
  0.000000000000000E+000
  0.000000000000000E+000
  0.000000000000000E+000
  0.000000000000000E+000
  0.000000000000000E+000
  0.000000000000000E+000
  0.000000000000000E+000
  0.000000000000000E+000
  0.000000000000000E+000
  0.000000000000000E+000
  0.000000000000000E+000
  0.000000000000000E+000
  0.000000000000000E+000
  0.000000000000000E+000
  0.000000000000000E+000
  0.000000000000000E+000
  0.000000000000000E+000
  0.000000000000000E+000
  0.000000000000000E+000
  0.000000000000000E+000
  0.000000000000000E+000
  0.000000000000000E+000
  0.000000000000000E+000
  0.000000000000000E+000
  0.000000000000000E+000
  0.000000000000000E+000
  0.000000000000000E+000
  0.000000000000000E+000
  0.000000000000000E+000
  0.000000000000000E+000
  0.000000000000000E+000
  0.000000000000000E+000
  0.000000000000000E+000
  0.000000000000000E+000
  0.000000000000000E+000
  0.000000000000000E+000
  0.000000000000000E+000
  0.000000000000000E+000
  0.000000000000000E+000
  0.000000000000000E+000
  0.000000000000000E+000
  0.000000000000000E+000
  0.000000000000000E+000
  0.000000000000000E+000
  0.000000000000000E+000
  0.000000000000000E+000
  0.000000000000000E+000
  0.000000000000000E+000
  0.000000000000000E+000
  0.000000000000000E+000
  0.000000000000000E+000
  0.000000000000000E+000
  0.000000000000000E+000
  0.000000000000000E+000
  0.000000000000000E+000
  0.000000000000000E+000
  0.000000000000000E+000
  0.000000000000000E+000
  0.000000000000000E+000
  0.000000000000000E+000
  0.000000000000000E+000
  0.000000000000000E+000
  0.000000000000000E+000
  0.000000000000000E+000
  0.000000000000000E+000
  0.000000000000000E+000
  0.000000000000000E+000
  0.000000000000000E+000
  0.000000000000000E+000
  0.000000000000000E+000
  0.000000000000000E+000
  0.000000000000000E+000
  0.000000000000000E+000
  0.000000000000000E+000
  0.000000000000000E+000
  0.000000000000000E+000
  0.000000000000000E+000
  0.000000000000000E+000
  0.000000000000000E+000
  0.000000000000000E+000
  0.000000000000000E+000
  0.000000000000000E+000
  0.000000000000000E+000
  0.000000000000000E+000
  0.000000000000000E+000
  0.000000000000000E+000
  0.000000000000000E+000
  0.000000000000000E+000
  0.000000000000000E+000
  0.000000000000000E+000
  0.000000000000000E+000
  0.000000000000000E+000
  0.000000000000000E+000
  0.000000000000000E+000
  0.000000000000000E+000
  0.000000000000000E+000
  0.000000000000000E+000
  0.000000000000000E+000
  0.000000000000000E+000
  0.000000000000000E+000
  0.000000000000000E+000
  0.000000000000000E+000
  0.000000000000000E+000
  0.000000000000000E+000
  0.000000000000000E+000
  0.000000000000000E+000
  0.000000000000000E+000
  0.000000000000000E+000
  0.000000000000000E+000
  0.000000000000000E+000
  0.000000000000000E+000
  0.000000000000000E+000
  0.000000000000000E+000
  0.000000000000000E+000
  0.000000000000000E+000
  0.000000000000000E+000
  0.000000000000000E+000
  0.000000000000000E+000
  0.000000000000000E+000
  0.000000000000000E+000
  0.000000000000000E+000
  0.000000000000000E+000
  0.000000000000000E+000
  0.000000000000000E+000
  0.000000000000000E+000
  0.000000000000000E+000
  0.000000000000000E+000
  0.000000000000000E+000
  0.000000000000000E+000
  0.000000000000000E+000
  0.000000000000000E+000
  0.000000000000000E+000
  0.000000000000000E+000
  0.000000000000000E+000
  0.000000000000000E+000
  0.000000000000000E+000
  0.000000000000000E+000
  0.000000000000000E+000
  0.000000000000000E+000
  0.000000000000000E+000
  0.000000000000000E+000
  0.000000000000000E+000
  0.000000000000000E+000
  0.000000000000000E+000
  0.000000000000000E+000
  0.000000000000000E+000
  0.000000000000000E+000
  0.000000000000000E+000
  0.000000000000000E+000
  0.000000000000000E+000
  0.000000000000000E+000
  0.000000000000000E+000
  0.000000000000000E+000
  0.000000000000000E+000
  0.000000000000000E+000
  0.000000000000000E+000
  0.000000000000000E+000
  0.000000000000000E+000
  0.000000000000000E+000
  0.000000000000000E+000
  0.000000000000000E+000
  0.000000000000000E+000
  0.000000000000000E+000
  0.000000000000000E+000
  0.000000000000000E+000
  0.000000000000000E+000
  0.000000000000000E+000
  0.000000000000000E+000
  0.000000000000000E+000
  0.000000000000000E+000
  0.000000000000000E+000
  0.000000000000000E+000
  0.000000000000000E+000
  0.000000000000000E+000
  0.000000000000000E+000
  0.000000000000000E+000
  0.000000000000000E+000
  0.000000000000000E+000
  0.000000000000000E+000
  0.000000000000000E+000
  0.000000000000000E+000
  0.000000000000000E+000
  0.000000000000000E+000
  0.000000000000000E+000
  0.000000000000000E+000
  0.000000000000000E+000
  0.000000000000000E+000
  0.000000000000000E+000
  0.000000000000000E+000
  0.000000000000000E+000
  0.000000000000000E+000
  0.000000000000000E+000
  0.000000000000000E+000
  0.000000000000000E+000
  0.000000000000000E+000
  0.000000000000000E+000
  0.000000000000000E+000
  0.000000000000000E+000
  0.000000000000000E+000
  0.000000000000000E+000
  0.000000000000000E+000
  0.000000000000000E+000
  0.000000000000000E+000
  0.000000000000000E+000
  0.000000000000000E+000
  0.000000000000000E+000
  0.000000000000000E+000
  0.000000000000000E+000
  0.000000000000000E+000
  0.000000000000000E+000
  0.000000000000000E+000
  0.000000000000000E+000
  0.000000000000000E+000
  0.000000000000000E+000
  0.000000000000000E+000
  0.000000000000000E+000
  0.000000000000000E+000
  0.000000000000000E+000
  0.000000000000000E+000
  0.000000000000000E+000
  0.000000000000000E+000
  0.000000000000000E+000
  0.000000000000000E+000
  0.000000000000000E+000
  0.000000000000000E+000
  0.000000000000000E+000
  0.000000000000000E+000
  0.000000000000000E+000
  0.000000000000000E+000
  0.000000000000000E+000
  0.000000000000000E+000
  0.000000000000000E+000
  0.000000000000000E+000
  0.000000000000000E+000
  0.000000000000000E+000
  0.000000000000000E+000
  0.000000000000000E+000
  0.000000000000000E+000
  0.000000000000000E+000
  0.000000000000000E+000
  0.000000000000000E+000
  0.000000000000000E+000
  0.000000000000000E+000
  0.000000000000000E+000
  0.000000000000000E+000
  0.000000000000000E+000
  0.000000000000000E+000
  0.000000000000000E+000
  0.000000000000000E+000
  0.000000000000000E+000
  0.000000000000000E+000
  0.000000000000000E+000
  0.000000000000000E+000
  0.000000000000000E+000
  0.000000000000000E+000
  0.000000000000000E+000
  0.000000000000000E+000
  0.000000000000000E+000
  0.000000000000000E+000
  0.000000000000000E+000
  0.000000000000000E+000
  0.000000000000000E+000
  0.000000000000000E+000
  0.000000000000000E+000
  0.000000000000000E+000
  0.000000000000000E+000
  0.000000000000000E+000
  0.000000000000000E+000
  0.000000000000000E+000
  0.000000000000000E+000
  0.000000000000000E+000
  0.000000000000000E+000
  0.000000000000000E+000
  0.000000000000000E+000
  0.000000000000000E+000
  0.000000000000000E+000
  0.000000000000000E+000
  0.000000000000000E+000
  0.000000000000000E+000
  0.000000000000000E+000
  0.000000000000000E+000
  0.000000000000000E+000
  0.000000000000000E+000
  0.000000000000000E+000
  0.000000000000000E+000
  0.000000000000000E+000
  0.000000000000000E+000
  0.000000000000000E+000
  0.000000000000000E+000
  0.000000000000000E+000
  0.000000000000000E+000
  0.000000000000000E+000
  0.000000000000000E+000
  0.000000000000000E+000
  0.000000000000000E+000
  0.000000000000000E+000
  0.000000000000000E+000
  0.000000000000000E+000
  0.000000000000000E+000
  0.000000000000000E+000
  0.000000000000000E+000
  0.000000000000000E+000
  0.000000000000000E+000
  0.000000000000000E+000
  0.000000000000000E+000
  0.000000000000000E+000
  0.000000000000000E+000
  0.000000000000000E+000
  0.000000000000000E+000
  0.000000000000000E+000
  0.000000000000000E+000
  0.000000000000000E+000
  0.000000000000000E+000
  0.000000000000000E+000
  0.000000000000000E+000
  0.000000000000000E+000
  0.000000000000000E+000
  0.000000000000000E+000
  0.000000000000000E+000
  0.000000000000000E+000
  0.000000000000000E+000
  0.000000000000000E+000
  0.000000000000000E+000
  0.000000000000000E+000
  0.000000000000000E+000
  0.000000000000000E+000
  0.000000000000000E+000
  0.000000000000000E+000
  0.000000000000000E+000
  0.000000000000000E+000
  0.000000000000000E+000
  0.000000000000000E+000
  0.000000000000000E+000
  0.000000000000000E+000
  0.000000000000000E+000
  0.000000000000000E+000
  0.000000000000000E+000
  0.000000000000000E+000
  0.000000000000000E+000
  0.000000000000000E+000
  0.000000000000000E+000
  0.000000000000000E+000
  0.000000000000000E+000
  0.000000000000000E+000
  0.000000000000000E+000
  0.000000000000000E+000
  0.000000000000000E+000
  0.000000000000000E+000
  0.000000000000000E+000
  0.000000000000000E+000
  0.000000000000000E+000
  0.000000000000000E+000
  0.000000000000000E+000
  0.000000000000000E+000
  0.000000000000000E+000
  0.000000000000000E+000
  0.000000000000000E+000
  0.000000000000000E+000
  0.000000000000000E+000
  0.000000000000000E+000
  0.000000000000000E+000
  0.000000000000000E+000
  0.000000000000000E+000
  0.000000000000000E+000
  0.000000000000000E+000
  0.000000000000000E+000
  0.000000000000000E+000
  0.000000000000000E+000
  0.000000000000000E+000
  0.000000000000000E+000
  0.000000000000000E+000
  0.000000000000000E+000
  0.000000000000000E+000
  0.000000000000000E+000
  0.000000000000000E+000
  0.000000000000000E+000
  0.000000000000000E+000
  0.000000000000000E+000
  0.000000000000000E+000
  0.000000000000000E+000
  0.000000000000000E+000
  0.000000000000000E+000
  0.000000000000000E+000
  0.000000000000000E+000
  0.000000000000000E+000
  0.000000000000000E+000
  0.000000000000000E+000
  0.000000000000000E+000
  0.000000000000000E+000
  0.000000000000000E+000
  0.000000000000000E+000
  0.000000000000000E+000
  0.000000000000000E+000
  0.000000000000000E+000
  0.000000000000000E+000
  0.000000000000000E+000
  0.000000000000000E+000
  0.000000000000000E+000
  0.000000000000000E+000
  0.000000000000000E+000
  0.000000000000000E+000
  0.000000000000000E+000
  0.000000000000000E+000
  0.000000000000000E+000
  0.000000000000000E+000
  0.000000000000000E+000
  0.000000000000000E+000
  0.000000000000000E+000
  0.000000000000000E+000
  0.000000000000000E+000
  0.000000000000000E+000
  0.000000000000000E+000
  0.000000000000000E+000
  0.000000000000000E+000
  0.000000000000000E+000
  0.000000000000000E+000
  0.000000000000000E+000
  0.000000000000000E+000
  0.000000000000000E+000
  0.000000000000000E+000
  0.000000000000000E+000
  0.000000000000000E+000
  0.000000000000000E+000
  0.000000000000000E+000
  0.000000000000000E+000
  0.000000000000000E+000
  0.000000000000000E+000
  0.000000000000000E+000
  0.000000000000000E+000
  0.000000000000000E+000
  0.000000000000000E+000
  0.000000000000000E+000
  0.000000000000000E+000
  0.000000000000000E+000
  0.000000000000000E+000
  0.000000000000000E+000
  0.000000000000000E+000
  0.000000000000000E+000
  0.000000000000000E+000
  0.000000000000000E+000
  0.000000000000000E+000
  0.000000000000000E+000
  0.000000000000000E+000
  0.000000000000000E+000
  0.000000000000000E+000
  0.000000000000000E+000
  0.000000000000000E+000
  0.000000000000000E+000
  0.000000000000000E+000
  0.000000000000000E+000
  0.000000000000000E+000
  0.000000000000000E+000
  0.000000000000000E+000
  0.000000000000000E+000
  0.000000000000000E+000
  0.000000000000000E+000
  0.000000000000000E+000
  0.000000000000000E+000
  0.000000000000000E+000
  0.000000000000000E+000
  0.000000000000000E+000
  0.000000000000000E+000
  0.000000000000000E+000
  0.000000000000000E+000
  0.000000000000000E+000
  0.000000000000000E+000
  0.000000000000000E+000
  0.000000000000000E+000
  0.000000000000000E+000
  0.000000000000000E+000
  0.000000000000000E+000
  0.000000000000000E+000
  0.000000000000000E+000
  0.000000000000000E+000
  0.000000000000000E+000
  0.000000000000000E+000
  0.000000000000000E+000
  0.000000000000000E+000
  0.000000000000000E+000
  0.000000000000000E+000
  0.000000000000000E+000
  0.000000000000000E+000
  0.000000000000000E+000
  0.000000000000000E+000
  0.000000000000000E+000
  0.000000000000000E+000
  0.000000000000000E+000
  0.000000000000000E+000
  0.000000000000000E+000
  0.000000000000000E+000
  0.000000000000000E+000
  0.000000000000000E+000
  0.000000000000000E+000
  0.000000000000000E+000
  0.000000000000000E+000
  0.000000000000000E+000
  0.000000000000000E+000
  0.000000000000000E+000
  0.000000000000000E+000
  0.000000000000000E+000
  0.000000000000000E+000
  0.000000000000000E+000
  0.000000000000000E+000
  0.000000000000000E+000
  0.000000000000000E+000
  0.000000000000000E+000
  0.000000000000000E+000
  0.000000000000000E+000
  0.000000000000000E+000
  0.000000000000000E+000
  0.000000000000000E+000
  0.000000000000000E+000
  0.000000000000000E+000
  0.000000000000000E+000
  0.000000000000000E+000
  0.000000000000000E+000
  0.000000000000000E+000
  0.000000000000000E+000
  0.000000000000000E+000
  0.000000000000000E+000
  0.000000000000000E+000
  0.000000000000000E+000
  0.000000000000000E+000
  0.000000000000000E+000
  0.000000000000000E+000
  0.000000000000000E+000
  0.000000000000000E+000
  0.000000000000000E+000
  0.000000000000000E+000
  0.000000000000000E+000
  0.000000000000000E+000
  0.000000000000000E+000
  0.000000000000000E+000
  0.000000000000000E+000
  0.000000000000000E+000
  0.000000000000000E+000
  0.000000000000000E+000
  0.000000000000000E+000
  0.000000000000000E+000
  0.000000000000000E+000
  0.000000000000000E+000
  0.000000000000000E+000
  0.000000000000000E+000
  0.000000000000000E+000
  0.000000000000000E+000
  0.000000000000000E+000
  0.000000000000000E+000
  0.000000000000000E+000
  0.000000000000000E+000
  0.000000000000000E+000
  0.000000000000000E+000
  0.000000000000000E+000
  0.000000000000000E+000
  0.000000000000000E+000
  0.000000000000000E+000
  0.000000000000000E+000
  0.000000000000000E+000
  0.000000000000000E+000
  0.000000000000000E+000
  0.000000000000000E+000
  0.000000000000000E+000
  0.000000000000000E+000
  0.000000000000000E+000
  0.000000000000000E+000
  0.000000000000000E+000
  0.000000000000000E+000
  0.000000000000000E+000
  0.000000000000000E+000
  0.000000000000000E+000
  0.000000000000000E+000
  0.000000000000000E+000
  0.000000000000000E+000
  0.000000000000000E+000
  0.000000000000000E+000
  0.000000000000000E+000
  0.000000000000000E+000
  0.000000000000000E+000
  0.000000000000000E+000
  0.000000000000000E+000
  0.000000000000000E+000
  0.000000000000000E+000
  0.000000000000000E+000
  0.000000000000000E+000
  0.000000000000000E+000
  0.000000000000000E+000
  0.000000000000000E+000
  0.000000000000000E+000
  0.000000000000000E+000
  0.000000000000000E+000
  0.000000000000000E+000
  0.000000000000000E+000
  0.000000000000000E+000
  0.000000000000000E+000
  0.000000000000000E+000
  0.000000000000000E+000
  0.000000000000000E+000
  0.000000000000000E+000
  0.000000000000000E+000
  0.000000000000000E+000
  0.000000000000000E+000
  0.000000000000000E+000
  0.000000000000000E+000
  0.000000000000000E+000
  0.000000000000000E+000
  0.000000000000000E+000
  0.000000000000000E+000
  0.000000000000000E+000
  0.000000000000000E+000
  0.000000000000000E+000
  0.000000000000000E+000
  0.000000000000000E+000
  0.000000000000000E+000
  0.000000000000000E+000
  0.000000000000000E+000
  0.000000000000000E+000
  0.000000000000000E+000
  0.000000000000000E+000
  0.000000000000000E+000
  0.000000000000000E+000
  0.000000000000000E+000
  0.000000000000000E+000
  0.000000000000000E+000
  0.000000000000000E+000
  0.000000000000000E+000
  0.000000000000000E+000
  0.000000000000000E+000
  0.000000000000000E+000
  0.000000000000000E+000
  0.000000000000000E+000
  0.000000000000000E+000
  0.000000000000000E+000
  0.000000000000000E+000
  0.000000000000000E+000
  0.000000000000000E+000
  0.000000000000000E+000
  0.000000000000000E+000
  0.000000000000000E+000
  0.000000000000000E+000
  0.000000000000000E+000
  0.000000000000000E+000
  0.000000000000000E+000
  0.000000000000000E+000
  0.000000000000000E+000
  0.000000000000000E+000
  0.000000000000000E+000
  0.000000000000000E+000
  0.000000000000000E+000
  0.000000000000000E+000
  0.000000000000000E+000
  0.000000000000000E+000
  0.000000000000000E+000
  0.000000000000000E+000
  0.000000000000000E+000
  0.000000000000000E+000
  0.000000000000000E+000
  0.000000000000000E+000
  0.000000000000000E+000
  0.000000000000000E+000
  0.000000000000000E+000
  0.000000000000000E+000
  0.000000000000000E+000
  0.000000000000000E+000
  0.000000000000000E+000
  0.000000000000000E+000
  0.000000000000000E+000
  0.000000000000000E+000
  0.000000000000000E+000
  0.000000000000000E+000
  0.000000000000000E+000
  0.000000000000000E+000
  0.000000000000000E+000
  0.000000000000000E+000
  0.000000000000000E+000
  0.000000000000000E+000
  0.000000000000000E+000
  0.000000000000000E+000
  0.000000000000000E+000
  0.000000000000000E+000
  0.000000000000000E+000
  0.000000000000000E+000
  0.000000000000000E+000
  0.000000000000000E+000
  0.000000000000000E+000
  0.000000000000000E+000
  0.000000000000000E+000
  0.000000000000000E+000
  0.000000000000000E+000
  0.000000000000000E+000
  0.000000000000000E+000
  0.000000000000000E+000
  0.000000000000000E+000
  0.000000000000000E+000
  0.000000000000000E+000
  0.000000000000000E+000
  0.000000000000000E+000
  0.000000000000000E+000
  0.000000000000000E+000
  0.000000000000000E+000
  0.000000000000000E+000
  0.000000000000000E+000
  0.000000000000000E+000
  0.000000000000000E+000
  0.000000000000000E+000
  0.000000000000000E+000
  0.000000000000000E+000
  0.000000000000000E+000
  0.000000000000000E+000
  0.000000000000000E+000
  0.000000000000000E+000
  0.000000000000000E+000
  0.000000000000000E+000
  0.000000000000000E+000
  0.000000000000000E+000
  0.000000000000000E+000
  0.000000000000000E+000
  0.000000000000000E+000
  0.000000000000000E+000
  0.000000000000000E+000
  0.000000000000000E+000
  0.000000000000000E+000
  0.000000000000000E+000
  0.000000000000000E+000
  0.000000000000000E+000
  0.000000000000000E+000
  0.000000000000000E+000
  0.000000000000000E+000
  0.000000000000000E+000
  0.000000000000000E+000
  0.000000000000000E+000
  0.000000000000000E+000
  0.000000000000000E+000
  0.000000000000000E+000
  0.000000000000000E+000
  0.000000000000000E+000
  0.000000000000000E+000
  0.000000000000000E+000
  0.000000000000000E+000
  0.000000000000000E+000
  0.000000000000000E+000
  0.000000000000000E+000
  0.000000000000000E+000
  0.000000000000000E+000
  0.000000000000000E+000
  0.000000000000000E+000
  0.000000000000000E+000
  0.000000000000000E+000
  0.000000000000000E+000
  0.000000000000000E+000
  0.000000000000000E+000
  0.000000000000000E+000
  0.000000000000000E+000
  0.000000000000000E+000
  0.000000000000000E+000
  0.000000000000000E+000
  0.000000000000000E+000
  0.000000000000000E+000
  0.000000000000000E+000
  0.000000000000000E+000
  0.000000000000000E+000
  0.000000000000000E+000
  0.000000000000000E+000
  0.000000000000000E+000
  0.000000000000000E+000
  0.000000000000000E+000
  0.000000000000000E+000
  0.000000000000000E+000
  0.000000000000000E+000
  0.000000000000000E+000
  0.000000000000000E+000
  0.000000000000000E+000
  0.000000000000000E+000
  0.000000000000000E+000
  0.000000000000000E+000
  0.000000000000000E+000
  0.000000000000000E+000
  0.000000000000000E+000
  0.000000000000000E+000
  0.000000000000000E+000
  0.000000000000000E+000
  0.000000000000000E+000
  0.000000000000000E+000
  0.000000000000000E+000
  0.000000000000000E+000
  0.000000000000000E+000
  0.000000000000000E+000
  0.000000000000000E+000
  0.000000000000000E+000
  0.000000000000000E+000
  0.000000000000000E+000
  0.000000000000000E+000
  0.000000000000000E+000
  0.000000000000000E+000
  0.000000000000000E+000
  0.000000000000000E+000
  0.000000000000000E+000
  0.000000000000000E+000
  0.000000000000000E+000
  0.000000000000000E+000
  0.000000000000000E+000
  0.000000000000000E+000
  0.000000000000000E+000
  0.000000000000000E+000
  0.000000000000000E+000
  0.000000000000000E+000
  0.000000000000000E+000
  0.000000000000000E+000
  0.000000000000000E+000
  0.000000000000000E+000
  0.000000000000000E+000
  0.000000000000000E+000
  0.000000000000000E+000
  0.000000000000000E+000
  0.000000000000000E+000
  0.000000000000000E+000
  0.000000000000000E+000
  0.000000000000000E+000
  0.000000000000000E+000
  0.000000000000000E+000
  0.000000000000000E+000
  0.000000000000000E+000
  0.000000000000000E+000
  0.000000000000000E+000
  0.000000000000000E+000
  0.000000000000000E+000
  0.000000000000000E+000
  0.000000000000000E+000
  0.000000000000000E+000
  0.000000000000000E+000
  0.000000000000000E+000
  0.000000000000000E+000
  0.000000000000000E+000
  0.000000000000000E+000
  0.000000000000000E+000
  0.000000000000000E+000
  0.000000000000000E+000
  0.000000000000000E+000
  0.000000000000000E+000
  0.000000000000000E+000
  0.000000000000000E+000
  0.000000000000000E+000
  0.000000000000000E+000
  0.000000000000000E+000
  0.000000000000000E+000
  0.000000000000000E+000
  0.000000000000000E+000
  0.000000000000000E+000
  0.000000000000000E+000
  0.000000000000000E+000
  0.000000000000000E+000
  0.000000000000000E+000
  0.000000000000000E+000
  0.000000000000000E+000
  0.000000000000000E+000
  0.000000000000000E+000
  0.000000000000000E+000
  0.000000000000000E+000
  0.000000000000000E+000
  0.000000000000000E+000
  0.000000000000000E+000
  0.000000000000000E+000
  0.000000000000000E+000
  0.000000000000000E+000
  0.000000000000000E+000
  0.000000000000000E+000
  0.000000000000000E+000
  0.000000000000000E+000
  0.000000000000000E+000
  0.000000000000000E+000
  0.000000000000000E+000
  0.000000000000000E+000
  0.000000000000000E+000
  0.000000000000000E+000
  0.000000000000000E+000
  0.000000000000000E+000
  0.000000000000000E+000
  0.000000000000000E+000
  0.000000000000000E+000
  0.000000000000000E+000
  0.000000000000000E+000
  0.000000000000000E+000
  0.000000000000000E+000
  0.000000000000000E+000
  0.000000000000000E+000
  0.000000000000000E+000
  0.000000000000000E+000
  0.000000000000000E+000
  0.000000000000000E+000
  0.000000000000000E+000
  0.000000000000000E+000
  0.000000000000000E+000
  0.000000000000000E+000
  0.000000000000000E+000
  0.000000000000000E+000
  0.000000000000000E+000
  0.000000000000000E+000
  0.000000000000000E+000
  0.000000000000000E+000
  0.000000000000000E+000
  0.000000000000000E+000
  0.000000000000000E+000
  0.000000000000000E+000
  0.000000000000000E+000
  0.000000000000000E+000
  0.000000000000000E+000
  0.000000000000000E+000
  0.000000000000000E+000
  0.000000000000000E+000
  0.000000000000000E+000
  0.000000000000000E+000
  0.000000000000000E+000
  0.000000000000000E+000
  0.000000000000000E+000
  0.000000000000000E+000
  0.000000000000000E+000
  0.000000000000000E+000
  0.000000000000000E+000
  0.000000000000000E+000
  0.000000000000000E+000
  0.000000000000000E+000
  0.000000000000000E+000
  0.000000000000000E+000
  0.000000000000000E+000
  0.000000000000000E+000
  0.000000000000000E+000
  0.000000000000000E+000
  0.000000000000000E+000
  0.000000000000000E+000
  0.000000000000000E+000
  0.000000000000000E+000
  0.000000000000000E+000
  0.000000000000000E+000
  0.000000000000000E+000
  0.000000000000000E+000
  0.000000000000000E+000
  0.000000000000000E+000
  0.000000000000000E+000
  0.000000000000000E+000
  0.000000000000000E+000
  0.000000000000000E+000
  0.000000000000000E+000
  0.000000000000000E+000
  0.000000000000000E+000
  0.000000000000000E+000
  0.000000000000000E+000
  0.000000000000000E+000
  0.000000000000000E+000
  0.000000000000000E+000
  0.000000000000000E+000
  0.000000000000000E+000
  0.000000000000000E+000
  0.000000000000000E+000
  0.000000000000000E+000
  0.000000000000000E+000
  0.000000000000000E+000
  0.000000000000000E+000
  0.000000000000000E+000
  0.000000000000000E+000
  0.000000000000000E+000
  0.000000000000000E+000
  0.000000000000000E+000
  0.000000000000000E+000
  0.000000000000000E+000
  0.000000000000000E+000
  0.000000000000000E+000
  0.000000000000000E+000
  0.000000000000000E+000
  0.000000000000000E+000
  0.000000000000000E+000
  0.000000000000000E+000
  0.000000000000000E+000
  0.000000000000000E+000
  0.000000000000000E+000
  0.000000000000000E+000
  0.000000000000000E+000
  0.000000000000000E+000
  0.000000000000000E+000
  0.000000000000000E+000
  0.000000000000000E+000
  0.000000000000000E+000
  0.000000000000000E+000
  0.000000000000000E+000
  0.000000000000000E+000
  0.000000000000000E+000
  0.000000000000000E+000
  0.000000000000000E+000
  0.000000000000000E+000
  0.000000000000000E+000
  0.000000000000000E+000
  0.000000000000000E+000
  0.000000000000000E+000
  0.000000000000000E+000
  0.000000000000000E+000
  0.000000000000000E+000
  0.000000000000000E+000
  0.000000000000000E+000
  0.000000000000000E+000
  0.000000000000000E+000
  0.000000000000000E+000
  0.000000000000000E+000
  0.000000000000000E+000
  0.000000000000000E+000
  0.000000000000000E+000
  0.000000000000000E+000
  0.000000000000000E+000
  0.000000000000000E+000
  0.000000000000000E+000
  0.000000000000000E+000
  0.000000000000000E+000
  0.000000000000000E+000
  0.000000000000000E+000
  0.000000000000000E+000
  0.000000000000000E+000
  0.000000000000000E+000
  0.000000000000000E+000
  0.000000000000000E+000
  0.000000000000000E+000
  0.000000000000000E+000
  0.000000000000000E+000
  0.000000000000000E+000
  0.000000000000000E+000
  0.000000000000000E+000
  0.000000000000000E+000
  0.000000000000000E+000
  0.000000000000000E+000
  0.000000000000000E+000
  0.000000000000000E+000
  0.000000000000000E+000
  0.000000000000000E+000
  0.000000000000000E+000
  0.000000000000000E+000
  0.000000000000000E+000
  0.000000000000000E+000
  0.000000000000000E+000
  0.000000000000000E+000
  0.000000000000000E+000
  0.000000000000000E+000
  0.000000000000000E+000
  0.000000000000000E+000
  0.000000000000000E+000
  0.000000000000000E+000
  0.000000000000000E+000
  0.000000000000000E+000
  0.000000000000000E+000
  0.000000000000000E+000
  0.000000000000000E+000
  0.000000000000000E+000
  0.000000000000000E+000
  0.000000000000000E+000
  0.000000000000000E+000
  0.000000000000000E+000
  0.000000000000000E+000
  0.000000000000000E+000
  0.000000000000000E+000
  0.000000000000000E+000
  0.000000000000000E+000
  0.000000000000000E+000
  0.000000000000000E+000
  0.000000000000000E+000
  0.000000000000000E+000
  0.000000000000000E+000
  0.000000000000000E+000
  0.000000000000000E+000
  0.000000000000000E+000
  0.000000000000000E+000
  0.000000000000000E+000
  0.000000000000000E+000
  0.000000000000000E+000
  0.000000000000000E+000
  0.000000000000000E+000
  0.000000000000000E+000
  0.000000000000000E+000
  0.000000000000000E+000
  0.000000000000000E+000
  0.000000000000000E+000
  0.000000000000000E+000
  0.000000000000000E+000
  0.000000000000000E+000
  0.000000000000000E+000
  0.000000000000000E+000
  0.000000000000000E+000
  0.000000000000000E+000
  0.000000000000000E+000
  0.000000000000000E+000
  0.000000000000000E+000
  0.000000000000000E+000
  0.000000000000000E+000
  0.000000000000000E+000
  0.000000000000000E+000
  0.000000000000000E+000
  0.000000000000000E+000
  0.000000000000000E+000
  0.000000000000000E+000
  0.000000000000000E+000
  0.000000000000000E+000
  0.000000000000000E+000
  0.000000000000000E+000
  0.000000000000000E+000
  0.000000000000000E+000
  0.000000000000000E+000
  0.000000000000000E+000
  0.000000000000000E+000
  0.000000000000000E+000
  0.000000000000000E+000
  0.000000000000000E+000
  0.000000000000000E+000
  0.000000000000000E+000
  0.000000000000000E+000
  0.000000000000000E+000
  0.000000000000000E+000
  0.000000000000000E+000
  0.000000000000000E+000
  0.000000000000000E+000
  0.000000000000000E+000
  0.000000000000000E+000
  0.000000000000000E+000
  0.000000000000000E+000
  0.000000000000000E+000
  0.000000000000000E+000
  0.000000000000000E+000
  0.000000000000000E+000
  0.000000000000000E+000
  0.000000000000000E+000
  0.000000000000000E+000
  0.000000000000000E+000
  0.000000000000000E+000
  0.000000000000000E+000
  0.000000000000000E+000
  0.000000000000000E+000
  0.000000000000000E+000
  0.000000000000000E+000
  0.000000000000000E+000
  0.000000000000000E+000
  0.000000000000000E+000
  0.000000000000000E+000
  0.000000000000000E+000
  0.000000000000000E+000
  0.000000000000000E+000
  0.000000000000000E+000
  0.000000000000000E+000
  0.000000000000000E+000
  0.000000000000000E+000
  0.000000000000000E+000
  0.000000000000000E+000
  0.000000000000000E+000
  0.000000000000000E+000
  0.000000000000000E+000
  0.000000000000000E+000
  0.000000000000000E+000
  0.000000000000000E+000
  0.000000000000000E+000
  0.000000000000000E+000
  0.000000000000000E+000
  0.000000000000000E+000
  0.000000000000000E+000
  0.000000000000000E+000
  0.000000000000000E+000
  0.000000000000000E+000
  0.000000000000000E+000
  0.000000000000000E+000
  0.000000000000000E+000
  0.000000000000000E+000
  0.000000000000000E+000
  0.000000000000000E+000
  0.000000000000000E+000
  0.000000000000000E+000
  0.000000000000000E+000
  0.000000000000000E+000
  0.000000000000000E+000
  0.000000000000000E+000
  0.000000000000000E+000
  0.000000000000000E+000
  0.000000000000000E+000
  0.000000000000000E+000
  0.000000000000000E+000
  0.000000000000000E+000
  0.000000000000000E+000
  0.000000000000000E+000
  0.000000000000000E+000
  0.000000000000000E+000
  0.000000000000000E+000
  0.000000000000000E+000
  0.000000000000000E+000
  0.000000000000000E+000
  0.000000000000000E+000
  0.000000000000000E+000
  0.000000000000000E+000
  0.000000000000000E+000
  0.000000000000000E+000
  0.000000000000000E+000
  0.000000000000000E+000
  0.000000000000000E+000
  0.000000000000000E+000
  0.000000000000000E+000
  0.000000000000000E+000
  0.000000000000000E+000
  0.000000000000000E+000
  0.000000000000000E+000
  0.000000000000000E+000
  0.000000000000000E+000
  0.000000000000000E+000
  0.000000000000000E+000
  0.000000000000000E+000
  0.000000000000000E+000
  0.000000000000000E+000
  0.000000000000000E+000
  0.000000000000000E+000
  0.000000000000000E+000
  0.000000000000000E+000
  0.000000000000000E+000
  0.000000000000000E+000
  0.000000000000000E+000
  0.000000000000000E+000
  0.000000000000000E+000
  0.000000000000000E+000
  0.000000000000000E+000
  0.000000000000000E+000
  0.000000000000000E+000
  0.000000000000000E+000
  0.000000000000000E+000
  0.000000000000000E+000
  0.000000000000000E+000
  0.000000000000000E+000
  0.000000000000000E+000
  0.000000000000000E+000
  0.000000000000000E+000
  0.000000000000000E+000
  0.000000000000000E+000
  0.000000000000000E+000
  0.000000000000000E+000
  0.000000000000000E+000
  0.000000000000000E+000
  0.000000000000000E+000
  0.000000000000000E+000
  0.000000000000000E+000
  0.000000000000000E+000
  0.000000000000000E+000
  0.000000000000000E+000
  0.000000000000000E+000
  0.000000000000000E+000
  0.000000000000000E+000
  0.000000000000000E+000
  0.000000000000000E+000
  0.000000000000000E+000
  0.000000000000000E+000
  0.000000000000000E+000
  0.000000000000000E+000
  0.000000000000000E+000
  0.000000000000000E+000
  0.000000000000000E+000
  0.000000000000000E+000
  0.000000000000000E+000
  0.000000000000000E+000
  0.000000000000000E+000
  0.000000000000000E+000
  0.000000000000000E+000
  0.000000000000000E+000
  0.000000000000000E+000
  0.000000000000000E+000
  0.000000000000000E+000
  0.000000000000000E+000
  0.000000000000000E+000
  0.000000000000000E+000
  0.000000000000000E+000
  0.000000000000000E+000
  0.000000000000000E+000
  0.000000000000000E+000
  0.000000000000000E+000
  0.000000000000000E+000
  0.000000000000000E+000
  0.000000000000000E+000
  0.000000000000000E+000
  0.000000000000000E+000
  0.000000000000000E+000
  0.000000000000000E+000
  0.000000000000000E+000
  0.000000000000000E+000
  0.000000000000000E+000
  0.000000000000000E+000
  0.000000000000000E+000
  0.000000000000000E+000
  0.000000000000000E+000
  0.000000000000000E+000
  0.000000000000000E+000
  0.000000000000000E+000
  0.000000000000000E+000
  0.000000000000000E+000
  0.000000000000000E+000
  0.000000000000000E+000
  0.000000000000000E+000
  0.000000000000000E+000
  0.000000000000000E+000
  0.000000000000000E+000
  0.000000000000000E+000
  0.000000000000000E+000
  0.000000000000000E+000
  0.000000000000000E+000
  0.000000000000000E+000
  0.000000000000000E+000
  0.000000000000000E+000
  0.000000000000000E+000
  0.000000000000000E+000
  0.000000000000000E+000
  0.000000000000000E+000
  0.000000000000000E+000
  0.000000000000000E+000
  0.000000000000000E+000
  0.000000000000000E+000
  0.000000000000000E+000
  0.000000000000000E+000
  0.000000000000000E+000
  0.000000000000000E+000
  0.000000000000000E+000
  0.000000000000000E+000
  0.000000000000000E+000
  0.000000000000000E+000
  0.000000000000000E+000
  0.000000000000000E+000
  0.000000000000000E+000
  0.000000000000000E+000
  0.000000000000000E+000
  0.000000000000000E+000
  0.000000000000000E+000
  0.000000000000000E+000
  0.000000000000000E+000
  0.000000000000000E+000
  0.000000000000000E+000
  0.000000000000000E+000
  0.000000000000000E+000
  0.000000000000000E+000
  0.000000000000000E+000
  0.000000000000000E+000
  0.000000000000000E+000
  0.000000000000000E+000
  0.000000000000000E+000
  0.000000000000000E+000
  0.000000000000000E+000
  0.000000000000000E+000
  0.000000000000000E+000
  0.000000000000000E+000
  0.000000000000000E+000
  0.000000000000000E+000
  0.000000000000000E+000
  0.000000000000000E+000
  0.000000000000000E+000
  0.000000000000000E+000
  0.000000000000000E+000
  0.000000000000000E+000
  0.000000000000000E+000
  0.000000000000000E+000
  0.000000000000000E+000
  0.000000000000000E+000
  0.000000000000000E+000
  0.000000000000000E+000
  0.000000000000000E+000
  0.000000000000000E+000
  0.000000000000000E+000
  0.000000000000000E+000
  0.000000000000000E+000
  0.000000000000000E+000
  0.000000000000000E+000
  0.000000000000000E+000
  0.000000000000000E+000
  0.000000000000000E+000
  0.000000000000000E+000
  0.000000000000000E+000
  0.000000000000000E+000
  0.000000000000000E+000
  0.000000000000000E+000
  0.000000000000000E+000
  0.000000000000000E+000
  0.000000000000000E+000
  0.000000000000000E+000
  0.000000000000000E+000
  0.000000000000000E+000
  0.000000000000000E+000
  0.000000000000000E+000
  0.000000000000000E+000
  0.000000000000000E+000
  0.000000000000000E+000
  0.000000000000000E+000
  0.000000000000000E+000
  0.000000000000000E+000
  0.000000000000000E+000
  0.000000000000000E+000
  0.000000000000000E+000
  0.000000000000000E+000
  0.000000000000000E+000
  0.000000000000000E+000
  0.000000000000000E+000
  0.000000000000000E+000
  0.000000000000000E+000
  0.000000000000000E+000
  0.000000000000000E+000
  0.000000000000000E+000
  0.000000000000000E+000
  0.000000000000000E+000
  0.000000000000000E+000
  0.000000000000000E+000
  0.000000000000000E+000
  0.000000000000000E+000
  0.000000000000000E+000
  0.000000000000000E+000
  0.000000000000000E+000
  0.000000000000000E+000
  0.000000000000000E+000
  0.000000000000000E+000
  0.000000000000000E+000
  0.000000000000000E+000
  0.000000000000000E+000
  0.000000000000000E+000
  0.000000000000000E+000
  0.000000000000000E+000
  0.000000000000000E+000
  0.000000000000000E+000
  0.000000000000000E+000
  0.000000000000000E+000
  0.000000000000000E+000
  0.000000000000000E+000
  0.000000000000000E+000
  0.000000000000000E+000
  0.000000000000000E+000
  0.000000000000000E+000
  0.000000000000000E+000
  0.000000000000000E+000
  0.000000000000000E+000
  0.000000000000000E+000
  0.000000000000000E+000
  0.000000000000000E+000
  0.000000000000000E+000
  0.000000000000000E+000
  0.000000000000000E+000
  0.000000000000000E+000
  0.000000000000000E+000
  0.000000000000000E+000
  0.000000000000000E+000
  0.000000000000000E+000
  0.000000000000000E+000
  0.000000000000000E+000
  0.000000000000000E+000
  0.000000000000000E+000
  0.000000000000000E+000
  0.000000000000000E+000
  0.000000000000000E+000
  0.000000000000000E+000
  0.000000000000000E+000
  0.000000000000000E+000
  0.000000000000000E+000
  0.000000000000000E+000
  0.000000000000000E+000
  0.000000000000000E+000
  0.000000000000000E+000
  0.000000000000000E+000
  0.000000000000000E+000
  0.000000000000000E+000
  0.000000000000000E+000
  0.000000000000000E+000
  0.000000000000000E+000
  0.000000000000000E+000
  0.000000000000000E+000
  0.000000000000000E+000
  0.000000000000000E+000
  0.000000000000000E+000
  0.000000000000000E+000
  0.000000000000000E+000
  0.000000000000000E+000
  0.000000000000000E+000
  0.000000000000000E+000
  0.000000000000000E+000
  0.000000000000000E+000
  0.000000000000000E+000
  0.000000000000000E+000
  0.000000000000000E+000
  0.000000000000000E+000
  0.000000000000000E+000
  0.000000000000000E+000
  0.000000000000000E+000
  0.000000000000000E+000
  0.000000000000000E+000
  0.000000000000000E+000
  0.000000000000000E+000
  0.000000000000000E+000
  0.000000000000000E+000
  0.000000000000000E+000
  0.000000000000000E+000
  0.000000000000000E+000
  0.000000000000000E+000
  0.000000000000000E+000
  0.000000000000000E+000
  0.000000000000000E+000
  0.000000000000000E+000
  0.000000000000000E+000
  0.000000000000000E+000
  0.000000000000000E+000
  0.000000000000000E+000
  0.000000000000000E+000
  0.000000000000000E+000
  0.000000000000000E+000
  0.000000000000000E+000
  0.000000000000000E+000
  0.000000000000000E+000
  0.000000000000000E+000
  0.000000000000000E+000
  0.000000000000000E+000
  0.000000000000000E+000
  0.000000000000000E+000
  0.000000000000000E+000
  0.000000000000000E+000
  0.000000000000000E+000
  0.000000000000000E+000
  0.000000000000000E+000
  0.000000000000000E+000
  0.000000000000000E+000
  0.000000000000000E+000
  0.000000000000000E+000
  0.000000000000000E+000
  0.000000000000000E+000
  0.000000000000000E+000
  0.000000000000000E+000
  0.000000000000000E+000
  0.000000000000000E+000
  0.000000000000000E+000
  0.000000000000000E+000
  0.000000000000000E+000
  0.000000000000000E+000
  0.000000000000000E+000
  0.000000000000000E+000
  0.000000000000000E+000
  0.000000000000000E+000
  0.000000000000000E+000
  0.000000000000000E+000
  0.000000000000000E+000
  0.000000000000000E+000
  0.000000000000000E+000
  0.000000000000000E+000
  0.000000000000000E+000
  0.000000000000000E+000
  0.000000000000000E+000
  0.000000000000000E+000
  0.000000000000000E+000
  0.000000000000000E+000
  0.000000000000000E+000
  0.000000000000000E+000
  0.000000000000000E+000
  0.000000000000000E+000
  0.000000000000000E+000
  0.000000000000000E+000
  0.000000000000000E+000
  0.000000000000000E+000
  0.000000000000000E+000
  0.000000000000000E+000
  0.000000000000000E+000
  0.000000000000000E+000
  0.000000000000000E+000
  0.000000000000000E+000
  0.000000000000000E+000
  0.000000000000000E+000
  0.000000000000000E+000
  0.000000000000000E+000
  0.000000000000000E+000
  0.000000000000000E+000
  0.000000000000000E+000
  0.000000000000000E+000
  0.000000000000000E+000
  0.000000000000000E+000
  0.000000000000000E+000
  0.000000000000000E+000
  0.000000000000000E+000
  0.000000000000000E+000
  0.000000000000000E+000
  0.000000000000000E+000
  0.000000000000000E+000
  0.000000000000000E+000
  0.000000000000000E+000
  0.000000000000000E+000
  0.000000000000000E+000
  0.000000000000000E+000
  0.000000000000000E+000
  0.000000000000000E+000
  0.000000000000000E+000
  0.000000000000000E+000
  0.000000000000000E+000
  0.000000000000000E+000
  0.000000000000000E+000
  0.000000000000000E+000
  0.000000000000000E+000
  0.000000000000000E+000
  0.000000000000000E+000
  0.000000000000000E+000
  0.000000000000000E+000
  0.000000000000000E+000
  0.000000000000000E+000
   1.00000000000000     
   1.00000000000000     
  0.000000000000000E+000
  0.000000000000000E+000
  0.000000000000000E+000
  0.000000000000000E+000
  0.000000000000000E+000
  0.000000000000000E+000
  0.000000000000000E+000
  0.000000000000000E+000
  0.000000000000000E+000
  0.000000000000000E+000
  0.000000000000000E+000
  0.000000000000000E+000
  0.000000000000000E+000
  0.000000000000000E+000
  0.000000000000000E+000
  0.000000000000000E+000
  0.000000000000000E+000
  0.000000000000000E+000
  0.000000000000000E+000
  0.000000000000000E+000
  0.000000000000000E+000
  0.000000000000000E+000
  0.000000000000000E+000
  0.000000000000000E+000
  0.000000000000000E+000
  0.000000000000000E+000
  0.000000000000000E+000
  0.000000000000000E+000
  0.000000000000000E+000
  0.000000000000000E+000
  0.000000000000000E+000
  0.000000000000000E+000
  0.000000000000000E+000
  0.000000000000000E+000
  0.000000000000000E+000
  0.000000000000000E+000
  0.000000000000000E+000
  0.000000000000000E+000
  0.000000000000000E+000
  0.000000000000000E+000
  0.000000000000000E+000
  0.000000000000000E+000
  0.000000000000000E+000
  0.000000000000000E+000
   1.00000000000000     
   1.00000000000000     
   1.00000000000000     
   1.00000000000000     
   1.00000000000000     
   1.00000000000000     
  0.000000000000000E+000
  0.000000000000000E+000
  0.000000000000000E+000
  0.000000000000000E+000
  0.000000000000000E+000
  0.000000000000000E+000
  0.000000000000000E+000
  0.000000000000000E+000
  0.000000000000000E+000
  0.000000000000000E+000
  0.000000000000000E+000
  0.000000000000000E+000
  0.000000000000000E+000
  0.000000000000000E+000
  0.000000000000000E+000
  0.000000000000000E+000
  0.000000000000000E+000
  0.000000000000000E+000
  0.000000000000000E+000
  0.000000000000000E+000
  0.000000000000000E+000
  0.000000000000000E+000
  0.000000000000000E+000
  0.000000000000000E+000
  0.000000000000000E+000
  0.000000000000000E+000
  0.000000000000000E+000
  0.000000000000000E+000
  0.000000000000000E+000
  0.000000000000000E+000
  0.000000000000000E+000
  0.000000000000000E+000
  0.000000000000000E+000
  0.000000000000000E+000
  0.000000000000000E+000
  0.000000000000000E+000
  0.000000000000000E+000
  0.000000000000000E+000
  0.000000000000000E+000
  0.000000000000000E+000
   1.00000000000000     
   1.00000000000000     
   1.00000000000000     
   1.00000000000000     
   1.00000000000000     
   1.00000000000000     
   1.00000000000000     
   1.00000000000000     
   1.00000000000000     
   1.00000000000000     
  0.000000000000000E+000
  0.000000000000000E+000
  0.000000000000000E+000
  0.000000000000000E+000
  0.000000000000000E+000
  0.000000000000000E+000
  0.000000000000000E+000
  0.000000000000000E+000
  0.000000000000000E+000
  0.000000000000000E+000
  0.000000000000000E+000
  0.000000000000000E+000
  0.000000000000000E+000
  0.000000000000000E+000
  0.000000000000000E+000
  0.000000000000000E+000
  0.000000000000000E+000
  0.000000000000000E+000
  0.000000000000000E+000
  0.000000000000000E+000
  0.000000000000000E+000
  0.000000000000000E+000
  0.000000000000000E+000
  0.000000000000000E+000
  0.000000000000000E+000
  0.000000000000000E+000
  0.000000000000000E+000
  0.000000000000000E+000
  0.000000000000000E+000
  0.000000000000000E+000
  0.000000000000000E+000
  0.000000000000000E+000
  0.000000000000000E+000
  0.000000000000000E+000
  0.000000000000000E+000
   1.00000000000000     
   1.00000000000000     
   1.00000000000000     
   1.00000000000000     
   1.00000000000000     
   1.00000000000000     
   1.00000000000000     
   1.00000000000000     
   1.00000000000000     
   1.00000000000000     
   1.00000000000000     
   1.00000000000000     
   1.00000000000000     
   1.00000000000000     
   1.00000000000000     
  0.000000000000000E+000
  0.000000000000000E+000
  0.000000000000000E+000
  0.000000000000000E+000
  0.000000000000000E+000
  0.000000000000000E+000
  0.000000000000000E+000
  0.000000000000000E+000
  0.000000000000000E+000
  0.000000000000000E+000
  0.000000000000000E+000
  0.000000000000000E+000
  0.000000000000000E+000
  0.000000000000000E+000
  0.000000000000000E+000
  0.000000000000000E+000
  0.000000000000000E+000
  0.000000000000000E+000
  0.000000000000000E+000
  0.000000000000000E+000
  0.000000000000000E+000
  0.000000000000000E+000
  0.000000000000000E+000
  0.000000000000000E+000
  0.000000000000000E+000
  0.000000000000000E+000
  0.000000000000000E+000
  0.000000000000000E+000
  0.000000000000000E+000
  0.000000000000000E+000
   1.00000000000000     
   1.00000000000000     
   1.00000000000000     
   1.00000000000000     
   1.00000000000000     
   1.00000000000000     
   1.00000000000000     
   1.00000000000000     
   1.00000000000000     
   1.00000000000000     
   1.00000000000000     
   1.00000000000000     
   1.00000000000000     
   1.00000000000000     
   1.00000000000000     
   1.00000000000000     
   1.00000000000000     
   1.00000000000000     
   1.00000000000000     
   1.00000000000000     
  0.000000000000000E+000
  0.000000000000000E+000
  0.000000000000000E+000
  0.000000000000000E+000
  0.000000000000000E+000
  0.000000000000000E+000
  0.000000000000000E+000
  0.000000000000000E+000
  0.000000000000000E+000
  0.000000000000000E+000
  0.000000000000000E+000
  0.000000000000000E+000
  0.000000000000000E+000
  0.000000000000000E+000
  0.000000000000000E+000
  0.000000000000000E+000
  0.000000000000000E+000
  0.000000000000000E+000
  0.000000000000000E+000
  0.000000000000000E+000
  0.000000000000000E+000
  0.000000000000000E+000
  0.000000000000000E+000
   1.00000000000000     
   1.00000000000000     
   1.00000000000000     
   1.00000000000000     
   1.00000000000000     
   1.00000000000000     
   1.00000000000000     
   1.00000000000000     
   1.00000000000000     
   1.00000000000000     
   1.00000000000000     
   1.00000000000000     
   1.00000000000000     
   1.00000000000000     
   1.00000000000000     
   1.00000000000000     
   1.00000000000000     
   1.00000000000000     
   1.00000000000000     
   1.00000000000000     
   1.00000000000000     
   1.00000000000000     
   1.00000000000000     
   1.00000000000000     
   1.00000000000000     
   1.00000000000000     
   1.00000000000000     
  0.000000000000000E+000
  0.000000000000000E+000
  0.000000000000000E+000
  0.000000000000000E+000
  0.000000000000000E+000
  0.000000000000000E+000
  0.000000000000000E+000
  0.000000000000000E+000
  0.000000000000000E+000
  0.000000000000000E+000
  0.000000000000000E+000
  0.000000000000000E+000
  0.000000000000000E+000
  0.000000000000000E+000
  0.000000000000000E+000
  0.000000000000000E+000
   1.00000000000000     
   1.00000000000000     
   1.00000000000000     
   1.00000000000000     
   1.00000000000000     
   1.00000000000000     
   1.00000000000000     
   1.00000000000000     
   1.00000000000000     
   1.00000000000000     
   1.00000000000000     
   1.00000000000000     
   1.00000000000000     
   1.00000000000000     
   1.00000000000000     
   1.00000000000000     
   1.00000000000000     
   1.00000000000000     
   1.00000000000000     
   1.00000000000000     
   1.00000000000000     
   1.00000000000000     
   1.00000000000000     
   1.00000000000000     
   1.00000000000000     
   1.00000000000000     
   1.00000000000000     
   1.00000000000000     
   1.00000000000000     
   1.00000000000000     
   1.00000000000000     
   1.00000000000000     
   1.00000000000000     
   1.00000000000000     
   1.00000000000000     
   1.00000000000000     
   1.00000000000000     
   1.00000000000000     
   1.00000000000000     
   1.00000000000000     
   1.00000000000000     
   1.00000000000000     
   1.00000000000000     
   1.00000000000000     
   1.00000000000000     
   1.00000000000000     
   1.00000000000000     
   1.00000000000000     
   1.00000000000000     
   1.00000000000000     
   1.00000000000000     
   1.00000000000000     
   1.00000000000000     
   1.00000000000000     
   1.00000000000000     
   1.00000000000000     
   1.00000000000000     
   1.00000000000000     
   1.00000000000000     
   1.00000000000000     
   1.00000000000000     
   1.00000000000000     
   1.00000000000000     
   1.00000000000000     
   1.00000000000000     
   1.00000000000000     
   1.00000000000000     
   1.00000000000000     
   1.00000000000000     
   1.00000000000000     
   1.00000000000000     
   1.00000000000000     
   1.00000000000000     
   1.00000000000000     
   1.00000000000000     
   1.00000000000000     
   1.00000000000000     
   1.00000000000000     
   1.00000000000000     
   1.00000000000000     
   1.00000000000000     
   1.00000000000000     
   1.00000000000000     
   1.00000000000000     
   1.00000000000000     
   1.00000000000000     
   1.00000000000000     
   1.00000000000000     
   1.00000000000000     
   1.00000000000000     
   1.00000000000000     
   1.00000000000000     
   1.00000000000000     
   1.00000000000000     
   1.00000000000000     
   1.00000000000000     
   1.00000000000000     
   1.00000000000000     
   1.00000000000000     
   1.00000000000000     
   1.00000000000000     
   1.00000000000000     
   1.00000000000000     
   1.00000000000000     
   1.00000000000000     
   1.00000000000000     
   1.00000000000000     
   1.00000000000000     
   1.00000000000000     
   1.00000000000000     
   1.00000000000000     
   1.00000000000000     
   1.00000000000000     
   1.00000000000000     
   1.00000000000000     
   1.00000000000000     
   1.00000000000000     
   1.00000000000000     
   1.00000000000000     
   1.00000000000000     
   1.00000000000000     
   1.00000000000000     
   1.00000000000000     
   1.00000000000000     
   1.00000000000000     
   1.00000000000000     
   1.00000000000000     
   1.00000000000000     
   1.00000000000000     
   1.00000000000000     
   1.00000000000000     
   1.00000000000000     
   1.00000000000000     
   1.00000000000000     
   1.00000000000000     
   1.00000000000000     
   1.00000000000000     
   1.00000000000000     
   1.00000000000000     
   1.00000000000000     
   1.00000000000000     
   1.00000000000000     
   1.00000000000000     
   1.00000000000000     
   1.00000000000000     
   1.00000000000000     
   1.00000000000000     
   1.00000000000000     
   1.00000000000000     
   1.00000000000000     
   1.00000000000000     
   1.00000000000000     
   1.00000000000000     
   1.00000000000000     
   1.00000000000000     
   1.00000000000000     
   1.00000000000000     
   1.00000000000000     
   1.00000000000000     
   1.00000000000000     
   1.00000000000000     
   1.00000000000000     
   1.00000000000000     
   1.00000000000000     
   1.00000000000000     
   1.00000000000000     
   1.00000000000000     
   1.00000000000000     
   1.00000000000000     
   1.00000000000000     
   1.00000000000000     
   1.00000000000000     
   1.00000000000000     
   1.00000000000000     
   1.00000000000000     
   1.00000000000000     
   1.00000000000000     
   1.00000000000000     
   1.00000000000000     
   1.00000000000000     
   1.00000000000000     
   1.00000000000000     
   1.00000000000000     
   1.00000000000000     
   1.00000000000000     
   1.00000000000000     
   1.00000000000000     
   1.00000000000000     
   1.00000000000000     
   1.00000000000000     
   1.00000000000000     
   1.00000000000000     
   1.00000000000000     
   1.00000000000000     
   1.00000000000000     
   1.00000000000000     
   1.00000000000000     
   1.00000000000000     
   1.00000000000000     
   1.00000000000000     
   1.00000000000000     
   1.00000000000000     
   1.00000000000000     
   1.00000000000000     
   1.00000000000000     
   1.00000000000000     
   1.00000000000000     
   1.00000000000000     
   1.00000000000000     
   1.00000000000000     
   1.00000000000000     
   1.00000000000000     
   1.00000000000000     
   1.00000000000000     
   1.00000000000000     
   1.00000000000000     
   1.00000000000000     
   1.00000000000000     
   1.00000000000000     
   1.00000000000000     
   1.00000000000000     
   1.00000000000000     
   1.00000000000000     
   1.00000000000000     
   1.00000000000000     
   1.00000000000000     
   1.00000000000000     
   1.00000000000000     
   1.00000000000000     
   1.00000000000000     
   1.00000000000000     
   1.00000000000000     
   1.00000000000000     
   1.00000000000000     
   1.00000000000000     
   1.00000000000000     
   1.00000000000000     
   1.00000000000000     
   1.00000000000000     
   1.00000000000000     
   1.00000000000000     
   1.00000000000000     
   1.00000000000000     
   1.00000000000000     
   1.00000000000000     
   1.00000000000000     
   1.00000000000000     
   1.00000000000000     
   1.00000000000000     
   1.00000000000000     
   1.00000000000000     
   1.00000000000000     
   1.00000000000000     
   1.00000000000000     
   1.00000000000000     
   1.00000000000000     
   1.00000000000000     
   1.00000000000000     
   1.00000000000000     
   1.00000000000000     
   1.00000000000000     
   1.00000000000000     
   1.00000000000000     
   1.00000000000000     
   1.00000000000000     
   1.00000000000000     
   1.00000000000000     
   1.00000000000000     
   1.00000000000000     
   1.00000000000000     
   1.00000000000000     
   1.00000000000000     
   1.00000000000000     
   1.00000000000000     
   1.00000000000000     
   1.00000000000000     
   1.00000000000000     
   1.00000000000000     
   1.00000000000000     
   1.00000000000000     
   1.00000000000000     
   1.00000000000000     
   1.00000000000000     
   1.00000000000000     
   1.00000000000000     
   1.00000000000000     
   1.00000000000000     
   1.00000000000000     
   1.00000000000000     
   1.00000000000000     
   1.00000000000000     
   1.00000000000000     
   1.00000000000000     
   1.00000000000000     
   1.00000000000000     
   1.00000000000000     
   1.00000000000000     
   1.00000000000000     
   1.00000000000000     
   1.00000000000000     
   1.00000000000000     
   1.00000000000000     
   1.00000000000000     
   1.00000000000000     
   1.00000000000000     
   1.00000000000000     
   1.00000000000000     
   1.00000000000000     
   1.00000000000000     
   1.00000000000000     
   1.00000000000000     
   1.00000000000000     
   1.00000000000000     
   1.00000000000000     
   1.00000000000000     
   1.00000000000000     
   1.00000000000000     
   1.00000000000000     
   1.00000000000000     
   1.00000000000000     
   1.00000000000000     
   1.00000000000000     
   1.00000000000000     
   1.00000000000000     
   1.00000000000000     
   1.00000000000000     
   1.00000000000000     
   1.00000000000000     
   1.00000000000000     
   1.00000000000000     
   1.00000000000000     
   1.00000000000000     
   1.00000000000000     
   1.00000000000000     
   1.00000000000000     
   1.00000000000000     
   1.00000000000000     
   1.00000000000000     
   1.00000000000000     
   1.00000000000000     
   1.00000000000000     
   1.00000000000000     
   1.00000000000000     
   1.00000000000000     
   1.00000000000000     
   1.00000000000000     
   1.00000000000000     
   1.00000000000000     
   1.00000000000000     
   1.00000000000000     
   1.00000000000000     
   1.00000000000000     
   1.00000000000000     
   1.00000000000000     
   1.00000000000000     
   1.00000000000000     
   1.00000000000000     
   1.00000000000000     
   1.00000000000000     
   1.00000000000000     
   1.00000000000000     
   1.00000000000000     
   1.00000000000000     
   1.00000000000000     
   1.00000000000000     
   1.00000000000000     
   1.00000000000000     
   1.00000000000000     
   1.00000000000000     
   1.00000000000000     
   1.00000000000000     
   1.00000000000000     
   1.00000000000000     
   1.00000000000000     
   1.00000000000000     
   1.00000000000000     
   1.00000000000000     
   1.00000000000000     
   1.00000000000000     
   1.00000000000000     
   1.00000000000000     
   1.00000000000000     
   1.00000000000000     
   1.00000000000000     
   1.00000000000000     
   1.00000000000000     
   1.00000000000000     
   1.00000000000000     
   1.00000000000000     
   1.00000000000000     
   1.00000000000000     
   1.00000000000000     
   1.00000000000000     
   1.00000000000000     
   1.00000000000000     
   1.00000000000000     
   1.00000000000000     
   1.00000000000000     
   1.00000000000000     
   1.00000000000000     
   1.00000000000000     
   1.00000000000000     
   1.00000000000000     
   1.00000000000000     
   1.00000000000000     
   1.00000000000000     
   1.00000000000000     
   1.00000000000000     
   1.00000000000000     
   1.00000000000000     
   1.00000000000000     
   1.00000000000000     
   1.00000000000000     
   1.00000000000000     
   1.00000000000000     
   1.00000000000000     
   1.00000000000000     
   1.00000000000000     
   1.00000000000000     
   1.00000000000000     
   1.00000000000000     
   1.00000000000000     
   1.00000000000000     
   1.00000000000000     
   1.00000000000000     
   1.00000000000000     
   1.00000000000000     
   1.00000000000000     
   1.00000000000000     
   1.00000000000000     
   1.00000000000000     
   1.00000000000000     
   1.00000000000000     
   1.00000000000000     
   1.00000000000000     
   1.00000000000000     
   1.00000000000000     
   1.00000000000000     
   1.00000000000000     
   1.00000000000000     
   1.00000000000000     
   1.00000000000000     
   1.00000000000000     
   1.00000000000000     
   1.00000000000000     
   1.00000000000000     
   1.00000000000000     
   1.00000000000000     
   1.00000000000000     
   1.00000000000000     
   1.00000000000000     
   1.00000000000000     
   1.00000000000000     
   1.00000000000000     
   1.00000000000000     
   1.00000000000000     
   1.00000000000000     
   1.00000000000000     
   1.00000000000000     
   1.00000000000000     
   1.00000000000000     
   1.00000000000000     
   1.00000000000000     
   1.00000000000000     
   1.00000000000000     
   1.00000000000000     
   1.00000000000000     
   1.00000000000000     
   1.00000000000000     
   1.00000000000000     
   1.00000000000000     
   1.00000000000000     
   1.00000000000000     
   1.00000000000000     
   1.00000000000000     
   1.00000000000000     
   1.00000000000000     
   1.00000000000000     
   1.00000000000000     
   1.00000000000000     
   1.00000000000000     
   1.00000000000000     
   1.00000000000000     
   1.00000000000000     
   1.00000000000000     
   1.00000000000000     
   1.00000000000000     
   1.00000000000000     
   1.00000000000000     
   1.00000000000000     
   1.00000000000000     
   1.00000000000000     
   1.00000000000000     
   1.00000000000000     
   1.00000000000000     
   1.00000000000000     
   1.00000000000000     
   1.00000000000000     
   1.00000000000000     
   1.00000000000000     
   1.00000000000000     
   1.00000000000000     
   1.00000000000000     
   1.00000000000000     
   1.00000000000000     
   1.00000000000000     
   1.00000000000000     
   1.00000000000000     
   1.00000000000000     
   1.00000000000000     
   1.00000000000000     
   1.00000000000000     
   1.00000000000000     
   1.00000000000000     
   1.00000000000000     
   1.00000000000000     
   1.00000000000000     
   1.00000000000000     
   1.00000000000000     
   1.00000000000000     
   1.00000000000000     
   1.00000000000000     
   1.00000000000000     
   1.00000000000000     
   1.00000000000000     
   1.00000000000000     
   1.00000000000000     
   1.00000000000000     
   1.00000000000000     
   1.00000000000000     
   1.00000000000000     
   1.00000000000000     
   1.00000000000000     
   1.00000000000000     
  0.000000000000000E+000
  0.000000000000000E+000
   1.00000000000000     
   1.00000000000000     
   1.00000000000000     
   1.00000000000000     
   1.00000000000000     
   1.00000000000000     
   1.00000000000000     
   1.00000000000000     
   1.00000000000000     
   1.00000000000000     
   1.00000000000000     
   1.00000000000000     
   1.00000000000000     
   1.00000000000000     
   1.00000000000000     
   1.00000000000000     
   1.00000000000000     
   1.00000000000000     
   1.00000000000000     
   1.00000000000000     
   1.00000000000000     
   1.00000000000000     
   1.00000000000000     
   1.00000000000000     
   1.00000000000000     
   1.00000000000000     
   1.00000000000000     
   1.00000000000000     
   1.00000000000000     
   1.00000000000000     
   1.00000000000000     
   1.00000000000000     
   1.00000000000000     
   1.00000000000000     
   1.00000000000000     
   1.00000000000000     
   1.00000000000000     
   1.00000000000000     
   1.00000000000000     
   1.00000000000000     
   1.00000000000000     
   1.00000000000000     
   1.00000000000000     
   1.00000000000000     
   1.00000000000000     
   1.00000000000000     
   1.00000000000000     
   1.00000000000000     
