# vtk DataFile Version 3.0
vtk output
ASCII
DATASET UNSTRUCTURED_GRID
POINTS      5151 double 
  0.00000000E+00  1.00000000E+02  0.00000000E+00
  0.00000000E+00  9.80000000E+01  0.00000000E+00
  0.00000000E+00  9.60000000E+01  0.00000000E+00
  0.00000000E+00  9.40000000E+01  0.00000000E+00
  0.00000000E+00  9.20000000E+01  0.00000000E+00
  0.00000000E+00  9.00000000E+01  0.00000000E+00
  0.00000000E+00  8.80000000E+01  0.00000000E+00
  0.00000000E+00  8.60000000E+01  0.00000000E+00
  0.00000000E+00  8.40000000E+01  0.00000000E+00
  0.00000000E+00  8.20000000E+01  0.00000000E+00
  0.00000000E+00  8.00000000E+01  0.00000000E+00
  0.00000000E+00  7.80000000E+01  0.00000000E+00
  0.00000000E+00  7.60000000E+01  0.00000000E+00
  0.00000000E+00  7.40000000E+01  0.00000000E+00
  0.00000000E+00  7.20000000E+01  0.00000000E+00
  0.00000000E+00  7.00000000E+01  0.00000000E+00
  0.00000000E+00  6.80000000E+01  0.00000000E+00
  0.00000000E+00  6.60000000E+01  0.00000000E+00
  0.00000000E+00  6.40000000E+01  0.00000000E+00
  0.00000000E+00  6.20000000E+01  0.00000000E+00
  0.00000000E+00  6.00000000E+01  0.00000000E+00
  0.00000000E+00  5.80000000E+01  0.00000000E+00
  0.00000000E+00  5.60000000E+01  0.00000000E+00
  0.00000000E+00  5.40000000E+01  0.00000000E+00
  0.00000000E+00  5.20000000E+01  0.00000000E+00
  0.00000000E+00  5.00000000E+01  0.00000000E+00
  0.00000000E+00  4.80000000E+01  0.00000000E+00
  0.00000000E+00  4.60000000E+01  0.00000000E+00
  0.00000000E+00  4.40000000E+01  0.00000000E+00
  0.00000000E+00  4.20000000E+01  0.00000000E+00
  0.00000000E+00  4.00000000E+01  0.00000000E+00
  0.00000000E+00  3.80000000E+01  0.00000000E+00
  0.00000000E+00  3.60000000E+01  0.00000000E+00
  0.00000000E+00  3.40000000E+01  0.00000000E+00
  0.00000000E+00  3.20000000E+01  0.00000000E+00
  0.00000000E+00  3.00000000E+01  0.00000000E+00
  0.00000000E+00  2.80000000E+01  0.00000000E+00
  0.00000000E+00  2.60000000E+01  0.00000000E+00
  0.00000000E+00  2.40000000E+01  0.00000000E+00
  0.00000000E+00  2.20000000E+01  0.00000000E+00
  0.00000000E+00  2.00000000E+01  0.00000000E+00
  0.00000000E+00  1.80000000E+01  0.00000000E+00
  0.00000000E+00  1.60000000E+01  0.00000000E+00
  0.00000000E+00  1.40000000E+01  0.00000000E+00
  0.00000000E+00  1.20000000E+01  0.00000000E+00
  0.00000000E+00  1.00000000E+01  0.00000000E+00
  0.00000000E+00  8.00000000E+00  0.00000000E+00
  0.00000000E+00  6.00000000E+00  0.00000000E+00
  0.00000000E+00  4.00000000E+00  0.00000000E+00
  0.00000000E+00  2.00000000E+00  0.00000000E+00
  0.00000000E+00 -3.33066907E-14  0.00000000E+00
  1.00000000E+01  1.00000000E+02  0.00000000E+00
  1.00000000E+01  9.80000000E+01  0.00000000E+00
  1.00000000E+01  9.60000000E+01  0.00000000E+00
  1.00000000E+01  9.40000000E+01  0.00000000E+00
  1.00000000E+01  9.20000000E+01  0.00000000E+00
  1.00000000E+01  9.00000000E+01  0.00000000E+00
  1.00000000E+01  8.80000000E+01  0.00000000E+00
  1.00000000E+01  8.60000000E+01  0.00000000E+00
  1.00000000E+01  8.40000000E+01  0.00000000E+00
  1.00000000E+01  8.20000000E+01  0.00000000E+00
  1.00000000E+01  8.00000000E+01  0.00000000E+00
  1.00000000E+01  7.80000000E+01  0.00000000E+00
  1.00000000E+01  7.60000000E+01  0.00000000E+00
  1.00000000E+01  7.40000000E+01  0.00000000E+00
  1.00000000E+01  7.20000000E+01  0.00000000E+00
  1.00000000E+01  7.00000000E+01  0.00000000E+00
  1.00000000E+01  6.80000000E+01  0.00000000E+00
  1.00000000E+01  6.60000000E+01  0.00000000E+00
  1.00000000E+01  6.40000000E+01  0.00000000E+00
  1.00000000E+01  6.20000000E+01  0.00000000E+00
  1.00000000E+01  6.00000000E+01  0.00000000E+00
  1.00000000E+01  5.80000000E+01  0.00000000E+00
  1.00000000E+01  5.60000000E+01  0.00000000E+00
  1.00000000E+01  5.40000000E+01  0.00000000E+00
  1.00000000E+01  5.20000000E+01  0.00000000E+00
  1.00000000E+01  5.00000000E+01  0.00000000E+00
  1.00000000E+01  4.80000000E+01  0.00000000E+00
  1.00000000E+01  4.60000000E+01  0.00000000E+00
  1.00000000E+01  4.40000000E+01  0.00000000E+00
  1.00000000E+01  4.20000000E+01  0.00000000E+00
  1.00000000E+01  4.00000000E+01  0.00000000E+00
  1.00000000E+01  3.80000000E+01  0.00000000E+00
  1.00000000E+01  3.60000000E+01  0.00000000E+00
  1.00000000E+01  3.40000000E+01  0.00000000E+00
  1.00000000E+01  3.20000000E+01  0.00000000E+00
  1.00000000E+01  3.00000000E+01  0.00000000E+00
  1.00000000E+01  2.80000000E+01  0.00000000E+00
  1.00000000E+01  2.60000000E+01  0.00000000E+00
  1.00000000E+01  2.40000000E+01  0.00000000E+00
  1.00000000E+01  2.20000000E+01  0.00000000E+00
  1.00000000E+01  2.00000000E+01  0.00000000E+00
  1.00000000E+01  1.80000000E+01  0.00000000E+00
  1.00000000E+01  1.60000000E+01  0.00000000E+00
  1.00000000E+01  1.40000000E+01  0.00000000E+00
  1.00000000E+01  1.20000000E+01  0.00000000E+00
  1.00000000E+01  1.00000000E+01  0.00000000E+00
  1.00000000E+01  8.00000000E+00  0.00000000E+00
  1.00000000E+01  6.00000000E+00  0.00000000E+00
  1.00000000E+01  4.00000000E+00  0.00000000E+00
  1.00000000E+01  2.00000000E+00  0.00000000E+00
  1.00000000E+01 -3.33066907E-14  0.00000000E+00
  2.00000000E+01  1.00000000E+02  0.00000000E+00
  2.00000000E+01  9.80000000E+01  0.00000000E+00
  2.00000000E+01  9.60000000E+01  0.00000000E+00
  2.00000000E+01  9.40000000E+01  0.00000000E+00
  2.00000000E+01  9.20000000E+01  0.00000000E+00
  2.00000000E+01  9.00000000E+01  0.00000000E+00
  2.00000000E+01  8.80000000E+01  0.00000000E+00
  2.00000000E+01  8.60000000E+01  0.00000000E+00
  2.00000000E+01  8.40000000E+01  0.00000000E+00
  2.00000000E+01  8.20000000E+01  0.00000000E+00
  2.00000000E+01  8.00000000E+01  0.00000000E+00
  2.00000000E+01  7.80000000E+01  0.00000000E+00
  2.00000000E+01  7.60000000E+01  0.00000000E+00
  2.00000000E+01  7.40000000E+01  0.00000000E+00
  2.00000000E+01  7.20000000E+01  0.00000000E+00
  2.00000000E+01  7.00000000E+01  0.00000000E+00
  2.00000000E+01  6.80000000E+01  0.00000000E+00
  2.00000000E+01  6.60000000E+01  0.00000000E+00
  2.00000000E+01  6.40000000E+01  0.00000000E+00
  2.00000000E+01  6.20000000E+01  0.00000000E+00
  2.00000000E+01  6.00000000E+01  0.00000000E+00
  2.00000000E+01  5.80000000E+01  0.00000000E+00
  2.00000000E+01  5.60000000E+01  0.00000000E+00
  2.00000000E+01  5.40000000E+01  0.00000000E+00
  2.00000000E+01  5.20000000E+01  0.00000000E+00
  2.00000000E+01  5.00000000E+01  0.00000000E+00
  2.00000000E+01  4.80000000E+01  0.00000000E+00
  2.00000000E+01  4.60000000E+01  0.00000000E+00
  2.00000000E+01  4.40000000E+01  0.00000000E+00
  2.00000000E+01  4.20000000E+01  0.00000000E+00
  2.00000000E+01  4.00000000E+01  0.00000000E+00
  2.00000000E+01  3.80000000E+01  0.00000000E+00
  2.00000000E+01  3.60000000E+01  0.00000000E+00
  2.00000000E+01  3.40000000E+01  0.00000000E+00
  2.00000000E+01  3.20000000E+01  0.00000000E+00
  2.00000000E+01  3.00000000E+01  0.00000000E+00
  2.00000000E+01  2.80000000E+01  0.00000000E+00
  2.00000000E+01  2.60000000E+01  0.00000000E+00
  2.00000000E+01  2.40000000E+01  0.00000000E+00
  2.00000000E+01  2.20000000E+01  0.00000000E+00
  2.00000000E+01  2.00000000E+01  0.00000000E+00
  2.00000000E+01  1.80000000E+01  0.00000000E+00
  2.00000000E+01  1.60000000E+01  0.00000000E+00
  2.00000000E+01  1.40000000E+01  0.00000000E+00
  2.00000000E+01  1.20000000E+01  0.00000000E+00
  2.00000000E+01  1.00000000E+01  0.00000000E+00
  2.00000000E+01  8.00000000E+00  0.00000000E+00
  2.00000000E+01  6.00000000E+00  0.00000000E+00
  2.00000000E+01  4.00000000E+00  0.00000000E+00
  2.00000000E+01  2.00000000E+00  0.00000000E+00
  2.00000000E+01 -3.33066907E-14  0.00000000E+00
  3.00000000E+01  1.00000000E+02  0.00000000E+00
  3.00000000E+01  9.80000000E+01  0.00000000E+00
  3.00000000E+01  9.60000000E+01  0.00000000E+00
  3.00000000E+01  9.40000000E+01  0.00000000E+00
  3.00000000E+01  9.20000000E+01  0.00000000E+00
  3.00000000E+01  9.00000000E+01  0.00000000E+00
  3.00000000E+01  8.80000000E+01  0.00000000E+00
  3.00000000E+01  8.60000000E+01  0.00000000E+00
  3.00000000E+01  8.40000000E+01  0.00000000E+00
  3.00000000E+01  8.20000000E+01  0.00000000E+00
  3.00000000E+01  8.00000000E+01  0.00000000E+00
  3.00000000E+01  7.80000000E+01  0.00000000E+00
  3.00000000E+01  7.60000000E+01  0.00000000E+00
  3.00000000E+01  7.40000000E+01  0.00000000E+00
  3.00000000E+01  7.20000000E+01  0.00000000E+00
  3.00000000E+01  7.00000000E+01  0.00000000E+00
  3.00000000E+01  6.80000000E+01  0.00000000E+00
  3.00000000E+01  6.60000000E+01  0.00000000E+00
  3.00000000E+01  6.40000000E+01  0.00000000E+00
  3.00000000E+01  6.20000000E+01  0.00000000E+00
  3.00000000E+01  6.00000000E+01  0.00000000E+00
  3.00000000E+01  5.80000000E+01  0.00000000E+00
  3.00000000E+01  5.60000000E+01  0.00000000E+00
  3.00000000E+01  5.40000000E+01  0.00000000E+00
  3.00000000E+01  5.20000000E+01  0.00000000E+00
  3.00000000E+01  5.00000000E+01  0.00000000E+00
  3.00000000E+01  4.80000000E+01  0.00000000E+00
  3.00000000E+01  4.60000000E+01  0.00000000E+00
  3.00000000E+01  4.40000000E+01  0.00000000E+00
  3.00000000E+01  4.20000000E+01  0.00000000E+00
  3.00000000E+01  4.00000000E+01  0.00000000E+00
  3.00000000E+01  3.80000000E+01  0.00000000E+00
  3.00000000E+01  3.60000000E+01  0.00000000E+00
  3.00000000E+01  3.40000000E+01  0.00000000E+00
  3.00000000E+01  3.20000000E+01  0.00000000E+00
  3.00000000E+01  3.00000000E+01  0.00000000E+00
  3.00000000E+01  2.80000000E+01  0.00000000E+00
  3.00000000E+01  2.60000000E+01  0.00000000E+00
  3.00000000E+01  2.40000000E+01  0.00000000E+00
  3.00000000E+01  2.20000000E+01  0.00000000E+00
  3.00000000E+01  2.00000000E+01  0.00000000E+00
  3.00000000E+01  1.80000000E+01  0.00000000E+00
  3.00000000E+01  1.60000000E+01  0.00000000E+00
  3.00000000E+01  1.40000000E+01  0.00000000E+00
  3.00000000E+01  1.20000000E+01  0.00000000E+00
  3.00000000E+01  1.00000000E+01  0.00000000E+00
  3.00000000E+01  8.00000000E+00  0.00000000E+00
  3.00000000E+01  6.00000000E+00  0.00000000E+00
  3.00000000E+01  4.00000000E+00  0.00000000E+00
  3.00000000E+01  2.00000000E+00  0.00000000E+00
  3.00000000E+01 -3.33066907E-14  0.00000000E+00
  4.00000000E+01  1.00000000E+02  0.00000000E+00
  4.00000000E+01  9.80000000E+01  0.00000000E+00
  4.00000000E+01  9.60000000E+01  0.00000000E+00
  4.00000000E+01  9.40000000E+01  0.00000000E+00
  4.00000000E+01  9.20000000E+01  0.00000000E+00
  4.00000000E+01  9.00000000E+01  0.00000000E+00
  4.00000000E+01  8.80000000E+01  0.00000000E+00
  4.00000000E+01  8.60000000E+01  0.00000000E+00
  4.00000000E+01  8.40000000E+01  0.00000000E+00
  4.00000000E+01  8.20000000E+01  0.00000000E+00
  4.00000000E+01  8.00000000E+01  0.00000000E+00
  4.00000000E+01  7.80000000E+01  0.00000000E+00
  4.00000000E+01  7.60000000E+01  0.00000000E+00
  4.00000000E+01  7.40000000E+01  0.00000000E+00
  4.00000000E+01  7.20000000E+01  0.00000000E+00
  4.00000000E+01  7.00000000E+01  0.00000000E+00
  4.00000000E+01  6.80000000E+01  0.00000000E+00
  4.00000000E+01  6.60000000E+01  0.00000000E+00
  4.00000000E+01  6.40000000E+01  0.00000000E+00
  4.00000000E+01  6.20000000E+01  0.00000000E+00
  4.00000000E+01  6.00000000E+01  0.00000000E+00
  4.00000000E+01  5.80000000E+01  0.00000000E+00
  4.00000000E+01  5.60000000E+01  0.00000000E+00
  4.00000000E+01  5.40000000E+01  0.00000000E+00
  4.00000000E+01  5.20000000E+01  0.00000000E+00
  4.00000000E+01  5.00000000E+01  0.00000000E+00
  4.00000000E+01  4.80000000E+01  0.00000000E+00
  4.00000000E+01  4.60000000E+01  0.00000000E+00
  4.00000000E+01  4.40000000E+01  0.00000000E+00
  4.00000000E+01  4.20000000E+01  0.00000000E+00
  4.00000000E+01  4.00000000E+01  0.00000000E+00
  4.00000000E+01  3.80000000E+01  0.00000000E+00
  4.00000000E+01  3.60000000E+01  0.00000000E+00
  4.00000000E+01  3.40000000E+01  0.00000000E+00
  4.00000000E+01  3.20000000E+01  0.00000000E+00
  4.00000000E+01  3.00000000E+01  0.00000000E+00
  4.00000000E+01  2.80000000E+01  0.00000000E+00
  4.00000000E+01  2.60000000E+01  0.00000000E+00
  4.00000000E+01  2.40000000E+01  0.00000000E+00
  4.00000000E+01  2.20000000E+01  0.00000000E+00
  4.00000000E+01  2.00000000E+01  0.00000000E+00
  4.00000000E+01  1.80000000E+01  0.00000000E+00
  4.00000000E+01  1.60000000E+01  0.00000000E+00
  4.00000000E+01  1.40000000E+01  0.00000000E+00
  4.00000000E+01  1.20000000E+01  0.00000000E+00
  4.00000000E+01  1.00000000E+01  0.00000000E+00
  4.00000000E+01  8.00000000E+00  0.00000000E+00
  4.00000000E+01  6.00000000E+00  0.00000000E+00
  4.00000000E+01  4.00000000E+00  0.00000000E+00
  4.00000000E+01  2.00000000E+00  0.00000000E+00
  4.00000000E+01 -3.33066907E-14  0.00000000E+00
  5.00000000E+01  1.00000000E+02  0.00000000E+00
  5.00000000E+01  9.80000000E+01  0.00000000E+00
  5.00000000E+01  9.60000000E+01  0.00000000E+00
  5.00000000E+01  9.40000000E+01  0.00000000E+00
  5.00000000E+01  9.20000000E+01  0.00000000E+00
  5.00000000E+01  9.00000000E+01  0.00000000E+00
  5.00000000E+01  8.80000000E+01  0.00000000E+00
  5.00000000E+01  8.60000000E+01  0.00000000E+00
  5.00000000E+01  8.40000000E+01  0.00000000E+00
  5.00000000E+01  8.20000000E+01  0.00000000E+00
  5.00000000E+01  8.00000000E+01  0.00000000E+00
  5.00000000E+01  7.80000000E+01  0.00000000E+00
  5.00000000E+01  7.60000000E+01  0.00000000E+00
  5.00000000E+01  7.40000000E+01  0.00000000E+00
  5.00000000E+01  7.20000000E+01  0.00000000E+00
  5.00000000E+01  7.00000000E+01  0.00000000E+00
  5.00000000E+01  6.80000000E+01  0.00000000E+00
  5.00000000E+01  6.60000000E+01  0.00000000E+00
  5.00000000E+01  6.40000000E+01  0.00000000E+00
  5.00000000E+01  6.20000000E+01  0.00000000E+00
  5.00000000E+01  6.00000000E+01  0.00000000E+00
  5.00000000E+01  5.80000000E+01  0.00000000E+00
  5.00000000E+01  5.60000000E+01  0.00000000E+00
  5.00000000E+01  5.40000000E+01  0.00000000E+00
  5.00000000E+01  5.20000000E+01  0.00000000E+00
  5.00000000E+01  5.00000000E+01  0.00000000E+00
  5.00000000E+01  4.80000000E+01  0.00000000E+00
  5.00000000E+01  4.60000000E+01  0.00000000E+00
  5.00000000E+01  4.40000000E+01  0.00000000E+00
  5.00000000E+01  4.20000000E+01  0.00000000E+00
  5.00000000E+01  4.00000000E+01  0.00000000E+00
  5.00000000E+01  3.80000000E+01  0.00000000E+00
  5.00000000E+01  3.60000000E+01  0.00000000E+00
  5.00000000E+01  3.40000000E+01  0.00000000E+00
  5.00000000E+01  3.20000000E+01  0.00000000E+00
  5.00000000E+01  3.00000000E+01  0.00000000E+00
  5.00000000E+01  2.80000000E+01  0.00000000E+00
  5.00000000E+01  2.60000000E+01  0.00000000E+00
  5.00000000E+01  2.40000000E+01  0.00000000E+00
  5.00000000E+01  2.20000000E+01  0.00000000E+00
  5.00000000E+01  2.00000000E+01  0.00000000E+00
  5.00000000E+01  1.80000000E+01  0.00000000E+00
  5.00000000E+01  1.60000000E+01  0.00000000E+00
  5.00000000E+01  1.40000000E+01  0.00000000E+00
  5.00000000E+01  1.20000000E+01  0.00000000E+00
  5.00000000E+01  1.00000000E+01  0.00000000E+00
  5.00000000E+01  8.00000000E+00  0.00000000E+00
  5.00000000E+01  6.00000000E+00  0.00000000E+00
  5.00000000E+01  4.00000000E+00  0.00000000E+00
  5.00000000E+01  2.00000000E+00  0.00000000E+00
  5.00000000E+01 -3.33066907E-14  0.00000000E+00
  6.00000000E+01  1.00000000E+02  0.00000000E+00
  6.00000000E+01  9.80000000E+01  0.00000000E+00
  6.00000000E+01  9.60000000E+01  0.00000000E+00
  6.00000000E+01  9.40000000E+01  0.00000000E+00
  6.00000000E+01  9.20000000E+01  0.00000000E+00
  6.00000000E+01  9.00000000E+01  0.00000000E+00
  6.00000000E+01  8.80000000E+01  0.00000000E+00
  6.00000000E+01  8.60000000E+01  0.00000000E+00
  6.00000000E+01  8.40000000E+01  0.00000000E+00
  6.00000000E+01  8.20000000E+01  0.00000000E+00
  6.00000000E+01  8.00000000E+01  0.00000000E+00
  6.00000000E+01  7.80000000E+01  0.00000000E+00
  6.00000000E+01  7.60000000E+01  0.00000000E+00
  6.00000000E+01  7.40000000E+01  0.00000000E+00
  6.00000000E+01  7.20000000E+01  0.00000000E+00
  6.00000000E+01  7.00000000E+01  0.00000000E+00
  6.00000000E+01  6.80000000E+01  0.00000000E+00
  6.00000000E+01  6.60000000E+01  0.00000000E+00
  6.00000000E+01  6.40000000E+01  0.00000000E+00
  6.00000000E+01  6.20000000E+01  0.00000000E+00
  6.00000000E+01  6.00000000E+01  0.00000000E+00
  6.00000000E+01  5.80000000E+01  0.00000000E+00
  6.00000000E+01  5.60000000E+01  0.00000000E+00
  6.00000000E+01  5.40000000E+01  0.00000000E+00
  6.00000000E+01  5.20000000E+01  0.00000000E+00
  6.00000000E+01  5.00000000E+01  0.00000000E+00
  6.00000000E+01  4.80000000E+01  0.00000000E+00
  6.00000000E+01  4.60000000E+01  0.00000000E+00
  6.00000000E+01  4.40000000E+01  0.00000000E+00
  6.00000000E+01  4.20000000E+01  0.00000000E+00
  6.00000000E+01  4.00000000E+01  0.00000000E+00
  6.00000000E+01  3.80000000E+01  0.00000000E+00
  6.00000000E+01  3.60000000E+01  0.00000000E+00
  6.00000000E+01  3.40000000E+01  0.00000000E+00
  6.00000000E+01  3.20000000E+01  0.00000000E+00
  6.00000000E+01  3.00000000E+01  0.00000000E+00
  6.00000000E+01  2.80000000E+01  0.00000000E+00
  6.00000000E+01  2.60000000E+01  0.00000000E+00
  6.00000000E+01  2.40000000E+01  0.00000000E+00
  6.00000000E+01  2.20000000E+01  0.00000000E+00
  6.00000000E+01  2.00000000E+01  0.00000000E+00
  6.00000000E+01  1.80000000E+01  0.00000000E+00
  6.00000000E+01  1.60000000E+01  0.00000000E+00
  6.00000000E+01  1.40000000E+01  0.00000000E+00
  6.00000000E+01  1.20000000E+01  0.00000000E+00
  6.00000000E+01  1.00000000E+01  0.00000000E+00
  6.00000000E+01  8.00000000E+00  0.00000000E+00
  6.00000000E+01  6.00000000E+00  0.00000000E+00
  6.00000000E+01  4.00000000E+00  0.00000000E+00
  6.00000000E+01  2.00000000E+00  0.00000000E+00
  6.00000000E+01 -3.33066907E-14  0.00000000E+00
  7.00000000E+01  1.00000000E+02  0.00000000E+00
  7.00000000E+01  9.80000000E+01  0.00000000E+00
  7.00000000E+01  9.60000000E+01  0.00000000E+00
  7.00000000E+01  9.40000000E+01  0.00000000E+00
  7.00000000E+01  9.20000000E+01  0.00000000E+00
  7.00000000E+01  9.00000000E+01  0.00000000E+00
  7.00000000E+01  8.80000000E+01  0.00000000E+00
  7.00000000E+01  8.60000000E+01  0.00000000E+00
  7.00000000E+01  8.40000000E+01  0.00000000E+00
  7.00000000E+01  8.20000000E+01  0.00000000E+00
  7.00000000E+01  8.00000000E+01  0.00000000E+00
  7.00000000E+01  7.80000000E+01  0.00000000E+00
  7.00000000E+01  7.60000000E+01  0.00000000E+00
  7.00000000E+01  7.40000000E+01  0.00000000E+00
  7.00000000E+01  7.20000000E+01  0.00000000E+00
  7.00000000E+01  7.00000000E+01  0.00000000E+00
  7.00000000E+01  6.80000000E+01  0.00000000E+00
  7.00000000E+01  6.60000000E+01  0.00000000E+00
  7.00000000E+01  6.40000000E+01  0.00000000E+00
  7.00000000E+01  6.20000000E+01  0.00000000E+00
  7.00000000E+01  6.00000000E+01  0.00000000E+00
  7.00000000E+01  5.80000000E+01  0.00000000E+00
  7.00000000E+01  5.60000000E+01  0.00000000E+00
  7.00000000E+01  5.40000000E+01  0.00000000E+00
  7.00000000E+01  5.20000000E+01  0.00000000E+00
  7.00000000E+01  5.00000000E+01  0.00000000E+00
  7.00000000E+01  4.80000000E+01  0.00000000E+00
  7.00000000E+01  4.60000000E+01  0.00000000E+00
  7.00000000E+01  4.40000000E+01  0.00000000E+00
  7.00000000E+01  4.20000000E+01  0.00000000E+00
  7.00000000E+01  4.00000000E+01  0.00000000E+00
  7.00000000E+01  3.80000000E+01  0.00000000E+00
  7.00000000E+01  3.60000000E+01  0.00000000E+00
  7.00000000E+01  3.40000000E+01  0.00000000E+00
  7.00000000E+01  3.20000000E+01  0.00000000E+00
  7.00000000E+01  3.00000000E+01  0.00000000E+00
  7.00000000E+01  2.80000000E+01  0.00000000E+00
  7.00000000E+01  2.60000000E+01  0.00000000E+00
  7.00000000E+01  2.40000000E+01  0.00000000E+00
  7.00000000E+01  2.20000000E+01  0.00000000E+00
  7.00000000E+01  2.00000000E+01  0.00000000E+00
  7.00000000E+01  1.80000000E+01  0.00000000E+00
  7.00000000E+01  1.60000000E+01  0.00000000E+00
  7.00000000E+01  1.40000000E+01  0.00000000E+00
  7.00000000E+01  1.20000000E+01  0.00000000E+00
  7.00000000E+01  1.00000000E+01  0.00000000E+00
  7.00000000E+01  8.00000000E+00  0.00000000E+00
  7.00000000E+01  6.00000000E+00  0.00000000E+00
  7.00000000E+01  4.00000000E+00  0.00000000E+00
  7.00000000E+01  2.00000000E+00  0.00000000E+00
  7.00000000E+01 -3.33066907E-14  0.00000000E+00
  8.00000000E+01  1.00000000E+02  0.00000000E+00
  8.00000000E+01  9.80000000E+01  0.00000000E+00
  8.00000000E+01  9.60000000E+01  0.00000000E+00
  8.00000000E+01  9.40000000E+01  0.00000000E+00
  8.00000000E+01  9.20000000E+01  0.00000000E+00
  8.00000000E+01  9.00000000E+01  0.00000000E+00
  8.00000000E+01  8.80000000E+01  0.00000000E+00
  8.00000000E+01  8.60000000E+01  0.00000000E+00
  8.00000000E+01  8.40000000E+01  0.00000000E+00
  8.00000000E+01  8.20000000E+01  0.00000000E+00
  8.00000000E+01  8.00000000E+01  0.00000000E+00
  8.00000000E+01  7.80000000E+01  0.00000000E+00
  8.00000000E+01  7.60000000E+01  0.00000000E+00
  8.00000000E+01  7.40000000E+01  0.00000000E+00
  8.00000000E+01  7.20000000E+01  0.00000000E+00
  8.00000000E+01  7.00000000E+01  0.00000000E+00
  8.00000000E+01  6.80000000E+01  0.00000000E+00
  8.00000000E+01  6.60000000E+01  0.00000000E+00
  8.00000000E+01  6.40000000E+01  0.00000000E+00
  8.00000000E+01  6.20000000E+01  0.00000000E+00
  8.00000000E+01  6.00000000E+01  0.00000000E+00
  8.00000000E+01  5.80000000E+01  0.00000000E+00
  8.00000000E+01  5.60000000E+01  0.00000000E+00
  8.00000000E+01  5.40000000E+01  0.00000000E+00
  8.00000000E+01  5.20000000E+01  0.00000000E+00
  8.00000000E+01  5.00000000E+01  0.00000000E+00
  8.00000000E+01  4.80000000E+01  0.00000000E+00
  8.00000000E+01  4.60000000E+01  0.00000000E+00
  8.00000000E+01  4.40000000E+01  0.00000000E+00
  8.00000000E+01  4.20000000E+01  0.00000000E+00
  8.00000000E+01  4.00000000E+01  0.00000000E+00
  8.00000000E+01  3.80000000E+01  0.00000000E+00
  8.00000000E+01  3.60000000E+01  0.00000000E+00
  8.00000000E+01  3.40000000E+01  0.00000000E+00
  8.00000000E+01  3.20000000E+01  0.00000000E+00
  8.00000000E+01  3.00000000E+01  0.00000000E+00
  8.00000000E+01  2.80000000E+01  0.00000000E+00
  8.00000000E+01  2.60000000E+01  0.00000000E+00
  8.00000000E+01  2.40000000E+01  0.00000000E+00
  8.00000000E+01  2.20000000E+01  0.00000000E+00
  8.00000000E+01  2.00000000E+01  0.00000000E+00
  8.00000000E+01  1.80000000E+01  0.00000000E+00
  8.00000000E+01  1.60000000E+01  0.00000000E+00
  8.00000000E+01  1.40000000E+01  0.00000000E+00
  8.00000000E+01  1.20000000E+01  0.00000000E+00
  8.00000000E+01  1.00000000E+01  0.00000000E+00
  8.00000000E+01  8.00000000E+00  0.00000000E+00
  8.00000000E+01  6.00000000E+00  0.00000000E+00
  8.00000000E+01  4.00000000E+00  0.00000000E+00
  8.00000000E+01  2.00000000E+00  0.00000000E+00
  8.00000000E+01 -3.33066907E-14  0.00000000E+00
  9.00000000E+01  1.00000000E+02  0.00000000E+00
  9.00000000E+01  9.80000000E+01  0.00000000E+00
  9.00000000E+01  9.60000000E+01  0.00000000E+00
  9.00000000E+01  9.40000000E+01  0.00000000E+00
  9.00000000E+01  9.20000000E+01  0.00000000E+00
  9.00000000E+01  9.00000000E+01  0.00000000E+00
  9.00000000E+01  8.80000000E+01  0.00000000E+00
  9.00000000E+01  8.60000000E+01  0.00000000E+00
  9.00000000E+01  8.40000000E+01  0.00000000E+00
  9.00000000E+01  8.20000000E+01  0.00000000E+00
  9.00000000E+01  8.00000000E+01  0.00000000E+00
  9.00000000E+01  7.80000000E+01  0.00000000E+00
  9.00000000E+01  7.60000000E+01  0.00000000E+00
  9.00000000E+01  7.40000000E+01  0.00000000E+00
  9.00000000E+01  7.20000000E+01  0.00000000E+00
  9.00000000E+01  7.00000000E+01  0.00000000E+00
  9.00000000E+01  6.80000000E+01  0.00000000E+00
  9.00000000E+01  6.60000000E+01  0.00000000E+00
  9.00000000E+01  6.40000000E+01  0.00000000E+00
  9.00000000E+01  6.20000000E+01  0.00000000E+00
  9.00000000E+01  6.00000000E+01  0.00000000E+00
  9.00000000E+01  5.80000000E+01  0.00000000E+00
  9.00000000E+01  5.60000000E+01  0.00000000E+00
  9.00000000E+01  5.40000000E+01  0.00000000E+00
  9.00000000E+01  5.20000000E+01  0.00000000E+00
  9.00000000E+01  5.00000000E+01  0.00000000E+00
  9.00000000E+01  4.80000000E+01  0.00000000E+00
  9.00000000E+01  4.60000000E+01  0.00000000E+00
  9.00000000E+01  4.40000000E+01  0.00000000E+00
  9.00000000E+01  4.20000000E+01  0.00000000E+00
  9.00000000E+01  4.00000000E+01  0.00000000E+00
  9.00000000E+01  3.80000000E+01  0.00000000E+00
  9.00000000E+01  3.60000000E+01  0.00000000E+00
  9.00000000E+01  3.40000000E+01  0.00000000E+00
  9.00000000E+01  3.20000000E+01  0.00000000E+00
  9.00000000E+01  3.00000000E+01  0.00000000E+00
  9.00000000E+01  2.80000000E+01  0.00000000E+00
  9.00000000E+01  2.60000000E+01  0.00000000E+00
  9.00000000E+01  2.40000000E+01  0.00000000E+00
  9.00000000E+01  2.20000000E+01  0.00000000E+00
  9.00000000E+01  2.00000000E+01  0.00000000E+00
  9.00000000E+01  1.80000000E+01  0.00000000E+00
  9.00000000E+01  1.60000000E+01  0.00000000E+00
  9.00000000E+01  1.40000000E+01  0.00000000E+00
  9.00000000E+01  1.20000000E+01  0.00000000E+00
  9.00000000E+01  1.00000000E+01  0.00000000E+00
  9.00000000E+01  8.00000000E+00  0.00000000E+00
  9.00000000E+01  6.00000000E+00  0.00000000E+00
  9.00000000E+01  4.00000000E+00  0.00000000E+00
  9.00000000E+01  2.00000000E+00  0.00000000E+00
  9.00000000E+01 -3.33066907E-14  0.00000000E+00
  1.00000000E+02  1.00000000E+02  0.00000000E+00
  1.00000000E+02  9.80000000E+01  0.00000000E+00
  1.00000000E+02  9.60000000E+01  0.00000000E+00
  1.00000000E+02  9.40000000E+01  0.00000000E+00
  1.00000000E+02  9.20000000E+01  0.00000000E+00
  1.00000000E+02  9.00000000E+01  0.00000000E+00
  1.00000000E+02  8.80000000E+01  0.00000000E+00
  1.00000000E+02  8.60000000E+01  0.00000000E+00
  1.00000000E+02  8.40000000E+01  0.00000000E+00
  1.00000000E+02  8.20000000E+01  0.00000000E+00
  1.00000000E+02  8.00000000E+01  0.00000000E+00
  1.00000000E+02  7.80000000E+01  0.00000000E+00
  1.00000000E+02  7.60000000E+01  0.00000000E+00
  1.00000000E+02  7.40000000E+01  0.00000000E+00
  1.00000000E+02  7.20000000E+01  0.00000000E+00
  1.00000000E+02  7.00000000E+01  0.00000000E+00
  1.00000000E+02  6.80000000E+01  0.00000000E+00
  1.00000000E+02  6.60000000E+01  0.00000000E+00
  1.00000000E+02  6.40000000E+01  0.00000000E+00
  1.00000000E+02  6.20000000E+01  0.00000000E+00
  1.00000000E+02  6.00000000E+01  0.00000000E+00
  1.00000000E+02  5.80000000E+01  0.00000000E+00
  1.00000000E+02  5.60000000E+01  0.00000000E+00
  1.00000000E+02  5.40000000E+01  0.00000000E+00
  1.00000000E+02  5.20000000E+01  0.00000000E+00
  1.00000000E+02  5.00000000E+01  0.00000000E+00
  1.00000000E+02  4.80000000E+01  0.00000000E+00
  1.00000000E+02  4.60000000E+01  0.00000000E+00
  1.00000000E+02  4.40000000E+01  0.00000000E+00
  1.00000000E+02  4.20000000E+01  0.00000000E+00
  1.00000000E+02  4.00000000E+01  0.00000000E+00
  1.00000000E+02  3.80000000E+01  0.00000000E+00
  1.00000000E+02  3.60000000E+01  0.00000000E+00
  1.00000000E+02  3.40000000E+01  0.00000000E+00
  1.00000000E+02  3.20000000E+01  0.00000000E+00
  1.00000000E+02  3.00000000E+01  0.00000000E+00
  1.00000000E+02  2.80000000E+01  0.00000000E+00
  1.00000000E+02  2.60000000E+01  0.00000000E+00
  1.00000000E+02  2.40000000E+01  0.00000000E+00
  1.00000000E+02  2.20000000E+01  0.00000000E+00
  1.00000000E+02  2.00000000E+01  0.00000000E+00
  1.00000000E+02  1.80000000E+01  0.00000000E+00
  1.00000000E+02  1.60000000E+01  0.00000000E+00
  1.00000000E+02  1.40000000E+01  0.00000000E+00
  1.00000000E+02  1.20000000E+01  0.00000000E+00
  1.00000000E+02  1.00000000E+01  0.00000000E+00
  1.00000000E+02  8.00000000E+00  0.00000000E+00
  1.00000000E+02  6.00000000E+00  0.00000000E+00
  1.00000000E+02  4.00000000E+00  0.00000000E+00
  1.00000000E+02  2.00000000E+00  0.00000000E+00
  1.00000000E+02 -3.33066907E-14  0.00000000E+00
  1.10000000E+02  1.00000000E+02  0.00000000E+00
  1.10000000E+02  9.80000000E+01  0.00000000E+00
  1.10000000E+02  9.60000000E+01  0.00000000E+00
  1.10000000E+02  9.40000000E+01  0.00000000E+00
  1.10000000E+02  9.20000000E+01  0.00000000E+00
  1.10000000E+02  9.00000000E+01  0.00000000E+00
  1.10000000E+02  8.80000000E+01  0.00000000E+00
  1.10000000E+02  8.60000000E+01  0.00000000E+00
  1.10000000E+02  8.40000000E+01  0.00000000E+00
  1.10000000E+02  8.20000000E+01  0.00000000E+00
  1.10000000E+02  8.00000000E+01  0.00000000E+00
  1.10000000E+02  7.80000000E+01  0.00000000E+00
  1.10000000E+02  7.60000000E+01  0.00000000E+00
  1.10000000E+02  7.40000000E+01  0.00000000E+00
  1.10000000E+02  7.20000000E+01  0.00000000E+00
  1.10000000E+02  7.00000000E+01  0.00000000E+00
  1.10000000E+02  6.80000000E+01  0.00000000E+00
  1.10000000E+02  6.60000000E+01  0.00000000E+00
  1.10000000E+02  6.40000000E+01  0.00000000E+00
  1.10000000E+02  6.20000000E+01  0.00000000E+00
  1.10000000E+02  6.00000000E+01  0.00000000E+00
  1.10000000E+02  5.80000000E+01  0.00000000E+00
  1.10000000E+02  5.60000000E+01  0.00000000E+00
  1.10000000E+02  5.40000000E+01  0.00000000E+00
  1.10000000E+02  5.20000000E+01  0.00000000E+00
  1.10000000E+02  5.00000000E+01  0.00000000E+00
  1.10000000E+02  4.80000000E+01  0.00000000E+00
  1.10000000E+02  4.60000000E+01  0.00000000E+00
  1.10000000E+02  4.40000000E+01  0.00000000E+00
  1.10000000E+02  4.20000000E+01  0.00000000E+00
  1.10000000E+02  4.00000000E+01  0.00000000E+00
  1.10000000E+02  3.80000000E+01  0.00000000E+00
  1.10000000E+02  3.60000000E+01  0.00000000E+00
  1.10000000E+02  3.40000000E+01  0.00000000E+00
  1.10000000E+02  3.20000000E+01  0.00000000E+00
  1.10000000E+02  3.00000000E+01  0.00000000E+00
  1.10000000E+02  2.80000000E+01  0.00000000E+00
  1.10000000E+02  2.60000000E+01  0.00000000E+00
  1.10000000E+02  2.40000000E+01  0.00000000E+00
  1.10000000E+02  2.20000000E+01  0.00000000E+00
  1.10000000E+02  2.00000000E+01  0.00000000E+00
  1.10000000E+02  1.80000000E+01  0.00000000E+00
  1.10000000E+02  1.60000000E+01  0.00000000E+00
  1.10000000E+02  1.40000000E+01  0.00000000E+00
  1.10000000E+02  1.20000000E+01  0.00000000E+00
  1.10000000E+02  1.00000000E+01  0.00000000E+00
  1.10000000E+02  8.00000000E+00  0.00000000E+00
  1.10000000E+02  6.00000000E+00  0.00000000E+00
  1.10000000E+02  4.00000000E+00  0.00000000E+00
  1.10000000E+02  2.00000000E+00  0.00000000E+00
  1.10000000E+02 -3.33066907E-14  0.00000000E+00
  1.20000000E+02  1.00000000E+02  0.00000000E+00
  1.20000000E+02  9.80000000E+01  0.00000000E+00
  1.20000000E+02  9.60000000E+01  0.00000000E+00
  1.20000000E+02  9.40000000E+01  0.00000000E+00
  1.20000000E+02  9.20000000E+01  0.00000000E+00
  1.20000000E+02  9.00000000E+01  0.00000000E+00
  1.20000000E+02  8.80000000E+01  0.00000000E+00
  1.20000000E+02  8.60000000E+01  0.00000000E+00
  1.20000000E+02  8.40000000E+01  0.00000000E+00
  1.20000000E+02  8.20000000E+01  0.00000000E+00
  1.20000000E+02  8.00000000E+01  0.00000000E+00
  1.20000000E+02  7.80000000E+01  0.00000000E+00
  1.20000000E+02  7.60000000E+01  0.00000000E+00
  1.20000000E+02  7.40000000E+01  0.00000000E+00
  1.20000000E+02  7.20000000E+01  0.00000000E+00
  1.20000000E+02  7.00000000E+01  0.00000000E+00
  1.20000000E+02  6.80000000E+01  0.00000000E+00
  1.20000000E+02  6.60000000E+01  0.00000000E+00
  1.20000000E+02  6.40000000E+01  0.00000000E+00
  1.20000000E+02  6.20000000E+01  0.00000000E+00
  1.20000000E+02  6.00000000E+01  0.00000000E+00
  1.20000000E+02  5.80000000E+01  0.00000000E+00
  1.20000000E+02  5.60000000E+01  0.00000000E+00
  1.20000000E+02  5.40000000E+01  0.00000000E+00
  1.20000000E+02  5.20000000E+01  0.00000000E+00
  1.20000000E+02  5.00000000E+01  0.00000000E+00
  1.20000000E+02  4.80000000E+01  0.00000000E+00
  1.20000000E+02  4.60000000E+01  0.00000000E+00
  1.20000000E+02  4.40000000E+01  0.00000000E+00
  1.20000000E+02  4.20000000E+01  0.00000000E+00
  1.20000000E+02  4.00000000E+01  0.00000000E+00
  1.20000000E+02  3.80000000E+01  0.00000000E+00
  1.20000000E+02  3.60000000E+01  0.00000000E+00
  1.20000000E+02  3.40000000E+01  0.00000000E+00
  1.20000000E+02  3.20000000E+01  0.00000000E+00
  1.20000000E+02  3.00000000E+01  0.00000000E+00
  1.20000000E+02  2.80000000E+01  0.00000000E+00
  1.20000000E+02  2.60000000E+01  0.00000000E+00
  1.20000000E+02  2.40000000E+01  0.00000000E+00
  1.20000000E+02  2.20000000E+01  0.00000000E+00
  1.20000000E+02  2.00000000E+01  0.00000000E+00
  1.20000000E+02  1.80000000E+01  0.00000000E+00
  1.20000000E+02  1.60000000E+01  0.00000000E+00
  1.20000000E+02  1.40000000E+01  0.00000000E+00
  1.20000000E+02  1.20000000E+01  0.00000000E+00
  1.20000000E+02  1.00000000E+01  0.00000000E+00
  1.20000000E+02  8.00000000E+00  0.00000000E+00
  1.20000000E+02  6.00000000E+00  0.00000000E+00
  1.20000000E+02  4.00000000E+00  0.00000000E+00
  1.20000000E+02  2.00000000E+00  0.00000000E+00
  1.20000000E+02 -3.33066907E-14  0.00000000E+00
  1.30000000E+02  1.00000000E+02  0.00000000E+00
  1.30000000E+02  9.80000000E+01  0.00000000E+00
  1.30000000E+02  9.60000000E+01  0.00000000E+00
  1.30000000E+02  9.40000000E+01  0.00000000E+00
  1.30000000E+02  9.20000000E+01  0.00000000E+00
  1.30000000E+02  9.00000000E+01  0.00000000E+00
  1.30000000E+02  8.80000000E+01  0.00000000E+00
  1.30000000E+02  8.60000000E+01  0.00000000E+00
  1.30000000E+02  8.40000000E+01  0.00000000E+00
  1.30000000E+02  8.20000000E+01  0.00000000E+00
  1.30000000E+02  8.00000000E+01  0.00000000E+00
  1.30000000E+02  7.80000000E+01  0.00000000E+00
  1.30000000E+02  7.60000000E+01  0.00000000E+00
  1.30000000E+02  7.40000000E+01  0.00000000E+00
  1.30000000E+02  7.20000000E+01  0.00000000E+00
  1.30000000E+02  7.00000000E+01  0.00000000E+00
  1.30000000E+02  6.80000000E+01  0.00000000E+00
  1.30000000E+02  6.60000000E+01  0.00000000E+00
  1.30000000E+02  6.40000000E+01  0.00000000E+00
  1.30000000E+02  6.20000000E+01  0.00000000E+00
  1.30000000E+02  6.00000000E+01  0.00000000E+00
  1.30000000E+02  5.80000000E+01  0.00000000E+00
  1.30000000E+02  5.60000000E+01  0.00000000E+00
  1.30000000E+02  5.40000000E+01  0.00000000E+00
  1.30000000E+02  5.20000000E+01  0.00000000E+00
  1.30000000E+02  5.00000000E+01  0.00000000E+00
  1.30000000E+02  4.80000000E+01  0.00000000E+00
  1.30000000E+02  4.60000000E+01  0.00000000E+00
  1.30000000E+02  4.40000000E+01  0.00000000E+00
  1.30000000E+02  4.20000000E+01  0.00000000E+00
  1.30000000E+02  4.00000000E+01  0.00000000E+00
  1.30000000E+02  3.80000000E+01  0.00000000E+00
  1.30000000E+02  3.60000000E+01  0.00000000E+00
  1.30000000E+02  3.40000000E+01  0.00000000E+00
  1.30000000E+02  3.20000000E+01  0.00000000E+00
  1.30000000E+02  3.00000000E+01  0.00000000E+00
  1.30000000E+02  2.80000000E+01  0.00000000E+00
  1.30000000E+02  2.60000000E+01  0.00000000E+00
  1.30000000E+02  2.40000000E+01  0.00000000E+00
  1.30000000E+02  2.20000000E+01  0.00000000E+00
  1.30000000E+02  2.00000000E+01  0.00000000E+00
  1.30000000E+02  1.80000000E+01  0.00000000E+00
  1.30000000E+02  1.60000000E+01  0.00000000E+00
  1.30000000E+02  1.40000000E+01  0.00000000E+00
  1.30000000E+02  1.20000000E+01  0.00000000E+00
  1.30000000E+02  1.00000000E+01  0.00000000E+00
  1.30000000E+02  8.00000000E+00  0.00000000E+00
  1.30000000E+02  6.00000000E+00  0.00000000E+00
  1.30000000E+02  4.00000000E+00  0.00000000E+00
  1.30000000E+02  2.00000000E+00  0.00000000E+00
  1.30000000E+02 -3.33066907E-14  0.00000000E+00
  1.40000000E+02  1.00000000E+02  0.00000000E+00
  1.40000000E+02  9.80000000E+01  0.00000000E+00
  1.40000000E+02  9.60000000E+01  0.00000000E+00
  1.40000000E+02  9.40000000E+01  0.00000000E+00
  1.40000000E+02  9.20000000E+01  0.00000000E+00
  1.40000000E+02  9.00000000E+01  0.00000000E+00
  1.40000000E+02  8.80000000E+01  0.00000000E+00
  1.40000000E+02  8.60000000E+01  0.00000000E+00
  1.40000000E+02  8.40000000E+01  0.00000000E+00
  1.40000000E+02  8.20000000E+01  0.00000000E+00
  1.40000000E+02  8.00000000E+01  0.00000000E+00
  1.40000000E+02  7.80000000E+01  0.00000000E+00
  1.40000000E+02  7.60000000E+01  0.00000000E+00
  1.40000000E+02  7.40000000E+01  0.00000000E+00
  1.40000000E+02  7.20000000E+01  0.00000000E+00
  1.40000000E+02  7.00000000E+01  0.00000000E+00
  1.40000000E+02  6.80000000E+01  0.00000000E+00
  1.40000000E+02  6.60000000E+01  0.00000000E+00
  1.40000000E+02  6.40000000E+01  0.00000000E+00
  1.40000000E+02  6.20000000E+01  0.00000000E+00
  1.40000000E+02  6.00000000E+01  0.00000000E+00
  1.40000000E+02  5.80000000E+01  0.00000000E+00
  1.40000000E+02  5.60000000E+01  0.00000000E+00
  1.40000000E+02  5.40000000E+01  0.00000000E+00
  1.40000000E+02  5.20000000E+01  0.00000000E+00
  1.40000000E+02  5.00000000E+01  0.00000000E+00
  1.40000000E+02  4.80000000E+01  0.00000000E+00
  1.40000000E+02  4.60000000E+01  0.00000000E+00
  1.40000000E+02  4.40000000E+01  0.00000000E+00
  1.40000000E+02  4.20000000E+01  0.00000000E+00
  1.40000000E+02  4.00000000E+01  0.00000000E+00
  1.40000000E+02  3.80000000E+01  0.00000000E+00
  1.40000000E+02  3.60000000E+01  0.00000000E+00
  1.40000000E+02  3.40000000E+01  0.00000000E+00
  1.40000000E+02  3.20000000E+01  0.00000000E+00
  1.40000000E+02  3.00000000E+01  0.00000000E+00
  1.40000000E+02  2.80000000E+01  0.00000000E+00
  1.40000000E+02  2.60000000E+01  0.00000000E+00
  1.40000000E+02  2.40000000E+01  0.00000000E+00
  1.40000000E+02  2.20000000E+01  0.00000000E+00
  1.40000000E+02  2.00000000E+01  0.00000000E+00
  1.40000000E+02  1.80000000E+01  0.00000000E+00
  1.40000000E+02  1.60000000E+01  0.00000000E+00
  1.40000000E+02  1.40000000E+01  0.00000000E+00
  1.40000000E+02  1.20000000E+01  0.00000000E+00
  1.40000000E+02  1.00000000E+01  0.00000000E+00
  1.40000000E+02  8.00000000E+00  0.00000000E+00
  1.40000000E+02  6.00000000E+00  0.00000000E+00
  1.40000000E+02  4.00000000E+00  0.00000000E+00
  1.40000000E+02  2.00000000E+00  0.00000000E+00
  1.40000000E+02 -3.33066907E-14  0.00000000E+00
  1.50000000E+02  1.00000000E+02  0.00000000E+00
  1.50000000E+02  9.80000000E+01  0.00000000E+00
  1.50000000E+02  9.60000000E+01  0.00000000E+00
  1.50000000E+02  9.40000000E+01  0.00000000E+00
  1.50000000E+02  9.20000000E+01  0.00000000E+00
  1.50000000E+02  9.00000000E+01  0.00000000E+00
  1.50000000E+02  8.80000000E+01  0.00000000E+00
  1.50000000E+02  8.60000000E+01  0.00000000E+00
  1.50000000E+02  8.40000000E+01  0.00000000E+00
  1.50000000E+02  8.20000000E+01  0.00000000E+00
  1.50000000E+02  8.00000000E+01  0.00000000E+00
  1.50000000E+02  7.80000000E+01  0.00000000E+00
  1.50000000E+02  7.60000000E+01  0.00000000E+00
  1.50000000E+02  7.40000000E+01  0.00000000E+00
  1.50000000E+02  7.20000000E+01  0.00000000E+00
  1.50000000E+02  7.00000000E+01  0.00000000E+00
  1.50000000E+02  6.80000000E+01  0.00000000E+00
  1.50000000E+02  6.60000000E+01  0.00000000E+00
  1.50000000E+02  6.40000000E+01  0.00000000E+00
  1.50000000E+02  6.20000000E+01  0.00000000E+00
  1.50000000E+02  6.00000000E+01  0.00000000E+00
  1.50000000E+02  5.80000000E+01  0.00000000E+00
  1.50000000E+02  5.60000000E+01  0.00000000E+00
  1.50000000E+02  5.40000000E+01  0.00000000E+00
  1.50000000E+02  5.20000000E+01  0.00000000E+00
  1.50000000E+02  5.00000000E+01  0.00000000E+00
  1.50000000E+02  4.80000000E+01  0.00000000E+00
  1.50000000E+02  4.60000000E+01  0.00000000E+00
  1.50000000E+02  4.40000000E+01  0.00000000E+00
  1.50000000E+02  4.20000000E+01  0.00000000E+00
  1.50000000E+02  4.00000000E+01  0.00000000E+00
  1.50000000E+02  3.80000000E+01  0.00000000E+00
  1.50000000E+02  3.60000000E+01  0.00000000E+00
  1.50000000E+02  3.40000000E+01  0.00000000E+00
  1.50000000E+02  3.20000000E+01  0.00000000E+00
  1.50000000E+02  3.00000000E+01  0.00000000E+00
  1.50000000E+02  2.80000000E+01  0.00000000E+00
  1.50000000E+02  2.60000000E+01  0.00000000E+00
  1.50000000E+02  2.40000000E+01  0.00000000E+00
  1.50000000E+02  2.20000000E+01  0.00000000E+00
  1.50000000E+02  2.00000000E+01  0.00000000E+00
  1.50000000E+02  1.80000000E+01  0.00000000E+00
  1.50000000E+02  1.60000000E+01  0.00000000E+00
  1.50000000E+02  1.40000000E+01  0.00000000E+00
  1.50000000E+02  1.20000000E+01  0.00000000E+00
  1.50000000E+02  1.00000000E+01  0.00000000E+00
  1.50000000E+02  8.00000000E+00  0.00000000E+00
  1.50000000E+02  6.00000000E+00  0.00000000E+00
  1.50000000E+02  4.00000000E+00  0.00000000E+00
  1.50000000E+02  2.00000000E+00  0.00000000E+00
  1.50000000E+02 -3.33066907E-14  0.00000000E+00
  1.60000000E+02  1.00000000E+02  0.00000000E+00
  1.60000000E+02  9.80000000E+01  0.00000000E+00
  1.60000000E+02  9.60000000E+01  0.00000000E+00
  1.60000000E+02  9.40000000E+01  0.00000000E+00
  1.60000000E+02  9.20000000E+01  0.00000000E+00
  1.60000000E+02  9.00000000E+01  0.00000000E+00
  1.60000000E+02  8.80000000E+01  0.00000000E+00
  1.60000000E+02  8.60000000E+01  0.00000000E+00
  1.60000000E+02  8.40000000E+01  0.00000000E+00
  1.60000000E+02  8.20000000E+01  0.00000000E+00
  1.60000000E+02  8.00000000E+01  0.00000000E+00
  1.60000000E+02  7.80000000E+01  0.00000000E+00
  1.60000000E+02  7.60000000E+01  0.00000000E+00
  1.60000000E+02  7.40000000E+01  0.00000000E+00
  1.60000000E+02  7.20000000E+01  0.00000000E+00
  1.60000000E+02  7.00000000E+01  0.00000000E+00
  1.60000000E+02  6.80000000E+01  0.00000000E+00
  1.60000000E+02  6.60000000E+01  0.00000000E+00
  1.60000000E+02  6.40000000E+01  0.00000000E+00
  1.60000000E+02  6.20000000E+01  0.00000000E+00
  1.60000000E+02  6.00000000E+01  0.00000000E+00
  1.60000000E+02  5.80000000E+01  0.00000000E+00
  1.60000000E+02  5.60000000E+01  0.00000000E+00
  1.60000000E+02  5.40000000E+01  0.00000000E+00
  1.60000000E+02  5.20000000E+01  0.00000000E+00
  1.60000000E+02  5.00000000E+01  0.00000000E+00
  1.60000000E+02  4.80000000E+01  0.00000000E+00
  1.60000000E+02  4.60000000E+01  0.00000000E+00
  1.60000000E+02  4.40000000E+01  0.00000000E+00
  1.60000000E+02  4.20000000E+01  0.00000000E+00
  1.60000000E+02  4.00000000E+01  0.00000000E+00
  1.60000000E+02  3.80000000E+01  0.00000000E+00
  1.60000000E+02  3.60000000E+01  0.00000000E+00
  1.60000000E+02  3.40000000E+01  0.00000000E+00
  1.60000000E+02  3.20000000E+01  0.00000000E+00
  1.60000000E+02  3.00000000E+01  0.00000000E+00
  1.60000000E+02  2.80000000E+01  0.00000000E+00
  1.60000000E+02  2.60000000E+01  0.00000000E+00
  1.60000000E+02  2.40000000E+01  0.00000000E+00
  1.60000000E+02  2.20000000E+01  0.00000000E+00
  1.60000000E+02  2.00000000E+01  0.00000000E+00
  1.60000000E+02  1.80000000E+01  0.00000000E+00
  1.60000000E+02  1.60000000E+01  0.00000000E+00
  1.60000000E+02  1.40000000E+01  0.00000000E+00
  1.60000000E+02  1.20000000E+01  0.00000000E+00
  1.60000000E+02  1.00000000E+01  0.00000000E+00
  1.60000000E+02  8.00000000E+00  0.00000000E+00
  1.60000000E+02  6.00000000E+00  0.00000000E+00
  1.60000000E+02  4.00000000E+00  0.00000000E+00
  1.60000000E+02  2.00000000E+00  0.00000000E+00
  1.60000000E+02 -3.33066907E-14  0.00000000E+00
  1.70000000E+02  1.00000000E+02  0.00000000E+00
  1.70000000E+02  9.80000000E+01  0.00000000E+00
  1.70000000E+02  9.60000000E+01  0.00000000E+00
  1.70000000E+02  9.40000000E+01  0.00000000E+00
  1.70000000E+02  9.20000000E+01  0.00000000E+00
  1.70000000E+02  9.00000000E+01  0.00000000E+00
  1.70000000E+02  8.80000000E+01  0.00000000E+00
  1.70000000E+02  8.60000000E+01  0.00000000E+00
  1.70000000E+02  8.40000000E+01  0.00000000E+00
  1.70000000E+02  8.20000000E+01  0.00000000E+00
  1.70000000E+02  8.00000000E+01  0.00000000E+00
  1.70000000E+02  7.80000000E+01  0.00000000E+00
  1.70000000E+02  7.60000000E+01  0.00000000E+00
  1.70000000E+02  7.40000000E+01  0.00000000E+00
  1.70000000E+02  7.20000000E+01  0.00000000E+00
  1.70000000E+02  7.00000000E+01  0.00000000E+00
  1.70000000E+02  6.80000000E+01  0.00000000E+00
  1.70000000E+02  6.60000000E+01  0.00000000E+00
  1.70000000E+02  6.40000000E+01  0.00000000E+00
  1.70000000E+02  6.20000000E+01  0.00000000E+00
  1.70000000E+02  6.00000000E+01  0.00000000E+00
  1.70000000E+02  5.80000000E+01  0.00000000E+00
  1.70000000E+02  5.60000000E+01  0.00000000E+00
  1.70000000E+02  5.40000000E+01  0.00000000E+00
  1.70000000E+02  5.20000000E+01  0.00000000E+00
  1.70000000E+02  5.00000000E+01  0.00000000E+00
  1.70000000E+02  4.80000000E+01  0.00000000E+00
  1.70000000E+02  4.60000000E+01  0.00000000E+00
  1.70000000E+02  4.40000000E+01  0.00000000E+00
  1.70000000E+02  4.20000000E+01  0.00000000E+00
  1.70000000E+02  4.00000000E+01  0.00000000E+00
  1.70000000E+02  3.80000000E+01  0.00000000E+00
  1.70000000E+02  3.60000000E+01  0.00000000E+00
  1.70000000E+02  3.40000000E+01  0.00000000E+00
  1.70000000E+02  3.20000000E+01  0.00000000E+00
  1.70000000E+02  3.00000000E+01  0.00000000E+00
  1.70000000E+02  2.80000000E+01  0.00000000E+00
  1.70000000E+02  2.60000000E+01  0.00000000E+00
  1.70000000E+02  2.40000000E+01  0.00000000E+00
  1.70000000E+02  2.20000000E+01  0.00000000E+00
  1.70000000E+02  2.00000000E+01  0.00000000E+00
  1.70000000E+02  1.80000000E+01  0.00000000E+00
  1.70000000E+02  1.60000000E+01  0.00000000E+00
  1.70000000E+02  1.40000000E+01  0.00000000E+00
  1.70000000E+02  1.20000000E+01  0.00000000E+00
  1.70000000E+02  1.00000000E+01  0.00000000E+00
  1.70000000E+02  8.00000000E+00  0.00000000E+00
  1.70000000E+02  6.00000000E+00  0.00000000E+00
  1.70000000E+02  4.00000000E+00  0.00000000E+00
  1.70000000E+02  2.00000000E+00  0.00000000E+00
  1.70000000E+02 -3.33066907E-14  0.00000000E+00
  1.80000000E+02  1.00000000E+02  0.00000000E+00
  1.80000000E+02  9.80000000E+01  0.00000000E+00
  1.80000000E+02  9.60000000E+01  0.00000000E+00
  1.80000000E+02  9.40000000E+01  0.00000000E+00
  1.80000000E+02  9.20000000E+01  0.00000000E+00
  1.80000000E+02  9.00000000E+01  0.00000000E+00
  1.80000000E+02  8.80000000E+01  0.00000000E+00
  1.80000000E+02  8.60000000E+01  0.00000000E+00
  1.80000000E+02  8.40000000E+01  0.00000000E+00
  1.80000000E+02  8.20000000E+01  0.00000000E+00
  1.80000000E+02  8.00000000E+01  0.00000000E+00
  1.80000000E+02  7.80000000E+01  0.00000000E+00
  1.80000000E+02  7.60000000E+01  0.00000000E+00
  1.80000000E+02  7.40000000E+01  0.00000000E+00
  1.80000000E+02  7.20000000E+01  0.00000000E+00
  1.80000000E+02  7.00000000E+01  0.00000000E+00
  1.80000000E+02  6.80000000E+01  0.00000000E+00
  1.80000000E+02  6.60000000E+01  0.00000000E+00
  1.80000000E+02  6.40000000E+01  0.00000000E+00
  1.80000000E+02  6.20000000E+01  0.00000000E+00
  1.80000000E+02  6.00000000E+01  0.00000000E+00
  1.80000000E+02  5.80000000E+01  0.00000000E+00
  1.80000000E+02  5.60000000E+01  0.00000000E+00
  1.80000000E+02  5.40000000E+01  0.00000000E+00
  1.80000000E+02  5.20000000E+01  0.00000000E+00
  1.80000000E+02  5.00000000E+01  0.00000000E+00
  1.80000000E+02  4.80000000E+01  0.00000000E+00
  1.80000000E+02  4.60000000E+01  0.00000000E+00
  1.80000000E+02  4.40000000E+01  0.00000000E+00
  1.80000000E+02  4.20000000E+01  0.00000000E+00
  1.80000000E+02  4.00000000E+01  0.00000000E+00
  1.80000000E+02  3.80000000E+01  0.00000000E+00
  1.80000000E+02  3.60000000E+01  0.00000000E+00
  1.80000000E+02  3.40000000E+01  0.00000000E+00
  1.80000000E+02  3.20000000E+01  0.00000000E+00
  1.80000000E+02  3.00000000E+01  0.00000000E+00
  1.80000000E+02  2.80000000E+01  0.00000000E+00
  1.80000000E+02  2.60000000E+01  0.00000000E+00
  1.80000000E+02  2.40000000E+01  0.00000000E+00
  1.80000000E+02  2.20000000E+01  0.00000000E+00
  1.80000000E+02  2.00000000E+01  0.00000000E+00
  1.80000000E+02  1.80000000E+01  0.00000000E+00
  1.80000000E+02  1.60000000E+01  0.00000000E+00
  1.80000000E+02  1.40000000E+01  0.00000000E+00
  1.80000000E+02  1.20000000E+01  0.00000000E+00
  1.80000000E+02  1.00000000E+01  0.00000000E+00
  1.80000000E+02  8.00000000E+00  0.00000000E+00
  1.80000000E+02  6.00000000E+00  0.00000000E+00
  1.80000000E+02  4.00000000E+00  0.00000000E+00
  1.80000000E+02  2.00000000E+00  0.00000000E+00
  1.80000000E+02 -3.33066907E-14  0.00000000E+00
  1.90000000E+02  1.00000000E+02  0.00000000E+00
  1.90000000E+02  9.80000000E+01  0.00000000E+00
  1.90000000E+02  9.60000000E+01  0.00000000E+00
  1.90000000E+02  9.40000000E+01  0.00000000E+00
  1.90000000E+02  9.20000000E+01  0.00000000E+00
  1.90000000E+02  9.00000000E+01  0.00000000E+00
  1.90000000E+02  8.80000000E+01  0.00000000E+00
  1.90000000E+02  8.60000000E+01  0.00000000E+00
  1.90000000E+02  8.40000000E+01  0.00000000E+00
  1.90000000E+02  8.20000000E+01  0.00000000E+00
  1.90000000E+02  8.00000000E+01  0.00000000E+00
  1.90000000E+02  7.80000000E+01  0.00000000E+00
  1.90000000E+02  7.60000000E+01  0.00000000E+00
  1.90000000E+02  7.40000000E+01  0.00000000E+00
  1.90000000E+02  7.20000000E+01  0.00000000E+00
  1.90000000E+02  7.00000000E+01  0.00000000E+00
  1.90000000E+02  6.80000000E+01  0.00000000E+00
  1.90000000E+02  6.60000000E+01  0.00000000E+00
  1.90000000E+02  6.40000000E+01  0.00000000E+00
  1.90000000E+02  6.20000000E+01  0.00000000E+00
  1.90000000E+02  6.00000000E+01  0.00000000E+00
  1.90000000E+02  5.80000000E+01  0.00000000E+00
  1.90000000E+02  5.60000000E+01  0.00000000E+00
  1.90000000E+02  5.40000000E+01  0.00000000E+00
  1.90000000E+02  5.20000000E+01  0.00000000E+00
  1.90000000E+02  5.00000000E+01  0.00000000E+00
  1.90000000E+02  4.80000000E+01  0.00000000E+00
  1.90000000E+02  4.60000000E+01  0.00000000E+00
  1.90000000E+02  4.40000000E+01  0.00000000E+00
  1.90000000E+02  4.20000000E+01  0.00000000E+00
  1.90000000E+02  4.00000000E+01  0.00000000E+00
  1.90000000E+02  3.80000000E+01  0.00000000E+00
  1.90000000E+02  3.60000000E+01  0.00000000E+00
  1.90000000E+02  3.40000000E+01  0.00000000E+00
  1.90000000E+02  3.20000000E+01  0.00000000E+00
  1.90000000E+02  3.00000000E+01  0.00000000E+00
  1.90000000E+02  2.80000000E+01  0.00000000E+00
  1.90000000E+02  2.60000000E+01  0.00000000E+00
  1.90000000E+02  2.40000000E+01  0.00000000E+00
  1.90000000E+02  2.20000000E+01  0.00000000E+00
  1.90000000E+02  2.00000000E+01  0.00000000E+00
  1.90000000E+02  1.80000000E+01  0.00000000E+00
  1.90000000E+02  1.60000000E+01  0.00000000E+00
  1.90000000E+02  1.40000000E+01  0.00000000E+00
  1.90000000E+02  1.20000000E+01  0.00000000E+00
  1.90000000E+02  1.00000000E+01  0.00000000E+00
  1.90000000E+02  8.00000000E+00  0.00000000E+00
  1.90000000E+02  6.00000000E+00  0.00000000E+00
  1.90000000E+02  4.00000000E+00  0.00000000E+00
  1.90000000E+02  2.00000000E+00  0.00000000E+00
  1.90000000E+02 -3.33066907E-14  0.00000000E+00
  2.00000000E+02  1.00000000E+02  0.00000000E+00
  2.00000000E+02  9.80000000E+01  0.00000000E+00
  2.00000000E+02  9.60000000E+01  0.00000000E+00
  2.00000000E+02  9.40000000E+01  0.00000000E+00
  2.00000000E+02  9.20000000E+01  0.00000000E+00
  2.00000000E+02  9.00000000E+01  0.00000000E+00
  2.00000000E+02  8.80000000E+01  0.00000000E+00
  2.00000000E+02  8.60000000E+01  0.00000000E+00
  2.00000000E+02  8.40000000E+01  0.00000000E+00
  2.00000000E+02  8.20000000E+01  0.00000000E+00
  2.00000000E+02  8.00000000E+01  0.00000000E+00
  2.00000000E+02  7.80000000E+01  0.00000000E+00
  2.00000000E+02  7.60000000E+01  0.00000000E+00
  2.00000000E+02  7.40000000E+01  0.00000000E+00
  2.00000000E+02  7.20000000E+01  0.00000000E+00
  2.00000000E+02  7.00000000E+01  0.00000000E+00
  2.00000000E+02  6.80000000E+01  0.00000000E+00
  2.00000000E+02  6.60000000E+01  0.00000000E+00
  2.00000000E+02  6.40000000E+01  0.00000000E+00
  2.00000000E+02  6.20000000E+01  0.00000000E+00
  2.00000000E+02  6.00000000E+01  0.00000000E+00
  2.00000000E+02  5.80000000E+01  0.00000000E+00
  2.00000000E+02  5.60000000E+01  0.00000000E+00
  2.00000000E+02  5.40000000E+01  0.00000000E+00
  2.00000000E+02  5.20000000E+01  0.00000000E+00
  2.00000000E+02  5.00000000E+01  0.00000000E+00
  2.00000000E+02  4.80000000E+01  0.00000000E+00
  2.00000000E+02  4.60000000E+01  0.00000000E+00
  2.00000000E+02  4.40000000E+01  0.00000000E+00
  2.00000000E+02  4.20000000E+01  0.00000000E+00
  2.00000000E+02  4.00000000E+01  0.00000000E+00
  2.00000000E+02  3.80000000E+01  0.00000000E+00
  2.00000000E+02  3.60000000E+01  0.00000000E+00
  2.00000000E+02  3.40000000E+01  0.00000000E+00
  2.00000000E+02  3.20000000E+01  0.00000000E+00
  2.00000000E+02  3.00000000E+01  0.00000000E+00
  2.00000000E+02  2.80000000E+01  0.00000000E+00
  2.00000000E+02  2.60000000E+01  0.00000000E+00
  2.00000000E+02  2.40000000E+01  0.00000000E+00
  2.00000000E+02  2.20000000E+01  0.00000000E+00
  2.00000000E+02  2.00000000E+01  0.00000000E+00
  2.00000000E+02  1.80000000E+01  0.00000000E+00
  2.00000000E+02  1.60000000E+01  0.00000000E+00
  2.00000000E+02  1.40000000E+01  0.00000000E+00
  2.00000000E+02  1.20000000E+01  0.00000000E+00
  2.00000000E+02  1.00000000E+01  0.00000000E+00
  2.00000000E+02  8.00000000E+00  0.00000000E+00
  2.00000000E+02  6.00000000E+00  0.00000000E+00
  2.00000000E+02  4.00000000E+00  0.00000000E+00
  2.00000000E+02  2.00000000E+00  0.00000000E+00
  2.00000000E+02 -3.33066907E-14  0.00000000E+00
  2.10000000E+02  1.00000000E+02  0.00000000E+00
  2.10000000E+02  9.80000000E+01  0.00000000E+00
  2.10000000E+02  9.60000000E+01  0.00000000E+00
  2.10000000E+02  9.40000000E+01  0.00000000E+00
  2.10000000E+02  9.20000000E+01  0.00000000E+00
  2.10000000E+02  9.00000000E+01  0.00000000E+00
  2.10000000E+02  8.80000000E+01  0.00000000E+00
  2.10000000E+02  8.60000000E+01  0.00000000E+00
  2.10000000E+02  8.40000000E+01  0.00000000E+00
  2.10000000E+02  8.20000000E+01  0.00000000E+00
  2.10000000E+02  8.00000000E+01  0.00000000E+00
  2.10000000E+02  7.80000000E+01  0.00000000E+00
  2.10000000E+02  7.60000000E+01  0.00000000E+00
  2.10000000E+02  7.40000000E+01  0.00000000E+00
  2.10000000E+02  7.20000000E+01  0.00000000E+00
  2.10000000E+02  7.00000000E+01  0.00000000E+00
  2.10000000E+02  6.80000000E+01  0.00000000E+00
  2.10000000E+02  6.60000000E+01  0.00000000E+00
  2.10000000E+02  6.40000000E+01  0.00000000E+00
  2.10000000E+02  6.20000000E+01  0.00000000E+00
  2.10000000E+02  6.00000000E+01  0.00000000E+00
  2.10000000E+02  5.80000000E+01  0.00000000E+00
  2.10000000E+02  5.60000000E+01  0.00000000E+00
  2.10000000E+02  5.40000000E+01  0.00000000E+00
  2.10000000E+02  5.20000000E+01  0.00000000E+00
  2.10000000E+02  5.00000000E+01  0.00000000E+00
  2.10000000E+02  4.80000000E+01  0.00000000E+00
  2.10000000E+02  4.60000000E+01  0.00000000E+00
  2.10000000E+02  4.40000000E+01  0.00000000E+00
  2.10000000E+02  4.20000000E+01  0.00000000E+00
  2.10000000E+02  4.00000000E+01  0.00000000E+00
  2.10000000E+02  3.80000000E+01  0.00000000E+00
  2.10000000E+02  3.60000000E+01  0.00000000E+00
  2.10000000E+02  3.40000000E+01  0.00000000E+00
  2.10000000E+02  3.20000000E+01  0.00000000E+00
  2.10000000E+02  3.00000000E+01  0.00000000E+00
  2.10000000E+02  2.80000000E+01  0.00000000E+00
  2.10000000E+02  2.60000000E+01  0.00000000E+00
  2.10000000E+02  2.40000000E+01  0.00000000E+00
  2.10000000E+02  2.20000000E+01  0.00000000E+00
  2.10000000E+02  2.00000000E+01  0.00000000E+00
  2.10000000E+02  1.80000000E+01  0.00000000E+00
  2.10000000E+02  1.60000000E+01  0.00000000E+00
  2.10000000E+02  1.40000000E+01  0.00000000E+00
  2.10000000E+02  1.20000000E+01  0.00000000E+00
  2.10000000E+02  1.00000000E+01  0.00000000E+00
  2.10000000E+02  8.00000000E+00  0.00000000E+00
  2.10000000E+02  6.00000000E+00  0.00000000E+00
  2.10000000E+02  4.00000000E+00  0.00000000E+00
  2.10000000E+02  2.00000000E+00  0.00000000E+00
  2.10000000E+02 -3.33066907E-14  0.00000000E+00
  2.20000000E+02  1.00000000E+02  0.00000000E+00
  2.20000000E+02  9.80000000E+01  0.00000000E+00
  2.20000000E+02  9.60000000E+01  0.00000000E+00
  2.20000000E+02  9.40000000E+01  0.00000000E+00
  2.20000000E+02  9.20000000E+01  0.00000000E+00
  2.20000000E+02  9.00000000E+01  0.00000000E+00
  2.20000000E+02  8.80000000E+01  0.00000000E+00
  2.20000000E+02  8.60000000E+01  0.00000000E+00
  2.20000000E+02  8.40000000E+01  0.00000000E+00
  2.20000000E+02  8.20000000E+01  0.00000000E+00
  2.20000000E+02  8.00000000E+01  0.00000000E+00
  2.20000000E+02  7.80000000E+01  0.00000000E+00
  2.20000000E+02  7.60000000E+01  0.00000000E+00
  2.20000000E+02  7.40000000E+01  0.00000000E+00
  2.20000000E+02  7.20000000E+01  0.00000000E+00
  2.20000000E+02  7.00000000E+01  0.00000000E+00
  2.20000000E+02  6.80000000E+01  0.00000000E+00
  2.20000000E+02  6.60000000E+01  0.00000000E+00
  2.20000000E+02  6.40000000E+01  0.00000000E+00
  2.20000000E+02  6.20000000E+01  0.00000000E+00
  2.20000000E+02  6.00000000E+01  0.00000000E+00
  2.20000000E+02  5.80000000E+01  0.00000000E+00
  2.20000000E+02  5.60000000E+01  0.00000000E+00
  2.20000000E+02  5.40000000E+01  0.00000000E+00
  2.20000000E+02  5.20000000E+01  0.00000000E+00
  2.20000000E+02  5.00000000E+01  0.00000000E+00
  2.20000000E+02  4.80000000E+01  0.00000000E+00
  2.20000000E+02  4.60000000E+01  0.00000000E+00
  2.20000000E+02  4.40000000E+01  0.00000000E+00
  2.20000000E+02  4.20000000E+01  0.00000000E+00
  2.20000000E+02  4.00000000E+01  0.00000000E+00
  2.20000000E+02  3.80000000E+01  0.00000000E+00
  2.20000000E+02  3.60000000E+01  0.00000000E+00
  2.20000000E+02  3.40000000E+01  0.00000000E+00
  2.20000000E+02  3.20000000E+01  0.00000000E+00
  2.20000000E+02  3.00000000E+01  0.00000000E+00
  2.20000000E+02  2.80000000E+01  0.00000000E+00
  2.20000000E+02  2.60000000E+01  0.00000000E+00
  2.20000000E+02  2.40000000E+01  0.00000000E+00
  2.20000000E+02  2.20000000E+01  0.00000000E+00
  2.20000000E+02  2.00000000E+01  0.00000000E+00
  2.20000000E+02  1.80000000E+01  0.00000000E+00
  2.20000000E+02  1.60000000E+01  0.00000000E+00
  2.20000000E+02  1.40000000E+01  0.00000000E+00
  2.20000000E+02  1.20000000E+01  0.00000000E+00
  2.20000000E+02  1.00000000E+01  0.00000000E+00
  2.20000000E+02  8.00000000E+00  0.00000000E+00
  2.20000000E+02  6.00000000E+00  0.00000000E+00
  2.20000000E+02  4.00000000E+00  0.00000000E+00
  2.20000000E+02  2.00000000E+00  0.00000000E+00
  2.20000000E+02 -3.33066907E-14  0.00000000E+00
  2.30000000E+02  1.00000000E+02  0.00000000E+00
  2.30000000E+02  9.80000000E+01  0.00000000E+00
  2.30000000E+02  9.60000000E+01  0.00000000E+00
  2.30000000E+02  9.40000000E+01  0.00000000E+00
  2.30000000E+02  9.20000000E+01  0.00000000E+00
  2.30000000E+02  9.00000000E+01  0.00000000E+00
  2.30000000E+02  8.80000000E+01  0.00000000E+00
  2.30000000E+02  8.60000000E+01  0.00000000E+00
  2.30000000E+02  8.40000000E+01  0.00000000E+00
  2.30000000E+02  8.20000000E+01  0.00000000E+00
  2.30000000E+02  8.00000000E+01  0.00000000E+00
  2.30000000E+02  7.80000000E+01  0.00000000E+00
  2.30000000E+02  7.60000000E+01  0.00000000E+00
  2.30000000E+02  7.40000000E+01  0.00000000E+00
  2.30000000E+02  7.20000000E+01  0.00000000E+00
  2.30000000E+02  7.00000000E+01  0.00000000E+00
  2.30000000E+02  6.80000000E+01  0.00000000E+00
  2.30000000E+02  6.60000000E+01  0.00000000E+00
  2.30000000E+02  6.40000000E+01  0.00000000E+00
  2.30000000E+02  6.20000000E+01  0.00000000E+00
  2.30000000E+02  6.00000000E+01  0.00000000E+00
  2.30000000E+02  5.80000000E+01  0.00000000E+00
  2.30000000E+02  5.60000000E+01  0.00000000E+00
  2.30000000E+02  5.40000000E+01  0.00000000E+00
  2.30000000E+02  5.20000000E+01  0.00000000E+00
  2.30000000E+02  5.00000000E+01  0.00000000E+00
  2.30000000E+02  4.80000000E+01  0.00000000E+00
  2.30000000E+02  4.60000000E+01  0.00000000E+00
  2.30000000E+02  4.40000000E+01  0.00000000E+00
  2.30000000E+02  4.20000000E+01  0.00000000E+00
  2.30000000E+02  4.00000000E+01  0.00000000E+00
  2.30000000E+02  3.80000000E+01  0.00000000E+00
  2.30000000E+02  3.60000000E+01  0.00000000E+00
  2.30000000E+02  3.40000000E+01  0.00000000E+00
  2.30000000E+02  3.20000000E+01  0.00000000E+00
  2.30000000E+02  3.00000000E+01  0.00000000E+00
  2.30000000E+02  2.80000000E+01  0.00000000E+00
  2.30000000E+02  2.60000000E+01  0.00000000E+00
  2.30000000E+02  2.40000000E+01  0.00000000E+00
  2.30000000E+02  2.20000000E+01  0.00000000E+00
  2.30000000E+02  2.00000000E+01  0.00000000E+00
  2.30000000E+02  1.80000000E+01  0.00000000E+00
  2.30000000E+02  1.60000000E+01  0.00000000E+00
  2.30000000E+02  1.40000000E+01  0.00000000E+00
  2.30000000E+02  1.20000000E+01  0.00000000E+00
  2.30000000E+02  1.00000000E+01  0.00000000E+00
  2.30000000E+02  8.00000000E+00  0.00000000E+00
  2.30000000E+02  6.00000000E+00  0.00000000E+00
  2.30000000E+02  4.00000000E+00  0.00000000E+00
  2.30000000E+02  2.00000000E+00  0.00000000E+00
  2.30000000E+02 -3.33066907E-14  0.00000000E+00
  2.40000000E+02  1.00000000E+02  0.00000000E+00
  2.40000000E+02  9.80000000E+01  0.00000000E+00
  2.40000000E+02  9.60000000E+01  0.00000000E+00
  2.40000000E+02  9.40000000E+01  0.00000000E+00
  2.40000000E+02  9.20000000E+01  0.00000000E+00
  2.40000000E+02  9.00000000E+01  0.00000000E+00
  2.40000000E+02  8.80000000E+01  0.00000000E+00
  2.40000000E+02  8.60000000E+01  0.00000000E+00
  2.40000000E+02  8.40000000E+01  0.00000000E+00
  2.40000000E+02  8.20000000E+01  0.00000000E+00
  2.40000000E+02  8.00000000E+01  0.00000000E+00
  2.40000000E+02  7.80000000E+01  0.00000000E+00
  2.40000000E+02  7.60000000E+01  0.00000000E+00
  2.40000000E+02  7.40000000E+01  0.00000000E+00
  2.40000000E+02  7.20000000E+01  0.00000000E+00
  2.40000000E+02  7.00000000E+01  0.00000000E+00
  2.40000000E+02  6.80000000E+01  0.00000000E+00
  2.40000000E+02  6.60000000E+01  0.00000000E+00
  2.40000000E+02  6.40000000E+01  0.00000000E+00
  2.40000000E+02  6.20000000E+01  0.00000000E+00
  2.40000000E+02  6.00000000E+01  0.00000000E+00
  2.40000000E+02  5.80000000E+01  0.00000000E+00
  2.40000000E+02  5.60000000E+01  0.00000000E+00
  2.40000000E+02  5.40000000E+01  0.00000000E+00
  2.40000000E+02  5.20000000E+01  0.00000000E+00
  2.40000000E+02  5.00000000E+01  0.00000000E+00
  2.40000000E+02  4.80000000E+01  0.00000000E+00
  2.40000000E+02  4.60000000E+01  0.00000000E+00
  2.40000000E+02  4.40000000E+01  0.00000000E+00
  2.40000000E+02  4.20000000E+01  0.00000000E+00
  2.40000000E+02  4.00000000E+01  0.00000000E+00
  2.40000000E+02  3.80000000E+01  0.00000000E+00
  2.40000000E+02  3.60000000E+01  0.00000000E+00
  2.40000000E+02  3.40000000E+01  0.00000000E+00
  2.40000000E+02  3.20000000E+01  0.00000000E+00
  2.40000000E+02  3.00000000E+01  0.00000000E+00
  2.40000000E+02  2.80000000E+01  0.00000000E+00
  2.40000000E+02  2.60000000E+01  0.00000000E+00
  2.40000000E+02  2.40000000E+01  0.00000000E+00
  2.40000000E+02  2.20000000E+01  0.00000000E+00
  2.40000000E+02  2.00000000E+01  0.00000000E+00
  2.40000000E+02  1.80000000E+01  0.00000000E+00
  2.40000000E+02  1.60000000E+01  0.00000000E+00
  2.40000000E+02  1.40000000E+01  0.00000000E+00
  2.40000000E+02  1.20000000E+01  0.00000000E+00
  2.40000000E+02  1.00000000E+01  0.00000000E+00
  2.40000000E+02  8.00000000E+00  0.00000000E+00
  2.40000000E+02  6.00000000E+00  0.00000000E+00
  2.40000000E+02  4.00000000E+00  0.00000000E+00
  2.40000000E+02  2.00000000E+00  0.00000000E+00
  2.40000000E+02 -3.33066907E-14  0.00000000E+00
  2.50000000E+02  1.00000000E+02  0.00000000E+00
  2.50000000E+02  9.80000000E+01  0.00000000E+00
  2.50000000E+02  9.60000000E+01  0.00000000E+00
  2.50000000E+02  9.40000000E+01  0.00000000E+00
  2.50000000E+02  9.20000000E+01  0.00000000E+00
  2.50000000E+02  9.00000000E+01  0.00000000E+00
  2.50000000E+02  8.80000000E+01  0.00000000E+00
  2.50000000E+02  8.60000000E+01  0.00000000E+00
  2.50000000E+02  8.40000000E+01  0.00000000E+00
  2.50000000E+02  8.20000000E+01  0.00000000E+00
  2.50000000E+02  8.00000000E+01  0.00000000E+00
  2.50000000E+02  7.80000000E+01  0.00000000E+00
  2.50000000E+02  7.60000000E+01  0.00000000E+00
  2.50000000E+02  7.40000000E+01  0.00000000E+00
  2.50000000E+02  7.20000000E+01  0.00000000E+00
  2.50000000E+02  7.00000000E+01  0.00000000E+00
  2.50000000E+02  6.80000000E+01  0.00000000E+00
  2.50000000E+02  6.60000000E+01  0.00000000E+00
  2.50000000E+02  6.40000000E+01  0.00000000E+00
  2.50000000E+02  6.20000000E+01  0.00000000E+00
  2.50000000E+02  6.00000000E+01  0.00000000E+00
  2.50000000E+02  5.80000000E+01  0.00000000E+00
  2.50000000E+02  5.60000000E+01  0.00000000E+00
  2.50000000E+02  5.40000000E+01  0.00000000E+00
  2.50000000E+02  5.20000000E+01  0.00000000E+00
  2.50000000E+02  5.00000000E+01  0.00000000E+00
  2.50000000E+02  4.80000000E+01  0.00000000E+00
  2.50000000E+02  4.60000000E+01  0.00000000E+00
  2.50000000E+02  4.40000000E+01  0.00000000E+00
  2.50000000E+02  4.20000000E+01  0.00000000E+00
  2.50000000E+02  4.00000000E+01  0.00000000E+00
  2.50000000E+02  3.80000000E+01  0.00000000E+00
  2.50000000E+02  3.60000000E+01  0.00000000E+00
  2.50000000E+02  3.40000000E+01  0.00000000E+00
  2.50000000E+02  3.20000000E+01  0.00000000E+00
  2.50000000E+02  3.00000000E+01  0.00000000E+00
  2.50000000E+02  2.80000000E+01  0.00000000E+00
  2.50000000E+02  2.60000000E+01  0.00000000E+00
  2.50000000E+02  2.40000000E+01  0.00000000E+00
  2.50000000E+02  2.20000000E+01  0.00000000E+00
  2.50000000E+02  2.00000000E+01  0.00000000E+00
  2.50000000E+02  1.80000000E+01  0.00000000E+00
  2.50000000E+02  1.60000000E+01  0.00000000E+00
  2.50000000E+02  1.40000000E+01  0.00000000E+00
  2.50000000E+02  1.20000000E+01  0.00000000E+00
  2.50000000E+02  1.00000000E+01  0.00000000E+00
  2.50000000E+02  8.00000000E+00  0.00000000E+00
  2.50000000E+02  6.00000000E+00  0.00000000E+00
  2.50000000E+02  4.00000000E+00  0.00000000E+00
  2.50000000E+02  2.00000000E+00  0.00000000E+00
  2.50000000E+02 -3.33066907E-14  0.00000000E+00
  2.60000000E+02  1.00000000E+02  0.00000000E+00
  2.60000000E+02  9.80000000E+01  0.00000000E+00
  2.60000000E+02  9.60000000E+01  0.00000000E+00
  2.60000000E+02  9.40000000E+01  0.00000000E+00
  2.60000000E+02  9.20000000E+01  0.00000000E+00
  2.60000000E+02  9.00000000E+01  0.00000000E+00
  2.60000000E+02  8.80000000E+01  0.00000000E+00
  2.60000000E+02  8.60000000E+01  0.00000000E+00
  2.60000000E+02  8.40000000E+01  0.00000000E+00
  2.60000000E+02  8.20000000E+01  0.00000000E+00
  2.60000000E+02  8.00000000E+01  0.00000000E+00
  2.60000000E+02  7.80000000E+01  0.00000000E+00
  2.60000000E+02  7.60000000E+01  0.00000000E+00
  2.60000000E+02  7.40000000E+01  0.00000000E+00
  2.60000000E+02  7.20000000E+01  0.00000000E+00
  2.60000000E+02  7.00000000E+01  0.00000000E+00
  2.60000000E+02  6.80000000E+01  0.00000000E+00
  2.60000000E+02  6.60000000E+01  0.00000000E+00
  2.60000000E+02  6.40000000E+01  0.00000000E+00
  2.60000000E+02  6.20000000E+01  0.00000000E+00
  2.60000000E+02  6.00000000E+01  0.00000000E+00
  2.60000000E+02  5.80000000E+01  0.00000000E+00
  2.60000000E+02  5.60000000E+01  0.00000000E+00
  2.60000000E+02  5.40000000E+01  0.00000000E+00
  2.60000000E+02  5.20000000E+01  0.00000000E+00
  2.60000000E+02  5.00000000E+01  0.00000000E+00
  2.60000000E+02  4.80000000E+01  0.00000000E+00
  2.60000000E+02  4.60000000E+01  0.00000000E+00
  2.60000000E+02  4.40000000E+01  0.00000000E+00
  2.60000000E+02  4.20000000E+01  0.00000000E+00
  2.60000000E+02  4.00000000E+01  0.00000000E+00
  2.60000000E+02  3.80000000E+01  0.00000000E+00
  2.60000000E+02  3.60000000E+01  0.00000000E+00
  2.60000000E+02  3.40000000E+01  0.00000000E+00
  2.60000000E+02  3.20000000E+01  0.00000000E+00
  2.60000000E+02  3.00000000E+01  0.00000000E+00
  2.60000000E+02  2.80000000E+01  0.00000000E+00
  2.60000000E+02  2.60000000E+01  0.00000000E+00
  2.60000000E+02  2.40000000E+01  0.00000000E+00
  2.60000000E+02  2.20000000E+01  0.00000000E+00
  2.60000000E+02  2.00000000E+01  0.00000000E+00
  2.60000000E+02  1.80000000E+01  0.00000000E+00
  2.60000000E+02  1.60000000E+01  0.00000000E+00
  2.60000000E+02  1.40000000E+01  0.00000000E+00
  2.60000000E+02  1.20000000E+01  0.00000000E+00
  2.60000000E+02  1.00000000E+01  0.00000000E+00
  2.60000000E+02  8.00000000E+00  0.00000000E+00
  2.60000000E+02  6.00000000E+00  0.00000000E+00
  2.60000000E+02  4.00000000E+00  0.00000000E+00
  2.60000000E+02  2.00000000E+00  0.00000000E+00
  2.60000000E+02 -3.33066907E-14  0.00000000E+00
  2.70000000E+02  1.00000000E+02  0.00000000E+00
  2.70000000E+02  9.80000000E+01  0.00000000E+00
  2.70000000E+02  9.60000000E+01  0.00000000E+00
  2.70000000E+02  9.40000000E+01  0.00000000E+00
  2.70000000E+02  9.20000000E+01  0.00000000E+00
  2.70000000E+02  9.00000000E+01  0.00000000E+00
  2.70000000E+02  8.80000000E+01  0.00000000E+00
  2.70000000E+02  8.60000000E+01  0.00000000E+00
  2.70000000E+02  8.40000000E+01  0.00000000E+00
  2.70000000E+02  8.20000000E+01  0.00000000E+00
  2.70000000E+02  8.00000000E+01  0.00000000E+00
  2.70000000E+02  7.80000000E+01  0.00000000E+00
  2.70000000E+02  7.60000000E+01  0.00000000E+00
  2.70000000E+02  7.40000000E+01  0.00000000E+00
  2.70000000E+02  7.20000000E+01  0.00000000E+00
  2.70000000E+02  7.00000000E+01  0.00000000E+00
  2.70000000E+02  6.80000000E+01  0.00000000E+00
  2.70000000E+02  6.60000000E+01  0.00000000E+00
  2.70000000E+02  6.40000000E+01  0.00000000E+00
  2.70000000E+02  6.20000000E+01  0.00000000E+00
  2.70000000E+02  6.00000000E+01  0.00000000E+00
  2.70000000E+02  5.80000000E+01  0.00000000E+00
  2.70000000E+02  5.60000000E+01  0.00000000E+00
  2.70000000E+02  5.40000000E+01  0.00000000E+00
  2.70000000E+02  5.20000000E+01  0.00000000E+00
  2.70000000E+02  5.00000000E+01  0.00000000E+00
  2.70000000E+02  4.80000000E+01  0.00000000E+00
  2.70000000E+02  4.60000000E+01  0.00000000E+00
  2.70000000E+02  4.40000000E+01  0.00000000E+00
  2.70000000E+02  4.20000000E+01  0.00000000E+00
  2.70000000E+02  4.00000000E+01  0.00000000E+00
  2.70000000E+02  3.80000000E+01  0.00000000E+00
  2.70000000E+02  3.60000000E+01  0.00000000E+00
  2.70000000E+02  3.40000000E+01  0.00000000E+00
  2.70000000E+02  3.20000000E+01  0.00000000E+00
  2.70000000E+02  3.00000000E+01  0.00000000E+00
  2.70000000E+02  2.80000000E+01  0.00000000E+00
  2.70000000E+02  2.60000000E+01  0.00000000E+00
  2.70000000E+02  2.40000000E+01  0.00000000E+00
  2.70000000E+02  2.20000000E+01  0.00000000E+00
  2.70000000E+02  2.00000000E+01  0.00000000E+00
  2.70000000E+02  1.80000000E+01  0.00000000E+00
  2.70000000E+02  1.60000000E+01  0.00000000E+00
  2.70000000E+02  1.40000000E+01  0.00000000E+00
  2.70000000E+02  1.20000000E+01  0.00000000E+00
  2.70000000E+02  1.00000000E+01  0.00000000E+00
  2.70000000E+02  8.00000000E+00  0.00000000E+00
  2.70000000E+02  6.00000000E+00  0.00000000E+00
  2.70000000E+02  4.00000000E+00  0.00000000E+00
  2.70000000E+02  2.00000000E+00  0.00000000E+00
  2.70000000E+02 -3.33066907E-14  0.00000000E+00
  2.80000000E+02  1.00000000E+02  0.00000000E+00
  2.80000000E+02  9.80000000E+01  0.00000000E+00
  2.80000000E+02  9.60000000E+01  0.00000000E+00
  2.80000000E+02  9.40000000E+01  0.00000000E+00
  2.80000000E+02  9.20000000E+01  0.00000000E+00
  2.80000000E+02  9.00000000E+01  0.00000000E+00
  2.80000000E+02  8.80000000E+01  0.00000000E+00
  2.80000000E+02  8.60000000E+01  0.00000000E+00
  2.80000000E+02  8.40000000E+01  0.00000000E+00
  2.80000000E+02  8.20000000E+01  0.00000000E+00
  2.80000000E+02  8.00000000E+01  0.00000000E+00
  2.80000000E+02  7.80000000E+01  0.00000000E+00
  2.80000000E+02  7.60000000E+01  0.00000000E+00
  2.80000000E+02  7.40000000E+01  0.00000000E+00
  2.80000000E+02  7.20000000E+01  0.00000000E+00
  2.80000000E+02  7.00000000E+01  0.00000000E+00
  2.80000000E+02  6.80000000E+01  0.00000000E+00
  2.80000000E+02  6.60000000E+01  0.00000000E+00
  2.80000000E+02  6.40000000E+01  0.00000000E+00
  2.80000000E+02  6.20000000E+01  0.00000000E+00
  2.80000000E+02  6.00000000E+01  0.00000000E+00
  2.80000000E+02  5.80000000E+01  0.00000000E+00
  2.80000000E+02  5.60000000E+01  0.00000000E+00
  2.80000000E+02  5.40000000E+01  0.00000000E+00
  2.80000000E+02  5.20000000E+01  0.00000000E+00
  2.80000000E+02  5.00000000E+01  0.00000000E+00
  2.80000000E+02  4.80000000E+01  0.00000000E+00
  2.80000000E+02  4.60000000E+01  0.00000000E+00
  2.80000000E+02  4.40000000E+01  0.00000000E+00
  2.80000000E+02  4.20000000E+01  0.00000000E+00
  2.80000000E+02  4.00000000E+01  0.00000000E+00
  2.80000000E+02  3.80000000E+01  0.00000000E+00
  2.80000000E+02  3.60000000E+01  0.00000000E+00
  2.80000000E+02  3.40000000E+01  0.00000000E+00
  2.80000000E+02  3.20000000E+01  0.00000000E+00
  2.80000000E+02  3.00000000E+01  0.00000000E+00
  2.80000000E+02  2.80000000E+01  0.00000000E+00
  2.80000000E+02  2.60000000E+01  0.00000000E+00
  2.80000000E+02  2.40000000E+01  0.00000000E+00
  2.80000000E+02  2.20000000E+01  0.00000000E+00
  2.80000000E+02  2.00000000E+01  0.00000000E+00
  2.80000000E+02  1.80000000E+01  0.00000000E+00
  2.80000000E+02  1.60000000E+01  0.00000000E+00
  2.80000000E+02  1.40000000E+01  0.00000000E+00
  2.80000000E+02  1.20000000E+01  0.00000000E+00
  2.80000000E+02  1.00000000E+01  0.00000000E+00
  2.80000000E+02  8.00000000E+00  0.00000000E+00
  2.80000000E+02  6.00000000E+00  0.00000000E+00
  2.80000000E+02  4.00000000E+00  0.00000000E+00
  2.80000000E+02  2.00000000E+00  0.00000000E+00
  2.80000000E+02 -3.33066907E-14  0.00000000E+00
  2.90000000E+02  1.00000000E+02  0.00000000E+00
  2.90000000E+02  9.80000000E+01  0.00000000E+00
  2.90000000E+02  9.60000000E+01  0.00000000E+00
  2.90000000E+02  9.40000000E+01  0.00000000E+00
  2.90000000E+02  9.20000000E+01  0.00000000E+00
  2.90000000E+02  9.00000000E+01  0.00000000E+00
  2.90000000E+02  8.80000000E+01  0.00000000E+00
  2.90000000E+02  8.60000000E+01  0.00000000E+00
  2.90000000E+02  8.40000000E+01  0.00000000E+00
  2.90000000E+02  8.20000000E+01  0.00000000E+00
  2.90000000E+02  8.00000000E+01  0.00000000E+00
  2.90000000E+02  7.80000000E+01  0.00000000E+00
  2.90000000E+02  7.60000000E+01  0.00000000E+00
  2.90000000E+02  7.40000000E+01  0.00000000E+00
  2.90000000E+02  7.20000000E+01  0.00000000E+00
  2.90000000E+02  7.00000000E+01  0.00000000E+00
  2.90000000E+02  6.80000000E+01  0.00000000E+00
  2.90000000E+02  6.60000000E+01  0.00000000E+00
  2.90000000E+02  6.40000000E+01  0.00000000E+00
  2.90000000E+02  6.20000000E+01  0.00000000E+00
  2.90000000E+02  6.00000000E+01  0.00000000E+00
  2.90000000E+02  5.80000000E+01  0.00000000E+00
  2.90000000E+02  5.60000000E+01  0.00000000E+00
  2.90000000E+02  5.40000000E+01  0.00000000E+00
  2.90000000E+02  5.20000000E+01  0.00000000E+00
  2.90000000E+02  5.00000000E+01  0.00000000E+00
  2.90000000E+02  4.80000000E+01  0.00000000E+00
  2.90000000E+02  4.60000000E+01  0.00000000E+00
  2.90000000E+02  4.40000000E+01  0.00000000E+00
  2.90000000E+02  4.20000000E+01  0.00000000E+00
  2.90000000E+02  4.00000000E+01  0.00000000E+00
  2.90000000E+02  3.80000000E+01  0.00000000E+00
  2.90000000E+02  3.60000000E+01  0.00000000E+00
  2.90000000E+02  3.40000000E+01  0.00000000E+00
  2.90000000E+02  3.20000000E+01  0.00000000E+00
  2.90000000E+02  3.00000000E+01  0.00000000E+00
  2.90000000E+02  2.80000000E+01  0.00000000E+00
  2.90000000E+02  2.60000000E+01  0.00000000E+00
  2.90000000E+02  2.40000000E+01  0.00000000E+00
  2.90000000E+02  2.20000000E+01  0.00000000E+00
  2.90000000E+02  2.00000000E+01  0.00000000E+00
  2.90000000E+02  1.80000000E+01  0.00000000E+00
  2.90000000E+02  1.60000000E+01  0.00000000E+00
  2.90000000E+02  1.40000000E+01  0.00000000E+00
  2.90000000E+02  1.20000000E+01  0.00000000E+00
  2.90000000E+02  1.00000000E+01  0.00000000E+00
  2.90000000E+02  8.00000000E+00  0.00000000E+00
  2.90000000E+02  6.00000000E+00  0.00000000E+00
  2.90000000E+02  4.00000000E+00  0.00000000E+00
  2.90000000E+02  2.00000000E+00  0.00000000E+00
  2.90000000E+02 -3.33066907E-14  0.00000000E+00
  3.00000000E+02  1.00000000E+02  0.00000000E+00
  3.00000000E+02  9.80000000E+01  0.00000000E+00
  3.00000000E+02  9.60000000E+01  0.00000000E+00
  3.00000000E+02  9.40000000E+01  0.00000000E+00
  3.00000000E+02  9.20000000E+01  0.00000000E+00
  3.00000000E+02  9.00000000E+01  0.00000000E+00
  3.00000000E+02  8.80000000E+01  0.00000000E+00
  3.00000000E+02  8.60000000E+01  0.00000000E+00
  3.00000000E+02  8.40000000E+01  0.00000000E+00
  3.00000000E+02  8.20000000E+01  0.00000000E+00
  3.00000000E+02  8.00000000E+01  0.00000000E+00
  3.00000000E+02  7.80000000E+01  0.00000000E+00
  3.00000000E+02  7.60000000E+01  0.00000000E+00
  3.00000000E+02  7.40000000E+01  0.00000000E+00
  3.00000000E+02  7.20000000E+01  0.00000000E+00
  3.00000000E+02  7.00000000E+01  0.00000000E+00
  3.00000000E+02  6.80000000E+01  0.00000000E+00
  3.00000000E+02  6.60000000E+01  0.00000000E+00
  3.00000000E+02  6.40000000E+01  0.00000000E+00
  3.00000000E+02  6.20000000E+01  0.00000000E+00
  3.00000000E+02  6.00000000E+01  0.00000000E+00
  3.00000000E+02  5.80000000E+01  0.00000000E+00
  3.00000000E+02  5.60000000E+01  0.00000000E+00
  3.00000000E+02  5.40000000E+01  0.00000000E+00
  3.00000000E+02  5.20000000E+01  0.00000000E+00
  3.00000000E+02  5.00000000E+01  0.00000000E+00
  3.00000000E+02  4.80000000E+01  0.00000000E+00
  3.00000000E+02  4.60000000E+01  0.00000000E+00
  3.00000000E+02  4.40000000E+01  0.00000000E+00
  3.00000000E+02  4.20000000E+01  0.00000000E+00
  3.00000000E+02  4.00000000E+01  0.00000000E+00
  3.00000000E+02  3.80000000E+01  0.00000000E+00
  3.00000000E+02  3.60000000E+01  0.00000000E+00
  3.00000000E+02  3.40000000E+01  0.00000000E+00
  3.00000000E+02  3.20000000E+01  0.00000000E+00
  3.00000000E+02  3.00000000E+01  0.00000000E+00
  3.00000000E+02  2.80000000E+01  0.00000000E+00
  3.00000000E+02  2.60000000E+01  0.00000000E+00
  3.00000000E+02  2.40000000E+01  0.00000000E+00
  3.00000000E+02  2.20000000E+01  0.00000000E+00
  3.00000000E+02  2.00000000E+01  0.00000000E+00
  3.00000000E+02  1.80000000E+01  0.00000000E+00
  3.00000000E+02  1.60000000E+01  0.00000000E+00
  3.00000000E+02  1.40000000E+01  0.00000000E+00
  3.00000000E+02  1.20000000E+01  0.00000000E+00
  3.00000000E+02  1.00000000E+01  0.00000000E+00
  3.00000000E+02  8.00000000E+00  0.00000000E+00
  3.00000000E+02  6.00000000E+00  0.00000000E+00
  3.00000000E+02  4.00000000E+00  0.00000000E+00
  3.00000000E+02  2.00000000E+00  0.00000000E+00
  3.00000000E+02 -3.33066907E-14  0.00000000E+00
  3.10000000E+02  1.00000000E+02  0.00000000E+00
  3.10000000E+02  9.80000000E+01  0.00000000E+00
  3.10000000E+02  9.60000000E+01  0.00000000E+00
  3.10000000E+02  9.40000000E+01  0.00000000E+00
  3.10000000E+02  9.20000000E+01  0.00000000E+00
  3.10000000E+02  9.00000000E+01  0.00000000E+00
  3.10000000E+02  8.80000000E+01  0.00000000E+00
  3.10000000E+02  8.60000000E+01  0.00000000E+00
  3.10000000E+02  8.40000000E+01  0.00000000E+00
  3.10000000E+02  8.20000000E+01  0.00000000E+00
  3.10000000E+02  8.00000000E+01  0.00000000E+00
  3.10000000E+02  7.80000000E+01  0.00000000E+00
  3.10000000E+02  7.60000000E+01  0.00000000E+00
  3.10000000E+02  7.40000000E+01  0.00000000E+00
  3.10000000E+02  7.20000000E+01  0.00000000E+00
  3.10000000E+02  7.00000000E+01  0.00000000E+00
  3.10000000E+02  6.80000000E+01  0.00000000E+00
  3.10000000E+02  6.60000000E+01  0.00000000E+00
  3.10000000E+02  6.40000000E+01  0.00000000E+00
  3.10000000E+02  6.20000000E+01  0.00000000E+00
  3.10000000E+02  6.00000000E+01  0.00000000E+00
  3.10000000E+02  5.80000000E+01  0.00000000E+00
  3.10000000E+02  5.60000000E+01  0.00000000E+00
  3.10000000E+02  5.40000000E+01  0.00000000E+00
  3.10000000E+02  5.20000000E+01  0.00000000E+00
  3.10000000E+02  5.00000000E+01  0.00000000E+00
  3.10000000E+02  4.80000000E+01  0.00000000E+00
  3.10000000E+02  4.60000000E+01  0.00000000E+00
  3.10000000E+02  4.40000000E+01  0.00000000E+00
  3.10000000E+02  4.20000000E+01  0.00000000E+00
  3.10000000E+02  4.00000000E+01  0.00000000E+00
  3.10000000E+02  3.80000000E+01  0.00000000E+00
  3.10000000E+02  3.60000000E+01  0.00000000E+00
  3.10000000E+02  3.40000000E+01  0.00000000E+00
  3.10000000E+02  3.20000000E+01  0.00000000E+00
  3.10000000E+02  3.00000000E+01  0.00000000E+00
  3.10000000E+02  2.80000000E+01  0.00000000E+00
  3.10000000E+02  2.60000000E+01  0.00000000E+00
  3.10000000E+02  2.40000000E+01  0.00000000E+00
  3.10000000E+02  2.20000000E+01  0.00000000E+00
  3.10000000E+02  2.00000000E+01  0.00000000E+00
  3.10000000E+02  1.80000000E+01  0.00000000E+00
  3.10000000E+02  1.60000000E+01  0.00000000E+00
  3.10000000E+02  1.40000000E+01  0.00000000E+00
  3.10000000E+02  1.20000000E+01  0.00000000E+00
  3.10000000E+02  1.00000000E+01  0.00000000E+00
  3.10000000E+02  8.00000000E+00  0.00000000E+00
  3.10000000E+02  6.00000000E+00  0.00000000E+00
  3.10000000E+02  4.00000000E+00  0.00000000E+00
  3.10000000E+02  2.00000000E+00  0.00000000E+00
  3.10000000E+02 -3.33066907E-14  0.00000000E+00
  3.20000000E+02  1.00000000E+02  0.00000000E+00
  3.20000000E+02  9.80000000E+01  0.00000000E+00
  3.20000000E+02  9.60000000E+01  0.00000000E+00
  3.20000000E+02  9.40000000E+01  0.00000000E+00
  3.20000000E+02  9.20000000E+01  0.00000000E+00
  3.20000000E+02  9.00000000E+01  0.00000000E+00
  3.20000000E+02  8.80000000E+01  0.00000000E+00
  3.20000000E+02  8.60000000E+01  0.00000000E+00
  3.20000000E+02  8.40000000E+01  0.00000000E+00
  3.20000000E+02  8.20000000E+01  0.00000000E+00
  3.20000000E+02  8.00000000E+01  0.00000000E+00
  3.20000000E+02  7.80000000E+01  0.00000000E+00
  3.20000000E+02  7.60000000E+01  0.00000000E+00
  3.20000000E+02  7.40000000E+01  0.00000000E+00
  3.20000000E+02  7.20000000E+01  0.00000000E+00
  3.20000000E+02  7.00000000E+01  0.00000000E+00
  3.20000000E+02  6.80000000E+01  0.00000000E+00
  3.20000000E+02  6.60000000E+01  0.00000000E+00
  3.20000000E+02  6.40000000E+01  0.00000000E+00
  3.20000000E+02  6.20000000E+01  0.00000000E+00
  3.20000000E+02  6.00000000E+01  0.00000000E+00
  3.20000000E+02  5.80000000E+01  0.00000000E+00
  3.20000000E+02  5.60000000E+01  0.00000000E+00
  3.20000000E+02  5.40000000E+01  0.00000000E+00
  3.20000000E+02  5.20000000E+01  0.00000000E+00
  3.20000000E+02  5.00000000E+01  0.00000000E+00
  3.20000000E+02  4.80000000E+01  0.00000000E+00
  3.20000000E+02  4.60000000E+01  0.00000000E+00
  3.20000000E+02  4.40000000E+01  0.00000000E+00
  3.20000000E+02  4.20000000E+01  0.00000000E+00
  3.20000000E+02  4.00000000E+01  0.00000000E+00
  3.20000000E+02  3.80000000E+01  0.00000000E+00
  3.20000000E+02  3.60000000E+01  0.00000000E+00
  3.20000000E+02  3.40000000E+01  0.00000000E+00
  3.20000000E+02  3.20000000E+01  0.00000000E+00
  3.20000000E+02  3.00000000E+01  0.00000000E+00
  3.20000000E+02  2.80000000E+01  0.00000000E+00
  3.20000000E+02  2.60000000E+01  0.00000000E+00
  3.20000000E+02  2.40000000E+01  0.00000000E+00
  3.20000000E+02  2.20000000E+01  0.00000000E+00
  3.20000000E+02  2.00000000E+01  0.00000000E+00
  3.20000000E+02  1.80000000E+01  0.00000000E+00
  3.20000000E+02  1.60000000E+01  0.00000000E+00
  3.20000000E+02  1.40000000E+01  0.00000000E+00
  3.20000000E+02  1.20000000E+01  0.00000000E+00
  3.20000000E+02  1.00000000E+01  0.00000000E+00
  3.20000000E+02  8.00000000E+00  0.00000000E+00
  3.20000000E+02  6.00000000E+00  0.00000000E+00
  3.20000000E+02  4.00000000E+00  0.00000000E+00
  3.20000000E+02  2.00000000E+00  0.00000000E+00
  3.20000000E+02 -3.33066907E-14  0.00000000E+00
  3.30000000E+02  1.00000000E+02  0.00000000E+00
  3.30000000E+02  9.80000000E+01  0.00000000E+00
  3.30000000E+02  9.60000000E+01  0.00000000E+00
  3.30000000E+02  9.40000000E+01  0.00000000E+00
  3.30000000E+02  9.20000000E+01  0.00000000E+00
  3.30000000E+02  9.00000000E+01  0.00000000E+00
  3.30000000E+02  8.80000000E+01  0.00000000E+00
  3.30000000E+02  8.60000000E+01  0.00000000E+00
  3.30000000E+02  8.40000000E+01  0.00000000E+00
  3.30000000E+02  8.20000000E+01  0.00000000E+00
  3.30000000E+02  8.00000000E+01  0.00000000E+00
  3.30000000E+02  7.80000000E+01  0.00000000E+00
  3.30000000E+02  7.60000000E+01  0.00000000E+00
  3.30000000E+02  7.40000000E+01  0.00000000E+00
  3.30000000E+02  7.20000000E+01  0.00000000E+00
  3.30000000E+02  7.00000000E+01  0.00000000E+00
  3.30000000E+02  6.80000000E+01  0.00000000E+00
  3.30000000E+02  6.60000000E+01  0.00000000E+00
  3.30000000E+02  6.40000000E+01  0.00000000E+00
  3.30000000E+02  6.20000000E+01  0.00000000E+00
  3.30000000E+02  6.00000000E+01  0.00000000E+00
  3.30000000E+02  5.80000000E+01  0.00000000E+00
  3.30000000E+02  5.60000000E+01  0.00000000E+00
  3.30000000E+02  5.40000000E+01  0.00000000E+00
  3.30000000E+02  5.20000000E+01  0.00000000E+00
  3.30000000E+02  5.00000000E+01  0.00000000E+00
  3.30000000E+02  4.80000000E+01  0.00000000E+00
  3.30000000E+02  4.60000000E+01  0.00000000E+00
  3.30000000E+02  4.40000000E+01  0.00000000E+00
  3.30000000E+02  4.20000000E+01  0.00000000E+00
  3.30000000E+02  4.00000000E+01  0.00000000E+00
  3.30000000E+02  3.80000000E+01  0.00000000E+00
  3.30000000E+02  3.60000000E+01  0.00000000E+00
  3.30000000E+02  3.40000000E+01  0.00000000E+00
  3.30000000E+02  3.20000000E+01  0.00000000E+00
  3.30000000E+02  3.00000000E+01  0.00000000E+00
  3.30000000E+02  2.80000000E+01  0.00000000E+00
  3.30000000E+02  2.60000000E+01  0.00000000E+00
  3.30000000E+02  2.40000000E+01  0.00000000E+00
  3.30000000E+02  2.20000000E+01  0.00000000E+00
  3.30000000E+02  2.00000000E+01  0.00000000E+00
  3.30000000E+02  1.80000000E+01  0.00000000E+00
  3.30000000E+02  1.60000000E+01  0.00000000E+00
  3.30000000E+02  1.40000000E+01  0.00000000E+00
  3.30000000E+02  1.20000000E+01  0.00000000E+00
  3.30000000E+02  1.00000000E+01  0.00000000E+00
  3.30000000E+02  8.00000000E+00  0.00000000E+00
  3.30000000E+02  6.00000000E+00  0.00000000E+00
  3.30000000E+02  4.00000000E+00  0.00000000E+00
  3.30000000E+02  2.00000000E+00  0.00000000E+00
  3.30000000E+02 -3.33066907E-14  0.00000000E+00
  3.40000000E+02  1.00000000E+02  0.00000000E+00
  3.40000000E+02  9.80000000E+01  0.00000000E+00
  3.40000000E+02  9.60000000E+01  0.00000000E+00
  3.40000000E+02  9.40000000E+01  0.00000000E+00
  3.40000000E+02  9.20000000E+01  0.00000000E+00
  3.40000000E+02  9.00000000E+01  0.00000000E+00
  3.40000000E+02  8.80000000E+01  0.00000000E+00
  3.40000000E+02  8.60000000E+01  0.00000000E+00
  3.40000000E+02  8.40000000E+01  0.00000000E+00
  3.40000000E+02  8.20000000E+01  0.00000000E+00
  3.40000000E+02  8.00000000E+01  0.00000000E+00
  3.40000000E+02  7.80000000E+01  0.00000000E+00
  3.40000000E+02  7.60000000E+01  0.00000000E+00
  3.40000000E+02  7.40000000E+01  0.00000000E+00
  3.40000000E+02  7.20000000E+01  0.00000000E+00
  3.40000000E+02  7.00000000E+01  0.00000000E+00
  3.40000000E+02  6.80000000E+01  0.00000000E+00
  3.40000000E+02  6.60000000E+01  0.00000000E+00
  3.40000000E+02  6.40000000E+01  0.00000000E+00
  3.40000000E+02  6.20000000E+01  0.00000000E+00
  3.40000000E+02  6.00000000E+01  0.00000000E+00
  3.40000000E+02  5.80000000E+01  0.00000000E+00
  3.40000000E+02  5.60000000E+01  0.00000000E+00
  3.40000000E+02  5.40000000E+01  0.00000000E+00
  3.40000000E+02  5.20000000E+01  0.00000000E+00
  3.40000000E+02  5.00000000E+01  0.00000000E+00
  3.40000000E+02  4.80000000E+01  0.00000000E+00
  3.40000000E+02  4.60000000E+01  0.00000000E+00
  3.40000000E+02  4.40000000E+01  0.00000000E+00
  3.40000000E+02  4.20000000E+01  0.00000000E+00
  3.40000000E+02  4.00000000E+01  0.00000000E+00
  3.40000000E+02  3.80000000E+01  0.00000000E+00
  3.40000000E+02  3.60000000E+01  0.00000000E+00
  3.40000000E+02  3.40000000E+01  0.00000000E+00
  3.40000000E+02  3.20000000E+01  0.00000000E+00
  3.40000000E+02  3.00000000E+01  0.00000000E+00
  3.40000000E+02  2.80000000E+01  0.00000000E+00
  3.40000000E+02  2.60000000E+01  0.00000000E+00
  3.40000000E+02  2.40000000E+01  0.00000000E+00
  3.40000000E+02  2.20000000E+01  0.00000000E+00
  3.40000000E+02  2.00000000E+01  0.00000000E+00
  3.40000000E+02  1.80000000E+01  0.00000000E+00
  3.40000000E+02  1.60000000E+01  0.00000000E+00
  3.40000000E+02  1.40000000E+01  0.00000000E+00
  3.40000000E+02  1.20000000E+01  0.00000000E+00
  3.40000000E+02  1.00000000E+01  0.00000000E+00
  3.40000000E+02  8.00000000E+00  0.00000000E+00
  3.40000000E+02  6.00000000E+00  0.00000000E+00
  3.40000000E+02  4.00000000E+00  0.00000000E+00
  3.40000000E+02  2.00000000E+00  0.00000000E+00
  3.40000000E+02 -3.33066907E-14  0.00000000E+00
  3.50000000E+02  1.00000000E+02  0.00000000E+00
  3.50000000E+02  9.80000000E+01  0.00000000E+00
  3.50000000E+02  9.60000000E+01  0.00000000E+00
  3.50000000E+02  9.40000000E+01  0.00000000E+00
  3.50000000E+02  9.20000000E+01  0.00000000E+00
  3.50000000E+02  9.00000000E+01  0.00000000E+00
  3.50000000E+02  8.80000000E+01  0.00000000E+00
  3.50000000E+02  8.60000000E+01  0.00000000E+00
  3.50000000E+02  8.40000000E+01  0.00000000E+00
  3.50000000E+02  8.20000000E+01  0.00000000E+00
  3.50000000E+02  8.00000000E+01  0.00000000E+00
  3.50000000E+02  7.80000000E+01  0.00000000E+00
  3.50000000E+02  7.60000000E+01  0.00000000E+00
  3.50000000E+02  7.40000000E+01  0.00000000E+00
  3.50000000E+02  7.20000000E+01  0.00000000E+00
  3.50000000E+02  7.00000000E+01  0.00000000E+00
  3.50000000E+02  6.80000000E+01  0.00000000E+00
  3.50000000E+02  6.60000000E+01  0.00000000E+00
  3.50000000E+02  6.40000000E+01  0.00000000E+00
  3.50000000E+02  6.20000000E+01  0.00000000E+00
  3.50000000E+02  6.00000000E+01  0.00000000E+00
  3.50000000E+02  5.80000000E+01  0.00000000E+00
  3.50000000E+02  5.60000000E+01  0.00000000E+00
  3.50000000E+02  5.40000000E+01  0.00000000E+00
  3.50000000E+02  5.20000000E+01  0.00000000E+00
  3.50000000E+02  5.00000000E+01  0.00000000E+00
  3.50000000E+02  4.80000000E+01  0.00000000E+00
  3.50000000E+02  4.60000000E+01  0.00000000E+00
  3.50000000E+02  4.40000000E+01  0.00000000E+00
  3.50000000E+02  4.20000000E+01  0.00000000E+00
  3.50000000E+02  4.00000000E+01  0.00000000E+00
  3.50000000E+02  3.80000000E+01  0.00000000E+00
  3.50000000E+02  3.60000000E+01  0.00000000E+00
  3.50000000E+02  3.40000000E+01  0.00000000E+00
  3.50000000E+02  3.20000000E+01  0.00000000E+00
  3.50000000E+02  3.00000000E+01  0.00000000E+00
  3.50000000E+02  2.80000000E+01  0.00000000E+00
  3.50000000E+02  2.60000000E+01  0.00000000E+00
  3.50000000E+02  2.40000000E+01  0.00000000E+00
  3.50000000E+02  2.20000000E+01  0.00000000E+00
  3.50000000E+02  2.00000000E+01  0.00000000E+00
  3.50000000E+02  1.80000000E+01  0.00000000E+00
  3.50000000E+02  1.60000000E+01  0.00000000E+00
  3.50000000E+02  1.40000000E+01  0.00000000E+00
  3.50000000E+02  1.20000000E+01  0.00000000E+00
  3.50000000E+02  1.00000000E+01  0.00000000E+00
  3.50000000E+02  8.00000000E+00  0.00000000E+00
  3.50000000E+02  6.00000000E+00  0.00000000E+00
  3.50000000E+02  4.00000000E+00  0.00000000E+00
  3.50000000E+02  2.00000000E+00  0.00000000E+00
  3.50000000E+02 -3.33066907E-14  0.00000000E+00
  3.60000000E+02  1.00000000E+02  0.00000000E+00
  3.60000000E+02  9.80000000E+01  0.00000000E+00
  3.60000000E+02  9.60000000E+01  0.00000000E+00
  3.60000000E+02  9.40000000E+01  0.00000000E+00
  3.60000000E+02  9.20000000E+01  0.00000000E+00
  3.60000000E+02  9.00000000E+01  0.00000000E+00
  3.60000000E+02  8.80000000E+01  0.00000000E+00
  3.60000000E+02  8.60000000E+01  0.00000000E+00
  3.60000000E+02  8.40000000E+01  0.00000000E+00
  3.60000000E+02  8.20000000E+01  0.00000000E+00
  3.60000000E+02  8.00000000E+01  0.00000000E+00
  3.60000000E+02  7.80000000E+01  0.00000000E+00
  3.60000000E+02  7.60000000E+01  0.00000000E+00
  3.60000000E+02  7.40000000E+01  0.00000000E+00
  3.60000000E+02  7.20000000E+01  0.00000000E+00
  3.60000000E+02  7.00000000E+01  0.00000000E+00
  3.60000000E+02  6.80000000E+01  0.00000000E+00
  3.60000000E+02  6.60000000E+01  0.00000000E+00
  3.60000000E+02  6.40000000E+01  0.00000000E+00
  3.60000000E+02  6.20000000E+01  0.00000000E+00
  3.60000000E+02  6.00000000E+01  0.00000000E+00
  3.60000000E+02  5.80000000E+01  0.00000000E+00
  3.60000000E+02  5.60000000E+01  0.00000000E+00
  3.60000000E+02  5.40000000E+01  0.00000000E+00
  3.60000000E+02  5.20000000E+01  0.00000000E+00
  3.60000000E+02  5.00000000E+01  0.00000000E+00
  3.60000000E+02  4.80000000E+01  0.00000000E+00
  3.60000000E+02  4.60000000E+01  0.00000000E+00
  3.60000000E+02  4.40000000E+01  0.00000000E+00
  3.60000000E+02  4.20000000E+01  0.00000000E+00
  3.60000000E+02  4.00000000E+01  0.00000000E+00
  3.60000000E+02  3.80000000E+01  0.00000000E+00
  3.60000000E+02  3.60000000E+01  0.00000000E+00
  3.60000000E+02  3.40000000E+01  0.00000000E+00
  3.60000000E+02  3.20000000E+01  0.00000000E+00
  3.60000000E+02  3.00000000E+01  0.00000000E+00
  3.60000000E+02  2.80000000E+01  0.00000000E+00
  3.60000000E+02  2.60000000E+01  0.00000000E+00
  3.60000000E+02  2.40000000E+01  0.00000000E+00
  3.60000000E+02  2.20000000E+01  0.00000000E+00
  3.60000000E+02  2.00000000E+01  0.00000000E+00
  3.60000000E+02  1.80000000E+01  0.00000000E+00
  3.60000000E+02  1.60000000E+01  0.00000000E+00
  3.60000000E+02  1.40000000E+01  0.00000000E+00
  3.60000000E+02  1.20000000E+01  0.00000000E+00
  3.60000000E+02  1.00000000E+01  0.00000000E+00
  3.60000000E+02  8.00000000E+00  0.00000000E+00
  3.60000000E+02  6.00000000E+00  0.00000000E+00
  3.60000000E+02  4.00000000E+00  0.00000000E+00
  3.60000000E+02  2.00000000E+00  0.00000000E+00
  3.60000000E+02 -3.33066907E-14  0.00000000E+00
  3.70000000E+02  1.00000000E+02  0.00000000E+00
  3.70000000E+02  9.80000000E+01  0.00000000E+00
  3.70000000E+02  9.60000000E+01  0.00000000E+00
  3.70000000E+02  9.40000000E+01  0.00000000E+00
  3.70000000E+02  9.20000000E+01  0.00000000E+00
  3.70000000E+02  9.00000000E+01  0.00000000E+00
  3.70000000E+02  8.80000000E+01  0.00000000E+00
  3.70000000E+02  8.60000000E+01  0.00000000E+00
  3.70000000E+02  8.40000000E+01  0.00000000E+00
  3.70000000E+02  8.20000000E+01  0.00000000E+00
  3.70000000E+02  8.00000000E+01  0.00000000E+00
  3.70000000E+02  7.80000000E+01  0.00000000E+00
  3.70000000E+02  7.60000000E+01  0.00000000E+00
  3.70000000E+02  7.40000000E+01  0.00000000E+00
  3.70000000E+02  7.20000000E+01  0.00000000E+00
  3.70000000E+02  7.00000000E+01  0.00000000E+00
  3.70000000E+02  6.80000000E+01  0.00000000E+00
  3.70000000E+02  6.60000000E+01  0.00000000E+00
  3.70000000E+02  6.40000000E+01  0.00000000E+00
  3.70000000E+02  6.20000000E+01  0.00000000E+00
  3.70000000E+02  6.00000000E+01  0.00000000E+00
  3.70000000E+02  5.80000000E+01  0.00000000E+00
  3.70000000E+02  5.60000000E+01  0.00000000E+00
  3.70000000E+02  5.40000000E+01  0.00000000E+00
  3.70000000E+02  5.20000000E+01  0.00000000E+00
  3.70000000E+02  5.00000000E+01  0.00000000E+00
  3.70000000E+02  4.80000000E+01  0.00000000E+00
  3.70000000E+02  4.60000000E+01  0.00000000E+00
  3.70000000E+02  4.40000000E+01  0.00000000E+00
  3.70000000E+02  4.20000000E+01  0.00000000E+00
  3.70000000E+02  4.00000000E+01  0.00000000E+00
  3.70000000E+02  3.80000000E+01  0.00000000E+00
  3.70000000E+02  3.60000000E+01  0.00000000E+00
  3.70000000E+02  3.40000000E+01  0.00000000E+00
  3.70000000E+02  3.20000000E+01  0.00000000E+00
  3.70000000E+02  3.00000000E+01  0.00000000E+00
  3.70000000E+02  2.80000000E+01  0.00000000E+00
  3.70000000E+02  2.60000000E+01  0.00000000E+00
  3.70000000E+02  2.40000000E+01  0.00000000E+00
  3.70000000E+02  2.20000000E+01  0.00000000E+00
  3.70000000E+02  2.00000000E+01  0.00000000E+00
  3.70000000E+02  1.80000000E+01  0.00000000E+00
  3.70000000E+02  1.60000000E+01  0.00000000E+00
  3.70000000E+02  1.40000000E+01  0.00000000E+00
  3.70000000E+02  1.20000000E+01  0.00000000E+00
  3.70000000E+02  1.00000000E+01  0.00000000E+00
  3.70000000E+02  8.00000000E+00  0.00000000E+00
  3.70000000E+02  6.00000000E+00  0.00000000E+00
  3.70000000E+02  4.00000000E+00  0.00000000E+00
  3.70000000E+02  2.00000000E+00  0.00000000E+00
  3.70000000E+02 -3.33066907E-14  0.00000000E+00
  3.80000000E+02  1.00000000E+02  0.00000000E+00
  3.80000000E+02  9.80000000E+01  0.00000000E+00
  3.80000000E+02  9.60000000E+01  0.00000000E+00
  3.80000000E+02  9.40000000E+01  0.00000000E+00
  3.80000000E+02  9.20000000E+01  0.00000000E+00
  3.80000000E+02  9.00000000E+01  0.00000000E+00
  3.80000000E+02  8.80000000E+01  0.00000000E+00
  3.80000000E+02  8.60000000E+01  0.00000000E+00
  3.80000000E+02  8.40000000E+01  0.00000000E+00
  3.80000000E+02  8.20000000E+01  0.00000000E+00
  3.80000000E+02  8.00000000E+01  0.00000000E+00
  3.80000000E+02  7.80000000E+01  0.00000000E+00
  3.80000000E+02  7.60000000E+01  0.00000000E+00
  3.80000000E+02  7.40000000E+01  0.00000000E+00
  3.80000000E+02  7.20000000E+01  0.00000000E+00
  3.80000000E+02  7.00000000E+01  0.00000000E+00
  3.80000000E+02  6.80000000E+01  0.00000000E+00
  3.80000000E+02  6.60000000E+01  0.00000000E+00
  3.80000000E+02  6.40000000E+01  0.00000000E+00
  3.80000000E+02  6.20000000E+01  0.00000000E+00
  3.80000000E+02  6.00000000E+01  0.00000000E+00
  3.80000000E+02  5.80000000E+01  0.00000000E+00
  3.80000000E+02  5.60000000E+01  0.00000000E+00
  3.80000000E+02  5.40000000E+01  0.00000000E+00
  3.80000000E+02  5.20000000E+01  0.00000000E+00
  3.80000000E+02  5.00000000E+01  0.00000000E+00
  3.80000000E+02  4.80000000E+01  0.00000000E+00
  3.80000000E+02  4.60000000E+01  0.00000000E+00
  3.80000000E+02  4.40000000E+01  0.00000000E+00
  3.80000000E+02  4.20000000E+01  0.00000000E+00
  3.80000000E+02  4.00000000E+01  0.00000000E+00
  3.80000000E+02  3.80000000E+01  0.00000000E+00
  3.80000000E+02  3.60000000E+01  0.00000000E+00
  3.80000000E+02  3.40000000E+01  0.00000000E+00
  3.80000000E+02  3.20000000E+01  0.00000000E+00
  3.80000000E+02  3.00000000E+01  0.00000000E+00
  3.80000000E+02  2.80000000E+01  0.00000000E+00
  3.80000000E+02  2.60000000E+01  0.00000000E+00
  3.80000000E+02  2.40000000E+01  0.00000000E+00
  3.80000000E+02  2.20000000E+01  0.00000000E+00
  3.80000000E+02  2.00000000E+01  0.00000000E+00
  3.80000000E+02  1.80000000E+01  0.00000000E+00
  3.80000000E+02  1.60000000E+01  0.00000000E+00
  3.80000000E+02  1.40000000E+01  0.00000000E+00
  3.80000000E+02  1.20000000E+01  0.00000000E+00
  3.80000000E+02  1.00000000E+01  0.00000000E+00
  3.80000000E+02  8.00000000E+00  0.00000000E+00
  3.80000000E+02  6.00000000E+00  0.00000000E+00
  3.80000000E+02  4.00000000E+00  0.00000000E+00
  3.80000000E+02  2.00000000E+00  0.00000000E+00
  3.80000000E+02 -3.33066907E-14  0.00000000E+00
  3.90000000E+02  1.00000000E+02  0.00000000E+00
  3.90000000E+02  9.80000000E+01  0.00000000E+00
  3.90000000E+02  9.60000000E+01  0.00000000E+00
  3.90000000E+02  9.40000000E+01  0.00000000E+00
  3.90000000E+02  9.20000000E+01  0.00000000E+00
  3.90000000E+02  9.00000000E+01  0.00000000E+00
  3.90000000E+02  8.80000000E+01  0.00000000E+00
  3.90000000E+02  8.60000000E+01  0.00000000E+00
  3.90000000E+02  8.40000000E+01  0.00000000E+00
  3.90000000E+02  8.20000000E+01  0.00000000E+00
  3.90000000E+02  8.00000000E+01  0.00000000E+00
  3.90000000E+02  7.80000000E+01  0.00000000E+00
  3.90000000E+02  7.60000000E+01  0.00000000E+00
  3.90000000E+02  7.40000000E+01  0.00000000E+00
  3.90000000E+02  7.20000000E+01  0.00000000E+00
  3.90000000E+02  7.00000000E+01  0.00000000E+00
  3.90000000E+02  6.80000000E+01  0.00000000E+00
  3.90000000E+02  6.60000000E+01  0.00000000E+00
  3.90000000E+02  6.40000000E+01  0.00000000E+00
  3.90000000E+02  6.20000000E+01  0.00000000E+00
  3.90000000E+02  6.00000000E+01  0.00000000E+00
  3.90000000E+02  5.80000000E+01  0.00000000E+00
  3.90000000E+02  5.60000000E+01  0.00000000E+00
  3.90000000E+02  5.40000000E+01  0.00000000E+00
  3.90000000E+02  5.20000000E+01  0.00000000E+00
  3.90000000E+02  5.00000000E+01  0.00000000E+00
  3.90000000E+02  4.80000000E+01  0.00000000E+00
  3.90000000E+02  4.60000000E+01  0.00000000E+00
  3.90000000E+02  4.40000000E+01  0.00000000E+00
  3.90000000E+02  4.20000000E+01  0.00000000E+00
  3.90000000E+02  4.00000000E+01  0.00000000E+00
  3.90000000E+02  3.80000000E+01  0.00000000E+00
  3.90000000E+02  3.60000000E+01  0.00000000E+00
  3.90000000E+02  3.40000000E+01  0.00000000E+00
  3.90000000E+02  3.20000000E+01  0.00000000E+00
  3.90000000E+02  3.00000000E+01  0.00000000E+00
  3.90000000E+02  2.80000000E+01  0.00000000E+00
  3.90000000E+02  2.60000000E+01  0.00000000E+00
  3.90000000E+02  2.40000000E+01  0.00000000E+00
  3.90000000E+02  2.20000000E+01  0.00000000E+00
  3.90000000E+02  2.00000000E+01  0.00000000E+00
  3.90000000E+02  1.80000000E+01  0.00000000E+00
  3.90000000E+02  1.60000000E+01  0.00000000E+00
  3.90000000E+02  1.40000000E+01  0.00000000E+00
  3.90000000E+02  1.20000000E+01  0.00000000E+00
  3.90000000E+02  1.00000000E+01  0.00000000E+00
  3.90000000E+02  8.00000000E+00  0.00000000E+00
  3.90000000E+02  6.00000000E+00  0.00000000E+00
  3.90000000E+02  4.00000000E+00  0.00000000E+00
  3.90000000E+02  2.00000000E+00  0.00000000E+00
  3.90000000E+02 -3.33066907E-14  0.00000000E+00
  4.00000000E+02  1.00000000E+02  0.00000000E+00
  4.00000000E+02  9.80000000E+01  0.00000000E+00
  4.00000000E+02  9.60000000E+01  0.00000000E+00
  4.00000000E+02  9.40000000E+01  0.00000000E+00
  4.00000000E+02  9.20000000E+01  0.00000000E+00
  4.00000000E+02  9.00000000E+01  0.00000000E+00
  4.00000000E+02  8.80000000E+01  0.00000000E+00
  4.00000000E+02  8.60000000E+01  0.00000000E+00
  4.00000000E+02  8.40000000E+01  0.00000000E+00
  4.00000000E+02  8.20000000E+01  0.00000000E+00
  4.00000000E+02  8.00000000E+01  0.00000000E+00
  4.00000000E+02  7.80000000E+01  0.00000000E+00
  4.00000000E+02  7.60000000E+01  0.00000000E+00
  4.00000000E+02  7.40000000E+01  0.00000000E+00
  4.00000000E+02  7.20000000E+01  0.00000000E+00
  4.00000000E+02  7.00000000E+01  0.00000000E+00
  4.00000000E+02  6.80000000E+01  0.00000000E+00
  4.00000000E+02  6.60000000E+01  0.00000000E+00
  4.00000000E+02  6.40000000E+01  0.00000000E+00
  4.00000000E+02  6.20000000E+01  0.00000000E+00
  4.00000000E+02  6.00000000E+01  0.00000000E+00
  4.00000000E+02  5.80000000E+01  0.00000000E+00
  4.00000000E+02  5.60000000E+01  0.00000000E+00
  4.00000000E+02  5.40000000E+01  0.00000000E+00
  4.00000000E+02  5.20000000E+01  0.00000000E+00
  4.00000000E+02  5.00000000E+01  0.00000000E+00
  4.00000000E+02  4.80000000E+01  0.00000000E+00
  4.00000000E+02  4.60000000E+01  0.00000000E+00
  4.00000000E+02  4.40000000E+01  0.00000000E+00
  4.00000000E+02  4.20000000E+01  0.00000000E+00
  4.00000000E+02  4.00000000E+01  0.00000000E+00
  4.00000000E+02  3.80000000E+01  0.00000000E+00
  4.00000000E+02  3.60000000E+01  0.00000000E+00
  4.00000000E+02  3.40000000E+01  0.00000000E+00
  4.00000000E+02  3.20000000E+01  0.00000000E+00
  4.00000000E+02  3.00000000E+01  0.00000000E+00
  4.00000000E+02  2.80000000E+01  0.00000000E+00
  4.00000000E+02  2.60000000E+01  0.00000000E+00
  4.00000000E+02  2.40000000E+01  0.00000000E+00
  4.00000000E+02  2.20000000E+01  0.00000000E+00
  4.00000000E+02  2.00000000E+01  0.00000000E+00
  4.00000000E+02  1.80000000E+01  0.00000000E+00
  4.00000000E+02  1.60000000E+01  0.00000000E+00
  4.00000000E+02  1.40000000E+01  0.00000000E+00
  4.00000000E+02  1.20000000E+01  0.00000000E+00
  4.00000000E+02  1.00000000E+01  0.00000000E+00
  4.00000000E+02  8.00000000E+00  0.00000000E+00
  4.00000000E+02  6.00000000E+00  0.00000000E+00
  4.00000000E+02  4.00000000E+00  0.00000000E+00
  4.00000000E+02  2.00000000E+00  0.00000000E+00
  4.00000000E+02 -3.33066907E-14  0.00000000E+00
  4.10000000E+02  1.00000000E+02  0.00000000E+00
  4.10000000E+02  9.80000000E+01  0.00000000E+00
  4.10000000E+02  9.60000000E+01  0.00000000E+00
  4.10000000E+02  9.40000000E+01  0.00000000E+00
  4.10000000E+02  9.20000000E+01  0.00000000E+00
  4.10000000E+02  9.00000000E+01  0.00000000E+00
  4.10000000E+02  8.80000000E+01  0.00000000E+00
  4.10000000E+02  8.60000000E+01  0.00000000E+00
  4.10000000E+02  8.40000000E+01  0.00000000E+00
  4.10000000E+02  8.20000000E+01  0.00000000E+00
  4.10000000E+02  8.00000000E+01  0.00000000E+00
  4.10000000E+02  7.80000000E+01  0.00000000E+00
  4.10000000E+02  7.60000000E+01  0.00000000E+00
  4.10000000E+02  7.40000000E+01  0.00000000E+00
  4.10000000E+02  7.20000000E+01  0.00000000E+00
  4.10000000E+02  7.00000000E+01  0.00000000E+00
  4.10000000E+02  6.80000000E+01  0.00000000E+00
  4.10000000E+02  6.60000000E+01  0.00000000E+00
  4.10000000E+02  6.40000000E+01  0.00000000E+00
  4.10000000E+02  6.20000000E+01  0.00000000E+00
  4.10000000E+02  6.00000000E+01  0.00000000E+00
  4.10000000E+02  5.80000000E+01  0.00000000E+00
  4.10000000E+02  5.60000000E+01  0.00000000E+00
  4.10000000E+02  5.40000000E+01  0.00000000E+00
  4.10000000E+02  5.20000000E+01  0.00000000E+00
  4.10000000E+02  5.00000000E+01  0.00000000E+00
  4.10000000E+02  4.80000000E+01  0.00000000E+00
  4.10000000E+02  4.60000000E+01  0.00000000E+00
  4.10000000E+02  4.40000000E+01  0.00000000E+00
  4.10000000E+02  4.20000000E+01  0.00000000E+00
  4.10000000E+02  4.00000000E+01  0.00000000E+00
  4.10000000E+02  3.80000000E+01  0.00000000E+00
  4.10000000E+02  3.60000000E+01  0.00000000E+00
  4.10000000E+02  3.40000000E+01  0.00000000E+00
  4.10000000E+02  3.20000000E+01  0.00000000E+00
  4.10000000E+02  3.00000000E+01  0.00000000E+00
  4.10000000E+02  2.80000000E+01  0.00000000E+00
  4.10000000E+02  2.60000000E+01  0.00000000E+00
  4.10000000E+02  2.40000000E+01  0.00000000E+00
  4.10000000E+02  2.20000000E+01  0.00000000E+00
  4.10000000E+02  2.00000000E+01  0.00000000E+00
  4.10000000E+02  1.80000000E+01  0.00000000E+00
  4.10000000E+02  1.60000000E+01  0.00000000E+00
  4.10000000E+02  1.40000000E+01  0.00000000E+00
  4.10000000E+02  1.20000000E+01  0.00000000E+00
  4.10000000E+02  1.00000000E+01  0.00000000E+00
  4.10000000E+02  8.00000000E+00  0.00000000E+00
  4.10000000E+02  6.00000000E+00  0.00000000E+00
  4.10000000E+02  4.00000000E+00  0.00000000E+00
  4.10000000E+02  2.00000000E+00  0.00000000E+00
  4.10000000E+02 -3.33066907E-14  0.00000000E+00
  4.20000000E+02  1.00000000E+02  0.00000000E+00
  4.20000000E+02  9.80000000E+01  0.00000000E+00
  4.20000000E+02  9.60000000E+01  0.00000000E+00
  4.20000000E+02  9.40000000E+01  0.00000000E+00
  4.20000000E+02  9.20000000E+01  0.00000000E+00
  4.20000000E+02  9.00000000E+01  0.00000000E+00
  4.20000000E+02  8.80000000E+01  0.00000000E+00
  4.20000000E+02  8.60000000E+01  0.00000000E+00
  4.20000000E+02  8.40000000E+01  0.00000000E+00
  4.20000000E+02  8.20000000E+01  0.00000000E+00
  4.20000000E+02  8.00000000E+01  0.00000000E+00
  4.20000000E+02  7.80000000E+01  0.00000000E+00
  4.20000000E+02  7.60000000E+01  0.00000000E+00
  4.20000000E+02  7.40000000E+01  0.00000000E+00
  4.20000000E+02  7.20000000E+01  0.00000000E+00
  4.20000000E+02  7.00000000E+01  0.00000000E+00
  4.20000000E+02  6.80000000E+01  0.00000000E+00
  4.20000000E+02  6.60000000E+01  0.00000000E+00
  4.20000000E+02  6.40000000E+01  0.00000000E+00
  4.20000000E+02  6.20000000E+01  0.00000000E+00
  4.20000000E+02  6.00000000E+01  0.00000000E+00
  4.20000000E+02  5.80000000E+01  0.00000000E+00
  4.20000000E+02  5.60000000E+01  0.00000000E+00
  4.20000000E+02  5.40000000E+01  0.00000000E+00
  4.20000000E+02  5.20000000E+01  0.00000000E+00
  4.20000000E+02  5.00000000E+01  0.00000000E+00
  4.20000000E+02  4.80000000E+01  0.00000000E+00
  4.20000000E+02  4.60000000E+01  0.00000000E+00
  4.20000000E+02  4.40000000E+01  0.00000000E+00
  4.20000000E+02  4.20000000E+01  0.00000000E+00
  4.20000000E+02  4.00000000E+01  0.00000000E+00
  4.20000000E+02  3.80000000E+01  0.00000000E+00
  4.20000000E+02  3.60000000E+01  0.00000000E+00
  4.20000000E+02  3.40000000E+01  0.00000000E+00
  4.20000000E+02  3.20000000E+01  0.00000000E+00
  4.20000000E+02  3.00000000E+01  0.00000000E+00
  4.20000000E+02  2.80000000E+01  0.00000000E+00
  4.20000000E+02  2.60000000E+01  0.00000000E+00
  4.20000000E+02  2.40000000E+01  0.00000000E+00
  4.20000000E+02  2.20000000E+01  0.00000000E+00
  4.20000000E+02  2.00000000E+01  0.00000000E+00
  4.20000000E+02  1.80000000E+01  0.00000000E+00
  4.20000000E+02  1.60000000E+01  0.00000000E+00
  4.20000000E+02  1.40000000E+01  0.00000000E+00
  4.20000000E+02  1.20000000E+01  0.00000000E+00
  4.20000000E+02  1.00000000E+01  0.00000000E+00
  4.20000000E+02  8.00000000E+00  0.00000000E+00
  4.20000000E+02  6.00000000E+00  0.00000000E+00
  4.20000000E+02  4.00000000E+00  0.00000000E+00
  4.20000000E+02  2.00000000E+00  0.00000000E+00
  4.20000000E+02 -3.33066907E-14  0.00000000E+00
  4.30000000E+02  1.00000000E+02  0.00000000E+00
  4.30000000E+02  9.80000000E+01  0.00000000E+00
  4.30000000E+02  9.60000000E+01  0.00000000E+00
  4.30000000E+02  9.40000000E+01  0.00000000E+00
  4.30000000E+02  9.20000000E+01  0.00000000E+00
  4.30000000E+02  9.00000000E+01  0.00000000E+00
  4.30000000E+02  8.80000000E+01  0.00000000E+00
  4.30000000E+02  8.60000000E+01  0.00000000E+00
  4.30000000E+02  8.40000000E+01  0.00000000E+00
  4.30000000E+02  8.20000000E+01  0.00000000E+00
  4.30000000E+02  8.00000000E+01  0.00000000E+00
  4.30000000E+02  7.80000000E+01  0.00000000E+00
  4.30000000E+02  7.60000000E+01  0.00000000E+00
  4.30000000E+02  7.40000000E+01  0.00000000E+00
  4.30000000E+02  7.20000000E+01  0.00000000E+00
  4.30000000E+02  7.00000000E+01  0.00000000E+00
  4.30000000E+02  6.80000000E+01  0.00000000E+00
  4.30000000E+02  6.60000000E+01  0.00000000E+00
  4.30000000E+02  6.40000000E+01  0.00000000E+00
  4.30000000E+02  6.20000000E+01  0.00000000E+00
  4.30000000E+02  6.00000000E+01  0.00000000E+00
  4.30000000E+02  5.80000000E+01  0.00000000E+00
  4.30000000E+02  5.60000000E+01  0.00000000E+00
  4.30000000E+02  5.40000000E+01  0.00000000E+00
  4.30000000E+02  5.20000000E+01  0.00000000E+00
  4.30000000E+02  5.00000000E+01  0.00000000E+00
  4.30000000E+02  4.80000000E+01  0.00000000E+00
  4.30000000E+02  4.60000000E+01  0.00000000E+00
  4.30000000E+02  4.40000000E+01  0.00000000E+00
  4.30000000E+02  4.20000000E+01  0.00000000E+00
  4.30000000E+02  4.00000000E+01  0.00000000E+00
  4.30000000E+02  3.80000000E+01  0.00000000E+00
  4.30000000E+02  3.60000000E+01  0.00000000E+00
  4.30000000E+02  3.40000000E+01  0.00000000E+00
  4.30000000E+02  3.20000000E+01  0.00000000E+00
  4.30000000E+02  3.00000000E+01  0.00000000E+00
  4.30000000E+02  2.80000000E+01  0.00000000E+00
  4.30000000E+02  2.60000000E+01  0.00000000E+00
  4.30000000E+02  2.40000000E+01  0.00000000E+00
  4.30000000E+02  2.20000000E+01  0.00000000E+00
  4.30000000E+02  2.00000000E+01  0.00000000E+00
  4.30000000E+02  1.80000000E+01  0.00000000E+00
  4.30000000E+02  1.60000000E+01  0.00000000E+00
  4.30000000E+02  1.40000000E+01  0.00000000E+00
  4.30000000E+02  1.20000000E+01  0.00000000E+00
  4.30000000E+02  1.00000000E+01  0.00000000E+00
  4.30000000E+02  8.00000000E+00  0.00000000E+00
  4.30000000E+02  6.00000000E+00  0.00000000E+00
  4.30000000E+02  4.00000000E+00  0.00000000E+00
  4.30000000E+02  2.00000000E+00  0.00000000E+00
  4.30000000E+02 -3.33066907E-14  0.00000000E+00
  4.40000000E+02  1.00000000E+02  0.00000000E+00
  4.40000000E+02  9.80000000E+01  0.00000000E+00
  4.40000000E+02  9.60000000E+01  0.00000000E+00
  4.40000000E+02  9.40000000E+01  0.00000000E+00
  4.40000000E+02  9.20000000E+01  0.00000000E+00
  4.40000000E+02  9.00000000E+01  0.00000000E+00
  4.40000000E+02  8.80000000E+01  0.00000000E+00
  4.40000000E+02  8.60000000E+01  0.00000000E+00
  4.40000000E+02  8.40000000E+01  0.00000000E+00
  4.40000000E+02  8.20000000E+01  0.00000000E+00
  4.40000000E+02  8.00000000E+01  0.00000000E+00
  4.40000000E+02  7.80000000E+01  0.00000000E+00
  4.40000000E+02  7.60000000E+01  0.00000000E+00
  4.40000000E+02  7.40000000E+01  0.00000000E+00
  4.40000000E+02  7.20000000E+01  0.00000000E+00
  4.40000000E+02  7.00000000E+01  0.00000000E+00
  4.40000000E+02  6.80000000E+01  0.00000000E+00
  4.40000000E+02  6.60000000E+01  0.00000000E+00
  4.40000000E+02  6.40000000E+01  0.00000000E+00
  4.40000000E+02  6.20000000E+01  0.00000000E+00
  4.40000000E+02  6.00000000E+01  0.00000000E+00
  4.40000000E+02  5.80000000E+01  0.00000000E+00
  4.40000000E+02  5.60000000E+01  0.00000000E+00
  4.40000000E+02  5.40000000E+01  0.00000000E+00
  4.40000000E+02  5.20000000E+01  0.00000000E+00
  4.40000000E+02  5.00000000E+01  0.00000000E+00
  4.40000000E+02  4.80000000E+01  0.00000000E+00
  4.40000000E+02  4.60000000E+01  0.00000000E+00
  4.40000000E+02  4.40000000E+01  0.00000000E+00
  4.40000000E+02  4.20000000E+01  0.00000000E+00
  4.40000000E+02  4.00000000E+01  0.00000000E+00
  4.40000000E+02  3.80000000E+01  0.00000000E+00
  4.40000000E+02  3.60000000E+01  0.00000000E+00
  4.40000000E+02  3.40000000E+01  0.00000000E+00
  4.40000000E+02  3.20000000E+01  0.00000000E+00
  4.40000000E+02  3.00000000E+01  0.00000000E+00
  4.40000000E+02  2.80000000E+01  0.00000000E+00
  4.40000000E+02  2.60000000E+01  0.00000000E+00
  4.40000000E+02  2.40000000E+01  0.00000000E+00
  4.40000000E+02  2.20000000E+01  0.00000000E+00
  4.40000000E+02  2.00000000E+01  0.00000000E+00
  4.40000000E+02  1.80000000E+01  0.00000000E+00
  4.40000000E+02  1.60000000E+01  0.00000000E+00
  4.40000000E+02  1.40000000E+01  0.00000000E+00
  4.40000000E+02  1.20000000E+01  0.00000000E+00
  4.40000000E+02  1.00000000E+01  0.00000000E+00
  4.40000000E+02  8.00000000E+00  0.00000000E+00
  4.40000000E+02  6.00000000E+00  0.00000000E+00
  4.40000000E+02  4.00000000E+00  0.00000000E+00
  4.40000000E+02  2.00000000E+00  0.00000000E+00
  4.40000000E+02 -3.33066907E-14  0.00000000E+00
  4.50000000E+02  1.00000000E+02  0.00000000E+00
  4.50000000E+02  9.80000000E+01  0.00000000E+00
  4.50000000E+02  9.60000000E+01  0.00000000E+00
  4.50000000E+02  9.40000000E+01  0.00000000E+00
  4.50000000E+02  9.20000000E+01  0.00000000E+00
  4.50000000E+02  9.00000000E+01  0.00000000E+00
  4.50000000E+02  8.80000000E+01  0.00000000E+00
  4.50000000E+02  8.60000000E+01  0.00000000E+00
  4.50000000E+02  8.40000000E+01  0.00000000E+00
  4.50000000E+02  8.20000000E+01  0.00000000E+00
  4.50000000E+02  8.00000000E+01  0.00000000E+00
  4.50000000E+02  7.80000000E+01  0.00000000E+00
  4.50000000E+02  7.60000000E+01  0.00000000E+00
  4.50000000E+02  7.40000000E+01  0.00000000E+00
  4.50000000E+02  7.20000000E+01  0.00000000E+00
  4.50000000E+02  7.00000000E+01  0.00000000E+00
  4.50000000E+02  6.80000000E+01  0.00000000E+00
  4.50000000E+02  6.60000000E+01  0.00000000E+00
  4.50000000E+02  6.40000000E+01  0.00000000E+00
  4.50000000E+02  6.20000000E+01  0.00000000E+00
  4.50000000E+02  6.00000000E+01  0.00000000E+00
  4.50000000E+02  5.80000000E+01  0.00000000E+00
  4.50000000E+02  5.60000000E+01  0.00000000E+00
  4.50000000E+02  5.40000000E+01  0.00000000E+00
  4.50000000E+02  5.20000000E+01  0.00000000E+00
  4.50000000E+02  5.00000000E+01  0.00000000E+00
  4.50000000E+02  4.80000000E+01  0.00000000E+00
  4.50000000E+02  4.60000000E+01  0.00000000E+00
  4.50000000E+02  4.40000000E+01  0.00000000E+00
  4.50000000E+02  4.20000000E+01  0.00000000E+00
  4.50000000E+02  4.00000000E+01  0.00000000E+00
  4.50000000E+02  3.80000000E+01  0.00000000E+00
  4.50000000E+02  3.60000000E+01  0.00000000E+00
  4.50000000E+02  3.40000000E+01  0.00000000E+00
  4.50000000E+02  3.20000000E+01  0.00000000E+00
  4.50000000E+02  3.00000000E+01  0.00000000E+00
  4.50000000E+02  2.80000000E+01  0.00000000E+00
  4.50000000E+02  2.60000000E+01  0.00000000E+00
  4.50000000E+02  2.40000000E+01  0.00000000E+00
  4.50000000E+02  2.20000000E+01  0.00000000E+00
  4.50000000E+02  2.00000000E+01  0.00000000E+00
  4.50000000E+02  1.80000000E+01  0.00000000E+00
  4.50000000E+02  1.60000000E+01  0.00000000E+00
  4.50000000E+02  1.40000000E+01  0.00000000E+00
  4.50000000E+02  1.20000000E+01  0.00000000E+00
  4.50000000E+02  1.00000000E+01  0.00000000E+00
  4.50000000E+02  8.00000000E+00  0.00000000E+00
  4.50000000E+02  6.00000000E+00  0.00000000E+00
  4.50000000E+02  4.00000000E+00  0.00000000E+00
  4.50000000E+02  2.00000000E+00  0.00000000E+00
  4.50000000E+02 -3.33066907E-14  0.00000000E+00
  4.60000000E+02  1.00000000E+02  0.00000000E+00
  4.60000000E+02  9.80000000E+01  0.00000000E+00
  4.60000000E+02  9.60000000E+01  0.00000000E+00
  4.60000000E+02  9.40000000E+01  0.00000000E+00
  4.60000000E+02  9.20000000E+01  0.00000000E+00
  4.60000000E+02  9.00000000E+01  0.00000000E+00
  4.60000000E+02  8.80000000E+01  0.00000000E+00
  4.60000000E+02  8.60000000E+01  0.00000000E+00
  4.60000000E+02  8.40000000E+01  0.00000000E+00
  4.60000000E+02  8.20000000E+01  0.00000000E+00
  4.60000000E+02  8.00000000E+01  0.00000000E+00
  4.60000000E+02  7.80000000E+01  0.00000000E+00
  4.60000000E+02  7.60000000E+01  0.00000000E+00
  4.60000000E+02  7.40000000E+01  0.00000000E+00
  4.60000000E+02  7.20000000E+01  0.00000000E+00
  4.60000000E+02  7.00000000E+01  0.00000000E+00
  4.60000000E+02  6.80000000E+01  0.00000000E+00
  4.60000000E+02  6.60000000E+01  0.00000000E+00
  4.60000000E+02  6.40000000E+01  0.00000000E+00
  4.60000000E+02  6.20000000E+01  0.00000000E+00
  4.60000000E+02  6.00000000E+01  0.00000000E+00
  4.60000000E+02  5.80000000E+01  0.00000000E+00
  4.60000000E+02  5.60000000E+01  0.00000000E+00
  4.60000000E+02  5.40000000E+01  0.00000000E+00
  4.60000000E+02  5.20000000E+01  0.00000000E+00
  4.60000000E+02  5.00000000E+01  0.00000000E+00
  4.60000000E+02  4.80000000E+01  0.00000000E+00
  4.60000000E+02  4.60000000E+01  0.00000000E+00
  4.60000000E+02  4.40000000E+01  0.00000000E+00
  4.60000000E+02  4.20000000E+01  0.00000000E+00
  4.60000000E+02  4.00000000E+01  0.00000000E+00
  4.60000000E+02  3.80000000E+01  0.00000000E+00
  4.60000000E+02  3.60000000E+01  0.00000000E+00
  4.60000000E+02  3.40000000E+01  0.00000000E+00
  4.60000000E+02  3.20000000E+01  0.00000000E+00
  4.60000000E+02  3.00000000E+01  0.00000000E+00
  4.60000000E+02  2.80000000E+01  0.00000000E+00
  4.60000000E+02  2.60000000E+01  0.00000000E+00
  4.60000000E+02  2.40000000E+01  0.00000000E+00
  4.60000000E+02  2.20000000E+01  0.00000000E+00
  4.60000000E+02  2.00000000E+01  0.00000000E+00
  4.60000000E+02  1.80000000E+01  0.00000000E+00
  4.60000000E+02  1.60000000E+01  0.00000000E+00
  4.60000000E+02  1.40000000E+01  0.00000000E+00
  4.60000000E+02  1.20000000E+01  0.00000000E+00
  4.60000000E+02  1.00000000E+01  0.00000000E+00
  4.60000000E+02  8.00000000E+00  0.00000000E+00
  4.60000000E+02  6.00000000E+00  0.00000000E+00
  4.60000000E+02  4.00000000E+00  0.00000000E+00
  4.60000000E+02  2.00000000E+00  0.00000000E+00
  4.60000000E+02 -3.33066907E-14  0.00000000E+00
  4.70000000E+02  1.00000000E+02  0.00000000E+00
  4.70000000E+02  9.80000000E+01  0.00000000E+00
  4.70000000E+02  9.60000000E+01  0.00000000E+00
  4.70000000E+02  9.40000000E+01  0.00000000E+00
  4.70000000E+02  9.20000000E+01  0.00000000E+00
  4.70000000E+02  9.00000000E+01  0.00000000E+00
  4.70000000E+02  8.80000000E+01  0.00000000E+00
  4.70000000E+02  8.60000000E+01  0.00000000E+00
  4.70000000E+02  8.40000000E+01  0.00000000E+00
  4.70000000E+02  8.20000000E+01  0.00000000E+00
  4.70000000E+02  8.00000000E+01  0.00000000E+00
  4.70000000E+02  7.80000000E+01  0.00000000E+00
  4.70000000E+02  7.60000000E+01  0.00000000E+00
  4.70000000E+02  7.40000000E+01  0.00000000E+00
  4.70000000E+02  7.20000000E+01  0.00000000E+00
  4.70000000E+02  7.00000000E+01  0.00000000E+00
  4.70000000E+02  6.80000000E+01  0.00000000E+00
  4.70000000E+02  6.60000000E+01  0.00000000E+00
  4.70000000E+02  6.40000000E+01  0.00000000E+00
  4.70000000E+02  6.20000000E+01  0.00000000E+00
  4.70000000E+02  6.00000000E+01  0.00000000E+00
  4.70000000E+02  5.80000000E+01  0.00000000E+00
  4.70000000E+02  5.60000000E+01  0.00000000E+00
  4.70000000E+02  5.40000000E+01  0.00000000E+00
  4.70000000E+02  5.20000000E+01  0.00000000E+00
  4.70000000E+02  5.00000000E+01  0.00000000E+00
  4.70000000E+02  4.80000000E+01  0.00000000E+00
  4.70000000E+02  4.60000000E+01  0.00000000E+00
  4.70000000E+02  4.40000000E+01  0.00000000E+00
  4.70000000E+02  4.20000000E+01  0.00000000E+00
  4.70000000E+02  4.00000000E+01  0.00000000E+00
  4.70000000E+02  3.80000000E+01  0.00000000E+00
  4.70000000E+02  3.60000000E+01  0.00000000E+00
  4.70000000E+02  3.40000000E+01  0.00000000E+00
  4.70000000E+02  3.20000000E+01  0.00000000E+00
  4.70000000E+02  3.00000000E+01  0.00000000E+00
  4.70000000E+02  2.80000000E+01  0.00000000E+00
  4.70000000E+02  2.60000000E+01  0.00000000E+00
  4.70000000E+02  2.40000000E+01  0.00000000E+00
  4.70000000E+02  2.20000000E+01  0.00000000E+00
  4.70000000E+02  2.00000000E+01  0.00000000E+00
  4.70000000E+02  1.80000000E+01  0.00000000E+00
  4.70000000E+02  1.60000000E+01  0.00000000E+00
  4.70000000E+02  1.40000000E+01  0.00000000E+00
  4.70000000E+02  1.20000000E+01  0.00000000E+00
  4.70000000E+02  1.00000000E+01  0.00000000E+00
  4.70000000E+02  8.00000000E+00  0.00000000E+00
  4.70000000E+02  6.00000000E+00  0.00000000E+00
  4.70000000E+02  4.00000000E+00  0.00000000E+00
  4.70000000E+02  2.00000000E+00  0.00000000E+00
  4.70000000E+02 -3.33066907E-14  0.00000000E+00
  4.80000000E+02  1.00000000E+02  0.00000000E+00
  4.80000000E+02  9.80000000E+01  0.00000000E+00
  4.80000000E+02  9.60000000E+01  0.00000000E+00
  4.80000000E+02  9.40000000E+01  0.00000000E+00
  4.80000000E+02  9.20000000E+01  0.00000000E+00
  4.80000000E+02  9.00000000E+01  0.00000000E+00
  4.80000000E+02  8.80000000E+01  0.00000000E+00
  4.80000000E+02  8.60000000E+01  0.00000000E+00
  4.80000000E+02  8.40000000E+01  0.00000000E+00
  4.80000000E+02  8.20000000E+01  0.00000000E+00
  4.80000000E+02  8.00000000E+01  0.00000000E+00
  4.80000000E+02  7.80000000E+01  0.00000000E+00
  4.80000000E+02  7.60000000E+01  0.00000000E+00
  4.80000000E+02  7.40000000E+01  0.00000000E+00
  4.80000000E+02  7.20000000E+01  0.00000000E+00
  4.80000000E+02  7.00000000E+01  0.00000000E+00
  4.80000000E+02  6.80000000E+01  0.00000000E+00
  4.80000000E+02  6.60000000E+01  0.00000000E+00
  4.80000000E+02  6.40000000E+01  0.00000000E+00
  4.80000000E+02  6.20000000E+01  0.00000000E+00
  4.80000000E+02  6.00000000E+01  0.00000000E+00
  4.80000000E+02  5.80000000E+01  0.00000000E+00
  4.80000000E+02  5.60000000E+01  0.00000000E+00
  4.80000000E+02  5.40000000E+01  0.00000000E+00
  4.80000000E+02  5.20000000E+01  0.00000000E+00
  4.80000000E+02  5.00000000E+01  0.00000000E+00
  4.80000000E+02  4.80000000E+01  0.00000000E+00
  4.80000000E+02  4.60000000E+01  0.00000000E+00
  4.80000000E+02  4.40000000E+01  0.00000000E+00
  4.80000000E+02  4.20000000E+01  0.00000000E+00
  4.80000000E+02  4.00000000E+01  0.00000000E+00
  4.80000000E+02  3.80000000E+01  0.00000000E+00
  4.80000000E+02  3.60000000E+01  0.00000000E+00
  4.80000000E+02  3.40000000E+01  0.00000000E+00
  4.80000000E+02  3.20000000E+01  0.00000000E+00
  4.80000000E+02  3.00000000E+01  0.00000000E+00
  4.80000000E+02  2.80000000E+01  0.00000000E+00
  4.80000000E+02  2.60000000E+01  0.00000000E+00
  4.80000000E+02  2.40000000E+01  0.00000000E+00
  4.80000000E+02  2.20000000E+01  0.00000000E+00
  4.80000000E+02  2.00000000E+01  0.00000000E+00
  4.80000000E+02  1.80000000E+01  0.00000000E+00
  4.80000000E+02  1.60000000E+01  0.00000000E+00
  4.80000000E+02  1.40000000E+01  0.00000000E+00
  4.80000000E+02  1.20000000E+01  0.00000000E+00
  4.80000000E+02  1.00000000E+01  0.00000000E+00
  4.80000000E+02  8.00000000E+00  0.00000000E+00
  4.80000000E+02  6.00000000E+00  0.00000000E+00
  4.80000000E+02  4.00000000E+00  0.00000000E+00
  4.80000000E+02  2.00000000E+00  0.00000000E+00
  4.80000000E+02 -3.33066907E-14  0.00000000E+00
  4.90000000E+02  1.00000000E+02  0.00000000E+00
  4.90000000E+02  9.80000000E+01  0.00000000E+00
  4.90000000E+02  9.60000000E+01  0.00000000E+00
  4.90000000E+02  9.40000000E+01  0.00000000E+00
  4.90000000E+02  9.20000000E+01  0.00000000E+00
  4.90000000E+02  9.00000000E+01  0.00000000E+00
  4.90000000E+02  8.80000000E+01  0.00000000E+00
  4.90000000E+02  8.60000000E+01  0.00000000E+00
  4.90000000E+02  8.40000000E+01  0.00000000E+00
  4.90000000E+02  8.20000000E+01  0.00000000E+00
  4.90000000E+02  8.00000000E+01  0.00000000E+00
  4.90000000E+02  7.80000000E+01  0.00000000E+00
  4.90000000E+02  7.60000000E+01  0.00000000E+00
  4.90000000E+02  7.40000000E+01  0.00000000E+00
  4.90000000E+02  7.20000000E+01  0.00000000E+00
  4.90000000E+02  7.00000000E+01  0.00000000E+00
  4.90000000E+02  6.80000000E+01  0.00000000E+00
  4.90000000E+02  6.60000000E+01  0.00000000E+00
  4.90000000E+02  6.40000000E+01  0.00000000E+00
  4.90000000E+02  6.20000000E+01  0.00000000E+00
  4.90000000E+02  6.00000000E+01  0.00000000E+00
  4.90000000E+02  5.80000000E+01  0.00000000E+00
  4.90000000E+02  5.60000000E+01  0.00000000E+00
  4.90000000E+02  5.40000000E+01  0.00000000E+00
  4.90000000E+02  5.20000000E+01  0.00000000E+00
  4.90000000E+02  5.00000000E+01  0.00000000E+00
  4.90000000E+02  4.80000000E+01  0.00000000E+00
  4.90000000E+02  4.60000000E+01  0.00000000E+00
  4.90000000E+02  4.40000000E+01  0.00000000E+00
  4.90000000E+02  4.20000000E+01  0.00000000E+00
  4.90000000E+02  4.00000000E+01  0.00000000E+00
  4.90000000E+02  3.80000000E+01  0.00000000E+00
  4.90000000E+02  3.60000000E+01  0.00000000E+00
  4.90000000E+02  3.40000000E+01  0.00000000E+00
  4.90000000E+02  3.20000000E+01  0.00000000E+00
  4.90000000E+02  3.00000000E+01  0.00000000E+00
  4.90000000E+02  2.80000000E+01  0.00000000E+00
  4.90000000E+02  2.60000000E+01  0.00000000E+00
  4.90000000E+02  2.40000000E+01  0.00000000E+00
  4.90000000E+02  2.20000000E+01  0.00000000E+00
  4.90000000E+02  2.00000000E+01  0.00000000E+00
  4.90000000E+02  1.80000000E+01  0.00000000E+00
  4.90000000E+02  1.60000000E+01  0.00000000E+00
  4.90000000E+02  1.40000000E+01  0.00000000E+00
  4.90000000E+02  1.20000000E+01  0.00000000E+00
  4.90000000E+02  1.00000000E+01  0.00000000E+00
  4.90000000E+02  8.00000000E+00  0.00000000E+00
  4.90000000E+02  6.00000000E+00  0.00000000E+00
  4.90000000E+02  4.00000000E+00  0.00000000E+00
  4.90000000E+02  2.00000000E+00  0.00000000E+00
  4.90000000E+02 -3.33066907E-14  0.00000000E+00
  5.00000000E+02  1.00000000E+02  0.00000000E+00
  5.00000000E+02  9.80000000E+01  0.00000000E+00
  5.00000000E+02  9.60000000E+01  0.00000000E+00
  5.00000000E+02  9.40000000E+01  0.00000000E+00
  5.00000000E+02  9.20000000E+01  0.00000000E+00
  5.00000000E+02  9.00000000E+01  0.00000000E+00
  5.00000000E+02  8.80000000E+01  0.00000000E+00
  5.00000000E+02  8.60000000E+01  0.00000000E+00
  5.00000000E+02  8.40000000E+01  0.00000000E+00
  5.00000000E+02  8.20000000E+01  0.00000000E+00
  5.00000000E+02  8.00000000E+01  0.00000000E+00
  5.00000000E+02  7.80000000E+01  0.00000000E+00
  5.00000000E+02  7.60000000E+01  0.00000000E+00
  5.00000000E+02  7.40000000E+01  0.00000000E+00
  5.00000000E+02  7.20000000E+01  0.00000000E+00
  5.00000000E+02  7.00000000E+01  0.00000000E+00
  5.00000000E+02  6.80000000E+01  0.00000000E+00
  5.00000000E+02  6.60000000E+01  0.00000000E+00
  5.00000000E+02  6.40000000E+01  0.00000000E+00
  5.00000000E+02  6.20000000E+01  0.00000000E+00
  5.00000000E+02  6.00000000E+01  0.00000000E+00
  5.00000000E+02  5.80000000E+01  0.00000000E+00
  5.00000000E+02  5.60000000E+01  0.00000000E+00
  5.00000000E+02  5.40000000E+01  0.00000000E+00
  5.00000000E+02  5.20000000E+01  0.00000000E+00
  5.00000000E+02  5.00000000E+01  0.00000000E+00
  5.00000000E+02  4.80000000E+01  0.00000000E+00
  5.00000000E+02  4.60000000E+01  0.00000000E+00
  5.00000000E+02  4.40000000E+01  0.00000000E+00
  5.00000000E+02  4.20000000E+01  0.00000000E+00
  5.00000000E+02  4.00000000E+01  0.00000000E+00
  5.00000000E+02  3.80000000E+01  0.00000000E+00
  5.00000000E+02  3.60000000E+01  0.00000000E+00
  5.00000000E+02  3.40000000E+01  0.00000000E+00
  5.00000000E+02  3.20000000E+01  0.00000000E+00
  5.00000000E+02  3.00000000E+01  0.00000000E+00
  5.00000000E+02  2.80000000E+01  0.00000000E+00
  5.00000000E+02  2.60000000E+01  0.00000000E+00
  5.00000000E+02  2.40000000E+01  0.00000000E+00
  5.00000000E+02  2.20000000E+01  0.00000000E+00
  5.00000000E+02  2.00000000E+01  0.00000000E+00
  5.00000000E+02  1.80000000E+01  0.00000000E+00
  5.00000000E+02  1.60000000E+01  0.00000000E+00
  5.00000000E+02  1.40000000E+01  0.00000000E+00
  5.00000000E+02  1.20000000E+01  0.00000000E+00
  5.00000000E+02  1.00000000E+01  0.00000000E+00
  5.00000000E+02  8.00000000E+00  0.00000000E+00
  5.00000000E+02  6.00000000E+00  0.00000000E+00
  5.00000000E+02  4.00000000E+00  0.00000000E+00
  5.00000000E+02  2.00000000E+00  0.00000000E+00
  5.00000000E+02 -3.33066907E-14  0.00000000E+00
  5.10000000E+02  1.00000000E+02  0.00000000E+00
  5.10000000E+02  9.80000000E+01  0.00000000E+00
  5.10000000E+02  9.60000000E+01  0.00000000E+00
  5.10000000E+02  9.40000000E+01  0.00000000E+00
  5.10000000E+02  9.20000000E+01  0.00000000E+00
  5.10000000E+02  9.00000000E+01  0.00000000E+00
  5.10000000E+02  8.80000000E+01  0.00000000E+00
  5.10000000E+02  8.60000000E+01  0.00000000E+00
  5.10000000E+02  8.40000000E+01  0.00000000E+00
  5.10000000E+02  8.20000000E+01  0.00000000E+00
  5.10000000E+02  8.00000000E+01  0.00000000E+00
  5.10000000E+02  7.80000000E+01  0.00000000E+00
  5.10000000E+02  7.60000000E+01  0.00000000E+00
  5.10000000E+02  7.40000000E+01  0.00000000E+00
  5.10000000E+02  7.20000000E+01  0.00000000E+00
  5.10000000E+02  7.00000000E+01  0.00000000E+00
  5.10000000E+02  6.80000000E+01  0.00000000E+00
  5.10000000E+02  6.60000000E+01  0.00000000E+00
  5.10000000E+02  6.40000000E+01  0.00000000E+00
  5.10000000E+02  6.20000000E+01  0.00000000E+00
  5.10000000E+02  6.00000000E+01  0.00000000E+00
  5.10000000E+02  5.80000000E+01  0.00000000E+00
  5.10000000E+02  5.60000000E+01  0.00000000E+00
  5.10000000E+02  5.40000000E+01  0.00000000E+00
  5.10000000E+02  5.20000000E+01  0.00000000E+00
  5.10000000E+02  5.00000000E+01  0.00000000E+00
  5.10000000E+02  4.80000000E+01  0.00000000E+00
  5.10000000E+02  4.60000000E+01  0.00000000E+00
  5.10000000E+02  4.40000000E+01  0.00000000E+00
  5.10000000E+02  4.20000000E+01  0.00000000E+00
  5.10000000E+02  4.00000000E+01  0.00000000E+00
  5.10000000E+02  3.80000000E+01  0.00000000E+00
  5.10000000E+02  3.60000000E+01  0.00000000E+00
  5.10000000E+02  3.40000000E+01  0.00000000E+00
  5.10000000E+02  3.20000000E+01  0.00000000E+00
  5.10000000E+02  3.00000000E+01  0.00000000E+00
  5.10000000E+02  2.80000000E+01  0.00000000E+00
  5.10000000E+02  2.60000000E+01  0.00000000E+00
  5.10000000E+02  2.40000000E+01  0.00000000E+00
  5.10000000E+02  2.20000000E+01  0.00000000E+00
  5.10000000E+02  2.00000000E+01  0.00000000E+00
  5.10000000E+02  1.80000000E+01  0.00000000E+00
  5.10000000E+02  1.60000000E+01  0.00000000E+00
  5.10000000E+02  1.40000000E+01  0.00000000E+00
  5.10000000E+02  1.20000000E+01  0.00000000E+00
  5.10000000E+02  1.00000000E+01  0.00000000E+00
  5.10000000E+02  8.00000000E+00  0.00000000E+00
  5.10000000E+02  6.00000000E+00  0.00000000E+00
  5.10000000E+02  4.00000000E+00  0.00000000E+00
  5.10000000E+02  2.00000000E+00  0.00000000E+00
  5.10000000E+02 -3.33066907E-14  0.00000000E+00
  5.20000000E+02  1.00000000E+02  0.00000000E+00
  5.20000000E+02  9.80000000E+01  0.00000000E+00
  5.20000000E+02  9.60000000E+01  0.00000000E+00
  5.20000000E+02  9.40000000E+01  0.00000000E+00
  5.20000000E+02  9.20000000E+01  0.00000000E+00
  5.20000000E+02  9.00000000E+01  0.00000000E+00
  5.20000000E+02  8.80000000E+01  0.00000000E+00
  5.20000000E+02  8.60000000E+01  0.00000000E+00
  5.20000000E+02  8.40000000E+01  0.00000000E+00
  5.20000000E+02  8.20000000E+01  0.00000000E+00
  5.20000000E+02  8.00000000E+01  0.00000000E+00
  5.20000000E+02  7.80000000E+01  0.00000000E+00
  5.20000000E+02  7.60000000E+01  0.00000000E+00
  5.20000000E+02  7.40000000E+01  0.00000000E+00
  5.20000000E+02  7.20000000E+01  0.00000000E+00
  5.20000000E+02  7.00000000E+01  0.00000000E+00
  5.20000000E+02  6.80000000E+01  0.00000000E+00
  5.20000000E+02  6.60000000E+01  0.00000000E+00
  5.20000000E+02  6.40000000E+01  0.00000000E+00
  5.20000000E+02  6.20000000E+01  0.00000000E+00
  5.20000000E+02  6.00000000E+01  0.00000000E+00
  5.20000000E+02  5.80000000E+01  0.00000000E+00
  5.20000000E+02  5.60000000E+01  0.00000000E+00
  5.20000000E+02  5.40000000E+01  0.00000000E+00
  5.20000000E+02  5.20000000E+01  0.00000000E+00
  5.20000000E+02  5.00000000E+01  0.00000000E+00
  5.20000000E+02  4.80000000E+01  0.00000000E+00
  5.20000000E+02  4.60000000E+01  0.00000000E+00
  5.20000000E+02  4.40000000E+01  0.00000000E+00
  5.20000000E+02  4.20000000E+01  0.00000000E+00
  5.20000000E+02  4.00000000E+01  0.00000000E+00
  5.20000000E+02  3.80000000E+01  0.00000000E+00
  5.20000000E+02  3.60000000E+01  0.00000000E+00
  5.20000000E+02  3.40000000E+01  0.00000000E+00
  5.20000000E+02  3.20000000E+01  0.00000000E+00
  5.20000000E+02  3.00000000E+01  0.00000000E+00
  5.20000000E+02  2.80000000E+01  0.00000000E+00
  5.20000000E+02  2.60000000E+01  0.00000000E+00
  5.20000000E+02  2.40000000E+01  0.00000000E+00
  5.20000000E+02  2.20000000E+01  0.00000000E+00
  5.20000000E+02  2.00000000E+01  0.00000000E+00
  5.20000000E+02  1.80000000E+01  0.00000000E+00
  5.20000000E+02  1.60000000E+01  0.00000000E+00
  5.20000000E+02  1.40000000E+01  0.00000000E+00
  5.20000000E+02  1.20000000E+01  0.00000000E+00
  5.20000000E+02  1.00000000E+01  0.00000000E+00
  5.20000000E+02  8.00000000E+00  0.00000000E+00
  5.20000000E+02  6.00000000E+00  0.00000000E+00
  5.20000000E+02  4.00000000E+00  0.00000000E+00
  5.20000000E+02  2.00000000E+00  0.00000000E+00
  5.20000000E+02 -3.33066907E-14  0.00000000E+00
  5.30000000E+02  1.00000000E+02  0.00000000E+00
  5.30000000E+02  9.80000000E+01  0.00000000E+00
  5.30000000E+02  9.60000000E+01  0.00000000E+00
  5.30000000E+02  9.40000000E+01  0.00000000E+00
  5.30000000E+02  9.20000000E+01  0.00000000E+00
  5.30000000E+02  9.00000000E+01  0.00000000E+00
  5.30000000E+02  8.80000000E+01  0.00000000E+00
  5.30000000E+02  8.60000000E+01  0.00000000E+00
  5.30000000E+02  8.40000000E+01  0.00000000E+00
  5.30000000E+02  8.20000000E+01  0.00000000E+00
  5.30000000E+02  8.00000000E+01  0.00000000E+00
  5.30000000E+02  7.80000000E+01  0.00000000E+00
  5.30000000E+02  7.60000000E+01  0.00000000E+00
  5.30000000E+02  7.40000000E+01  0.00000000E+00
  5.30000000E+02  7.20000000E+01  0.00000000E+00
  5.30000000E+02  7.00000000E+01  0.00000000E+00
  5.30000000E+02  6.80000000E+01  0.00000000E+00
  5.30000000E+02  6.60000000E+01  0.00000000E+00
  5.30000000E+02  6.40000000E+01  0.00000000E+00
  5.30000000E+02  6.20000000E+01  0.00000000E+00
  5.30000000E+02  6.00000000E+01  0.00000000E+00
  5.30000000E+02  5.80000000E+01  0.00000000E+00
  5.30000000E+02  5.60000000E+01  0.00000000E+00
  5.30000000E+02  5.40000000E+01  0.00000000E+00
  5.30000000E+02  5.20000000E+01  0.00000000E+00
  5.30000000E+02  5.00000000E+01  0.00000000E+00
  5.30000000E+02  4.80000000E+01  0.00000000E+00
  5.30000000E+02  4.60000000E+01  0.00000000E+00
  5.30000000E+02  4.40000000E+01  0.00000000E+00
  5.30000000E+02  4.20000000E+01  0.00000000E+00
  5.30000000E+02  4.00000000E+01  0.00000000E+00
  5.30000000E+02  3.80000000E+01  0.00000000E+00
  5.30000000E+02  3.60000000E+01  0.00000000E+00
  5.30000000E+02  3.40000000E+01  0.00000000E+00
  5.30000000E+02  3.20000000E+01  0.00000000E+00
  5.30000000E+02  3.00000000E+01  0.00000000E+00
  5.30000000E+02  2.80000000E+01  0.00000000E+00
  5.30000000E+02  2.60000000E+01  0.00000000E+00
  5.30000000E+02  2.40000000E+01  0.00000000E+00
  5.30000000E+02  2.20000000E+01  0.00000000E+00
  5.30000000E+02  2.00000000E+01  0.00000000E+00
  5.30000000E+02  1.80000000E+01  0.00000000E+00
  5.30000000E+02  1.60000000E+01  0.00000000E+00
  5.30000000E+02  1.40000000E+01  0.00000000E+00
  5.30000000E+02  1.20000000E+01  0.00000000E+00
  5.30000000E+02  1.00000000E+01  0.00000000E+00
  5.30000000E+02  8.00000000E+00  0.00000000E+00
  5.30000000E+02  6.00000000E+00  0.00000000E+00
  5.30000000E+02  4.00000000E+00  0.00000000E+00
  5.30000000E+02  2.00000000E+00  0.00000000E+00
  5.30000000E+02 -3.33066907E-14  0.00000000E+00
  5.40000000E+02  1.00000000E+02  0.00000000E+00
  5.40000000E+02  9.80000000E+01  0.00000000E+00
  5.40000000E+02  9.60000000E+01  0.00000000E+00
  5.40000000E+02  9.40000000E+01  0.00000000E+00
  5.40000000E+02  9.20000000E+01  0.00000000E+00
  5.40000000E+02  9.00000000E+01  0.00000000E+00
  5.40000000E+02  8.80000000E+01  0.00000000E+00
  5.40000000E+02  8.60000000E+01  0.00000000E+00
  5.40000000E+02  8.40000000E+01  0.00000000E+00
  5.40000000E+02  8.20000000E+01  0.00000000E+00
  5.40000000E+02  8.00000000E+01  0.00000000E+00
  5.40000000E+02  7.80000000E+01  0.00000000E+00
  5.40000000E+02  7.60000000E+01  0.00000000E+00
  5.40000000E+02  7.40000000E+01  0.00000000E+00
  5.40000000E+02  7.20000000E+01  0.00000000E+00
  5.40000000E+02  7.00000000E+01  0.00000000E+00
  5.40000000E+02  6.80000000E+01  0.00000000E+00
  5.40000000E+02  6.60000000E+01  0.00000000E+00
  5.40000000E+02  6.40000000E+01  0.00000000E+00
  5.40000000E+02  6.20000000E+01  0.00000000E+00
  5.40000000E+02  6.00000000E+01  0.00000000E+00
  5.40000000E+02  5.80000000E+01  0.00000000E+00
  5.40000000E+02  5.60000000E+01  0.00000000E+00
  5.40000000E+02  5.40000000E+01  0.00000000E+00
  5.40000000E+02  5.20000000E+01  0.00000000E+00
  5.40000000E+02  5.00000000E+01  0.00000000E+00
  5.40000000E+02  4.80000000E+01  0.00000000E+00
  5.40000000E+02  4.60000000E+01  0.00000000E+00
  5.40000000E+02  4.40000000E+01  0.00000000E+00
  5.40000000E+02  4.20000000E+01  0.00000000E+00
  5.40000000E+02  4.00000000E+01  0.00000000E+00
  5.40000000E+02  3.80000000E+01  0.00000000E+00
  5.40000000E+02  3.60000000E+01  0.00000000E+00
  5.40000000E+02  3.40000000E+01  0.00000000E+00
  5.40000000E+02  3.20000000E+01  0.00000000E+00
  5.40000000E+02  3.00000000E+01  0.00000000E+00
  5.40000000E+02  2.80000000E+01  0.00000000E+00
  5.40000000E+02  2.60000000E+01  0.00000000E+00
  5.40000000E+02  2.40000000E+01  0.00000000E+00
  5.40000000E+02  2.20000000E+01  0.00000000E+00
  5.40000000E+02  2.00000000E+01  0.00000000E+00
  5.40000000E+02  1.80000000E+01  0.00000000E+00
  5.40000000E+02  1.60000000E+01  0.00000000E+00
  5.40000000E+02  1.40000000E+01  0.00000000E+00
  5.40000000E+02  1.20000000E+01  0.00000000E+00
  5.40000000E+02  1.00000000E+01  0.00000000E+00
  5.40000000E+02  8.00000000E+00  0.00000000E+00
  5.40000000E+02  6.00000000E+00  0.00000000E+00
  5.40000000E+02  4.00000000E+00  0.00000000E+00
  5.40000000E+02  2.00000000E+00  0.00000000E+00
  5.40000000E+02 -3.33066907E-14  0.00000000E+00
  5.50000000E+02  1.00000000E+02  0.00000000E+00
  5.50000000E+02  9.80000000E+01  0.00000000E+00
  5.50000000E+02  9.60000000E+01  0.00000000E+00
  5.50000000E+02  9.40000000E+01  0.00000000E+00
  5.50000000E+02  9.20000000E+01  0.00000000E+00
  5.50000000E+02  9.00000000E+01  0.00000000E+00
  5.50000000E+02  8.80000000E+01  0.00000000E+00
  5.50000000E+02  8.60000000E+01  0.00000000E+00
  5.50000000E+02  8.40000000E+01  0.00000000E+00
  5.50000000E+02  8.20000000E+01  0.00000000E+00
  5.50000000E+02  8.00000000E+01  0.00000000E+00
  5.50000000E+02  7.80000000E+01  0.00000000E+00
  5.50000000E+02  7.60000000E+01  0.00000000E+00
  5.50000000E+02  7.40000000E+01  0.00000000E+00
  5.50000000E+02  7.20000000E+01  0.00000000E+00
  5.50000000E+02  7.00000000E+01  0.00000000E+00
  5.50000000E+02  6.80000000E+01  0.00000000E+00
  5.50000000E+02  6.60000000E+01  0.00000000E+00
  5.50000000E+02  6.40000000E+01  0.00000000E+00
  5.50000000E+02  6.20000000E+01  0.00000000E+00
  5.50000000E+02  6.00000000E+01  0.00000000E+00
  5.50000000E+02  5.80000000E+01  0.00000000E+00
  5.50000000E+02  5.60000000E+01  0.00000000E+00
  5.50000000E+02  5.40000000E+01  0.00000000E+00
  5.50000000E+02  5.20000000E+01  0.00000000E+00
  5.50000000E+02  5.00000000E+01  0.00000000E+00
  5.50000000E+02  4.80000000E+01  0.00000000E+00
  5.50000000E+02  4.60000000E+01  0.00000000E+00
  5.50000000E+02  4.40000000E+01  0.00000000E+00
  5.50000000E+02  4.20000000E+01  0.00000000E+00
  5.50000000E+02  4.00000000E+01  0.00000000E+00
  5.50000000E+02  3.80000000E+01  0.00000000E+00
  5.50000000E+02  3.60000000E+01  0.00000000E+00
  5.50000000E+02  3.40000000E+01  0.00000000E+00
  5.50000000E+02  3.20000000E+01  0.00000000E+00
  5.50000000E+02  3.00000000E+01  0.00000000E+00
  5.50000000E+02  2.80000000E+01  0.00000000E+00
  5.50000000E+02  2.60000000E+01  0.00000000E+00
  5.50000000E+02  2.40000000E+01  0.00000000E+00
  5.50000000E+02  2.20000000E+01  0.00000000E+00
  5.50000000E+02  2.00000000E+01  0.00000000E+00
  5.50000000E+02  1.80000000E+01  0.00000000E+00
  5.50000000E+02  1.60000000E+01  0.00000000E+00
  5.50000000E+02  1.40000000E+01  0.00000000E+00
  5.50000000E+02  1.20000000E+01  0.00000000E+00
  5.50000000E+02  1.00000000E+01  0.00000000E+00
  5.50000000E+02  8.00000000E+00  0.00000000E+00
  5.50000000E+02  6.00000000E+00  0.00000000E+00
  5.50000000E+02  4.00000000E+00  0.00000000E+00
  5.50000000E+02  2.00000000E+00  0.00000000E+00
  5.50000000E+02 -3.33066907E-14  0.00000000E+00
  5.60000000E+02  1.00000000E+02  0.00000000E+00
  5.60000000E+02  9.80000000E+01  0.00000000E+00
  5.60000000E+02  9.60000000E+01  0.00000000E+00
  5.60000000E+02  9.40000000E+01  0.00000000E+00
  5.60000000E+02  9.20000000E+01  0.00000000E+00
  5.60000000E+02  9.00000000E+01  0.00000000E+00
  5.60000000E+02  8.80000000E+01  0.00000000E+00
  5.60000000E+02  8.60000000E+01  0.00000000E+00
  5.60000000E+02  8.40000000E+01  0.00000000E+00
  5.60000000E+02  8.20000000E+01  0.00000000E+00
  5.60000000E+02  8.00000000E+01  0.00000000E+00
  5.60000000E+02  7.80000000E+01  0.00000000E+00
  5.60000000E+02  7.60000000E+01  0.00000000E+00
  5.60000000E+02  7.40000000E+01  0.00000000E+00
  5.60000000E+02  7.20000000E+01  0.00000000E+00
  5.60000000E+02  7.00000000E+01  0.00000000E+00
  5.60000000E+02  6.80000000E+01  0.00000000E+00
  5.60000000E+02  6.60000000E+01  0.00000000E+00
  5.60000000E+02  6.40000000E+01  0.00000000E+00
  5.60000000E+02  6.20000000E+01  0.00000000E+00
  5.60000000E+02  6.00000000E+01  0.00000000E+00
  5.60000000E+02  5.80000000E+01  0.00000000E+00
  5.60000000E+02  5.60000000E+01  0.00000000E+00
  5.60000000E+02  5.40000000E+01  0.00000000E+00
  5.60000000E+02  5.20000000E+01  0.00000000E+00
  5.60000000E+02  5.00000000E+01  0.00000000E+00
  5.60000000E+02  4.80000000E+01  0.00000000E+00
  5.60000000E+02  4.60000000E+01  0.00000000E+00
  5.60000000E+02  4.40000000E+01  0.00000000E+00
  5.60000000E+02  4.20000000E+01  0.00000000E+00
  5.60000000E+02  4.00000000E+01  0.00000000E+00
  5.60000000E+02  3.80000000E+01  0.00000000E+00
  5.60000000E+02  3.60000000E+01  0.00000000E+00
  5.60000000E+02  3.40000000E+01  0.00000000E+00
  5.60000000E+02  3.20000000E+01  0.00000000E+00
  5.60000000E+02  3.00000000E+01  0.00000000E+00
  5.60000000E+02  2.80000000E+01  0.00000000E+00
  5.60000000E+02  2.60000000E+01  0.00000000E+00
  5.60000000E+02  2.40000000E+01  0.00000000E+00
  5.60000000E+02  2.20000000E+01  0.00000000E+00
  5.60000000E+02  2.00000000E+01  0.00000000E+00
  5.60000000E+02  1.80000000E+01  0.00000000E+00
  5.60000000E+02  1.60000000E+01  0.00000000E+00
  5.60000000E+02  1.40000000E+01  0.00000000E+00
  5.60000000E+02  1.20000000E+01  0.00000000E+00
  5.60000000E+02  1.00000000E+01  0.00000000E+00
  5.60000000E+02  8.00000000E+00  0.00000000E+00
  5.60000000E+02  6.00000000E+00  0.00000000E+00
  5.60000000E+02  4.00000000E+00  0.00000000E+00
  5.60000000E+02  2.00000000E+00  0.00000000E+00
  5.60000000E+02 -3.33066907E-14  0.00000000E+00
  5.70000000E+02  1.00000000E+02  0.00000000E+00
  5.70000000E+02  9.80000000E+01  0.00000000E+00
  5.70000000E+02  9.60000000E+01  0.00000000E+00
  5.70000000E+02  9.40000000E+01  0.00000000E+00
  5.70000000E+02  9.20000000E+01  0.00000000E+00
  5.70000000E+02  9.00000000E+01  0.00000000E+00
  5.70000000E+02  8.80000000E+01  0.00000000E+00
  5.70000000E+02  8.60000000E+01  0.00000000E+00
  5.70000000E+02  8.40000000E+01  0.00000000E+00
  5.70000000E+02  8.20000000E+01  0.00000000E+00
  5.70000000E+02  8.00000000E+01  0.00000000E+00
  5.70000000E+02  7.80000000E+01  0.00000000E+00
  5.70000000E+02  7.60000000E+01  0.00000000E+00
  5.70000000E+02  7.40000000E+01  0.00000000E+00
  5.70000000E+02  7.20000000E+01  0.00000000E+00
  5.70000000E+02  7.00000000E+01  0.00000000E+00
  5.70000000E+02  6.80000000E+01  0.00000000E+00
  5.70000000E+02  6.60000000E+01  0.00000000E+00
  5.70000000E+02  6.40000000E+01  0.00000000E+00
  5.70000000E+02  6.20000000E+01  0.00000000E+00
  5.70000000E+02  6.00000000E+01  0.00000000E+00
  5.70000000E+02  5.80000000E+01  0.00000000E+00
  5.70000000E+02  5.60000000E+01  0.00000000E+00
  5.70000000E+02  5.40000000E+01  0.00000000E+00
  5.70000000E+02  5.20000000E+01  0.00000000E+00
  5.70000000E+02  5.00000000E+01  0.00000000E+00
  5.70000000E+02  4.80000000E+01  0.00000000E+00
  5.70000000E+02  4.60000000E+01  0.00000000E+00
  5.70000000E+02  4.40000000E+01  0.00000000E+00
  5.70000000E+02  4.20000000E+01  0.00000000E+00
  5.70000000E+02  4.00000000E+01  0.00000000E+00
  5.70000000E+02  3.80000000E+01  0.00000000E+00
  5.70000000E+02  3.60000000E+01  0.00000000E+00
  5.70000000E+02  3.40000000E+01  0.00000000E+00
  5.70000000E+02  3.20000000E+01  0.00000000E+00
  5.70000000E+02  3.00000000E+01  0.00000000E+00
  5.70000000E+02  2.80000000E+01  0.00000000E+00
  5.70000000E+02  2.60000000E+01  0.00000000E+00
  5.70000000E+02  2.40000000E+01  0.00000000E+00
  5.70000000E+02  2.20000000E+01  0.00000000E+00
  5.70000000E+02  2.00000000E+01  0.00000000E+00
  5.70000000E+02  1.80000000E+01  0.00000000E+00
  5.70000000E+02  1.60000000E+01  0.00000000E+00
  5.70000000E+02  1.40000000E+01  0.00000000E+00
  5.70000000E+02  1.20000000E+01  0.00000000E+00
  5.70000000E+02  1.00000000E+01  0.00000000E+00
  5.70000000E+02  8.00000000E+00  0.00000000E+00
  5.70000000E+02  6.00000000E+00  0.00000000E+00
  5.70000000E+02  4.00000000E+00  0.00000000E+00
  5.70000000E+02  2.00000000E+00  0.00000000E+00
  5.70000000E+02 -3.33066907E-14  0.00000000E+00
  5.80000000E+02  1.00000000E+02  0.00000000E+00
  5.80000000E+02  9.80000000E+01  0.00000000E+00
  5.80000000E+02  9.60000000E+01  0.00000000E+00
  5.80000000E+02  9.40000000E+01  0.00000000E+00
  5.80000000E+02  9.20000000E+01  0.00000000E+00
  5.80000000E+02  9.00000000E+01  0.00000000E+00
  5.80000000E+02  8.80000000E+01  0.00000000E+00
  5.80000000E+02  8.60000000E+01  0.00000000E+00
  5.80000000E+02  8.40000000E+01  0.00000000E+00
  5.80000000E+02  8.20000000E+01  0.00000000E+00
  5.80000000E+02  8.00000000E+01  0.00000000E+00
  5.80000000E+02  7.80000000E+01  0.00000000E+00
  5.80000000E+02  7.60000000E+01  0.00000000E+00
  5.80000000E+02  7.40000000E+01  0.00000000E+00
  5.80000000E+02  7.20000000E+01  0.00000000E+00
  5.80000000E+02  7.00000000E+01  0.00000000E+00
  5.80000000E+02  6.80000000E+01  0.00000000E+00
  5.80000000E+02  6.60000000E+01  0.00000000E+00
  5.80000000E+02  6.40000000E+01  0.00000000E+00
  5.80000000E+02  6.20000000E+01  0.00000000E+00
  5.80000000E+02  6.00000000E+01  0.00000000E+00
  5.80000000E+02  5.80000000E+01  0.00000000E+00
  5.80000000E+02  5.60000000E+01  0.00000000E+00
  5.80000000E+02  5.40000000E+01  0.00000000E+00
  5.80000000E+02  5.20000000E+01  0.00000000E+00
  5.80000000E+02  5.00000000E+01  0.00000000E+00
  5.80000000E+02  4.80000000E+01  0.00000000E+00
  5.80000000E+02  4.60000000E+01  0.00000000E+00
  5.80000000E+02  4.40000000E+01  0.00000000E+00
  5.80000000E+02  4.20000000E+01  0.00000000E+00
  5.80000000E+02  4.00000000E+01  0.00000000E+00
  5.80000000E+02  3.80000000E+01  0.00000000E+00
  5.80000000E+02  3.60000000E+01  0.00000000E+00
  5.80000000E+02  3.40000000E+01  0.00000000E+00
  5.80000000E+02  3.20000000E+01  0.00000000E+00
  5.80000000E+02  3.00000000E+01  0.00000000E+00
  5.80000000E+02  2.80000000E+01  0.00000000E+00
  5.80000000E+02  2.60000000E+01  0.00000000E+00
  5.80000000E+02  2.40000000E+01  0.00000000E+00
  5.80000000E+02  2.20000000E+01  0.00000000E+00
  5.80000000E+02  2.00000000E+01  0.00000000E+00
  5.80000000E+02  1.80000000E+01  0.00000000E+00
  5.80000000E+02  1.60000000E+01  0.00000000E+00
  5.80000000E+02  1.40000000E+01  0.00000000E+00
  5.80000000E+02  1.20000000E+01  0.00000000E+00
  5.80000000E+02  1.00000000E+01  0.00000000E+00
  5.80000000E+02  8.00000000E+00  0.00000000E+00
  5.80000000E+02  6.00000000E+00  0.00000000E+00
  5.80000000E+02  4.00000000E+00  0.00000000E+00
  5.80000000E+02  2.00000000E+00  0.00000000E+00
  5.80000000E+02 -3.33066907E-14  0.00000000E+00
  5.90000000E+02  1.00000000E+02  0.00000000E+00
  5.90000000E+02  9.80000000E+01  0.00000000E+00
  5.90000000E+02  9.60000000E+01  0.00000000E+00
  5.90000000E+02  9.40000000E+01  0.00000000E+00
  5.90000000E+02  9.20000000E+01  0.00000000E+00
  5.90000000E+02  9.00000000E+01  0.00000000E+00
  5.90000000E+02  8.80000000E+01  0.00000000E+00
  5.90000000E+02  8.60000000E+01  0.00000000E+00
  5.90000000E+02  8.40000000E+01  0.00000000E+00
  5.90000000E+02  8.20000000E+01  0.00000000E+00
  5.90000000E+02  8.00000000E+01  0.00000000E+00
  5.90000000E+02  7.80000000E+01  0.00000000E+00
  5.90000000E+02  7.60000000E+01  0.00000000E+00
  5.90000000E+02  7.40000000E+01  0.00000000E+00
  5.90000000E+02  7.20000000E+01  0.00000000E+00
  5.90000000E+02  7.00000000E+01  0.00000000E+00
  5.90000000E+02  6.80000000E+01  0.00000000E+00
  5.90000000E+02  6.60000000E+01  0.00000000E+00
  5.90000000E+02  6.40000000E+01  0.00000000E+00
  5.90000000E+02  6.20000000E+01  0.00000000E+00
  5.90000000E+02  6.00000000E+01  0.00000000E+00
  5.90000000E+02  5.80000000E+01  0.00000000E+00
  5.90000000E+02  5.60000000E+01  0.00000000E+00
  5.90000000E+02  5.40000000E+01  0.00000000E+00
  5.90000000E+02  5.20000000E+01  0.00000000E+00
  5.90000000E+02  5.00000000E+01  0.00000000E+00
  5.90000000E+02  4.80000000E+01  0.00000000E+00
  5.90000000E+02  4.60000000E+01  0.00000000E+00
  5.90000000E+02  4.40000000E+01  0.00000000E+00
  5.90000000E+02  4.20000000E+01  0.00000000E+00
  5.90000000E+02  4.00000000E+01  0.00000000E+00
  5.90000000E+02  3.80000000E+01  0.00000000E+00
  5.90000000E+02  3.60000000E+01  0.00000000E+00
  5.90000000E+02  3.40000000E+01  0.00000000E+00
  5.90000000E+02  3.20000000E+01  0.00000000E+00
  5.90000000E+02  3.00000000E+01  0.00000000E+00
  5.90000000E+02  2.80000000E+01  0.00000000E+00
  5.90000000E+02  2.60000000E+01  0.00000000E+00
  5.90000000E+02  2.40000000E+01  0.00000000E+00
  5.90000000E+02  2.20000000E+01  0.00000000E+00
  5.90000000E+02  2.00000000E+01  0.00000000E+00
  5.90000000E+02  1.80000000E+01  0.00000000E+00
  5.90000000E+02  1.60000000E+01  0.00000000E+00
  5.90000000E+02  1.40000000E+01  0.00000000E+00
  5.90000000E+02  1.20000000E+01  0.00000000E+00
  5.90000000E+02  1.00000000E+01  0.00000000E+00
  5.90000000E+02  8.00000000E+00  0.00000000E+00
  5.90000000E+02  6.00000000E+00  0.00000000E+00
  5.90000000E+02  4.00000000E+00  0.00000000E+00
  5.90000000E+02  2.00000000E+00  0.00000000E+00
  5.90000000E+02 -3.33066907E-14  0.00000000E+00
  6.00000000E+02  1.00000000E+02  0.00000000E+00
  6.00000000E+02  9.80000000E+01  0.00000000E+00
  6.00000000E+02  9.60000000E+01  0.00000000E+00
  6.00000000E+02  9.40000000E+01  0.00000000E+00
  6.00000000E+02  9.20000000E+01  0.00000000E+00
  6.00000000E+02  9.00000000E+01  0.00000000E+00
  6.00000000E+02  8.80000000E+01  0.00000000E+00
  6.00000000E+02  8.60000000E+01  0.00000000E+00
  6.00000000E+02  8.40000000E+01  0.00000000E+00
  6.00000000E+02  8.20000000E+01  0.00000000E+00
  6.00000000E+02  8.00000000E+01  0.00000000E+00
  6.00000000E+02  7.80000000E+01  0.00000000E+00
  6.00000000E+02  7.60000000E+01  0.00000000E+00
  6.00000000E+02  7.40000000E+01  0.00000000E+00
  6.00000000E+02  7.20000000E+01  0.00000000E+00
  6.00000000E+02  7.00000000E+01  0.00000000E+00
  6.00000000E+02  6.80000000E+01  0.00000000E+00
  6.00000000E+02  6.60000000E+01  0.00000000E+00
  6.00000000E+02  6.40000000E+01  0.00000000E+00
  6.00000000E+02  6.20000000E+01  0.00000000E+00
  6.00000000E+02  6.00000000E+01  0.00000000E+00
  6.00000000E+02  5.80000000E+01  0.00000000E+00
  6.00000000E+02  5.60000000E+01  0.00000000E+00
  6.00000000E+02  5.40000000E+01  0.00000000E+00
  6.00000000E+02  5.20000000E+01  0.00000000E+00
  6.00000000E+02  5.00000000E+01  0.00000000E+00
  6.00000000E+02  4.80000000E+01  0.00000000E+00
  6.00000000E+02  4.60000000E+01  0.00000000E+00
  6.00000000E+02  4.40000000E+01  0.00000000E+00
  6.00000000E+02  4.20000000E+01  0.00000000E+00
  6.00000000E+02  4.00000000E+01  0.00000000E+00
  6.00000000E+02  3.80000000E+01  0.00000000E+00
  6.00000000E+02  3.60000000E+01  0.00000000E+00
  6.00000000E+02  3.40000000E+01  0.00000000E+00
  6.00000000E+02  3.20000000E+01  0.00000000E+00
  6.00000000E+02  3.00000000E+01  0.00000000E+00
  6.00000000E+02  2.80000000E+01  0.00000000E+00
  6.00000000E+02  2.60000000E+01  0.00000000E+00
  6.00000000E+02  2.40000000E+01  0.00000000E+00
  6.00000000E+02  2.20000000E+01  0.00000000E+00
  6.00000000E+02  2.00000000E+01  0.00000000E+00
  6.00000000E+02  1.80000000E+01  0.00000000E+00
  6.00000000E+02  1.60000000E+01  0.00000000E+00
  6.00000000E+02  1.40000000E+01  0.00000000E+00
  6.00000000E+02  1.20000000E+01  0.00000000E+00
  6.00000000E+02  1.00000000E+01  0.00000000E+00
  6.00000000E+02  8.00000000E+00  0.00000000E+00
  6.00000000E+02  6.00000000E+00  0.00000000E+00
  6.00000000E+02  4.00000000E+00  0.00000000E+00
  6.00000000E+02  2.00000000E+00  0.00000000E+00
  6.00000000E+02 -3.33066907E-14  0.00000000E+00
  6.10000000E+02  1.00000000E+02  0.00000000E+00
  6.10000000E+02  9.80000000E+01  0.00000000E+00
  6.10000000E+02  9.60000000E+01  0.00000000E+00
  6.10000000E+02  9.40000000E+01  0.00000000E+00
  6.10000000E+02  9.20000000E+01  0.00000000E+00
  6.10000000E+02  9.00000000E+01  0.00000000E+00
  6.10000000E+02  8.80000000E+01  0.00000000E+00
  6.10000000E+02  8.60000000E+01  0.00000000E+00
  6.10000000E+02  8.40000000E+01  0.00000000E+00
  6.10000000E+02  8.20000000E+01  0.00000000E+00
  6.10000000E+02  8.00000000E+01  0.00000000E+00
  6.10000000E+02  7.80000000E+01  0.00000000E+00
  6.10000000E+02  7.60000000E+01  0.00000000E+00
  6.10000000E+02  7.40000000E+01  0.00000000E+00
  6.10000000E+02  7.20000000E+01  0.00000000E+00
  6.10000000E+02  7.00000000E+01  0.00000000E+00
  6.10000000E+02  6.80000000E+01  0.00000000E+00
  6.10000000E+02  6.60000000E+01  0.00000000E+00
  6.10000000E+02  6.40000000E+01  0.00000000E+00
  6.10000000E+02  6.20000000E+01  0.00000000E+00
  6.10000000E+02  6.00000000E+01  0.00000000E+00
  6.10000000E+02  5.80000000E+01  0.00000000E+00
  6.10000000E+02  5.60000000E+01  0.00000000E+00
  6.10000000E+02  5.40000000E+01  0.00000000E+00
  6.10000000E+02  5.20000000E+01  0.00000000E+00
  6.10000000E+02  5.00000000E+01  0.00000000E+00
  6.10000000E+02  4.80000000E+01  0.00000000E+00
  6.10000000E+02  4.60000000E+01  0.00000000E+00
  6.10000000E+02  4.40000000E+01  0.00000000E+00
  6.10000000E+02  4.20000000E+01  0.00000000E+00
  6.10000000E+02  4.00000000E+01  0.00000000E+00
  6.10000000E+02  3.80000000E+01  0.00000000E+00
  6.10000000E+02  3.60000000E+01  0.00000000E+00
  6.10000000E+02  3.40000000E+01  0.00000000E+00
  6.10000000E+02  3.20000000E+01  0.00000000E+00
  6.10000000E+02  3.00000000E+01  0.00000000E+00
  6.10000000E+02  2.80000000E+01  0.00000000E+00
  6.10000000E+02  2.60000000E+01  0.00000000E+00
  6.10000000E+02  2.40000000E+01  0.00000000E+00
  6.10000000E+02  2.20000000E+01  0.00000000E+00
  6.10000000E+02  2.00000000E+01  0.00000000E+00
  6.10000000E+02  1.80000000E+01  0.00000000E+00
  6.10000000E+02  1.60000000E+01  0.00000000E+00
  6.10000000E+02  1.40000000E+01  0.00000000E+00
  6.10000000E+02  1.20000000E+01  0.00000000E+00
  6.10000000E+02  1.00000000E+01  0.00000000E+00
  6.10000000E+02  8.00000000E+00  0.00000000E+00
  6.10000000E+02  6.00000000E+00  0.00000000E+00
  6.10000000E+02  4.00000000E+00  0.00000000E+00
  6.10000000E+02  2.00000000E+00  0.00000000E+00
  6.10000000E+02 -3.33066907E-14  0.00000000E+00
  6.20000000E+02  1.00000000E+02  0.00000000E+00
  6.20000000E+02  9.80000000E+01  0.00000000E+00
  6.20000000E+02  9.60000000E+01  0.00000000E+00
  6.20000000E+02  9.40000000E+01  0.00000000E+00
  6.20000000E+02  9.20000000E+01  0.00000000E+00
  6.20000000E+02  9.00000000E+01  0.00000000E+00
  6.20000000E+02  8.80000000E+01  0.00000000E+00
  6.20000000E+02  8.60000000E+01  0.00000000E+00
  6.20000000E+02  8.40000000E+01  0.00000000E+00
  6.20000000E+02  8.20000000E+01  0.00000000E+00
  6.20000000E+02  8.00000000E+01  0.00000000E+00
  6.20000000E+02  7.80000000E+01  0.00000000E+00
  6.20000000E+02  7.60000000E+01  0.00000000E+00
  6.20000000E+02  7.40000000E+01  0.00000000E+00
  6.20000000E+02  7.20000000E+01  0.00000000E+00
  6.20000000E+02  7.00000000E+01  0.00000000E+00
  6.20000000E+02  6.80000000E+01  0.00000000E+00
  6.20000000E+02  6.60000000E+01  0.00000000E+00
  6.20000000E+02  6.40000000E+01  0.00000000E+00
  6.20000000E+02  6.20000000E+01  0.00000000E+00
  6.20000000E+02  6.00000000E+01  0.00000000E+00
  6.20000000E+02  5.80000000E+01  0.00000000E+00
  6.20000000E+02  5.60000000E+01  0.00000000E+00
  6.20000000E+02  5.40000000E+01  0.00000000E+00
  6.20000000E+02  5.20000000E+01  0.00000000E+00
  6.20000000E+02  5.00000000E+01  0.00000000E+00
  6.20000000E+02  4.80000000E+01  0.00000000E+00
  6.20000000E+02  4.60000000E+01  0.00000000E+00
  6.20000000E+02  4.40000000E+01  0.00000000E+00
  6.20000000E+02  4.20000000E+01  0.00000000E+00
  6.20000000E+02  4.00000000E+01  0.00000000E+00
  6.20000000E+02  3.80000000E+01  0.00000000E+00
  6.20000000E+02  3.60000000E+01  0.00000000E+00
  6.20000000E+02  3.40000000E+01  0.00000000E+00
  6.20000000E+02  3.20000000E+01  0.00000000E+00
  6.20000000E+02  3.00000000E+01  0.00000000E+00
  6.20000000E+02  2.80000000E+01  0.00000000E+00
  6.20000000E+02  2.60000000E+01  0.00000000E+00
  6.20000000E+02  2.40000000E+01  0.00000000E+00
  6.20000000E+02  2.20000000E+01  0.00000000E+00
  6.20000000E+02  2.00000000E+01  0.00000000E+00
  6.20000000E+02  1.80000000E+01  0.00000000E+00
  6.20000000E+02  1.60000000E+01  0.00000000E+00
  6.20000000E+02  1.40000000E+01  0.00000000E+00
  6.20000000E+02  1.20000000E+01  0.00000000E+00
  6.20000000E+02  1.00000000E+01  0.00000000E+00
  6.20000000E+02  8.00000000E+00  0.00000000E+00
  6.20000000E+02  6.00000000E+00  0.00000000E+00
  6.20000000E+02  4.00000000E+00  0.00000000E+00
  6.20000000E+02  2.00000000E+00  0.00000000E+00
  6.20000000E+02 -3.33066907E-14  0.00000000E+00
  6.30000000E+02  1.00000000E+02  0.00000000E+00
  6.30000000E+02  9.80000000E+01  0.00000000E+00
  6.30000000E+02  9.60000000E+01  0.00000000E+00
  6.30000000E+02  9.40000000E+01  0.00000000E+00
  6.30000000E+02  9.20000000E+01  0.00000000E+00
  6.30000000E+02  9.00000000E+01  0.00000000E+00
  6.30000000E+02  8.80000000E+01  0.00000000E+00
  6.30000000E+02  8.60000000E+01  0.00000000E+00
  6.30000000E+02  8.40000000E+01  0.00000000E+00
  6.30000000E+02  8.20000000E+01  0.00000000E+00
  6.30000000E+02  8.00000000E+01  0.00000000E+00
  6.30000000E+02  7.80000000E+01  0.00000000E+00
  6.30000000E+02  7.60000000E+01  0.00000000E+00
  6.30000000E+02  7.40000000E+01  0.00000000E+00
  6.30000000E+02  7.20000000E+01  0.00000000E+00
  6.30000000E+02  7.00000000E+01  0.00000000E+00
  6.30000000E+02  6.80000000E+01  0.00000000E+00
  6.30000000E+02  6.60000000E+01  0.00000000E+00
  6.30000000E+02  6.40000000E+01  0.00000000E+00
  6.30000000E+02  6.20000000E+01  0.00000000E+00
  6.30000000E+02  6.00000000E+01  0.00000000E+00
  6.30000000E+02  5.80000000E+01  0.00000000E+00
  6.30000000E+02  5.60000000E+01  0.00000000E+00
  6.30000000E+02  5.40000000E+01  0.00000000E+00
  6.30000000E+02  5.20000000E+01  0.00000000E+00
  6.30000000E+02  5.00000000E+01  0.00000000E+00
  6.30000000E+02  4.80000000E+01  0.00000000E+00
  6.30000000E+02  4.60000000E+01  0.00000000E+00
  6.30000000E+02  4.40000000E+01  0.00000000E+00
  6.30000000E+02  4.20000000E+01  0.00000000E+00
  6.30000000E+02  4.00000000E+01  0.00000000E+00
  6.30000000E+02  3.80000000E+01  0.00000000E+00
  6.30000000E+02  3.60000000E+01  0.00000000E+00
  6.30000000E+02  3.40000000E+01  0.00000000E+00
  6.30000000E+02  3.20000000E+01  0.00000000E+00
  6.30000000E+02  3.00000000E+01  0.00000000E+00
  6.30000000E+02  2.80000000E+01  0.00000000E+00
  6.30000000E+02  2.60000000E+01  0.00000000E+00
  6.30000000E+02  2.40000000E+01  0.00000000E+00
  6.30000000E+02  2.20000000E+01  0.00000000E+00
  6.30000000E+02  2.00000000E+01  0.00000000E+00
  6.30000000E+02  1.80000000E+01  0.00000000E+00
  6.30000000E+02  1.60000000E+01  0.00000000E+00
  6.30000000E+02  1.40000000E+01  0.00000000E+00
  6.30000000E+02  1.20000000E+01  0.00000000E+00
  6.30000000E+02  1.00000000E+01  0.00000000E+00
  6.30000000E+02  8.00000000E+00  0.00000000E+00
  6.30000000E+02  6.00000000E+00  0.00000000E+00
  6.30000000E+02  4.00000000E+00  0.00000000E+00
  6.30000000E+02  2.00000000E+00  0.00000000E+00
  6.30000000E+02 -3.33066907E-14  0.00000000E+00
  6.40000000E+02  1.00000000E+02  0.00000000E+00
  6.40000000E+02  9.80000000E+01  0.00000000E+00
  6.40000000E+02  9.60000000E+01  0.00000000E+00
  6.40000000E+02  9.40000000E+01  0.00000000E+00
  6.40000000E+02  9.20000000E+01  0.00000000E+00
  6.40000000E+02  9.00000000E+01  0.00000000E+00
  6.40000000E+02  8.80000000E+01  0.00000000E+00
  6.40000000E+02  8.60000000E+01  0.00000000E+00
  6.40000000E+02  8.40000000E+01  0.00000000E+00
  6.40000000E+02  8.20000000E+01  0.00000000E+00
  6.40000000E+02  8.00000000E+01  0.00000000E+00
  6.40000000E+02  7.80000000E+01  0.00000000E+00
  6.40000000E+02  7.60000000E+01  0.00000000E+00
  6.40000000E+02  7.40000000E+01  0.00000000E+00
  6.40000000E+02  7.20000000E+01  0.00000000E+00
  6.40000000E+02  7.00000000E+01  0.00000000E+00
  6.40000000E+02  6.80000000E+01  0.00000000E+00
  6.40000000E+02  6.60000000E+01  0.00000000E+00
  6.40000000E+02  6.40000000E+01  0.00000000E+00
  6.40000000E+02  6.20000000E+01  0.00000000E+00
  6.40000000E+02  6.00000000E+01  0.00000000E+00
  6.40000000E+02  5.80000000E+01  0.00000000E+00
  6.40000000E+02  5.60000000E+01  0.00000000E+00
  6.40000000E+02  5.40000000E+01  0.00000000E+00
  6.40000000E+02  5.20000000E+01  0.00000000E+00
  6.40000000E+02  5.00000000E+01  0.00000000E+00
  6.40000000E+02  4.80000000E+01  0.00000000E+00
  6.40000000E+02  4.60000000E+01  0.00000000E+00
  6.40000000E+02  4.40000000E+01  0.00000000E+00
  6.40000000E+02  4.20000000E+01  0.00000000E+00
  6.40000000E+02  4.00000000E+01  0.00000000E+00
  6.40000000E+02  3.80000000E+01  0.00000000E+00
  6.40000000E+02  3.60000000E+01  0.00000000E+00
  6.40000000E+02  3.40000000E+01  0.00000000E+00
  6.40000000E+02  3.20000000E+01  0.00000000E+00
  6.40000000E+02  3.00000000E+01  0.00000000E+00
  6.40000000E+02  2.80000000E+01  0.00000000E+00
  6.40000000E+02  2.60000000E+01  0.00000000E+00
  6.40000000E+02  2.40000000E+01  0.00000000E+00
  6.40000000E+02  2.20000000E+01  0.00000000E+00
  6.40000000E+02  2.00000000E+01  0.00000000E+00
  6.40000000E+02  1.80000000E+01  0.00000000E+00
  6.40000000E+02  1.60000000E+01  0.00000000E+00
  6.40000000E+02  1.40000000E+01  0.00000000E+00
  6.40000000E+02  1.20000000E+01  0.00000000E+00
  6.40000000E+02  1.00000000E+01  0.00000000E+00
  6.40000000E+02  8.00000000E+00  0.00000000E+00
  6.40000000E+02  6.00000000E+00  0.00000000E+00
  6.40000000E+02  4.00000000E+00  0.00000000E+00
  6.40000000E+02  2.00000000E+00  0.00000000E+00
  6.40000000E+02 -3.33066907E-14  0.00000000E+00
  6.50000000E+02  1.00000000E+02  0.00000000E+00
  6.50000000E+02  9.80000000E+01  0.00000000E+00
  6.50000000E+02  9.60000000E+01  0.00000000E+00
  6.50000000E+02  9.40000000E+01  0.00000000E+00
  6.50000000E+02  9.20000000E+01  0.00000000E+00
  6.50000000E+02  9.00000000E+01  0.00000000E+00
  6.50000000E+02  8.80000000E+01  0.00000000E+00
  6.50000000E+02  8.60000000E+01  0.00000000E+00
  6.50000000E+02  8.40000000E+01  0.00000000E+00
  6.50000000E+02  8.20000000E+01  0.00000000E+00
  6.50000000E+02  8.00000000E+01  0.00000000E+00
  6.50000000E+02  7.80000000E+01  0.00000000E+00
  6.50000000E+02  7.60000000E+01  0.00000000E+00
  6.50000000E+02  7.40000000E+01  0.00000000E+00
  6.50000000E+02  7.20000000E+01  0.00000000E+00
  6.50000000E+02  7.00000000E+01  0.00000000E+00
  6.50000000E+02  6.80000000E+01  0.00000000E+00
  6.50000000E+02  6.60000000E+01  0.00000000E+00
  6.50000000E+02  6.40000000E+01  0.00000000E+00
  6.50000000E+02  6.20000000E+01  0.00000000E+00
  6.50000000E+02  6.00000000E+01  0.00000000E+00
  6.50000000E+02  5.80000000E+01  0.00000000E+00
  6.50000000E+02  5.60000000E+01  0.00000000E+00
  6.50000000E+02  5.40000000E+01  0.00000000E+00
  6.50000000E+02  5.20000000E+01  0.00000000E+00
  6.50000000E+02  5.00000000E+01  0.00000000E+00
  6.50000000E+02  4.80000000E+01  0.00000000E+00
  6.50000000E+02  4.60000000E+01  0.00000000E+00
  6.50000000E+02  4.40000000E+01  0.00000000E+00
  6.50000000E+02  4.20000000E+01  0.00000000E+00
  6.50000000E+02  4.00000000E+01  0.00000000E+00
  6.50000000E+02  3.80000000E+01  0.00000000E+00
  6.50000000E+02  3.60000000E+01  0.00000000E+00
  6.50000000E+02  3.40000000E+01  0.00000000E+00
  6.50000000E+02  3.20000000E+01  0.00000000E+00
  6.50000000E+02  3.00000000E+01  0.00000000E+00
  6.50000000E+02  2.80000000E+01  0.00000000E+00
  6.50000000E+02  2.60000000E+01  0.00000000E+00
  6.50000000E+02  2.40000000E+01  0.00000000E+00
  6.50000000E+02  2.20000000E+01  0.00000000E+00
  6.50000000E+02  2.00000000E+01  0.00000000E+00
  6.50000000E+02  1.80000000E+01  0.00000000E+00
  6.50000000E+02  1.60000000E+01  0.00000000E+00
  6.50000000E+02  1.40000000E+01  0.00000000E+00
  6.50000000E+02  1.20000000E+01  0.00000000E+00
  6.50000000E+02  1.00000000E+01  0.00000000E+00
  6.50000000E+02  8.00000000E+00  0.00000000E+00
  6.50000000E+02  6.00000000E+00  0.00000000E+00
  6.50000000E+02  4.00000000E+00  0.00000000E+00
  6.50000000E+02  2.00000000E+00  0.00000000E+00
  6.50000000E+02 -3.33066907E-14  0.00000000E+00
  6.60000000E+02  1.00000000E+02  0.00000000E+00
  6.60000000E+02  9.80000000E+01  0.00000000E+00
  6.60000000E+02  9.60000000E+01  0.00000000E+00
  6.60000000E+02  9.40000000E+01  0.00000000E+00
  6.60000000E+02  9.20000000E+01  0.00000000E+00
  6.60000000E+02  9.00000000E+01  0.00000000E+00
  6.60000000E+02  8.80000000E+01  0.00000000E+00
  6.60000000E+02  8.60000000E+01  0.00000000E+00
  6.60000000E+02  8.40000000E+01  0.00000000E+00
  6.60000000E+02  8.20000000E+01  0.00000000E+00
  6.60000000E+02  8.00000000E+01  0.00000000E+00
  6.60000000E+02  7.80000000E+01  0.00000000E+00
  6.60000000E+02  7.60000000E+01  0.00000000E+00
  6.60000000E+02  7.40000000E+01  0.00000000E+00
  6.60000000E+02  7.20000000E+01  0.00000000E+00
  6.60000000E+02  7.00000000E+01  0.00000000E+00
  6.60000000E+02  6.80000000E+01  0.00000000E+00
  6.60000000E+02  6.60000000E+01  0.00000000E+00
  6.60000000E+02  6.40000000E+01  0.00000000E+00
  6.60000000E+02  6.20000000E+01  0.00000000E+00
  6.60000000E+02  6.00000000E+01  0.00000000E+00
  6.60000000E+02  5.80000000E+01  0.00000000E+00
  6.60000000E+02  5.60000000E+01  0.00000000E+00
  6.60000000E+02  5.40000000E+01  0.00000000E+00
  6.60000000E+02  5.20000000E+01  0.00000000E+00
  6.60000000E+02  5.00000000E+01  0.00000000E+00
  6.60000000E+02  4.80000000E+01  0.00000000E+00
  6.60000000E+02  4.60000000E+01  0.00000000E+00
  6.60000000E+02  4.40000000E+01  0.00000000E+00
  6.60000000E+02  4.20000000E+01  0.00000000E+00
  6.60000000E+02  4.00000000E+01  0.00000000E+00
  6.60000000E+02  3.80000000E+01  0.00000000E+00
  6.60000000E+02  3.60000000E+01  0.00000000E+00
  6.60000000E+02  3.40000000E+01  0.00000000E+00
  6.60000000E+02  3.20000000E+01  0.00000000E+00
  6.60000000E+02  3.00000000E+01  0.00000000E+00
  6.60000000E+02  2.80000000E+01  0.00000000E+00
  6.60000000E+02  2.60000000E+01  0.00000000E+00
  6.60000000E+02  2.40000000E+01  0.00000000E+00
  6.60000000E+02  2.20000000E+01  0.00000000E+00
  6.60000000E+02  2.00000000E+01  0.00000000E+00
  6.60000000E+02  1.80000000E+01  0.00000000E+00
  6.60000000E+02  1.60000000E+01  0.00000000E+00
  6.60000000E+02  1.40000000E+01  0.00000000E+00
  6.60000000E+02  1.20000000E+01  0.00000000E+00
  6.60000000E+02  1.00000000E+01  0.00000000E+00
  6.60000000E+02  8.00000000E+00  0.00000000E+00
  6.60000000E+02  6.00000000E+00  0.00000000E+00
  6.60000000E+02  4.00000000E+00  0.00000000E+00
  6.60000000E+02  2.00000000E+00  0.00000000E+00
  6.60000000E+02 -3.33066907E-14  0.00000000E+00
  6.70000000E+02  1.00000000E+02  0.00000000E+00
  6.70000000E+02  9.80000000E+01  0.00000000E+00
  6.70000000E+02  9.60000000E+01  0.00000000E+00
  6.70000000E+02  9.40000000E+01  0.00000000E+00
  6.70000000E+02  9.20000000E+01  0.00000000E+00
  6.70000000E+02  9.00000000E+01  0.00000000E+00
  6.70000000E+02  8.80000000E+01  0.00000000E+00
  6.70000000E+02  8.60000000E+01  0.00000000E+00
  6.70000000E+02  8.40000000E+01  0.00000000E+00
  6.70000000E+02  8.20000000E+01  0.00000000E+00
  6.70000000E+02  8.00000000E+01  0.00000000E+00
  6.70000000E+02  7.80000000E+01  0.00000000E+00
  6.70000000E+02  7.60000000E+01  0.00000000E+00
  6.70000000E+02  7.40000000E+01  0.00000000E+00
  6.70000000E+02  7.20000000E+01  0.00000000E+00
  6.70000000E+02  7.00000000E+01  0.00000000E+00
  6.70000000E+02  6.80000000E+01  0.00000000E+00
  6.70000000E+02  6.60000000E+01  0.00000000E+00
  6.70000000E+02  6.40000000E+01  0.00000000E+00
  6.70000000E+02  6.20000000E+01  0.00000000E+00
  6.70000000E+02  6.00000000E+01  0.00000000E+00
  6.70000000E+02  5.80000000E+01  0.00000000E+00
  6.70000000E+02  5.60000000E+01  0.00000000E+00
  6.70000000E+02  5.40000000E+01  0.00000000E+00
  6.70000000E+02  5.20000000E+01  0.00000000E+00
  6.70000000E+02  5.00000000E+01  0.00000000E+00
  6.70000000E+02  4.80000000E+01  0.00000000E+00
  6.70000000E+02  4.60000000E+01  0.00000000E+00
  6.70000000E+02  4.40000000E+01  0.00000000E+00
  6.70000000E+02  4.20000000E+01  0.00000000E+00
  6.70000000E+02  4.00000000E+01  0.00000000E+00
  6.70000000E+02  3.80000000E+01  0.00000000E+00
  6.70000000E+02  3.60000000E+01  0.00000000E+00
  6.70000000E+02  3.40000000E+01  0.00000000E+00
  6.70000000E+02  3.20000000E+01  0.00000000E+00
  6.70000000E+02  3.00000000E+01  0.00000000E+00
  6.70000000E+02  2.80000000E+01  0.00000000E+00
  6.70000000E+02  2.60000000E+01  0.00000000E+00
  6.70000000E+02  2.40000000E+01  0.00000000E+00
  6.70000000E+02  2.20000000E+01  0.00000000E+00
  6.70000000E+02  2.00000000E+01  0.00000000E+00
  6.70000000E+02  1.80000000E+01  0.00000000E+00
  6.70000000E+02  1.60000000E+01  0.00000000E+00
  6.70000000E+02  1.40000000E+01  0.00000000E+00
  6.70000000E+02  1.20000000E+01  0.00000000E+00
  6.70000000E+02  1.00000000E+01  0.00000000E+00
  6.70000000E+02  8.00000000E+00  0.00000000E+00
  6.70000000E+02  6.00000000E+00  0.00000000E+00
  6.70000000E+02  4.00000000E+00  0.00000000E+00
  6.70000000E+02  2.00000000E+00  0.00000000E+00
  6.70000000E+02 -3.33066907E-14  0.00000000E+00
  6.80000000E+02  1.00000000E+02  0.00000000E+00
  6.80000000E+02  9.80000000E+01  0.00000000E+00
  6.80000000E+02  9.60000000E+01  0.00000000E+00
  6.80000000E+02  9.40000000E+01  0.00000000E+00
  6.80000000E+02  9.20000000E+01  0.00000000E+00
  6.80000000E+02  9.00000000E+01  0.00000000E+00
  6.80000000E+02  8.80000000E+01  0.00000000E+00
  6.80000000E+02  8.60000000E+01  0.00000000E+00
  6.80000000E+02  8.40000000E+01  0.00000000E+00
  6.80000000E+02  8.20000000E+01  0.00000000E+00
  6.80000000E+02  8.00000000E+01  0.00000000E+00
  6.80000000E+02  7.80000000E+01  0.00000000E+00
  6.80000000E+02  7.60000000E+01  0.00000000E+00
  6.80000000E+02  7.40000000E+01  0.00000000E+00
  6.80000000E+02  7.20000000E+01  0.00000000E+00
  6.80000000E+02  7.00000000E+01  0.00000000E+00
  6.80000000E+02  6.80000000E+01  0.00000000E+00
  6.80000000E+02  6.60000000E+01  0.00000000E+00
  6.80000000E+02  6.40000000E+01  0.00000000E+00
  6.80000000E+02  6.20000000E+01  0.00000000E+00
  6.80000000E+02  6.00000000E+01  0.00000000E+00
  6.80000000E+02  5.80000000E+01  0.00000000E+00
  6.80000000E+02  5.60000000E+01  0.00000000E+00
  6.80000000E+02  5.40000000E+01  0.00000000E+00
  6.80000000E+02  5.20000000E+01  0.00000000E+00
  6.80000000E+02  5.00000000E+01  0.00000000E+00
  6.80000000E+02  4.80000000E+01  0.00000000E+00
  6.80000000E+02  4.60000000E+01  0.00000000E+00
  6.80000000E+02  4.40000000E+01  0.00000000E+00
  6.80000000E+02  4.20000000E+01  0.00000000E+00
  6.80000000E+02  4.00000000E+01  0.00000000E+00
  6.80000000E+02  3.80000000E+01  0.00000000E+00
  6.80000000E+02  3.60000000E+01  0.00000000E+00
  6.80000000E+02  3.40000000E+01  0.00000000E+00
  6.80000000E+02  3.20000000E+01  0.00000000E+00
  6.80000000E+02  3.00000000E+01  0.00000000E+00
  6.80000000E+02  2.80000000E+01  0.00000000E+00
  6.80000000E+02  2.60000000E+01  0.00000000E+00
  6.80000000E+02  2.40000000E+01  0.00000000E+00
  6.80000000E+02  2.20000000E+01  0.00000000E+00
  6.80000000E+02  2.00000000E+01  0.00000000E+00
  6.80000000E+02  1.80000000E+01  0.00000000E+00
  6.80000000E+02  1.60000000E+01  0.00000000E+00
  6.80000000E+02  1.40000000E+01  0.00000000E+00
  6.80000000E+02  1.20000000E+01  0.00000000E+00
  6.80000000E+02  1.00000000E+01  0.00000000E+00
  6.80000000E+02  8.00000000E+00  0.00000000E+00
  6.80000000E+02  6.00000000E+00  0.00000000E+00
  6.80000000E+02  4.00000000E+00  0.00000000E+00
  6.80000000E+02  2.00000000E+00  0.00000000E+00
  6.80000000E+02 -3.33066907E-14  0.00000000E+00
  6.90000000E+02  1.00000000E+02  0.00000000E+00
  6.90000000E+02  9.80000000E+01  0.00000000E+00
  6.90000000E+02  9.60000000E+01  0.00000000E+00
  6.90000000E+02  9.40000000E+01  0.00000000E+00
  6.90000000E+02  9.20000000E+01  0.00000000E+00
  6.90000000E+02  9.00000000E+01  0.00000000E+00
  6.90000000E+02  8.80000000E+01  0.00000000E+00
  6.90000000E+02  8.60000000E+01  0.00000000E+00
  6.90000000E+02  8.40000000E+01  0.00000000E+00
  6.90000000E+02  8.20000000E+01  0.00000000E+00
  6.90000000E+02  8.00000000E+01  0.00000000E+00
  6.90000000E+02  7.80000000E+01  0.00000000E+00
  6.90000000E+02  7.60000000E+01  0.00000000E+00
  6.90000000E+02  7.40000000E+01  0.00000000E+00
  6.90000000E+02  7.20000000E+01  0.00000000E+00
  6.90000000E+02  7.00000000E+01  0.00000000E+00
  6.90000000E+02  6.80000000E+01  0.00000000E+00
  6.90000000E+02  6.60000000E+01  0.00000000E+00
  6.90000000E+02  6.40000000E+01  0.00000000E+00
  6.90000000E+02  6.20000000E+01  0.00000000E+00
  6.90000000E+02  6.00000000E+01  0.00000000E+00
  6.90000000E+02  5.80000000E+01  0.00000000E+00
  6.90000000E+02  5.60000000E+01  0.00000000E+00
  6.90000000E+02  5.40000000E+01  0.00000000E+00
  6.90000000E+02  5.20000000E+01  0.00000000E+00
  6.90000000E+02  5.00000000E+01  0.00000000E+00
  6.90000000E+02  4.80000000E+01  0.00000000E+00
  6.90000000E+02  4.60000000E+01  0.00000000E+00
  6.90000000E+02  4.40000000E+01  0.00000000E+00
  6.90000000E+02  4.20000000E+01  0.00000000E+00
  6.90000000E+02  4.00000000E+01  0.00000000E+00
  6.90000000E+02  3.80000000E+01  0.00000000E+00
  6.90000000E+02  3.60000000E+01  0.00000000E+00
  6.90000000E+02  3.40000000E+01  0.00000000E+00
  6.90000000E+02  3.20000000E+01  0.00000000E+00
  6.90000000E+02  3.00000000E+01  0.00000000E+00
  6.90000000E+02  2.80000000E+01  0.00000000E+00
  6.90000000E+02  2.60000000E+01  0.00000000E+00
  6.90000000E+02  2.40000000E+01  0.00000000E+00
  6.90000000E+02  2.20000000E+01  0.00000000E+00
  6.90000000E+02  2.00000000E+01  0.00000000E+00
  6.90000000E+02  1.80000000E+01  0.00000000E+00
  6.90000000E+02  1.60000000E+01  0.00000000E+00
  6.90000000E+02  1.40000000E+01  0.00000000E+00
  6.90000000E+02  1.20000000E+01  0.00000000E+00
  6.90000000E+02  1.00000000E+01  0.00000000E+00
  6.90000000E+02  8.00000000E+00  0.00000000E+00
  6.90000000E+02  6.00000000E+00  0.00000000E+00
  6.90000000E+02  4.00000000E+00  0.00000000E+00
  6.90000000E+02  2.00000000E+00  0.00000000E+00
  6.90000000E+02 -3.33066907E-14  0.00000000E+00
  7.00000000E+02  1.00000000E+02  0.00000000E+00
  7.00000000E+02  9.80000000E+01  0.00000000E+00
  7.00000000E+02  9.60000000E+01  0.00000000E+00
  7.00000000E+02  9.40000000E+01  0.00000000E+00
  7.00000000E+02  9.20000000E+01  0.00000000E+00
  7.00000000E+02  9.00000000E+01  0.00000000E+00
  7.00000000E+02  8.80000000E+01  0.00000000E+00
  7.00000000E+02  8.60000000E+01  0.00000000E+00
  7.00000000E+02  8.40000000E+01  0.00000000E+00
  7.00000000E+02  8.20000000E+01  0.00000000E+00
  7.00000000E+02  8.00000000E+01  0.00000000E+00
  7.00000000E+02  7.80000000E+01  0.00000000E+00
  7.00000000E+02  7.60000000E+01  0.00000000E+00
  7.00000000E+02  7.40000000E+01  0.00000000E+00
  7.00000000E+02  7.20000000E+01  0.00000000E+00
  7.00000000E+02  7.00000000E+01  0.00000000E+00
  7.00000000E+02  6.80000000E+01  0.00000000E+00
  7.00000000E+02  6.60000000E+01  0.00000000E+00
  7.00000000E+02  6.40000000E+01  0.00000000E+00
  7.00000000E+02  6.20000000E+01  0.00000000E+00
  7.00000000E+02  6.00000000E+01  0.00000000E+00
  7.00000000E+02  5.80000000E+01  0.00000000E+00
  7.00000000E+02  5.60000000E+01  0.00000000E+00
  7.00000000E+02  5.40000000E+01  0.00000000E+00
  7.00000000E+02  5.20000000E+01  0.00000000E+00
  7.00000000E+02  5.00000000E+01  0.00000000E+00
  7.00000000E+02  4.80000000E+01  0.00000000E+00
  7.00000000E+02  4.60000000E+01  0.00000000E+00
  7.00000000E+02  4.40000000E+01  0.00000000E+00
  7.00000000E+02  4.20000000E+01  0.00000000E+00
  7.00000000E+02  4.00000000E+01  0.00000000E+00
  7.00000000E+02  3.80000000E+01  0.00000000E+00
  7.00000000E+02  3.60000000E+01  0.00000000E+00
  7.00000000E+02  3.40000000E+01  0.00000000E+00
  7.00000000E+02  3.20000000E+01  0.00000000E+00
  7.00000000E+02  3.00000000E+01  0.00000000E+00
  7.00000000E+02  2.80000000E+01  0.00000000E+00
  7.00000000E+02  2.60000000E+01  0.00000000E+00
  7.00000000E+02  2.40000000E+01  0.00000000E+00
  7.00000000E+02  2.20000000E+01  0.00000000E+00
  7.00000000E+02  2.00000000E+01  0.00000000E+00
  7.00000000E+02  1.80000000E+01  0.00000000E+00
  7.00000000E+02  1.60000000E+01  0.00000000E+00
  7.00000000E+02  1.40000000E+01  0.00000000E+00
  7.00000000E+02  1.20000000E+01  0.00000000E+00
  7.00000000E+02  1.00000000E+01  0.00000000E+00
  7.00000000E+02  8.00000000E+00  0.00000000E+00
  7.00000000E+02  6.00000000E+00  0.00000000E+00
  7.00000000E+02  4.00000000E+00  0.00000000E+00
  7.00000000E+02  2.00000000E+00  0.00000000E+00
  7.00000000E+02 -3.33066907E-14  0.00000000E+00
  7.10000000E+02  1.00000000E+02  0.00000000E+00
  7.10000000E+02  9.80000000E+01  0.00000000E+00
  7.10000000E+02  9.60000000E+01  0.00000000E+00
  7.10000000E+02  9.40000000E+01  0.00000000E+00
  7.10000000E+02  9.20000000E+01  0.00000000E+00
  7.10000000E+02  9.00000000E+01  0.00000000E+00
  7.10000000E+02  8.80000000E+01  0.00000000E+00
  7.10000000E+02  8.60000000E+01  0.00000000E+00
  7.10000000E+02  8.40000000E+01  0.00000000E+00
  7.10000000E+02  8.20000000E+01  0.00000000E+00
  7.10000000E+02  8.00000000E+01  0.00000000E+00
  7.10000000E+02  7.80000000E+01  0.00000000E+00
  7.10000000E+02  7.60000000E+01  0.00000000E+00
  7.10000000E+02  7.40000000E+01  0.00000000E+00
  7.10000000E+02  7.20000000E+01  0.00000000E+00
  7.10000000E+02  7.00000000E+01  0.00000000E+00
  7.10000000E+02  6.80000000E+01  0.00000000E+00
  7.10000000E+02  6.60000000E+01  0.00000000E+00
  7.10000000E+02  6.40000000E+01  0.00000000E+00
  7.10000000E+02  6.20000000E+01  0.00000000E+00
  7.10000000E+02  6.00000000E+01  0.00000000E+00
  7.10000000E+02  5.80000000E+01  0.00000000E+00
  7.10000000E+02  5.60000000E+01  0.00000000E+00
  7.10000000E+02  5.40000000E+01  0.00000000E+00
  7.10000000E+02  5.20000000E+01  0.00000000E+00
  7.10000000E+02  5.00000000E+01  0.00000000E+00
  7.10000000E+02  4.80000000E+01  0.00000000E+00
  7.10000000E+02  4.60000000E+01  0.00000000E+00
  7.10000000E+02  4.40000000E+01  0.00000000E+00
  7.10000000E+02  4.20000000E+01  0.00000000E+00
  7.10000000E+02  4.00000000E+01  0.00000000E+00
  7.10000000E+02  3.80000000E+01  0.00000000E+00
  7.10000000E+02  3.60000000E+01  0.00000000E+00
  7.10000000E+02  3.40000000E+01  0.00000000E+00
  7.10000000E+02  3.20000000E+01  0.00000000E+00
  7.10000000E+02  3.00000000E+01  0.00000000E+00
  7.10000000E+02  2.80000000E+01  0.00000000E+00
  7.10000000E+02  2.60000000E+01  0.00000000E+00
  7.10000000E+02  2.40000000E+01  0.00000000E+00
  7.10000000E+02  2.20000000E+01  0.00000000E+00
  7.10000000E+02  2.00000000E+01  0.00000000E+00
  7.10000000E+02  1.80000000E+01  0.00000000E+00
  7.10000000E+02  1.60000000E+01  0.00000000E+00
  7.10000000E+02  1.40000000E+01  0.00000000E+00
  7.10000000E+02  1.20000000E+01  0.00000000E+00
  7.10000000E+02  1.00000000E+01  0.00000000E+00
  7.10000000E+02  8.00000000E+00  0.00000000E+00
  7.10000000E+02  6.00000000E+00  0.00000000E+00
  7.10000000E+02  4.00000000E+00  0.00000000E+00
  7.10000000E+02  2.00000000E+00  0.00000000E+00
  7.10000000E+02 -3.33066907E-14  0.00000000E+00
  7.20000000E+02  1.00000000E+02  0.00000000E+00
  7.20000000E+02  9.80000000E+01  0.00000000E+00
  7.20000000E+02  9.60000000E+01  0.00000000E+00
  7.20000000E+02  9.40000000E+01  0.00000000E+00
  7.20000000E+02  9.20000000E+01  0.00000000E+00
  7.20000000E+02  9.00000000E+01  0.00000000E+00
  7.20000000E+02  8.80000000E+01  0.00000000E+00
  7.20000000E+02  8.60000000E+01  0.00000000E+00
  7.20000000E+02  8.40000000E+01  0.00000000E+00
  7.20000000E+02  8.20000000E+01  0.00000000E+00
  7.20000000E+02  8.00000000E+01  0.00000000E+00
  7.20000000E+02  7.80000000E+01  0.00000000E+00
  7.20000000E+02  7.60000000E+01  0.00000000E+00
  7.20000000E+02  7.40000000E+01  0.00000000E+00
  7.20000000E+02  7.20000000E+01  0.00000000E+00
  7.20000000E+02  7.00000000E+01  0.00000000E+00
  7.20000000E+02  6.80000000E+01  0.00000000E+00
  7.20000000E+02  6.60000000E+01  0.00000000E+00
  7.20000000E+02  6.40000000E+01  0.00000000E+00
  7.20000000E+02  6.20000000E+01  0.00000000E+00
  7.20000000E+02  6.00000000E+01  0.00000000E+00
  7.20000000E+02  5.80000000E+01  0.00000000E+00
  7.20000000E+02  5.60000000E+01  0.00000000E+00
  7.20000000E+02  5.40000000E+01  0.00000000E+00
  7.20000000E+02  5.20000000E+01  0.00000000E+00
  7.20000000E+02  5.00000000E+01  0.00000000E+00
  7.20000000E+02  4.80000000E+01  0.00000000E+00
  7.20000000E+02  4.60000000E+01  0.00000000E+00
  7.20000000E+02  4.40000000E+01  0.00000000E+00
  7.20000000E+02  4.20000000E+01  0.00000000E+00
  7.20000000E+02  4.00000000E+01  0.00000000E+00
  7.20000000E+02  3.80000000E+01  0.00000000E+00
  7.20000000E+02  3.60000000E+01  0.00000000E+00
  7.20000000E+02  3.40000000E+01  0.00000000E+00
  7.20000000E+02  3.20000000E+01  0.00000000E+00
  7.20000000E+02  3.00000000E+01  0.00000000E+00
  7.20000000E+02  2.80000000E+01  0.00000000E+00
  7.20000000E+02  2.60000000E+01  0.00000000E+00
  7.20000000E+02  2.40000000E+01  0.00000000E+00
  7.20000000E+02  2.20000000E+01  0.00000000E+00
  7.20000000E+02  2.00000000E+01  0.00000000E+00
  7.20000000E+02  1.80000000E+01  0.00000000E+00
  7.20000000E+02  1.60000000E+01  0.00000000E+00
  7.20000000E+02  1.40000000E+01  0.00000000E+00
  7.20000000E+02  1.20000000E+01  0.00000000E+00
  7.20000000E+02  1.00000000E+01  0.00000000E+00
  7.20000000E+02  8.00000000E+00  0.00000000E+00
  7.20000000E+02  6.00000000E+00  0.00000000E+00
  7.20000000E+02  4.00000000E+00  0.00000000E+00
  7.20000000E+02  2.00000000E+00  0.00000000E+00
  7.20000000E+02 -3.33066907E-14  0.00000000E+00
  7.30000000E+02  1.00000000E+02  0.00000000E+00
  7.30000000E+02  9.80000000E+01  0.00000000E+00
  7.30000000E+02  9.60000000E+01  0.00000000E+00
  7.30000000E+02  9.40000000E+01  0.00000000E+00
  7.30000000E+02  9.20000000E+01  0.00000000E+00
  7.30000000E+02  9.00000000E+01  0.00000000E+00
  7.30000000E+02  8.80000000E+01  0.00000000E+00
  7.30000000E+02  8.60000000E+01  0.00000000E+00
  7.30000000E+02  8.40000000E+01  0.00000000E+00
  7.30000000E+02  8.20000000E+01  0.00000000E+00
  7.30000000E+02  8.00000000E+01  0.00000000E+00
  7.30000000E+02  7.80000000E+01  0.00000000E+00
  7.30000000E+02  7.60000000E+01  0.00000000E+00
  7.30000000E+02  7.40000000E+01  0.00000000E+00
  7.30000000E+02  7.20000000E+01  0.00000000E+00
  7.30000000E+02  7.00000000E+01  0.00000000E+00
  7.30000000E+02  6.80000000E+01  0.00000000E+00
  7.30000000E+02  6.60000000E+01  0.00000000E+00
  7.30000000E+02  6.40000000E+01  0.00000000E+00
  7.30000000E+02  6.20000000E+01  0.00000000E+00
  7.30000000E+02  6.00000000E+01  0.00000000E+00
  7.30000000E+02  5.80000000E+01  0.00000000E+00
  7.30000000E+02  5.60000000E+01  0.00000000E+00
  7.30000000E+02  5.40000000E+01  0.00000000E+00
  7.30000000E+02  5.20000000E+01  0.00000000E+00
  7.30000000E+02  5.00000000E+01  0.00000000E+00
  7.30000000E+02  4.80000000E+01  0.00000000E+00
  7.30000000E+02  4.60000000E+01  0.00000000E+00
  7.30000000E+02  4.40000000E+01  0.00000000E+00
  7.30000000E+02  4.20000000E+01  0.00000000E+00
  7.30000000E+02  4.00000000E+01  0.00000000E+00
  7.30000000E+02  3.80000000E+01  0.00000000E+00
  7.30000000E+02  3.60000000E+01  0.00000000E+00
  7.30000000E+02  3.40000000E+01  0.00000000E+00
  7.30000000E+02  3.20000000E+01  0.00000000E+00
  7.30000000E+02  3.00000000E+01  0.00000000E+00
  7.30000000E+02  2.80000000E+01  0.00000000E+00
  7.30000000E+02  2.60000000E+01  0.00000000E+00
  7.30000000E+02  2.40000000E+01  0.00000000E+00
  7.30000000E+02  2.20000000E+01  0.00000000E+00
  7.30000000E+02  2.00000000E+01  0.00000000E+00
  7.30000000E+02  1.80000000E+01  0.00000000E+00
  7.30000000E+02  1.60000000E+01  0.00000000E+00
  7.30000000E+02  1.40000000E+01  0.00000000E+00
  7.30000000E+02  1.20000000E+01  0.00000000E+00
  7.30000000E+02  1.00000000E+01  0.00000000E+00
  7.30000000E+02  8.00000000E+00  0.00000000E+00
  7.30000000E+02  6.00000000E+00  0.00000000E+00
  7.30000000E+02  4.00000000E+00  0.00000000E+00
  7.30000000E+02  2.00000000E+00  0.00000000E+00
  7.30000000E+02 -3.33066907E-14  0.00000000E+00
  7.40000000E+02  1.00000000E+02  0.00000000E+00
  7.40000000E+02  9.80000000E+01  0.00000000E+00
  7.40000000E+02  9.60000000E+01  0.00000000E+00
  7.40000000E+02  9.40000000E+01  0.00000000E+00
  7.40000000E+02  9.20000000E+01  0.00000000E+00
  7.40000000E+02  9.00000000E+01  0.00000000E+00
  7.40000000E+02  8.80000000E+01  0.00000000E+00
  7.40000000E+02  8.60000000E+01  0.00000000E+00
  7.40000000E+02  8.40000000E+01  0.00000000E+00
  7.40000000E+02  8.20000000E+01  0.00000000E+00
  7.40000000E+02  8.00000000E+01  0.00000000E+00
  7.40000000E+02  7.80000000E+01  0.00000000E+00
  7.40000000E+02  7.60000000E+01  0.00000000E+00
  7.40000000E+02  7.40000000E+01  0.00000000E+00
  7.40000000E+02  7.20000000E+01  0.00000000E+00
  7.40000000E+02  7.00000000E+01  0.00000000E+00
  7.40000000E+02  6.80000000E+01  0.00000000E+00
  7.40000000E+02  6.60000000E+01  0.00000000E+00
  7.40000000E+02  6.40000000E+01  0.00000000E+00
  7.40000000E+02  6.20000000E+01  0.00000000E+00
  7.40000000E+02  6.00000000E+01  0.00000000E+00
  7.40000000E+02  5.80000000E+01  0.00000000E+00
  7.40000000E+02  5.60000000E+01  0.00000000E+00
  7.40000000E+02  5.40000000E+01  0.00000000E+00
  7.40000000E+02  5.20000000E+01  0.00000000E+00
  7.40000000E+02  5.00000000E+01  0.00000000E+00
  7.40000000E+02  4.80000000E+01  0.00000000E+00
  7.40000000E+02  4.60000000E+01  0.00000000E+00
  7.40000000E+02  4.40000000E+01  0.00000000E+00
  7.40000000E+02  4.20000000E+01  0.00000000E+00
  7.40000000E+02  4.00000000E+01  0.00000000E+00
  7.40000000E+02  3.80000000E+01  0.00000000E+00
  7.40000000E+02  3.60000000E+01  0.00000000E+00
  7.40000000E+02  3.40000000E+01  0.00000000E+00
  7.40000000E+02  3.20000000E+01  0.00000000E+00
  7.40000000E+02  3.00000000E+01  0.00000000E+00
  7.40000000E+02  2.80000000E+01  0.00000000E+00
  7.40000000E+02  2.60000000E+01  0.00000000E+00
  7.40000000E+02  2.40000000E+01  0.00000000E+00
  7.40000000E+02  2.20000000E+01  0.00000000E+00
  7.40000000E+02  2.00000000E+01  0.00000000E+00
  7.40000000E+02  1.80000000E+01  0.00000000E+00
  7.40000000E+02  1.60000000E+01  0.00000000E+00
  7.40000000E+02  1.40000000E+01  0.00000000E+00
  7.40000000E+02  1.20000000E+01  0.00000000E+00
  7.40000000E+02  1.00000000E+01  0.00000000E+00
  7.40000000E+02  8.00000000E+00  0.00000000E+00
  7.40000000E+02  6.00000000E+00  0.00000000E+00
  7.40000000E+02  4.00000000E+00  0.00000000E+00
  7.40000000E+02  2.00000000E+00  0.00000000E+00
  7.40000000E+02 -3.33066907E-14  0.00000000E+00
  7.50000000E+02  1.00000000E+02  0.00000000E+00
  7.50000000E+02  9.80000000E+01  0.00000000E+00
  7.50000000E+02  9.60000000E+01  0.00000000E+00
  7.50000000E+02  9.40000000E+01  0.00000000E+00
  7.50000000E+02  9.20000000E+01  0.00000000E+00
  7.50000000E+02  9.00000000E+01  0.00000000E+00
  7.50000000E+02  8.80000000E+01  0.00000000E+00
  7.50000000E+02  8.60000000E+01  0.00000000E+00
  7.50000000E+02  8.40000000E+01  0.00000000E+00
  7.50000000E+02  8.20000000E+01  0.00000000E+00
  7.50000000E+02  8.00000000E+01  0.00000000E+00
  7.50000000E+02  7.80000000E+01  0.00000000E+00
  7.50000000E+02  7.60000000E+01  0.00000000E+00
  7.50000000E+02  7.40000000E+01  0.00000000E+00
  7.50000000E+02  7.20000000E+01  0.00000000E+00
  7.50000000E+02  7.00000000E+01  0.00000000E+00
  7.50000000E+02  6.80000000E+01  0.00000000E+00
  7.50000000E+02  6.60000000E+01  0.00000000E+00
  7.50000000E+02  6.40000000E+01  0.00000000E+00
  7.50000000E+02  6.20000000E+01  0.00000000E+00
  7.50000000E+02  6.00000000E+01  0.00000000E+00
  7.50000000E+02  5.80000000E+01  0.00000000E+00
  7.50000000E+02  5.60000000E+01  0.00000000E+00
  7.50000000E+02  5.40000000E+01  0.00000000E+00
  7.50000000E+02  5.20000000E+01  0.00000000E+00
  7.50000000E+02  5.00000000E+01  0.00000000E+00
  7.50000000E+02  4.80000000E+01  0.00000000E+00
  7.50000000E+02  4.60000000E+01  0.00000000E+00
  7.50000000E+02  4.40000000E+01  0.00000000E+00
  7.50000000E+02  4.20000000E+01  0.00000000E+00
  7.50000000E+02  4.00000000E+01  0.00000000E+00
  7.50000000E+02  3.80000000E+01  0.00000000E+00
  7.50000000E+02  3.60000000E+01  0.00000000E+00
  7.50000000E+02  3.40000000E+01  0.00000000E+00
  7.50000000E+02  3.20000000E+01  0.00000000E+00
  7.50000000E+02  3.00000000E+01  0.00000000E+00
  7.50000000E+02  2.80000000E+01  0.00000000E+00
  7.50000000E+02  2.60000000E+01  0.00000000E+00
  7.50000000E+02  2.40000000E+01  0.00000000E+00
  7.50000000E+02  2.20000000E+01  0.00000000E+00
  7.50000000E+02  2.00000000E+01  0.00000000E+00
  7.50000000E+02  1.80000000E+01  0.00000000E+00
  7.50000000E+02  1.60000000E+01  0.00000000E+00
  7.50000000E+02  1.40000000E+01  0.00000000E+00
  7.50000000E+02  1.20000000E+01  0.00000000E+00
  7.50000000E+02  1.00000000E+01  0.00000000E+00
  7.50000000E+02  8.00000000E+00  0.00000000E+00
  7.50000000E+02  6.00000000E+00  0.00000000E+00
  7.50000000E+02  4.00000000E+00  0.00000000E+00
  7.50000000E+02  2.00000000E+00  0.00000000E+00
  7.50000000E+02 -3.33066907E-14  0.00000000E+00
  7.60000000E+02  1.00000000E+02  0.00000000E+00
  7.60000000E+02  9.80000000E+01  0.00000000E+00
  7.60000000E+02  9.60000000E+01  0.00000000E+00
  7.60000000E+02  9.40000000E+01  0.00000000E+00
  7.60000000E+02  9.20000000E+01  0.00000000E+00
  7.60000000E+02  9.00000000E+01  0.00000000E+00
  7.60000000E+02  8.80000000E+01  0.00000000E+00
  7.60000000E+02  8.60000000E+01  0.00000000E+00
  7.60000000E+02  8.40000000E+01  0.00000000E+00
  7.60000000E+02  8.20000000E+01  0.00000000E+00
  7.60000000E+02  8.00000000E+01  0.00000000E+00
  7.60000000E+02  7.80000000E+01  0.00000000E+00
  7.60000000E+02  7.60000000E+01  0.00000000E+00
  7.60000000E+02  7.40000000E+01  0.00000000E+00
  7.60000000E+02  7.20000000E+01  0.00000000E+00
  7.60000000E+02  7.00000000E+01  0.00000000E+00
  7.60000000E+02  6.80000000E+01  0.00000000E+00
  7.60000000E+02  6.60000000E+01  0.00000000E+00
  7.60000000E+02  6.40000000E+01  0.00000000E+00
  7.60000000E+02  6.20000000E+01  0.00000000E+00
  7.60000000E+02  6.00000000E+01  0.00000000E+00
  7.60000000E+02  5.80000000E+01  0.00000000E+00
  7.60000000E+02  5.60000000E+01  0.00000000E+00
  7.60000000E+02  5.40000000E+01  0.00000000E+00
  7.60000000E+02  5.20000000E+01  0.00000000E+00
  7.60000000E+02  5.00000000E+01  0.00000000E+00
  7.60000000E+02  4.80000000E+01  0.00000000E+00
  7.60000000E+02  4.60000000E+01  0.00000000E+00
  7.60000000E+02  4.40000000E+01  0.00000000E+00
  7.60000000E+02  4.20000000E+01  0.00000000E+00
  7.60000000E+02  4.00000000E+01  0.00000000E+00
  7.60000000E+02  3.80000000E+01  0.00000000E+00
  7.60000000E+02  3.60000000E+01  0.00000000E+00
  7.60000000E+02  3.40000000E+01  0.00000000E+00
  7.60000000E+02  3.20000000E+01  0.00000000E+00
  7.60000000E+02  3.00000000E+01  0.00000000E+00
  7.60000000E+02  2.80000000E+01  0.00000000E+00
  7.60000000E+02  2.60000000E+01  0.00000000E+00
  7.60000000E+02  2.40000000E+01  0.00000000E+00
  7.60000000E+02  2.20000000E+01  0.00000000E+00
  7.60000000E+02  2.00000000E+01  0.00000000E+00
  7.60000000E+02  1.80000000E+01  0.00000000E+00
  7.60000000E+02  1.60000000E+01  0.00000000E+00
  7.60000000E+02  1.40000000E+01  0.00000000E+00
  7.60000000E+02  1.20000000E+01  0.00000000E+00
  7.60000000E+02  1.00000000E+01  0.00000000E+00
  7.60000000E+02  8.00000000E+00  0.00000000E+00
  7.60000000E+02  6.00000000E+00  0.00000000E+00
  7.60000000E+02  4.00000000E+00  0.00000000E+00
  7.60000000E+02  2.00000000E+00  0.00000000E+00
  7.60000000E+02 -3.33066907E-14  0.00000000E+00
  7.70000000E+02  1.00000000E+02  0.00000000E+00
  7.70000000E+02  9.80000000E+01  0.00000000E+00
  7.70000000E+02  9.60000000E+01  0.00000000E+00
  7.70000000E+02  9.40000000E+01  0.00000000E+00
  7.70000000E+02  9.20000000E+01  0.00000000E+00
  7.70000000E+02  9.00000000E+01  0.00000000E+00
  7.70000000E+02  8.80000000E+01  0.00000000E+00
  7.70000000E+02  8.60000000E+01  0.00000000E+00
  7.70000000E+02  8.40000000E+01  0.00000000E+00
  7.70000000E+02  8.20000000E+01  0.00000000E+00
  7.70000000E+02  8.00000000E+01  0.00000000E+00
  7.70000000E+02  7.80000000E+01  0.00000000E+00
  7.70000000E+02  7.60000000E+01  0.00000000E+00
  7.70000000E+02  7.40000000E+01  0.00000000E+00
  7.70000000E+02  7.20000000E+01  0.00000000E+00
  7.70000000E+02  7.00000000E+01  0.00000000E+00
  7.70000000E+02  6.80000000E+01  0.00000000E+00
  7.70000000E+02  6.60000000E+01  0.00000000E+00
  7.70000000E+02  6.40000000E+01  0.00000000E+00
  7.70000000E+02  6.20000000E+01  0.00000000E+00
  7.70000000E+02  6.00000000E+01  0.00000000E+00
  7.70000000E+02  5.80000000E+01  0.00000000E+00
  7.70000000E+02  5.60000000E+01  0.00000000E+00
  7.70000000E+02  5.40000000E+01  0.00000000E+00
  7.70000000E+02  5.20000000E+01  0.00000000E+00
  7.70000000E+02  5.00000000E+01  0.00000000E+00
  7.70000000E+02  4.80000000E+01  0.00000000E+00
  7.70000000E+02  4.60000000E+01  0.00000000E+00
  7.70000000E+02  4.40000000E+01  0.00000000E+00
  7.70000000E+02  4.20000000E+01  0.00000000E+00
  7.70000000E+02  4.00000000E+01  0.00000000E+00
  7.70000000E+02  3.80000000E+01  0.00000000E+00
  7.70000000E+02  3.60000000E+01  0.00000000E+00
  7.70000000E+02  3.40000000E+01  0.00000000E+00
  7.70000000E+02  3.20000000E+01  0.00000000E+00
  7.70000000E+02  3.00000000E+01  0.00000000E+00
  7.70000000E+02  2.80000000E+01  0.00000000E+00
  7.70000000E+02  2.60000000E+01  0.00000000E+00
  7.70000000E+02  2.40000000E+01  0.00000000E+00
  7.70000000E+02  2.20000000E+01  0.00000000E+00
  7.70000000E+02  2.00000000E+01  0.00000000E+00
  7.70000000E+02  1.80000000E+01  0.00000000E+00
  7.70000000E+02  1.60000000E+01  0.00000000E+00
  7.70000000E+02  1.40000000E+01  0.00000000E+00
  7.70000000E+02  1.20000000E+01  0.00000000E+00
  7.70000000E+02  1.00000000E+01  0.00000000E+00
  7.70000000E+02  8.00000000E+00  0.00000000E+00
  7.70000000E+02  6.00000000E+00  0.00000000E+00
  7.70000000E+02  4.00000000E+00  0.00000000E+00
  7.70000000E+02  2.00000000E+00  0.00000000E+00
  7.70000000E+02 -3.33066907E-14  0.00000000E+00
  7.80000000E+02  1.00000000E+02  0.00000000E+00
  7.80000000E+02  9.80000000E+01  0.00000000E+00
  7.80000000E+02  9.60000000E+01  0.00000000E+00
  7.80000000E+02  9.40000000E+01  0.00000000E+00
  7.80000000E+02  9.20000000E+01  0.00000000E+00
  7.80000000E+02  9.00000000E+01  0.00000000E+00
  7.80000000E+02  8.80000000E+01  0.00000000E+00
  7.80000000E+02  8.60000000E+01  0.00000000E+00
  7.80000000E+02  8.40000000E+01  0.00000000E+00
  7.80000000E+02  8.20000000E+01  0.00000000E+00
  7.80000000E+02  8.00000000E+01  0.00000000E+00
  7.80000000E+02  7.80000000E+01  0.00000000E+00
  7.80000000E+02  7.60000000E+01  0.00000000E+00
  7.80000000E+02  7.40000000E+01  0.00000000E+00
  7.80000000E+02  7.20000000E+01  0.00000000E+00
  7.80000000E+02  7.00000000E+01  0.00000000E+00
  7.80000000E+02  6.80000000E+01  0.00000000E+00
  7.80000000E+02  6.60000000E+01  0.00000000E+00
  7.80000000E+02  6.40000000E+01  0.00000000E+00
  7.80000000E+02  6.20000000E+01  0.00000000E+00
  7.80000000E+02  6.00000000E+01  0.00000000E+00
  7.80000000E+02  5.80000000E+01  0.00000000E+00
  7.80000000E+02  5.60000000E+01  0.00000000E+00
  7.80000000E+02  5.40000000E+01  0.00000000E+00
  7.80000000E+02  5.20000000E+01  0.00000000E+00
  7.80000000E+02  5.00000000E+01  0.00000000E+00
  7.80000000E+02  4.80000000E+01  0.00000000E+00
  7.80000000E+02  4.60000000E+01  0.00000000E+00
  7.80000000E+02  4.40000000E+01  0.00000000E+00
  7.80000000E+02  4.20000000E+01  0.00000000E+00
  7.80000000E+02  4.00000000E+01  0.00000000E+00
  7.80000000E+02  3.80000000E+01  0.00000000E+00
  7.80000000E+02  3.60000000E+01  0.00000000E+00
  7.80000000E+02  3.40000000E+01  0.00000000E+00
  7.80000000E+02  3.20000000E+01  0.00000000E+00
  7.80000000E+02  3.00000000E+01  0.00000000E+00
  7.80000000E+02  2.80000000E+01  0.00000000E+00
  7.80000000E+02  2.60000000E+01  0.00000000E+00
  7.80000000E+02  2.40000000E+01  0.00000000E+00
  7.80000000E+02  2.20000000E+01  0.00000000E+00
  7.80000000E+02  2.00000000E+01  0.00000000E+00
  7.80000000E+02  1.80000000E+01  0.00000000E+00
  7.80000000E+02  1.60000000E+01  0.00000000E+00
  7.80000000E+02  1.40000000E+01  0.00000000E+00
  7.80000000E+02  1.20000000E+01  0.00000000E+00
  7.80000000E+02  1.00000000E+01  0.00000000E+00
  7.80000000E+02  8.00000000E+00  0.00000000E+00
  7.80000000E+02  6.00000000E+00  0.00000000E+00
  7.80000000E+02  4.00000000E+00  0.00000000E+00
  7.80000000E+02  2.00000000E+00  0.00000000E+00
  7.80000000E+02 -3.33066907E-14  0.00000000E+00
  7.90000000E+02  1.00000000E+02  0.00000000E+00
  7.90000000E+02  9.80000000E+01  0.00000000E+00
  7.90000000E+02  9.60000000E+01  0.00000000E+00
  7.90000000E+02  9.40000000E+01  0.00000000E+00
  7.90000000E+02  9.20000000E+01  0.00000000E+00
  7.90000000E+02  9.00000000E+01  0.00000000E+00
  7.90000000E+02  8.80000000E+01  0.00000000E+00
  7.90000000E+02  8.60000000E+01  0.00000000E+00
  7.90000000E+02  8.40000000E+01  0.00000000E+00
  7.90000000E+02  8.20000000E+01  0.00000000E+00
  7.90000000E+02  8.00000000E+01  0.00000000E+00
  7.90000000E+02  7.80000000E+01  0.00000000E+00
  7.90000000E+02  7.60000000E+01  0.00000000E+00
  7.90000000E+02  7.40000000E+01  0.00000000E+00
  7.90000000E+02  7.20000000E+01  0.00000000E+00
  7.90000000E+02  7.00000000E+01  0.00000000E+00
  7.90000000E+02  6.80000000E+01  0.00000000E+00
  7.90000000E+02  6.60000000E+01  0.00000000E+00
  7.90000000E+02  6.40000000E+01  0.00000000E+00
  7.90000000E+02  6.20000000E+01  0.00000000E+00
  7.90000000E+02  6.00000000E+01  0.00000000E+00
  7.90000000E+02  5.80000000E+01  0.00000000E+00
  7.90000000E+02  5.60000000E+01  0.00000000E+00
  7.90000000E+02  5.40000000E+01  0.00000000E+00
  7.90000000E+02  5.20000000E+01  0.00000000E+00
  7.90000000E+02  5.00000000E+01  0.00000000E+00
  7.90000000E+02  4.80000000E+01  0.00000000E+00
  7.90000000E+02  4.60000000E+01  0.00000000E+00
  7.90000000E+02  4.40000000E+01  0.00000000E+00
  7.90000000E+02  4.20000000E+01  0.00000000E+00
  7.90000000E+02  4.00000000E+01  0.00000000E+00
  7.90000000E+02  3.80000000E+01  0.00000000E+00
  7.90000000E+02  3.60000000E+01  0.00000000E+00
  7.90000000E+02  3.40000000E+01  0.00000000E+00
  7.90000000E+02  3.20000000E+01  0.00000000E+00
  7.90000000E+02  3.00000000E+01  0.00000000E+00
  7.90000000E+02  2.80000000E+01  0.00000000E+00
  7.90000000E+02  2.60000000E+01  0.00000000E+00
  7.90000000E+02  2.40000000E+01  0.00000000E+00
  7.90000000E+02  2.20000000E+01  0.00000000E+00
  7.90000000E+02  2.00000000E+01  0.00000000E+00
  7.90000000E+02  1.80000000E+01  0.00000000E+00
  7.90000000E+02  1.60000000E+01  0.00000000E+00
  7.90000000E+02  1.40000000E+01  0.00000000E+00
  7.90000000E+02  1.20000000E+01  0.00000000E+00
  7.90000000E+02  1.00000000E+01  0.00000000E+00
  7.90000000E+02  8.00000000E+00  0.00000000E+00
  7.90000000E+02  6.00000000E+00  0.00000000E+00
  7.90000000E+02  4.00000000E+00  0.00000000E+00
  7.90000000E+02  2.00000000E+00  0.00000000E+00
  7.90000000E+02 -3.33066907E-14  0.00000000E+00
  8.00000000E+02  1.00000000E+02  0.00000000E+00
  8.00000000E+02  9.80000000E+01  0.00000000E+00
  8.00000000E+02  9.60000000E+01  0.00000000E+00
  8.00000000E+02  9.40000000E+01  0.00000000E+00
  8.00000000E+02  9.20000000E+01  0.00000000E+00
  8.00000000E+02  9.00000000E+01  0.00000000E+00
  8.00000000E+02  8.80000000E+01  0.00000000E+00
  8.00000000E+02  8.60000000E+01  0.00000000E+00
  8.00000000E+02  8.40000000E+01  0.00000000E+00
  8.00000000E+02  8.20000000E+01  0.00000000E+00
  8.00000000E+02  8.00000000E+01  0.00000000E+00
  8.00000000E+02  7.80000000E+01  0.00000000E+00
  8.00000000E+02  7.60000000E+01  0.00000000E+00
  8.00000000E+02  7.40000000E+01  0.00000000E+00
  8.00000000E+02  7.20000000E+01  0.00000000E+00
  8.00000000E+02  7.00000000E+01  0.00000000E+00
  8.00000000E+02  6.80000000E+01  0.00000000E+00
  8.00000000E+02  6.60000000E+01  0.00000000E+00
  8.00000000E+02  6.40000000E+01  0.00000000E+00
  8.00000000E+02  6.20000000E+01  0.00000000E+00
  8.00000000E+02  6.00000000E+01  0.00000000E+00
  8.00000000E+02  5.80000000E+01  0.00000000E+00
  8.00000000E+02  5.60000000E+01  0.00000000E+00
  8.00000000E+02  5.40000000E+01  0.00000000E+00
  8.00000000E+02  5.20000000E+01  0.00000000E+00
  8.00000000E+02  5.00000000E+01  0.00000000E+00
  8.00000000E+02  4.80000000E+01  0.00000000E+00
  8.00000000E+02  4.60000000E+01  0.00000000E+00
  8.00000000E+02  4.40000000E+01  0.00000000E+00
  8.00000000E+02  4.20000000E+01  0.00000000E+00
  8.00000000E+02  4.00000000E+01  0.00000000E+00
  8.00000000E+02  3.80000000E+01  0.00000000E+00
  8.00000000E+02  3.60000000E+01  0.00000000E+00
  8.00000000E+02  3.40000000E+01  0.00000000E+00
  8.00000000E+02  3.20000000E+01  0.00000000E+00
  8.00000000E+02  3.00000000E+01  0.00000000E+00
  8.00000000E+02  2.80000000E+01  0.00000000E+00
  8.00000000E+02  2.60000000E+01  0.00000000E+00
  8.00000000E+02  2.40000000E+01  0.00000000E+00
  8.00000000E+02  2.20000000E+01  0.00000000E+00
  8.00000000E+02  2.00000000E+01  0.00000000E+00
  8.00000000E+02  1.80000000E+01  0.00000000E+00
  8.00000000E+02  1.60000000E+01  0.00000000E+00
  8.00000000E+02  1.40000000E+01  0.00000000E+00
  8.00000000E+02  1.20000000E+01  0.00000000E+00
  8.00000000E+02  1.00000000E+01  0.00000000E+00
  8.00000000E+02  8.00000000E+00  0.00000000E+00
  8.00000000E+02  6.00000000E+00  0.00000000E+00
  8.00000000E+02  4.00000000E+00  0.00000000E+00
  8.00000000E+02  2.00000000E+00  0.00000000E+00
  8.00000000E+02 -3.33066907E-14  0.00000000E+00
  8.10000000E+02  1.00000000E+02  0.00000000E+00
  8.10000000E+02  9.80000000E+01  0.00000000E+00
  8.10000000E+02  9.60000000E+01  0.00000000E+00
  8.10000000E+02  9.40000000E+01  0.00000000E+00
  8.10000000E+02  9.20000000E+01  0.00000000E+00
  8.10000000E+02  9.00000000E+01  0.00000000E+00
  8.10000000E+02  8.80000000E+01  0.00000000E+00
  8.10000000E+02  8.60000000E+01  0.00000000E+00
  8.10000000E+02  8.40000000E+01  0.00000000E+00
  8.10000000E+02  8.20000000E+01  0.00000000E+00
  8.10000000E+02  8.00000000E+01  0.00000000E+00
  8.10000000E+02  7.80000000E+01  0.00000000E+00
  8.10000000E+02  7.60000000E+01  0.00000000E+00
  8.10000000E+02  7.40000000E+01  0.00000000E+00
  8.10000000E+02  7.20000000E+01  0.00000000E+00
  8.10000000E+02  7.00000000E+01  0.00000000E+00
  8.10000000E+02  6.80000000E+01  0.00000000E+00
  8.10000000E+02  6.60000000E+01  0.00000000E+00
  8.10000000E+02  6.40000000E+01  0.00000000E+00
  8.10000000E+02  6.20000000E+01  0.00000000E+00
  8.10000000E+02  6.00000000E+01  0.00000000E+00
  8.10000000E+02  5.80000000E+01  0.00000000E+00
  8.10000000E+02  5.60000000E+01  0.00000000E+00
  8.10000000E+02  5.40000000E+01  0.00000000E+00
  8.10000000E+02  5.20000000E+01  0.00000000E+00
  8.10000000E+02  5.00000000E+01  0.00000000E+00
  8.10000000E+02  4.80000000E+01  0.00000000E+00
  8.10000000E+02  4.60000000E+01  0.00000000E+00
  8.10000000E+02  4.40000000E+01  0.00000000E+00
  8.10000000E+02  4.20000000E+01  0.00000000E+00
  8.10000000E+02  4.00000000E+01  0.00000000E+00
  8.10000000E+02  3.80000000E+01  0.00000000E+00
  8.10000000E+02  3.60000000E+01  0.00000000E+00
  8.10000000E+02  3.40000000E+01  0.00000000E+00
  8.10000000E+02  3.20000000E+01  0.00000000E+00
  8.10000000E+02  3.00000000E+01  0.00000000E+00
  8.10000000E+02  2.80000000E+01  0.00000000E+00
  8.10000000E+02  2.60000000E+01  0.00000000E+00
  8.10000000E+02  2.40000000E+01  0.00000000E+00
  8.10000000E+02  2.20000000E+01  0.00000000E+00
  8.10000000E+02  2.00000000E+01  0.00000000E+00
  8.10000000E+02  1.80000000E+01  0.00000000E+00
  8.10000000E+02  1.60000000E+01  0.00000000E+00
  8.10000000E+02  1.40000000E+01  0.00000000E+00
  8.10000000E+02  1.20000000E+01  0.00000000E+00
  8.10000000E+02  1.00000000E+01  0.00000000E+00
  8.10000000E+02  8.00000000E+00  0.00000000E+00
  8.10000000E+02  6.00000000E+00  0.00000000E+00
  8.10000000E+02  4.00000000E+00  0.00000000E+00
  8.10000000E+02  2.00000000E+00  0.00000000E+00
  8.10000000E+02 -3.33066907E-14  0.00000000E+00
  8.20000000E+02  1.00000000E+02  0.00000000E+00
  8.20000000E+02  9.80000000E+01  0.00000000E+00
  8.20000000E+02  9.60000000E+01  0.00000000E+00
  8.20000000E+02  9.40000000E+01  0.00000000E+00
  8.20000000E+02  9.20000000E+01  0.00000000E+00
  8.20000000E+02  9.00000000E+01  0.00000000E+00
  8.20000000E+02  8.80000000E+01  0.00000000E+00
  8.20000000E+02  8.60000000E+01  0.00000000E+00
  8.20000000E+02  8.40000000E+01  0.00000000E+00
  8.20000000E+02  8.20000000E+01  0.00000000E+00
  8.20000000E+02  8.00000000E+01  0.00000000E+00
  8.20000000E+02  7.80000000E+01  0.00000000E+00
  8.20000000E+02  7.60000000E+01  0.00000000E+00
  8.20000000E+02  7.40000000E+01  0.00000000E+00
  8.20000000E+02  7.20000000E+01  0.00000000E+00
  8.20000000E+02  7.00000000E+01  0.00000000E+00
  8.20000000E+02  6.80000000E+01  0.00000000E+00
  8.20000000E+02  6.60000000E+01  0.00000000E+00
  8.20000000E+02  6.40000000E+01  0.00000000E+00
  8.20000000E+02  6.20000000E+01  0.00000000E+00
  8.20000000E+02  6.00000000E+01  0.00000000E+00
  8.20000000E+02  5.80000000E+01  0.00000000E+00
  8.20000000E+02  5.60000000E+01  0.00000000E+00
  8.20000000E+02  5.40000000E+01  0.00000000E+00
  8.20000000E+02  5.20000000E+01  0.00000000E+00
  8.20000000E+02  5.00000000E+01  0.00000000E+00
  8.20000000E+02  4.80000000E+01  0.00000000E+00
  8.20000000E+02  4.60000000E+01  0.00000000E+00
  8.20000000E+02  4.40000000E+01  0.00000000E+00
  8.20000000E+02  4.20000000E+01  0.00000000E+00
  8.20000000E+02  4.00000000E+01  0.00000000E+00
  8.20000000E+02  3.80000000E+01  0.00000000E+00
  8.20000000E+02  3.60000000E+01  0.00000000E+00
  8.20000000E+02  3.40000000E+01  0.00000000E+00
  8.20000000E+02  3.20000000E+01  0.00000000E+00
  8.20000000E+02  3.00000000E+01  0.00000000E+00
  8.20000000E+02  2.80000000E+01  0.00000000E+00
  8.20000000E+02  2.60000000E+01  0.00000000E+00
  8.20000000E+02  2.40000000E+01  0.00000000E+00
  8.20000000E+02  2.20000000E+01  0.00000000E+00
  8.20000000E+02  2.00000000E+01  0.00000000E+00
  8.20000000E+02  1.80000000E+01  0.00000000E+00
  8.20000000E+02  1.60000000E+01  0.00000000E+00
  8.20000000E+02  1.40000000E+01  0.00000000E+00
  8.20000000E+02  1.20000000E+01  0.00000000E+00
  8.20000000E+02  1.00000000E+01  0.00000000E+00
  8.20000000E+02  8.00000000E+00  0.00000000E+00
  8.20000000E+02  6.00000000E+00  0.00000000E+00
  8.20000000E+02  4.00000000E+00  0.00000000E+00
  8.20000000E+02  2.00000000E+00  0.00000000E+00
  8.20000000E+02 -3.33066907E-14  0.00000000E+00
  8.30000000E+02  1.00000000E+02  0.00000000E+00
  8.30000000E+02  9.80000000E+01  0.00000000E+00
  8.30000000E+02  9.60000000E+01  0.00000000E+00
  8.30000000E+02  9.40000000E+01  0.00000000E+00
  8.30000000E+02  9.20000000E+01  0.00000000E+00
  8.30000000E+02  9.00000000E+01  0.00000000E+00
  8.30000000E+02  8.80000000E+01  0.00000000E+00
  8.30000000E+02  8.60000000E+01  0.00000000E+00
  8.30000000E+02  8.40000000E+01  0.00000000E+00
  8.30000000E+02  8.20000000E+01  0.00000000E+00
  8.30000000E+02  8.00000000E+01  0.00000000E+00
  8.30000000E+02  7.80000000E+01  0.00000000E+00
  8.30000000E+02  7.60000000E+01  0.00000000E+00
  8.30000000E+02  7.40000000E+01  0.00000000E+00
  8.30000000E+02  7.20000000E+01  0.00000000E+00
  8.30000000E+02  7.00000000E+01  0.00000000E+00
  8.30000000E+02  6.80000000E+01  0.00000000E+00
  8.30000000E+02  6.60000000E+01  0.00000000E+00
  8.30000000E+02  6.40000000E+01  0.00000000E+00
  8.30000000E+02  6.20000000E+01  0.00000000E+00
  8.30000000E+02  6.00000000E+01  0.00000000E+00
  8.30000000E+02  5.80000000E+01  0.00000000E+00
  8.30000000E+02  5.60000000E+01  0.00000000E+00
  8.30000000E+02  5.40000000E+01  0.00000000E+00
  8.30000000E+02  5.20000000E+01  0.00000000E+00
  8.30000000E+02  5.00000000E+01  0.00000000E+00
  8.30000000E+02  4.80000000E+01  0.00000000E+00
  8.30000000E+02  4.60000000E+01  0.00000000E+00
  8.30000000E+02  4.40000000E+01  0.00000000E+00
  8.30000000E+02  4.20000000E+01  0.00000000E+00
  8.30000000E+02  4.00000000E+01  0.00000000E+00
  8.30000000E+02  3.80000000E+01  0.00000000E+00
  8.30000000E+02  3.60000000E+01  0.00000000E+00
  8.30000000E+02  3.40000000E+01  0.00000000E+00
  8.30000000E+02  3.20000000E+01  0.00000000E+00
  8.30000000E+02  3.00000000E+01  0.00000000E+00
  8.30000000E+02  2.80000000E+01  0.00000000E+00
  8.30000000E+02  2.60000000E+01  0.00000000E+00
  8.30000000E+02  2.40000000E+01  0.00000000E+00
  8.30000000E+02  2.20000000E+01  0.00000000E+00
  8.30000000E+02  2.00000000E+01  0.00000000E+00
  8.30000000E+02  1.80000000E+01  0.00000000E+00
  8.30000000E+02  1.60000000E+01  0.00000000E+00
  8.30000000E+02  1.40000000E+01  0.00000000E+00
  8.30000000E+02  1.20000000E+01  0.00000000E+00
  8.30000000E+02  1.00000000E+01  0.00000000E+00
  8.30000000E+02  8.00000000E+00  0.00000000E+00
  8.30000000E+02  6.00000000E+00  0.00000000E+00
  8.30000000E+02  4.00000000E+00  0.00000000E+00
  8.30000000E+02  2.00000000E+00  0.00000000E+00
  8.30000000E+02 -3.33066907E-14  0.00000000E+00
  8.40000000E+02  1.00000000E+02  0.00000000E+00
  8.40000000E+02  9.80000000E+01  0.00000000E+00
  8.40000000E+02  9.60000000E+01  0.00000000E+00
  8.40000000E+02  9.40000000E+01  0.00000000E+00
  8.40000000E+02  9.20000000E+01  0.00000000E+00
  8.40000000E+02  9.00000000E+01  0.00000000E+00
  8.40000000E+02  8.80000000E+01  0.00000000E+00
  8.40000000E+02  8.60000000E+01  0.00000000E+00
  8.40000000E+02  8.40000000E+01  0.00000000E+00
  8.40000000E+02  8.20000000E+01  0.00000000E+00
  8.40000000E+02  8.00000000E+01  0.00000000E+00
  8.40000000E+02  7.80000000E+01  0.00000000E+00
  8.40000000E+02  7.60000000E+01  0.00000000E+00
  8.40000000E+02  7.40000000E+01  0.00000000E+00
  8.40000000E+02  7.20000000E+01  0.00000000E+00
  8.40000000E+02  7.00000000E+01  0.00000000E+00
  8.40000000E+02  6.80000000E+01  0.00000000E+00
  8.40000000E+02  6.60000000E+01  0.00000000E+00
  8.40000000E+02  6.40000000E+01  0.00000000E+00
  8.40000000E+02  6.20000000E+01  0.00000000E+00
  8.40000000E+02  6.00000000E+01  0.00000000E+00
  8.40000000E+02  5.80000000E+01  0.00000000E+00
  8.40000000E+02  5.60000000E+01  0.00000000E+00
  8.40000000E+02  5.40000000E+01  0.00000000E+00
  8.40000000E+02  5.20000000E+01  0.00000000E+00
  8.40000000E+02  5.00000000E+01  0.00000000E+00
  8.40000000E+02  4.80000000E+01  0.00000000E+00
  8.40000000E+02  4.60000000E+01  0.00000000E+00
  8.40000000E+02  4.40000000E+01  0.00000000E+00
  8.40000000E+02  4.20000000E+01  0.00000000E+00
  8.40000000E+02  4.00000000E+01  0.00000000E+00
  8.40000000E+02  3.80000000E+01  0.00000000E+00
  8.40000000E+02  3.60000000E+01  0.00000000E+00
  8.40000000E+02  3.40000000E+01  0.00000000E+00
  8.40000000E+02  3.20000000E+01  0.00000000E+00
  8.40000000E+02  3.00000000E+01  0.00000000E+00
  8.40000000E+02  2.80000000E+01  0.00000000E+00
  8.40000000E+02  2.60000000E+01  0.00000000E+00
  8.40000000E+02  2.40000000E+01  0.00000000E+00
  8.40000000E+02  2.20000000E+01  0.00000000E+00
  8.40000000E+02  2.00000000E+01  0.00000000E+00
  8.40000000E+02  1.80000000E+01  0.00000000E+00
  8.40000000E+02  1.60000000E+01  0.00000000E+00
  8.40000000E+02  1.40000000E+01  0.00000000E+00
  8.40000000E+02  1.20000000E+01  0.00000000E+00
  8.40000000E+02  1.00000000E+01  0.00000000E+00
  8.40000000E+02  8.00000000E+00  0.00000000E+00
  8.40000000E+02  6.00000000E+00  0.00000000E+00
  8.40000000E+02  4.00000000E+00  0.00000000E+00
  8.40000000E+02  2.00000000E+00  0.00000000E+00
  8.40000000E+02 -3.33066907E-14  0.00000000E+00
  8.50000000E+02  1.00000000E+02  0.00000000E+00
  8.50000000E+02  9.80000000E+01  0.00000000E+00
  8.50000000E+02  9.60000000E+01  0.00000000E+00
  8.50000000E+02  9.40000000E+01  0.00000000E+00
  8.50000000E+02  9.20000000E+01  0.00000000E+00
  8.50000000E+02  9.00000000E+01  0.00000000E+00
  8.50000000E+02  8.80000000E+01  0.00000000E+00
  8.50000000E+02  8.60000000E+01  0.00000000E+00
  8.50000000E+02  8.40000000E+01  0.00000000E+00
  8.50000000E+02  8.20000000E+01  0.00000000E+00
  8.50000000E+02  8.00000000E+01  0.00000000E+00
  8.50000000E+02  7.80000000E+01  0.00000000E+00
  8.50000000E+02  7.60000000E+01  0.00000000E+00
  8.50000000E+02  7.40000000E+01  0.00000000E+00
  8.50000000E+02  7.20000000E+01  0.00000000E+00
  8.50000000E+02  7.00000000E+01  0.00000000E+00
  8.50000000E+02  6.80000000E+01  0.00000000E+00
  8.50000000E+02  6.60000000E+01  0.00000000E+00
  8.50000000E+02  6.40000000E+01  0.00000000E+00
  8.50000000E+02  6.20000000E+01  0.00000000E+00
  8.50000000E+02  6.00000000E+01  0.00000000E+00
  8.50000000E+02  5.80000000E+01  0.00000000E+00
  8.50000000E+02  5.60000000E+01  0.00000000E+00
  8.50000000E+02  5.40000000E+01  0.00000000E+00
  8.50000000E+02  5.20000000E+01  0.00000000E+00
  8.50000000E+02  5.00000000E+01  0.00000000E+00
  8.50000000E+02  4.80000000E+01  0.00000000E+00
  8.50000000E+02  4.60000000E+01  0.00000000E+00
  8.50000000E+02  4.40000000E+01  0.00000000E+00
  8.50000000E+02  4.20000000E+01  0.00000000E+00
  8.50000000E+02  4.00000000E+01  0.00000000E+00
  8.50000000E+02  3.80000000E+01  0.00000000E+00
  8.50000000E+02  3.60000000E+01  0.00000000E+00
  8.50000000E+02  3.40000000E+01  0.00000000E+00
  8.50000000E+02  3.20000000E+01  0.00000000E+00
  8.50000000E+02  3.00000000E+01  0.00000000E+00
  8.50000000E+02  2.80000000E+01  0.00000000E+00
  8.50000000E+02  2.60000000E+01  0.00000000E+00
  8.50000000E+02  2.40000000E+01  0.00000000E+00
  8.50000000E+02  2.20000000E+01  0.00000000E+00
  8.50000000E+02  2.00000000E+01  0.00000000E+00
  8.50000000E+02  1.80000000E+01  0.00000000E+00
  8.50000000E+02  1.60000000E+01  0.00000000E+00
  8.50000000E+02  1.40000000E+01  0.00000000E+00
  8.50000000E+02  1.20000000E+01  0.00000000E+00
  8.50000000E+02  1.00000000E+01  0.00000000E+00
  8.50000000E+02  8.00000000E+00  0.00000000E+00
  8.50000000E+02  6.00000000E+00  0.00000000E+00
  8.50000000E+02  4.00000000E+00  0.00000000E+00
  8.50000000E+02  2.00000000E+00  0.00000000E+00
  8.50000000E+02 -3.33066907E-14  0.00000000E+00
  8.60000000E+02  1.00000000E+02  0.00000000E+00
  8.60000000E+02  9.80000000E+01  0.00000000E+00
  8.60000000E+02  9.60000000E+01  0.00000000E+00
  8.60000000E+02  9.40000000E+01  0.00000000E+00
  8.60000000E+02  9.20000000E+01  0.00000000E+00
  8.60000000E+02  9.00000000E+01  0.00000000E+00
  8.60000000E+02  8.80000000E+01  0.00000000E+00
  8.60000000E+02  8.60000000E+01  0.00000000E+00
  8.60000000E+02  8.40000000E+01  0.00000000E+00
  8.60000000E+02  8.20000000E+01  0.00000000E+00
  8.60000000E+02  8.00000000E+01  0.00000000E+00
  8.60000000E+02  7.80000000E+01  0.00000000E+00
  8.60000000E+02  7.60000000E+01  0.00000000E+00
  8.60000000E+02  7.40000000E+01  0.00000000E+00
  8.60000000E+02  7.20000000E+01  0.00000000E+00
  8.60000000E+02  7.00000000E+01  0.00000000E+00
  8.60000000E+02  6.80000000E+01  0.00000000E+00
  8.60000000E+02  6.60000000E+01  0.00000000E+00
  8.60000000E+02  6.40000000E+01  0.00000000E+00
  8.60000000E+02  6.20000000E+01  0.00000000E+00
  8.60000000E+02  6.00000000E+01  0.00000000E+00
  8.60000000E+02  5.80000000E+01  0.00000000E+00
  8.60000000E+02  5.60000000E+01  0.00000000E+00
  8.60000000E+02  5.40000000E+01  0.00000000E+00
  8.60000000E+02  5.20000000E+01  0.00000000E+00
  8.60000000E+02  5.00000000E+01  0.00000000E+00
  8.60000000E+02  4.80000000E+01  0.00000000E+00
  8.60000000E+02  4.60000000E+01  0.00000000E+00
  8.60000000E+02  4.40000000E+01  0.00000000E+00
  8.60000000E+02  4.20000000E+01  0.00000000E+00
  8.60000000E+02  4.00000000E+01  0.00000000E+00
  8.60000000E+02  3.80000000E+01  0.00000000E+00
  8.60000000E+02  3.60000000E+01  0.00000000E+00
  8.60000000E+02  3.40000000E+01  0.00000000E+00
  8.60000000E+02  3.20000000E+01  0.00000000E+00
  8.60000000E+02  3.00000000E+01  0.00000000E+00
  8.60000000E+02  2.80000000E+01  0.00000000E+00
  8.60000000E+02  2.60000000E+01  0.00000000E+00
  8.60000000E+02  2.40000000E+01  0.00000000E+00
  8.60000000E+02  2.20000000E+01  0.00000000E+00
  8.60000000E+02  2.00000000E+01  0.00000000E+00
  8.60000000E+02  1.80000000E+01  0.00000000E+00
  8.60000000E+02  1.60000000E+01  0.00000000E+00
  8.60000000E+02  1.40000000E+01  0.00000000E+00
  8.60000000E+02  1.20000000E+01  0.00000000E+00
  8.60000000E+02  1.00000000E+01  0.00000000E+00
  8.60000000E+02  8.00000000E+00  0.00000000E+00
  8.60000000E+02  6.00000000E+00  0.00000000E+00
  8.60000000E+02  4.00000000E+00  0.00000000E+00
  8.60000000E+02  2.00000000E+00  0.00000000E+00
  8.60000000E+02 -3.33066907E-14  0.00000000E+00
  8.70000000E+02  1.00000000E+02  0.00000000E+00
  8.70000000E+02  9.80000000E+01  0.00000000E+00
  8.70000000E+02  9.60000000E+01  0.00000000E+00
  8.70000000E+02  9.40000000E+01  0.00000000E+00
  8.70000000E+02  9.20000000E+01  0.00000000E+00
  8.70000000E+02  9.00000000E+01  0.00000000E+00
  8.70000000E+02  8.80000000E+01  0.00000000E+00
  8.70000000E+02  8.60000000E+01  0.00000000E+00
  8.70000000E+02  8.40000000E+01  0.00000000E+00
  8.70000000E+02  8.20000000E+01  0.00000000E+00
  8.70000000E+02  8.00000000E+01  0.00000000E+00
  8.70000000E+02  7.80000000E+01  0.00000000E+00
  8.70000000E+02  7.60000000E+01  0.00000000E+00
  8.70000000E+02  7.40000000E+01  0.00000000E+00
  8.70000000E+02  7.20000000E+01  0.00000000E+00
  8.70000000E+02  7.00000000E+01  0.00000000E+00
  8.70000000E+02  6.80000000E+01  0.00000000E+00
  8.70000000E+02  6.60000000E+01  0.00000000E+00
  8.70000000E+02  6.40000000E+01  0.00000000E+00
  8.70000000E+02  6.20000000E+01  0.00000000E+00
  8.70000000E+02  6.00000000E+01  0.00000000E+00
  8.70000000E+02  5.80000000E+01  0.00000000E+00
  8.70000000E+02  5.60000000E+01  0.00000000E+00
  8.70000000E+02  5.40000000E+01  0.00000000E+00
  8.70000000E+02  5.20000000E+01  0.00000000E+00
  8.70000000E+02  5.00000000E+01  0.00000000E+00
  8.70000000E+02  4.80000000E+01  0.00000000E+00
  8.70000000E+02  4.60000000E+01  0.00000000E+00
  8.70000000E+02  4.40000000E+01  0.00000000E+00
  8.70000000E+02  4.20000000E+01  0.00000000E+00
  8.70000000E+02  4.00000000E+01  0.00000000E+00
  8.70000000E+02  3.80000000E+01  0.00000000E+00
  8.70000000E+02  3.60000000E+01  0.00000000E+00
  8.70000000E+02  3.40000000E+01  0.00000000E+00
  8.70000000E+02  3.20000000E+01  0.00000000E+00
  8.70000000E+02  3.00000000E+01  0.00000000E+00
  8.70000000E+02  2.80000000E+01  0.00000000E+00
  8.70000000E+02  2.60000000E+01  0.00000000E+00
  8.70000000E+02  2.40000000E+01  0.00000000E+00
  8.70000000E+02  2.20000000E+01  0.00000000E+00
  8.70000000E+02  2.00000000E+01  0.00000000E+00
  8.70000000E+02  1.80000000E+01  0.00000000E+00
  8.70000000E+02  1.60000000E+01  0.00000000E+00
  8.70000000E+02  1.40000000E+01  0.00000000E+00
  8.70000000E+02  1.20000000E+01  0.00000000E+00
  8.70000000E+02  1.00000000E+01  0.00000000E+00
  8.70000000E+02  8.00000000E+00  0.00000000E+00
  8.70000000E+02  6.00000000E+00  0.00000000E+00
  8.70000000E+02  4.00000000E+00  0.00000000E+00
  8.70000000E+02  2.00000000E+00  0.00000000E+00
  8.70000000E+02 -3.33066907E-14  0.00000000E+00
  8.80000000E+02  1.00000000E+02  0.00000000E+00
  8.80000000E+02  9.80000000E+01  0.00000000E+00
  8.80000000E+02  9.60000000E+01  0.00000000E+00
  8.80000000E+02  9.40000000E+01  0.00000000E+00
  8.80000000E+02  9.20000000E+01  0.00000000E+00
  8.80000000E+02  9.00000000E+01  0.00000000E+00
  8.80000000E+02  8.80000000E+01  0.00000000E+00
  8.80000000E+02  8.60000000E+01  0.00000000E+00
  8.80000000E+02  8.40000000E+01  0.00000000E+00
  8.80000000E+02  8.20000000E+01  0.00000000E+00
  8.80000000E+02  8.00000000E+01  0.00000000E+00
  8.80000000E+02  7.80000000E+01  0.00000000E+00
  8.80000000E+02  7.60000000E+01  0.00000000E+00
  8.80000000E+02  7.40000000E+01  0.00000000E+00
  8.80000000E+02  7.20000000E+01  0.00000000E+00
  8.80000000E+02  7.00000000E+01  0.00000000E+00
  8.80000000E+02  6.80000000E+01  0.00000000E+00
  8.80000000E+02  6.60000000E+01  0.00000000E+00
  8.80000000E+02  6.40000000E+01  0.00000000E+00
  8.80000000E+02  6.20000000E+01  0.00000000E+00
  8.80000000E+02  6.00000000E+01  0.00000000E+00
  8.80000000E+02  5.80000000E+01  0.00000000E+00
  8.80000000E+02  5.60000000E+01  0.00000000E+00
  8.80000000E+02  5.40000000E+01  0.00000000E+00
  8.80000000E+02  5.20000000E+01  0.00000000E+00
  8.80000000E+02  5.00000000E+01  0.00000000E+00
  8.80000000E+02  4.80000000E+01  0.00000000E+00
  8.80000000E+02  4.60000000E+01  0.00000000E+00
  8.80000000E+02  4.40000000E+01  0.00000000E+00
  8.80000000E+02  4.20000000E+01  0.00000000E+00
  8.80000000E+02  4.00000000E+01  0.00000000E+00
  8.80000000E+02  3.80000000E+01  0.00000000E+00
  8.80000000E+02  3.60000000E+01  0.00000000E+00
  8.80000000E+02  3.40000000E+01  0.00000000E+00
  8.80000000E+02  3.20000000E+01  0.00000000E+00
  8.80000000E+02  3.00000000E+01  0.00000000E+00
  8.80000000E+02  2.80000000E+01  0.00000000E+00
  8.80000000E+02  2.60000000E+01  0.00000000E+00
  8.80000000E+02  2.40000000E+01  0.00000000E+00
  8.80000000E+02  2.20000000E+01  0.00000000E+00
  8.80000000E+02  2.00000000E+01  0.00000000E+00
  8.80000000E+02  1.80000000E+01  0.00000000E+00
  8.80000000E+02  1.60000000E+01  0.00000000E+00
  8.80000000E+02  1.40000000E+01  0.00000000E+00
  8.80000000E+02  1.20000000E+01  0.00000000E+00
  8.80000000E+02  1.00000000E+01  0.00000000E+00
  8.80000000E+02  8.00000000E+00  0.00000000E+00
  8.80000000E+02  6.00000000E+00  0.00000000E+00
  8.80000000E+02  4.00000000E+00  0.00000000E+00
  8.80000000E+02  2.00000000E+00  0.00000000E+00
  8.80000000E+02 -3.33066907E-14  0.00000000E+00
  8.90000000E+02  1.00000000E+02  0.00000000E+00
  8.90000000E+02  9.80000000E+01  0.00000000E+00
  8.90000000E+02  9.60000000E+01  0.00000000E+00
  8.90000000E+02  9.40000000E+01  0.00000000E+00
  8.90000000E+02  9.20000000E+01  0.00000000E+00
  8.90000000E+02  9.00000000E+01  0.00000000E+00
  8.90000000E+02  8.80000000E+01  0.00000000E+00
  8.90000000E+02  8.60000000E+01  0.00000000E+00
  8.90000000E+02  8.40000000E+01  0.00000000E+00
  8.90000000E+02  8.20000000E+01  0.00000000E+00
  8.90000000E+02  8.00000000E+01  0.00000000E+00
  8.90000000E+02  7.80000000E+01  0.00000000E+00
  8.90000000E+02  7.60000000E+01  0.00000000E+00
  8.90000000E+02  7.40000000E+01  0.00000000E+00
  8.90000000E+02  7.20000000E+01  0.00000000E+00
  8.90000000E+02  7.00000000E+01  0.00000000E+00
  8.90000000E+02  6.80000000E+01  0.00000000E+00
  8.90000000E+02  6.60000000E+01  0.00000000E+00
  8.90000000E+02  6.40000000E+01  0.00000000E+00
  8.90000000E+02  6.20000000E+01  0.00000000E+00
  8.90000000E+02  6.00000000E+01  0.00000000E+00
  8.90000000E+02  5.80000000E+01  0.00000000E+00
  8.90000000E+02  5.60000000E+01  0.00000000E+00
  8.90000000E+02  5.40000000E+01  0.00000000E+00
  8.90000000E+02  5.20000000E+01  0.00000000E+00
  8.90000000E+02  5.00000000E+01  0.00000000E+00
  8.90000000E+02  4.80000000E+01  0.00000000E+00
  8.90000000E+02  4.60000000E+01  0.00000000E+00
  8.90000000E+02  4.40000000E+01  0.00000000E+00
  8.90000000E+02  4.20000000E+01  0.00000000E+00
  8.90000000E+02  4.00000000E+01  0.00000000E+00
  8.90000000E+02  3.80000000E+01  0.00000000E+00
  8.90000000E+02  3.60000000E+01  0.00000000E+00
  8.90000000E+02  3.40000000E+01  0.00000000E+00
  8.90000000E+02  3.20000000E+01  0.00000000E+00
  8.90000000E+02  3.00000000E+01  0.00000000E+00
  8.90000000E+02  2.80000000E+01  0.00000000E+00
  8.90000000E+02  2.60000000E+01  0.00000000E+00
  8.90000000E+02  2.40000000E+01  0.00000000E+00
  8.90000000E+02  2.20000000E+01  0.00000000E+00
  8.90000000E+02  2.00000000E+01  0.00000000E+00
  8.90000000E+02  1.80000000E+01  0.00000000E+00
  8.90000000E+02  1.60000000E+01  0.00000000E+00
  8.90000000E+02  1.40000000E+01  0.00000000E+00
  8.90000000E+02  1.20000000E+01  0.00000000E+00
  8.90000000E+02  1.00000000E+01  0.00000000E+00
  8.90000000E+02  8.00000000E+00  0.00000000E+00
  8.90000000E+02  6.00000000E+00  0.00000000E+00
  8.90000000E+02  4.00000000E+00  0.00000000E+00
  8.90000000E+02  2.00000000E+00  0.00000000E+00
  8.90000000E+02 -3.33066907E-14  0.00000000E+00
  9.00000000E+02  1.00000000E+02  0.00000000E+00
  9.00000000E+02  9.80000000E+01  0.00000000E+00
  9.00000000E+02  9.60000000E+01  0.00000000E+00
  9.00000000E+02  9.40000000E+01  0.00000000E+00
  9.00000000E+02  9.20000000E+01  0.00000000E+00
  9.00000000E+02  9.00000000E+01  0.00000000E+00
  9.00000000E+02  8.80000000E+01  0.00000000E+00
  9.00000000E+02  8.60000000E+01  0.00000000E+00
  9.00000000E+02  8.40000000E+01  0.00000000E+00
  9.00000000E+02  8.20000000E+01  0.00000000E+00
  9.00000000E+02  8.00000000E+01  0.00000000E+00
  9.00000000E+02  7.80000000E+01  0.00000000E+00
  9.00000000E+02  7.60000000E+01  0.00000000E+00
  9.00000000E+02  7.40000000E+01  0.00000000E+00
  9.00000000E+02  7.20000000E+01  0.00000000E+00
  9.00000000E+02  7.00000000E+01  0.00000000E+00
  9.00000000E+02  6.80000000E+01  0.00000000E+00
  9.00000000E+02  6.60000000E+01  0.00000000E+00
  9.00000000E+02  6.40000000E+01  0.00000000E+00
  9.00000000E+02  6.20000000E+01  0.00000000E+00
  9.00000000E+02  6.00000000E+01  0.00000000E+00
  9.00000000E+02  5.80000000E+01  0.00000000E+00
  9.00000000E+02  5.60000000E+01  0.00000000E+00
  9.00000000E+02  5.40000000E+01  0.00000000E+00
  9.00000000E+02  5.20000000E+01  0.00000000E+00
  9.00000000E+02  5.00000000E+01  0.00000000E+00
  9.00000000E+02  4.80000000E+01  0.00000000E+00
  9.00000000E+02  4.60000000E+01  0.00000000E+00
  9.00000000E+02  4.40000000E+01  0.00000000E+00
  9.00000000E+02  4.20000000E+01  0.00000000E+00
  9.00000000E+02  4.00000000E+01  0.00000000E+00
  9.00000000E+02  3.80000000E+01  0.00000000E+00
  9.00000000E+02  3.60000000E+01  0.00000000E+00
  9.00000000E+02  3.40000000E+01  0.00000000E+00
  9.00000000E+02  3.20000000E+01  0.00000000E+00
  9.00000000E+02  3.00000000E+01  0.00000000E+00
  9.00000000E+02  2.80000000E+01  0.00000000E+00
  9.00000000E+02  2.60000000E+01  0.00000000E+00
  9.00000000E+02  2.40000000E+01  0.00000000E+00
  9.00000000E+02  2.20000000E+01  0.00000000E+00
  9.00000000E+02  2.00000000E+01  0.00000000E+00
  9.00000000E+02  1.80000000E+01  0.00000000E+00
  9.00000000E+02  1.60000000E+01  0.00000000E+00
  9.00000000E+02  1.40000000E+01  0.00000000E+00
  9.00000000E+02  1.20000000E+01  0.00000000E+00
  9.00000000E+02  1.00000000E+01  0.00000000E+00
  9.00000000E+02  8.00000000E+00  0.00000000E+00
  9.00000000E+02  6.00000000E+00  0.00000000E+00
  9.00000000E+02  4.00000000E+00  0.00000000E+00
  9.00000000E+02  2.00000000E+00  0.00000000E+00
  9.00000000E+02 -3.33066907E-14  0.00000000E+00
  9.10000000E+02  1.00000000E+02  0.00000000E+00
  9.10000000E+02  9.80000000E+01  0.00000000E+00
  9.10000000E+02  9.60000000E+01  0.00000000E+00
  9.10000000E+02  9.40000000E+01  0.00000000E+00
  9.10000000E+02  9.20000000E+01  0.00000000E+00
  9.10000000E+02  9.00000000E+01  0.00000000E+00
  9.10000000E+02  8.80000000E+01  0.00000000E+00
  9.10000000E+02  8.60000000E+01  0.00000000E+00
  9.10000000E+02  8.40000000E+01  0.00000000E+00
  9.10000000E+02  8.20000000E+01  0.00000000E+00
  9.10000000E+02  8.00000000E+01  0.00000000E+00
  9.10000000E+02  7.80000000E+01  0.00000000E+00
  9.10000000E+02  7.60000000E+01  0.00000000E+00
  9.10000000E+02  7.40000000E+01  0.00000000E+00
  9.10000000E+02  7.20000000E+01  0.00000000E+00
  9.10000000E+02  7.00000000E+01  0.00000000E+00
  9.10000000E+02  6.80000000E+01  0.00000000E+00
  9.10000000E+02  6.60000000E+01  0.00000000E+00
  9.10000000E+02  6.40000000E+01  0.00000000E+00
  9.10000000E+02  6.20000000E+01  0.00000000E+00
  9.10000000E+02  6.00000000E+01  0.00000000E+00
  9.10000000E+02  5.80000000E+01  0.00000000E+00
  9.10000000E+02  5.60000000E+01  0.00000000E+00
  9.10000000E+02  5.40000000E+01  0.00000000E+00
  9.10000000E+02  5.20000000E+01  0.00000000E+00
  9.10000000E+02  5.00000000E+01  0.00000000E+00
  9.10000000E+02  4.80000000E+01  0.00000000E+00
  9.10000000E+02  4.60000000E+01  0.00000000E+00
  9.10000000E+02  4.40000000E+01  0.00000000E+00
  9.10000000E+02  4.20000000E+01  0.00000000E+00
  9.10000000E+02  4.00000000E+01  0.00000000E+00
  9.10000000E+02  3.80000000E+01  0.00000000E+00
  9.10000000E+02  3.60000000E+01  0.00000000E+00
  9.10000000E+02  3.40000000E+01  0.00000000E+00
  9.10000000E+02  3.20000000E+01  0.00000000E+00
  9.10000000E+02  3.00000000E+01  0.00000000E+00
  9.10000000E+02  2.80000000E+01  0.00000000E+00
  9.10000000E+02  2.60000000E+01  0.00000000E+00
  9.10000000E+02  2.40000000E+01  0.00000000E+00
  9.10000000E+02  2.20000000E+01  0.00000000E+00
  9.10000000E+02  2.00000000E+01  0.00000000E+00
  9.10000000E+02  1.80000000E+01  0.00000000E+00
  9.10000000E+02  1.60000000E+01  0.00000000E+00
  9.10000000E+02  1.40000000E+01  0.00000000E+00
  9.10000000E+02  1.20000000E+01  0.00000000E+00
  9.10000000E+02  1.00000000E+01  0.00000000E+00
  9.10000000E+02  8.00000000E+00  0.00000000E+00
  9.10000000E+02  6.00000000E+00  0.00000000E+00
  9.10000000E+02  4.00000000E+00  0.00000000E+00
  9.10000000E+02  2.00000000E+00  0.00000000E+00
  9.10000000E+02 -3.33066907E-14  0.00000000E+00
  9.20000000E+02  1.00000000E+02  0.00000000E+00
  9.20000000E+02  9.80000000E+01  0.00000000E+00
  9.20000000E+02  9.60000000E+01  0.00000000E+00
  9.20000000E+02  9.40000000E+01  0.00000000E+00
  9.20000000E+02  9.20000000E+01  0.00000000E+00
  9.20000000E+02  9.00000000E+01  0.00000000E+00
  9.20000000E+02  8.80000000E+01  0.00000000E+00
  9.20000000E+02  8.60000000E+01  0.00000000E+00
  9.20000000E+02  8.40000000E+01  0.00000000E+00
  9.20000000E+02  8.20000000E+01  0.00000000E+00
  9.20000000E+02  8.00000000E+01  0.00000000E+00
  9.20000000E+02  7.80000000E+01  0.00000000E+00
  9.20000000E+02  7.60000000E+01  0.00000000E+00
  9.20000000E+02  7.40000000E+01  0.00000000E+00
  9.20000000E+02  7.20000000E+01  0.00000000E+00
  9.20000000E+02  7.00000000E+01  0.00000000E+00
  9.20000000E+02  6.80000000E+01  0.00000000E+00
  9.20000000E+02  6.60000000E+01  0.00000000E+00
  9.20000000E+02  6.40000000E+01  0.00000000E+00
  9.20000000E+02  6.20000000E+01  0.00000000E+00
  9.20000000E+02  6.00000000E+01  0.00000000E+00
  9.20000000E+02  5.80000000E+01  0.00000000E+00
  9.20000000E+02  5.60000000E+01  0.00000000E+00
  9.20000000E+02  5.40000000E+01  0.00000000E+00
  9.20000000E+02  5.20000000E+01  0.00000000E+00
  9.20000000E+02  5.00000000E+01  0.00000000E+00
  9.20000000E+02  4.80000000E+01  0.00000000E+00
  9.20000000E+02  4.60000000E+01  0.00000000E+00
  9.20000000E+02  4.40000000E+01  0.00000000E+00
  9.20000000E+02  4.20000000E+01  0.00000000E+00
  9.20000000E+02  4.00000000E+01  0.00000000E+00
  9.20000000E+02  3.80000000E+01  0.00000000E+00
  9.20000000E+02  3.60000000E+01  0.00000000E+00
  9.20000000E+02  3.40000000E+01  0.00000000E+00
  9.20000000E+02  3.20000000E+01  0.00000000E+00
  9.20000000E+02  3.00000000E+01  0.00000000E+00
  9.20000000E+02  2.80000000E+01  0.00000000E+00
  9.20000000E+02  2.60000000E+01  0.00000000E+00
  9.20000000E+02  2.40000000E+01  0.00000000E+00
  9.20000000E+02  2.20000000E+01  0.00000000E+00
  9.20000000E+02  2.00000000E+01  0.00000000E+00
  9.20000000E+02  1.80000000E+01  0.00000000E+00
  9.20000000E+02  1.60000000E+01  0.00000000E+00
  9.20000000E+02  1.40000000E+01  0.00000000E+00
  9.20000000E+02  1.20000000E+01  0.00000000E+00
  9.20000000E+02  1.00000000E+01  0.00000000E+00
  9.20000000E+02  8.00000000E+00  0.00000000E+00
  9.20000000E+02  6.00000000E+00  0.00000000E+00
  9.20000000E+02  4.00000000E+00  0.00000000E+00
  9.20000000E+02  2.00000000E+00  0.00000000E+00
  9.20000000E+02 -3.33066907E-14  0.00000000E+00
  9.30000000E+02  1.00000000E+02  0.00000000E+00
  9.30000000E+02  9.80000000E+01  0.00000000E+00
  9.30000000E+02  9.60000000E+01  0.00000000E+00
  9.30000000E+02  9.40000000E+01  0.00000000E+00
  9.30000000E+02  9.20000000E+01  0.00000000E+00
  9.30000000E+02  9.00000000E+01  0.00000000E+00
  9.30000000E+02  8.80000000E+01  0.00000000E+00
  9.30000000E+02  8.60000000E+01  0.00000000E+00
  9.30000000E+02  8.40000000E+01  0.00000000E+00
  9.30000000E+02  8.20000000E+01  0.00000000E+00
  9.30000000E+02  8.00000000E+01  0.00000000E+00
  9.30000000E+02  7.80000000E+01  0.00000000E+00
  9.30000000E+02  7.60000000E+01  0.00000000E+00
  9.30000000E+02  7.40000000E+01  0.00000000E+00
  9.30000000E+02  7.20000000E+01  0.00000000E+00
  9.30000000E+02  7.00000000E+01  0.00000000E+00
  9.30000000E+02  6.80000000E+01  0.00000000E+00
  9.30000000E+02  6.60000000E+01  0.00000000E+00
  9.30000000E+02  6.40000000E+01  0.00000000E+00
  9.30000000E+02  6.20000000E+01  0.00000000E+00
  9.30000000E+02  6.00000000E+01  0.00000000E+00
  9.30000000E+02  5.80000000E+01  0.00000000E+00
  9.30000000E+02  5.60000000E+01  0.00000000E+00
  9.30000000E+02  5.40000000E+01  0.00000000E+00
  9.30000000E+02  5.20000000E+01  0.00000000E+00
  9.30000000E+02  5.00000000E+01  0.00000000E+00
  9.30000000E+02  4.80000000E+01  0.00000000E+00
  9.30000000E+02  4.60000000E+01  0.00000000E+00
  9.30000000E+02  4.40000000E+01  0.00000000E+00
  9.30000000E+02  4.20000000E+01  0.00000000E+00
  9.30000000E+02  4.00000000E+01  0.00000000E+00
  9.30000000E+02  3.80000000E+01  0.00000000E+00
  9.30000000E+02  3.60000000E+01  0.00000000E+00
  9.30000000E+02  3.40000000E+01  0.00000000E+00
  9.30000000E+02  3.20000000E+01  0.00000000E+00
  9.30000000E+02  3.00000000E+01  0.00000000E+00
  9.30000000E+02  2.80000000E+01  0.00000000E+00
  9.30000000E+02  2.60000000E+01  0.00000000E+00
  9.30000000E+02  2.40000000E+01  0.00000000E+00
  9.30000000E+02  2.20000000E+01  0.00000000E+00
  9.30000000E+02  2.00000000E+01  0.00000000E+00
  9.30000000E+02  1.80000000E+01  0.00000000E+00
  9.30000000E+02  1.60000000E+01  0.00000000E+00
  9.30000000E+02  1.40000000E+01  0.00000000E+00
  9.30000000E+02  1.20000000E+01  0.00000000E+00
  9.30000000E+02  1.00000000E+01  0.00000000E+00
  9.30000000E+02  8.00000000E+00  0.00000000E+00
  9.30000000E+02  6.00000000E+00  0.00000000E+00
  9.30000000E+02  4.00000000E+00  0.00000000E+00
  9.30000000E+02  2.00000000E+00  0.00000000E+00
  9.30000000E+02 -3.33066907E-14  0.00000000E+00
  9.40000000E+02  1.00000000E+02  0.00000000E+00
  9.40000000E+02  9.80000000E+01  0.00000000E+00
  9.40000000E+02  9.60000000E+01  0.00000000E+00
  9.40000000E+02  9.40000000E+01  0.00000000E+00
  9.40000000E+02  9.20000000E+01  0.00000000E+00
  9.40000000E+02  9.00000000E+01  0.00000000E+00
  9.40000000E+02  8.80000000E+01  0.00000000E+00
  9.40000000E+02  8.60000000E+01  0.00000000E+00
  9.40000000E+02  8.40000000E+01  0.00000000E+00
  9.40000000E+02  8.20000000E+01  0.00000000E+00
  9.40000000E+02  8.00000000E+01  0.00000000E+00
  9.40000000E+02  7.80000000E+01  0.00000000E+00
  9.40000000E+02  7.60000000E+01  0.00000000E+00
  9.40000000E+02  7.40000000E+01  0.00000000E+00
  9.40000000E+02  7.20000000E+01  0.00000000E+00
  9.40000000E+02  7.00000000E+01  0.00000000E+00
  9.40000000E+02  6.80000000E+01  0.00000000E+00
  9.40000000E+02  6.60000000E+01  0.00000000E+00
  9.40000000E+02  6.40000000E+01  0.00000000E+00
  9.40000000E+02  6.20000000E+01  0.00000000E+00
  9.40000000E+02  6.00000000E+01  0.00000000E+00
  9.40000000E+02  5.80000000E+01  0.00000000E+00
  9.40000000E+02  5.60000000E+01  0.00000000E+00
  9.40000000E+02  5.40000000E+01  0.00000000E+00
  9.40000000E+02  5.20000000E+01  0.00000000E+00
  9.40000000E+02  5.00000000E+01  0.00000000E+00
  9.40000000E+02  4.80000000E+01  0.00000000E+00
  9.40000000E+02  4.60000000E+01  0.00000000E+00
  9.40000000E+02  4.40000000E+01  0.00000000E+00
  9.40000000E+02  4.20000000E+01  0.00000000E+00
  9.40000000E+02  4.00000000E+01  0.00000000E+00
  9.40000000E+02  3.80000000E+01  0.00000000E+00
  9.40000000E+02  3.60000000E+01  0.00000000E+00
  9.40000000E+02  3.40000000E+01  0.00000000E+00
  9.40000000E+02  3.20000000E+01  0.00000000E+00
  9.40000000E+02  3.00000000E+01  0.00000000E+00
  9.40000000E+02  2.80000000E+01  0.00000000E+00
  9.40000000E+02  2.60000000E+01  0.00000000E+00
  9.40000000E+02  2.40000000E+01  0.00000000E+00
  9.40000000E+02  2.20000000E+01  0.00000000E+00
  9.40000000E+02  2.00000000E+01  0.00000000E+00
  9.40000000E+02  1.80000000E+01  0.00000000E+00
  9.40000000E+02  1.60000000E+01  0.00000000E+00
  9.40000000E+02  1.40000000E+01  0.00000000E+00
  9.40000000E+02  1.20000000E+01  0.00000000E+00
  9.40000000E+02  1.00000000E+01  0.00000000E+00
  9.40000000E+02  8.00000000E+00  0.00000000E+00
  9.40000000E+02  6.00000000E+00  0.00000000E+00
  9.40000000E+02  4.00000000E+00  0.00000000E+00
  9.40000000E+02  2.00000000E+00  0.00000000E+00
  9.40000000E+02 -3.33066907E-14  0.00000000E+00
  9.50000000E+02  1.00000000E+02  0.00000000E+00
  9.50000000E+02  9.80000000E+01  0.00000000E+00
  9.50000000E+02  9.60000000E+01  0.00000000E+00
  9.50000000E+02  9.40000000E+01  0.00000000E+00
  9.50000000E+02  9.20000000E+01  0.00000000E+00
  9.50000000E+02  9.00000000E+01  0.00000000E+00
  9.50000000E+02  8.80000000E+01  0.00000000E+00
  9.50000000E+02  8.60000000E+01  0.00000000E+00
  9.50000000E+02  8.40000000E+01  0.00000000E+00
  9.50000000E+02  8.20000000E+01  0.00000000E+00
  9.50000000E+02  8.00000000E+01  0.00000000E+00
  9.50000000E+02  7.80000000E+01  0.00000000E+00
  9.50000000E+02  7.60000000E+01  0.00000000E+00
  9.50000000E+02  7.40000000E+01  0.00000000E+00
  9.50000000E+02  7.20000000E+01  0.00000000E+00
  9.50000000E+02  7.00000000E+01  0.00000000E+00
  9.50000000E+02  6.80000000E+01  0.00000000E+00
  9.50000000E+02  6.60000000E+01  0.00000000E+00
  9.50000000E+02  6.40000000E+01  0.00000000E+00
  9.50000000E+02  6.20000000E+01  0.00000000E+00
  9.50000000E+02  6.00000000E+01  0.00000000E+00
  9.50000000E+02  5.80000000E+01  0.00000000E+00
  9.50000000E+02  5.60000000E+01  0.00000000E+00
  9.50000000E+02  5.40000000E+01  0.00000000E+00
  9.50000000E+02  5.20000000E+01  0.00000000E+00
  9.50000000E+02  5.00000000E+01  0.00000000E+00
  9.50000000E+02  4.80000000E+01  0.00000000E+00
  9.50000000E+02  4.60000000E+01  0.00000000E+00
  9.50000000E+02  4.40000000E+01  0.00000000E+00
  9.50000000E+02  4.20000000E+01  0.00000000E+00
  9.50000000E+02  4.00000000E+01  0.00000000E+00
  9.50000000E+02  3.80000000E+01  0.00000000E+00
  9.50000000E+02  3.60000000E+01  0.00000000E+00
  9.50000000E+02  3.40000000E+01  0.00000000E+00
  9.50000000E+02  3.20000000E+01  0.00000000E+00
  9.50000000E+02  3.00000000E+01  0.00000000E+00
  9.50000000E+02  2.80000000E+01  0.00000000E+00
  9.50000000E+02  2.60000000E+01  0.00000000E+00
  9.50000000E+02  2.40000000E+01  0.00000000E+00
  9.50000000E+02  2.20000000E+01  0.00000000E+00
  9.50000000E+02  2.00000000E+01  0.00000000E+00
  9.50000000E+02  1.80000000E+01  0.00000000E+00
  9.50000000E+02  1.60000000E+01  0.00000000E+00
  9.50000000E+02  1.40000000E+01  0.00000000E+00
  9.50000000E+02  1.20000000E+01  0.00000000E+00
  9.50000000E+02  1.00000000E+01  0.00000000E+00
  9.50000000E+02  8.00000000E+00  0.00000000E+00
  9.50000000E+02  6.00000000E+00  0.00000000E+00
  9.50000000E+02  4.00000000E+00  0.00000000E+00
  9.50000000E+02  2.00000000E+00  0.00000000E+00
  9.50000000E+02 -3.33066907E-14  0.00000000E+00
  9.60000000E+02  1.00000000E+02  0.00000000E+00
  9.60000000E+02  9.80000000E+01  0.00000000E+00
  9.60000000E+02  9.60000000E+01  0.00000000E+00
  9.60000000E+02  9.40000000E+01  0.00000000E+00
  9.60000000E+02  9.20000000E+01  0.00000000E+00
  9.60000000E+02  9.00000000E+01  0.00000000E+00
  9.60000000E+02  8.80000000E+01  0.00000000E+00
  9.60000000E+02  8.60000000E+01  0.00000000E+00
  9.60000000E+02  8.40000000E+01  0.00000000E+00
  9.60000000E+02  8.20000000E+01  0.00000000E+00
  9.60000000E+02  8.00000000E+01  0.00000000E+00
  9.60000000E+02  7.80000000E+01  0.00000000E+00
  9.60000000E+02  7.60000000E+01  0.00000000E+00
  9.60000000E+02  7.40000000E+01  0.00000000E+00
  9.60000000E+02  7.20000000E+01  0.00000000E+00
  9.60000000E+02  7.00000000E+01  0.00000000E+00
  9.60000000E+02  6.80000000E+01  0.00000000E+00
  9.60000000E+02  6.60000000E+01  0.00000000E+00
  9.60000000E+02  6.40000000E+01  0.00000000E+00
  9.60000000E+02  6.20000000E+01  0.00000000E+00
  9.60000000E+02  6.00000000E+01  0.00000000E+00
  9.60000000E+02  5.80000000E+01  0.00000000E+00
  9.60000000E+02  5.60000000E+01  0.00000000E+00
  9.60000000E+02  5.40000000E+01  0.00000000E+00
  9.60000000E+02  5.20000000E+01  0.00000000E+00
  9.60000000E+02  5.00000000E+01  0.00000000E+00
  9.60000000E+02  4.80000000E+01  0.00000000E+00
  9.60000000E+02  4.60000000E+01  0.00000000E+00
  9.60000000E+02  4.40000000E+01  0.00000000E+00
  9.60000000E+02  4.20000000E+01  0.00000000E+00
  9.60000000E+02  4.00000000E+01  0.00000000E+00
  9.60000000E+02  3.80000000E+01  0.00000000E+00
  9.60000000E+02  3.60000000E+01  0.00000000E+00
  9.60000000E+02  3.40000000E+01  0.00000000E+00
  9.60000000E+02  3.20000000E+01  0.00000000E+00
  9.60000000E+02  3.00000000E+01  0.00000000E+00
  9.60000000E+02  2.80000000E+01  0.00000000E+00
  9.60000000E+02  2.60000000E+01  0.00000000E+00
  9.60000000E+02  2.40000000E+01  0.00000000E+00
  9.60000000E+02  2.20000000E+01  0.00000000E+00
  9.60000000E+02  2.00000000E+01  0.00000000E+00
  9.60000000E+02  1.80000000E+01  0.00000000E+00
  9.60000000E+02  1.60000000E+01  0.00000000E+00
  9.60000000E+02  1.40000000E+01  0.00000000E+00
  9.60000000E+02  1.20000000E+01  0.00000000E+00
  9.60000000E+02  1.00000000E+01  0.00000000E+00
  9.60000000E+02  8.00000000E+00  0.00000000E+00
  9.60000000E+02  6.00000000E+00  0.00000000E+00
  9.60000000E+02  4.00000000E+00  0.00000000E+00
  9.60000000E+02  2.00000000E+00  0.00000000E+00
  9.60000000E+02 -3.33066907E-14  0.00000000E+00
  9.70000000E+02  1.00000000E+02  0.00000000E+00
  9.70000000E+02  9.80000000E+01  0.00000000E+00
  9.70000000E+02  9.60000000E+01  0.00000000E+00
  9.70000000E+02  9.40000000E+01  0.00000000E+00
  9.70000000E+02  9.20000000E+01  0.00000000E+00
  9.70000000E+02  9.00000000E+01  0.00000000E+00
  9.70000000E+02  8.80000000E+01  0.00000000E+00
  9.70000000E+02  8.60000000E+01  0.00000000E+00
  9.70000000E+02  8.40000000E+01  0.00000000E+00
  9.70000000E+02  8.20000000E+01  0.00000000E+00
  9.70000000E+02  8.00000000E+01  0.00000000E+00
  9.70000000E+02  7.80000000E+01  0.00000000E+00
  9.70000000E+02  7.60000000E+01  0.00000000E+00
  9.70000000E+02  7.40000000E+01  0.00000000E+00
  9.70000000E+02  7.20000000E+01  0.00000000E+00
  9.70000000E+02  7.00000000E+01  0.00000000E+00
  9.70000000E+02  6.80000000E+01  0.00000000E+00
  9.70000000E+02  6.60000000E+01  0.00000000E+00
  9.70000000E+02  6.40000000E+01  0.00000000E+00
  9.70000000E+02  6.20000000E+01  0.00000000E+00
  9.70000000E+02  6.00000000E+01  0.00000000E+00
  9.70000000E+02  5.80000000E+01  0.00000000E+00
  9.70000000E+02  5.60000000E+01  0.00000000E+00
  9.70000000E+02  5.40000000E+01  0.00000000E+00
  9.70000000E+02  5.20000000E+01  0.00000000E+00
  9.70000000E+02  5.00000000E+01  0.00000000E+00
  9.70000000E+02  4.80000000E+01  0.00000000E+00
  9.70000000E+02  4.60000000E+01  0.00000000E+00
  9.70000000E+02  4.40000000E+01  0.00000000E+00
  9.70000000E+02  4.20000000E+01  0.00000000E+00
  9.70000000E+02  4.00000000E+01  0.00000000E+00
  9.70000000E+02  3.80000000E+01  0.00000000E+00
  9.70000000E+02  3.60000000E+01  0.00000000E+00
  9.70000000E+02  3.40000000E+01  0.00000000E+00
  9.70000000E+02  3.20000000E+01  0.00000000E+00
  9.70000000E+02  3.00000000E+01  0.00000000E+00
  9.70000000E+02  2.80000000E+01  0.00000000E+00
  9.70000000E+02  2.60000000E+01  0.00000000E+00
  9.70000000E+02  2.40000000E+01  0.00000000E+00
  9.70000000E+02  2.20000000E+01  0.00000000E+00
  9.70000000E+02  2.00000000E+01  0.00000000E+00
  9.70000000E+02  1.80000000E+01  0.00000000E+00
  9.70000000E+02  1.60000000E+01  0.00000000E+00
  9.70000000E+02  1.40000000E+01  0.00000000E+00
  9.70000000E+02  1.20000000E+01  0.00000000E+00
  9.70000000E+02  1.00000000E+01  0.00000000E+00
  9.70000000E+02  8.00000000E+00  0.00000000E+00
  9.70000000E+02  6.00000000E+00  0.00000000E+00
  9.70000000E+02  4.00000000E+00  0.00000000E+00
  9.70000000E+02  2.00000000E+00  0.00000000E+00
  9.70000000E+02 -3.33066907E-14  0.00000000E+00
  9.80000000E+02  1.00000000E+02  0.00000000E+00
  9.80000000E+02  9.80000000E+01  0.00000000E+00
  9.80000000E+02  9.60000000E+01  0.00000000E+00
  9.80000000E+02  9.40000000E+01  0.00000000E+00
  9.80000000E+02  9.20000000E+01  0.00000000E+00
  9.80000000E+02  9.00000000E+01  0.00000000E+00
  9.80000000E+02  8.80000000E+01  0.00000000E+00
  9.80000000E+02  8.60000000E+01  0.00000000E+00
  9.80000000E+02  8.40000000E+01  0.00000000E+00
  9.80000000E+02  8.20000000E+01  0.00000000E+00
  9.80000000E+02  8.00000000E+01  0.00000000E+00
  9.80000000E+02  7.80000000E+01  0.00000000E+00
  9.80000000E+02  7.60000000E+01  0.00000000E+00
  9.80000000E+02  7.40000000E+01  0.00000000E+00
  9.80000000E+02  7.20000000E+01  0.00000000E+00
  9.80000000E+02  7.00000000E+01  0.00000000E+00
  9.80000000E+02  6.80000000E+01  0.00000000E+00
  9.80000000E+02  6.60000000E+01  0.00000000E+00
  9.80000000E+02  6.40000000E+01  0.00000000E+00
  9.80000000E+02  6.20000000E+01  0.00000000E+00
  9.80000000E+02  6.00000000E+01  0.00000000E+00
  9.80000000E+02  5.80000000E+01  0.00000000E+00
  9.80000000E+02  5.60000000E+01  0.00000000E+00
  9.80000000E+02  5.40000000E+01  0.00000000E+00
  9.80000000E+02  5.20000000E+01  0.00000000E+00
  9.80000000E+02  5.00000000E+01  0.00000000E+00
  9.80000000E+02  4.80000000E+01  0.00000000E+00
  9.80000000E+02  4.60000000E+01  0.00000000E+00
  9.80000000E+02  4.40000000E+01  0.00000000E+00
  9.80000000E+02  4.20000000E+01  0.00000000E+00
  9.80000000E+02  4.00000000E+01  0.00000000E+00
  9.80000000E+02  3.80000000E+01  0.00000000E+00
  9.80000000E+02  3.60000000E+01  0.00000000E+00
  9.80000000E+02  3.40000000E+01  0.00000000E+00
  9.80000000E+02  3.20000000E+01  0.00000000E+00
  9.80000000E+02  3.00000000E+01  0.00000000E+00
  9.80000000E+02  2.80000000E+01  0.00000000E+00
  9.80000000E+02  2.60000000E+01  0.00000000E+00
  9.80000000E+02  2.40000000E+01  0.00000000E+00
  9.80000000E+02  2.20000000E+01  0.00000000E+00
  9.80000000E+02  2.00000000E+01  0.00000000E+00
  9.80000000E+02  1.80000000E+01  0.00000000E+00
  9.80000000E+02  1.60000000E+01  0.00000000E+00
  9.80000000E+02  1.40000000E+01  0.00000000E+00
  9.80000000E+02  1.20000000E+01  0.00000000E+00
  9.80000000E+02  1.00000000E+01  0.00000000E+00
  9.80000000E+02  8.00000000E+00  0.00000000E+00
  9.80000000E+02  6.00000000E+00  0.00000000E+00
  9.80000000E+02  4.00000000E+00  0.00000000E+00
  9.80000000E+02  2.00000000E+00  0.00000000E+00
  9.80000000E+02 -3.33066907E-14  0.00000000E+00
  9.90000000E+02  1.00000000E+02  0.00000000E+00
  9.90000000E+02  9.80000000E+01  0.00000000E+00
  9.90000000E+02  9.60000000E+01  0.00000000E+00
  9.90000000E+02  9.40000000E+01  0.00000000E+00
  9.90000000E+02  9.20000000E+01  0.00000000E+00
  9.90000000E+02  9.00000000E+01  0.00000000E+00
  9.90000000E+02  8.80000000E+01  0.00000000E+00
  9.90000000E+02  8.60000000E+01  0.00000000E+00
  9.90000000E+02  8.40000000E+01  0.00000000E+00
  9.90000000E+02  8.20000000E+01  0.00000000E+00
  9.90000000E+02  8.00000000E+01  0.00000000E+00
  9.90000000E+02  7.80000000E+01  0.00000000E+00
  9.90000000E+02  7.60000000E+01  0.00000000E+00
  9.90000000E+02  7.40000000E+01  0.00000000E+00
  9.90000000E+02  7.20000000E+01  0.00000000E+00
  9.90000000E+02  7.00000000E+01  0.00000000E+00
  9.90000000E+02  6.80000000E+01  0.00000000E+00
  9.90000000E+02  6.60000000E+01  0.00000000E+00
  9.90000000E+02  6.40000000E+01  0.00000000E+00
  9.90000000E+02  6.20000000E+01  0.00000000E+00
  9.90000000E+02  6.00000000E+01  0.00000000E+00
  9.90000000E+02  5.80000000E+01  0.00000000E+00
  9.90000000E+02  5.60000000E+01  0.00000000E+00
  9.90000000E+02  5.40000000E+01  0.00000000E+00
  9.90000000E+02  5.20000000E+01  0.00000000E+00
  9.90000000E+02  5.00000000E+01  0.00000000E+00
  9.90000000E+02  4.80000000E+01  0.00000000E+00
  9.90000000E+02  4.60000000E+01  0.00000000E+00
  9.90000000E+02  4.40000000E+01  0.00000000E+00
  9.90000000E+02  4.20000000E+01  0.00000000E+00
  9.90000000E+02  4.00000000E+01  0.00000000E+00
  9.90000000E+02  3.80000000E+01  0.00000000E+00
  9.90000000E+02  3.60000000E+01  0.00000000E+00
  9.90000000E+02  3.40000000E+01  0.00000000E+00
  9.90000000E+02  3.20000000E+01  0.00000000E+00
  9.90000000E+02  3.00000000E+01  0.00000000E+00
  9.90000000E+02  2.80000000E+01  0.00000000E+00
  9.90000000E+02  2.60000000E+01  0.00000000E+00
  9.90000000E+02  2.40000000E+01  0.00000000E+00
  9.90000000E+02  2.20000000E+01  0.00000000E+00
  9.90000000E+02  2.00000000E+01  0.00000000E+00
  9.90000000E+02  1.80000000E+01  0.00000000E+00
  9.90000000E+02  1.60000000E+01  0.00000000E+00
  9.90000000E+02  1.40000000E+01  0.00000000E+00
  9.90000000E+02  1.20000000E+01  0.00000000E+00
  9.90000000E+02  1.00000000E+01  0.00000000E+00
  9.90000000E+02  8.00000000E+00  0.00000000E+00
  9.90000000E+02  6.00000000E+00  0.00000000E+00
  9.90000000E+02  4.00000000E+00  0.00000000E+00
  9.90000000E+02  2.00000000E+00  0.00000000E+00
  9.90000000E+02 -3.33066907E-14  0.00000000E+00
  1.00000000E+03  1.00000000E+02  0.00000000E+00
  1.00000000E+03  9.80000000E+01  0.00000000E+00
  1.00000000E+03  9.60000000E+01  0.00000000E+00
  1.00000000E+03  9.40000000E+01  0.00000000E+00
  1.00000000E+03  9.20000000E+01  0.00000000E+00
  1.00000000E+03  9.00000000E+01  0.00000000E+00
  1.00000000E+03  8.80000000E+01  0.00000000E+00
  1.00000000E+03  8.60000000E+01  0.00000000E+00
  1.00000000E+03  8.40000000E+01  0.00000000E+00
  1.00000000E+03  8.20000000E+01  0.00000000E+00
  1.00000000E+03  8.00000000E+01  0.00000000E+00
  1.00000000E+03  7.80000000E+01  0.00000000E+00
  1.00000000E+03  7.60000000E+01  0.00000000E+00
  1.00000000E+03  7.40000000E+01  0.00000000E+00
  1.00000000E+03  7.20000000E+01  0.00000000E+00
  1.00000000E+03  7.00000000E+01  0.00000000E+00
  1.00000000E+03  6.80000000E+01  0.00000000E+00
  1.00000000E+03  6.60000000E+01  0.00000000E+00
  1.00000000E+03  6.40000000E+01  0.00000000E+00
  1.00000000E+03  6.20000000E+01  0.00000000E+00
  1.00000000E+03  6.00000000E+01  0.00000000E+00
  1.00000000E+03  5.80000000E+01  0.00000000E+00
  1.00000000E+03  5.60000000E+01  0.00000000E+00
  1.00000000E+03  5.40000000E+01  0.00000000E+00
  1.00000000E+03  5.20000000E+01  0.00000000E+00
  1.00000000E+03  5.00000000E+01  0.00000000E+00
  1.00000000E+03  4.80000000E+01  0.00000000E+00
  1.00000000E+03  4.60000000E+01  0.00000000E+00
  1.00000000E+03  4.40000000E+01  0.00000000E+00
  1.00000000E+03  4.20000000E+01  0.00000000E+00
  1.00000000E+03  4.00000000E+01  0.00000000E+00
  1.00000000E+03  3.80000000E+01  0.00000000E+00
  1.00000000E+03  3.60000000E+01  0.00000000E+00
  1.00000000E+03  3.40000000E+01  0.00000000E+00
  1.00000000E+03  3.20000000E+01  0.00000000E+00
  1.00000000E+03  3.00000000E+01  0.00000000E+00
  1.00000000E+03  2.80000000E+01  0.00000000E+00
  1.00000000E+03  2.60000000E+01  0.00000000E+00
  1.00000000E+03  2.40000000E+01  0.00000000E+00
  1.00000000E+03  2.20000000E+01  0.00000000E+00
  1.00000000E+03  2.00000000E+01  0.00000000E+00
  1.00000000E+03  1.80000000E+01  0.00000000E+00
  1.00000000E+03  1.60000000E+01  0.00000000E+00
  1.00000000E+03  1.40000000E+01  0.00000000E+00
  1.00000000E+03  1.20000000E+01  0.00000000E+00
  1.00000000E+03  1.00000000E+01  0.00000000E+00
  1.00000000E+03  8.00000000E+00  0.00000000E+00
  1.00000000E+03  6.00000000E+00  0.00000000E+00
  1.00000000E+03  4.00000000E+00  0.00000000E+00
  1.00000000E+03  2.00000000E+00  0.00000000E+00
  1.00000000E+03 -3.33066907E-14  0.00000000E+00
CELLS      5000     25000
         4           0           1          52          51
         4           1           2          53          52
         4           2           3          54          53
         4           3           4          55          54
         4           4           5          56          55
         4           5           6          57          56
         4           6           7          58          57
         4           7           8          59          58
         4           8           9          60          59
         4           9          10          61          60
         4          10          11          62          61
         4          11          12          63          62
         4          12          13          64          63
         4          13          14          65          64
         4          14          15          66          65
         4          15          16          67          66
         4          16          17          68          67
         4          17          18          69          68
         4          18          19          70          69
         4          19          20          71          70
         4          20          21          72          71
         4          21          22          73          72
         4          22          23          74          73
         4          23          24          75          74
         4          24          25          76          75
         4          25          26          77          76
         4          26          27          78          77
         4          27          28          79          78
         4          28          29          80          79
         4          29          30          81          80
         4          30          31          82          81
         4          31          32          83          82
         4          32          33          84          83
         4          33          34          85          84
         4          34          35          86          85
         4          35          36          87          86
         4          36          37          88          87
         4          37          38          89          88
         4          38          39          90          89
         4          39          40          91          90
         4          40          41          92          91
         4          41          42          93          92
         4          42          43          94          93
         4          43          44          95          94
         4          44          45          96          95
         4          45          46          97          96
         4          46          47          98          97
         4          47          48          99          98
         4          48          49         100          99
         4          49          50         101         100
         4          51          52         103         102
         4          52          53         104         103
         4          53          54         105         104
         4          54          55         106         105
         4          55          56         107         106
         4          56          57         108         107
         4          57          58         109         108
         4          58          59         110         109
         4          59          60         111         110
         4          60          61         112         111
         4          61          62         113         112
         4          62          63         114         113
         4          63          64         115         114
         4          64          65         116         115
         4          65          66         117         116
         4          66          67         118         117
         4          67          68         119         118
         4          68          69         120         119
         4          69          70         121         120
         4          70          71         122         121
         4          71          72         123         122
         4          72          73         124         123
         4          73          74         125         124
         4          74          75         126         125
         4          75          76         127         126
         4          76          77         128         127
         4          77          78         129         128
         4          78          79         130         129
         4          79          80         131         130
         4          80          81         132         131
         4          81          82         133         132
         4          82          83         134         133
         4          83          84         135         134
         4          84          85         136         135
         4          85          86         137         136
         4          86          87         138         137
         4          87          88         139         138
         4          88          89         140         139
         4          89          90         141         140
         4          90          91         142         141
         4          91          92         143         142
         4          92          93         144         143
         4          93          94         145         144
         4          94          95         146         145
         4          95          96         147         146
         4          96          97         148         147
         4          97          98         149         148
         4          98          99         150         149
         4          99         100         151         150
         4         100         101         152         151
         4         102         103         154         153
         4         103         104         155         154
         4         104         105         156         155
         4         105         106         157         156
         4         106         107         158         157
         4         107         108         159         158
         4         108         109         160         159
         4         109         110         161         160
         4         110         111         162         161
         4         111         112         163         162
         4         112         113         164         163
         4         113         114         165         164
         4         114         115         166         165
         4         115         116         167         166
         4         116         117         168         167
         4         117         118         169         168
         4         118         119         170         169
         4         119         120         171         170
         4         120         121         172         171
         4         121         122         173         172
         4         122         123         174         173
         4         123         124         175         174
         4         124         125         176         175
         4         125         126         177         176
         4         126         127         178         177
         4         127         128         179         178
         4         128         129         180         179
         4         129         130         181         180
         4         130         131         182         181
         4         131         132         183         182
         4         132         133         184         183
         4         133         134         185         184
         4         134         135         186         185
         4         135         136         187         186
         4         136         137         188         187
         4         137         138         189         188
         4         138         139         190         189
         4         139         140         191         190
         4         140         141         192         191
         4         141         142         193         192
         4         142         143         194         193
         4         143         144         195         194
         4         144         145         196         195
         4         145         146         197         196
         4         146         147         198         197
         4         147         148         199         198
         4         148         149         200         199
         4         149         150         201         200
         4         150         151         202         201
         4         151         152         203         202
         4         153         154         205         204
         4         154         155         206         205
         4         155         156         207         206
         4         156         157         208         207
         4         157         158         209         208
         4         158         159         210         209
         4         159         160         211         210
         4         160         161         212         211
         4         161         162         213         212
         4         162         163         214         213
         4         163         164         215         214
         4         164         165         216         215
         4         165         166         217         216
         4         166         167         218         217
         4         167         168         219         218
         4         168         169         220         219
         4         169         170         221         220
         4         170         171         222         221
         4         171         172         223         222
         4         172         173         224         223
         4         173         174         225         224
         4         174         175         226         225
         4         175         176         227         226
         4         176         177         228         227
         4         177         178         229         228
         4         178         179         230         229
         4         179         180         231         230
         4         180         181         232         231
         4         181         182         233         232
         4         182         183         234         233
         4         183         184         235         234
         4         184         185         236         235
         4         185         186         237         236
         4         186         187         238         237
         4         187         188         239         238
         4         188         189         240         239
         4         189         190         241         240
         4         190         191         242         241
         4         191         192         243         242
         4         192         193         244         243
         4         193         194         245         244
         4         194         195         246         245
         4         195         196         247         246
         4         196         197         248         247
         4         197         198         249         248
         4         198         199         250         249
         4         199         200         251         250
         4         200         201         252         251
         4         201         202         253         252
         4         202         203         254         253
         4         204         205         256         255
         4         205         206         257         256
         4         206         207         258         257
         4         207         208         259         258
         4         208         209         260         259
         4         209         210         261         260
         4         210         211         262         261
         4         211         212         263         262
         4         212         213         264         263
         4         213         214         265         264
         4         214         215         266         265
         4         215         216         267         266
         4         216         217         268         267
         4         217         218         269         268
         4         218         219         270         269
         4         219         220         271         270
         4         220         221         272         271
         4         221         222         273         272
         4         222         223         274         273
         4         223         224         275         274
         4         224         225         276         275
         4         225         226         277         276
         4         226         227         278         277
         4         227         228         279         278
         4         228         229         280         279
         4         229         230         281         280
         4         230         231         282         281
         4         231         232         283         282
         4         232         233         284         283
         4         233         234         285         284
         4         234         235         286         285
         4         235         236         287         286
         4         236         237         288         287
         4         237         238         289         288
         4         238         239         290         289
         4         239         240         291         290
         4         240         241         292         291
         4         241         242         293         292
         4         242         243         294         293
         4         243         244         295         294
         4         244         245         296         295
         4         245         246         297         296
         4         246         247         298         297
         4         247         248         299         298
         4         248         249         300         299
         4         249         250         301         300
         4         250         251         302         301
         4         251         252         303         302
         4         252         253         304         303
         4         253         254         305         304
         4         255         256         307         306
         4         256         257         308         307
         4         257         258         309         308
         4         258         259         310         309
         4         259         260         311         310
         4         260         261         312         311
         4         261         262         313         312
         4         262         263         314         313
         4         263         264         315         314
         4         264         265         316         315
         4         265         266         317         316
         4         266         267         318         317
         4         267         268         319         318
         4         268         269         320         319
         4         269         270         321         320
         4         270         271         322         321
         4         271         272         323         322
         4         272         273         324         323
         4         273         274         325         324
         4         274         275         326         325
         4         275         276         327         326
         4         276         277         328         327
         4         277         278         329         328
         4         278         279         330         329
         4         279         280         331         330
         4         280         281         332         331
         4         281         282         333         332
         4         282         283         334         333
         4         283         284         335         334
         4         284         285         336         335
         4         285         286         337         336
         4         286         287         338         337
         4         287         288         339         338
         4         288         289         340         339
         4         289         290         341         340
         4         290         291         342         341
         4         291         292         343         342
         4         292         293         344         343
         4         293         294         345         344
         4         294         295         346         345
         4         295         296         347         346
         4         296         297         348         347
         4         297         298         349         348
         4         298         299         350         349
         4         299         300         351         350
         4         300         301         352         351
         4         301         302         353         352
         4         302         303         354         353
         4         303         304         355         354
         4         304         305         356         355
         4         306         307         358         357
         4         307         308         359         358
         4         308         309         360         359
         4         309         310         361         360
         4         310         311         362         361
         4         311         312         363         362
         4         312         313         364         363
         4         313         314         365         364
         4         314         315         366         365
         4         315         316         367         366
         4         316         317         368         367
         4         317         318         369         368
         4         318         319         370         369
         4         319         320         371         370
         4         320         321         372         371
         4         321         322         373         372
         4         322         323         374         373
         4         323         324         375         374
         4         324         325         376         375
         4         325         326         377         376
         4         326         327         378         377
         4         327         328         379         378
         4         328         329         380         379
         4         329         330         381         380
         4         330         331         382         381
         4         331         332         383         382
         4         332         333         384         383
         4         333         334         385         384
         4         334         335         386         385
         4         335         336         387         386
         4         336         337         388         387
         4         337         338         389         388
         4         338         339         390         389
         4         339         340         391         390
         4         340         341         392         391
         4         341         342         393         392
         4         342         343         394         393
         4         343         344         395         394
         4         344         345         396         395
         4         345         346         397         396
         4         346         347         398         397
         4         347         348         399         398
         4         348         349         400         399
         4         349         350         401         400
         4         350         351         402         401
         4         351         352         403         402
         4         352         353         404         403
         4         353         354         405         404
         4         354         355         406         405
         4         355         356         407         406
         4         357         358         409         408
         4         358         359         410         409
         4         359         360         411         410
         4         360         361         412         411
         4         361         362         413         412
         4         362         363         414         413
         4         363         364         415         414
         4         364         365         416         415
         4         365         366         417         416
         4         366         367         418         417
         4         367         368         419         418
         4         368         369         420         419
         4         369         370         421         420
         4         370         371         422         421
         4         371         372         423         422
         4         372         373         424         423
         4         373         374         425         424
         4         374         375         426         425
         4         375         376         427         426
         4         376         377         428         427
         4         377         378         429         428
         4         378         379         430         429
         4         379         380         431         430
         4         380         381         432         431
         4         381         382         433         432
         4         382         383         434         433
         4         383         384         435         434
         4         384         385         436         435
         4         385         386         437         436
         4         386         387         438         437
         4         387         388         439         438
         4         388         389         440         439
         4         389         390         441         440
         4         390         391         442         441
         4         391         392         443         442
         4         392         393         444         443
         4         393         394         445         444
         4         394         395         446         445
         4         395         396         447         446
         4         396         397         448         447
         4         397         398         449         448
         4         398         399         450         449
         4         399         400         451         450
         4         400         401         452         451
         4         401         402         453         452
         4         402         403         454         453
         4         403         404         455         454
         4         404         405         456         455
         4         405         406         457         456
         4         406         407         458         457
         4         408         409         460         459
         4         409         410         461         460
         4         410         411         462         461
         4         411         412         463         462
         4         412         413         464         463
         4         413         414         465         464
         4         414         415         466         465
         4         415         416         467         466
         4         416         417         468         467
         4         417         418         469         468
         4         418         419         470         469
         4         419         420         471         470
         4         420         421         472         471
         4         421         422         473         472
         4         422         423         474         473
         4         423         424         475         474
         4         424         425         476         475
         4         425         426         477         476
         4         426         427         478         477
         4         427         428         479         478
         4         428         429         480         479
         4         429         430         481         480
         4         430         431         482         481
         4         431         432         483         482
         4         432         433         484         483
         4         433         434         485         484
         4         434         435         486         485
         4         435         436         487         486
         4         436         437         488         487
         4         437         438         489         488
         4         438         439         490         489
         4         439         440         491         490
         4         440         441         492         491
         4         441         442         493         492
         4         442         443         494         493
         4         443         444         495         494
         4         444         445         496         495
         4         445         446         497         496
         4         446         447         498         497
         4         447         448         499         498
         4         448         449         500         499
         4         449         450         501         500
         4         450         451         502         501
         4         451         452         503         502
         4         452         453         504         503
         4         453         454         505         504
         4         454         455         506         505
         4         455         456         507         506
         4         456         457         508         507
         4         457         458         509         508
         4         459         460         511         510
         4         460         461         512         511
         4         461         462         513         512
         4         462         463         514         513
         4         463         464         515         514
         4         464         465         516         515
         4         465         466         517         516
         4         466         467         518         517
         4         467         468         519         518
         4         468         469         520         519
         4         469         470         521         520
         4         470         471         522         521
         4         471         472         523         522
         4         472         473         524         523
         4         473         474         525         524
         4         474         475         526         525
         4         475         476         527         526
         4         476         477         528         527
         4         477         478         529         528
         4         478         479         530         529
         4         479         480         531         530
         4         480         481         532         531
         4         481         482         533         532
         4         482         483         534         533
         4         483         484         535         534
         4         484         485         536         535
         4         485         486         537         536
         4         486         487         538         537
         4         487         488         539         538
         4         488         489         540         539
         4         489         490         541         540
         4         490         491         542         541
         4         491         492         543         542
         4         492         493         544         543
         4         493         494         545         544
         4         494         495         546         545
         4         495         496         547         546
         4         496         497         548         547
         4         497         498         549         548
         4         498         499         550         549
         4         499         500         551         550
         4         500         501         552         551
         4         501         502         553         552
         4         502         503         554         553
         4         503         504         555         554
         4         504         505         556         555
         4         505         506         557         556
         4         506         507         558         557
         4         507         508         559         558
         4         508         509         560         559
         4         510         511         562         561
         4         511         512         563         562
         4         512         513         564         563
         4         513         514         565         564
         4         514         515         566         565
         4         515         516         567         566
         4         516         517         568         567
         4         517         518         569         568
         4         518         519         570         569
         4         519         520         571         570
         4         520         521         572         571
         4         521         522         573         572
         4         522         523         574         573
         4         523         524         575         574
         4         524         525         576         575
         4         525         526         577         576
         4         526         527         578         577
         4         527         528         579         578
         4         528         529         580         579
         4         529         530         581         580
         4         530         531         582         581
         4         531         532         583         582
         4         532         533         584         583
         4         533         534         585         584
         4         534         535         586         585
         4         535         536         587         586
         4         536         537         588         587
         4         537         538         589         588
         4         538         539         590         589
         4         539         540         591         590
         4         540         541         592         591
         4         541         542         593         592
         4         542         543         594         593
         4         543         544         595         594
         4         544         545         596         595
         4         545         546         597         596
         4         546         547         598         597
         4         547         548         599         598
         4         548         549         600         599
         4         549         550         601         600
         4         550         551         602         601
         4         551         552         603         602
         4         552         553         604         603
         4         553         554         605         604
         4         554         555         606         605
         4         555         556         607         606
         4         556         557         608         607
         4         557         558         609         608
         4         558         559         610         609
         4         559         560         611         610
         4         561         562         613         612
         4         562         563         614         613
         4         563         564         615         614
         4         564         565         616         615
         4         565         566         617         616
         4         566         567         618         617
         4         567         568         619         618
         4         568         569         620         619
         4         569         570         621         620
         4         570         571         622         621
         4         571         572         623         622
         4         572         573         624         623
         4         573         574         625         624
         4         574         575         626         625
         4         575         576         627         626
         4         576         577         628         627
         4         577         578         629         628
         4         578         579         630         629
         4         579         580         631         630
         4         580         581         632         631
         4         581         582         633         632
         4         582         583         634         633
         4         583         584         635         634
         4         584         585         636         635
         4         585         586         637         636
         4         586         587         638         637
         4         587         588         639         638
         4         588         589         640         639
         4         589         590         641         640
         4         590         591         642         641
         4         591         592         643         642
         4         592         593         644         643
         4         593         594         645         644
         4         594         595         646         645
         4         595         596         647         646
         4         596         597         648         647
         4         597         598         649         648
         4         598         599         650         649
         4         599         600         651         650
         4         600         601         652         651
         4         601         602         653         652
         4         602         603         654         653
         4         603         604         655         654
         4         604         605         656         655
         4         605         606         657         656
         4         606         607         658         657
         4         607         608         659         658
         4         608         609         660         659
         4         609         610         661         660
         4         610         611         662         661
         4         612         613         664         663
         4         613         614         665         664
         4         614         615         666         665
         4         615         616         667         666
         4         616         617         668         667
         4         617         618         669         668
         4         618         619         670         669
         4         619         620         671         670
         4         620         621         672         671
         4         621         622         673         672
         4         622         623         674         673
         4         623         624         675         674
         4         624         625         676         675
         4         625         626         677         676
         4         626         627         678         677
         4         627         628         679         678
         4         628         629         680         679
         4         629         630         681         680
         4         630         631         682         681
         4         631         632         683         682
         4         632         633         684         683
         4         633         634         685         684
         4         634         635         686         685
         4         635         636         687         686
         4         636         637         688         687
         4         637         638         689         688
         4         638         639         690         689
         4         639         640         691         690
         4         640         641         692         691
         4         641         642         693         692
         4         642         643         694         693
         4         643         644         695         694
         4         644         645         696         695
         4         645         646         697         696
         4         646         647         698         697
         4         647         648         699         698
         4         648         649         700         699
         4         649         650         701         700
         4         650         651         702         701
         4         651         652         703         702
         4         652         653         704         703
         4         653         654         705         704
         4         654         655         706         705
         4         655         656         707         706
         4         656         657         708         707
         4         657         658         709         708
         4         658         659         710         709
         4         659         660         711         710
         4         660         661         712         711
         4         661         662         713         712
         4         663         664         715         714
         4         664         665         716         715
         4         665         666         717         716
         4         666         667         718         717
         4         667         668         719         718
         4         668         669         720         719
         4         669         670         721         720
         4         670         671         722         721
         4         671         672         723         722
         4         672         673         724         723
         4         673         674         725         724
         4         674         675         726         725
         4         675         676         727         726
         4         676         677         728         727
         4         677         678         729         728
         4         678         679         730         729
         4         679         680         731         730
         4         680         681         732         731
         4         681         682         733         732
         4         682         683         734         733
         4         683         684         735         734
         4         684         685         736         735
         4         685         686         737         736
         4         686         687         738         737
         4         687         688         739         738
         4         688         689         740         739
         4         689         690         741         740
         4         690         691         742         741
         4         691         692         743         742
         4         692         693         744         743
         4         693         694         745         744
         4         694         695         746         745
         4         695         696         747         746
         4         696         697         748         747
         4         697         698         749         748
         4         698         699         750         749
         4         699         700         751         750
         4         700         701         752         751
         4         701         702         753         752
         4         702         703         754         753
         4         703         704         755         754
         4         704         705         756         755
         4         705         706         757         756
         4         706         707         758         757
         4         707         708         759         758
         4         708         709         760         759
         4         709         710         761         760
         4         710         711         762         761
         4         711         712         763         762
         4         712         713         764         763
         4         714         715         766         765
         4         715         716         767         766
         4         716         717         768         767
         4         717         718         769         768
         4         718         719         770         769
         4         719         720         771         770
         4         720         721         772         771
         4         721         722         773         772
         4         722         723         774         773
         4         723         724         775         774
         4         724         725         776         775
         4         725         726         777         776
         4         726         727         778         777
         4         727         728         779         778
         4         728         729         780         779
         4         729         730         781         780
         4         730         731         782         781
         4         731         732         783         782
         4         732         733         784         783
         4         733         734         785         784
         4         734         735         786         785
         4         735         736         787         786
         4         736         737         788         787
         4         737         738         789         788
         4         738         739         790         789
         4         739         740         791         790
         4         740         741         792         791
         4         741         742         793         792
         4         742         743         794         793
         4         743         744         795         794
         4         744         745         796         795
         4         745         746         797         796
         4         746         747         798         797
         4         747         748         799         798
         4         748         749         800         799
         4         749         750         801         800
         4         750         751         802         801
         4         751         752         803         802
         4         752         753         804         803
         4         753         754         805         804
         4         754         755         806         805
         4         755         756         807         806
         4         756         757         808         807
         4         757         758         809         808
         4         758         759         810         809
         4         759         760         811         810
         4         760         761         812         811
         4         761         762         813         812
         4         762         763         814         813
         4         763         764         815         814
         4         765         766         817         816
         4         766         767         818         817
         4         767         768         819         818
         4         768         769         820         819
         4         769         770         821         820
         4         770         771         822         821
         4         771         772         823         822
         4         772         773         824         823
         4         773         774         825         824
         4         774         775         826         825
         4         775         776         827         826
         4         776         777         828         827
         4         777         778         829         828
         4         778         779         830         829
         4         779         780         831         830
         4         780         781         832         831
         4         781         782         833         832
         4         782         783         834         833
         4         783         784         835         834
         4         784         785         836         835
         4         785         786         837         836
         4         786         787         838         837
         4         787         788         839         838
         4         788         789         840         839
         4         789         790         841         840
         4         790         791         842         841
         4         791         792         843         842
         4         792         793         844         843
         4         793         794         845         844
         4         794         795         846         845
         4         795         796         847         846
         4         796         797         848         847
         4         797         798         849         848
         4         798         799         850         849
         4         799         800         851         850
         4         800         801         852         851
         4         801         802         853         852
         4         802         803         854         853
         4         803         804         855         854
         4         804         805         856         855
         4         805         806         857         856
         4         806         807         858         857
         4         807         808         859         858
         4         808         809         860         859
         4         809         810         861         860
         4         810         811         862         861
         4         811         812         863         862
         4         812         813         864         863
         4         813         814         865         864
         4         814         815         866         865
         4         816         817         868         867
         4         817         818         869         868
         4         818         819         870         869
         4         819         820         871         870
         4         820         821         872         871
         4         821         822         873         872
         4         822         823         874         873
         4         823         824         875         874
         4         824         825         876         875
         4         825         826         877         876
         4         826         827         878         877
         4         827         828         879         878
         4         828         829         880         879
         4         829         830         881         880
         4         830         831         882         881
         4         831         832         883         882
         4         832         833         884         883
         4         833         834         885         884
         4         834         835         886         885
         4         835         836         887         886
         4         836         837         888         887
         4         837         838         889         888
         4         838         839         890         889
         4         839         840         891         890
         4         840         841         892         891
         4         841         842         893         892
         4         842         843         894         893
         4         843         844         895         894
         4         844         845         896         895
         4         845         846         897         896
         4         846         847         898         897
         4         847         848         899         898
         4         848         849         900         899
         4         849         850         901         900
         4         850         851         902         901
         4         851         852         903         902
         4         852         853         904         903
         4         853         854         905         904
         4         854         855         906         905
         4         855         856         907         906
         4         856         857         908         907
         4         857         858         909         908
         4         858         859         910         909
         4         859         860         911         910
         4         860         861         912         911
         4         861         862         913         912
         4         862         863         914         913
         4         863         864         915         914
         4         864         865         916         915
         4         865         866         917         916
         4         867         868         919         918
         4         868         869         920         919
         4         869         870         921         920
         4         870         871         922         921
         4         871         872         923         922
         4         872         873         924         923
         4         873         874         925         924
         4         874         875         926         925
         4         875         876         927         926
         4         876         877         928         927
         4         877         878         929         928
         4         878         879         930         929
         4         879         880         931         930
         4         880         881         932         931
         4         881         882         933         932
         4         882         883         934         933
         4         883         884         935         934
         4         884         885         936         935
         4         885         886         937         936
         4         886         887         938         937
         4         887         888         939         938
         4         888         889         940         939
         4         889         890         941         940
         4         890         891         942         941
         4         891         892         943         942
         4         892         893         944         943
         4         893         894         945         944
         4         894         895         946         945
         4         895         896         947         946
         4         896         897         948         947
         4         897         898         949         948
         4         898         899         950         949
         4         899         900         951         950
         4         900         901         952         951
         4         901         902         953         952
         4         902         903         954         953
         4         903         904         955         954
         4         904         905         956         955
         4         905         906         957         956
         4         906         907         958         957
         4         907         908         959         958
         4         908         909         960         959
         4         909         910         961         960
         4         910         911         962         961
         4         911         912         963         962
         4         912         913         964         963
         4         913         914         965         964
         4         914         915         966         965
         4         915         916         967         966
         4         916         917         968         967
         4         918         919         970         969
         4         919         920         971         970
         4         920         921         972         971
         4         921         922         973         972
         4         922         923         974         973
         4         923         924         975         974
         4         924         925         976         975
         4         925         926         977         976
         4         926         927         978         977
         4         927         928         979         978
         4         928         929         980         979
         4         929         930         981         980
         4         930         931         982         981
         4         931         932         983         982
         4         932         933         984         983
         4         933         934         985         984
         4         934         935         986         985
         4         935         936         987         986
         4         936         937         988         987
         4         937         938         989         988
         4         938         939         990         989
         4         939         940         991         990
         4         940         941         992         991
         4         941         942         993         992
         4         942         943         994         993
         4         943         944         995         994
         4         944         945         996         995
         4         945         946         997         996
         4         946         947         998         997
         4         947         948         999         998
         4         948         949        1000         999
         4         949         950        1001        1000
         4         950         951        1002        1001
         4         951         952        1003        1002
         4         952         953        1004        1003
         4         953         954        1005        1004
         4         954         955        1006        1005
         4         955         956        1007        1006
         4         956         957        1008        1007
         4         957         958        1009        1008
         4         958         959        1010        1009
         4         959         960        1011        1010
         4         960         961        1012        1011
         4         961         962        1013        1012
         4         962         963        1014        1013
         4         963         964        1015        1014
         4         964         965        1016        1015
         4         965         966        1017        1016
         4         966         967        1018        1017
         4         967         968        1019        1018
         4         969         970        1021        1020
         4         970         971        1022        1021
         4         971         972        1023        1022
         4         972         973        1024        1023
         4         973         974        1025        1024
         4         974         975        1026        1025
         4         975         976        1027        1026
         4         976         977        1028        1027
         4         977         978        1029        1028
         4         978         979        1030        1029
         4         979         980        1031        1030
         4         980         981        1032        1031
         4         981         982        1033        1032
         4         982         983        1034        1033
         4         983         984        1035        1034
         4         984         985        1036        1035
         4         985         986        1037        1036
         4         986         987        1038        1037
         4         987         988        1039        1038
         4         988         989        1040        1039
         4         989         990        1041        1040
         4         990         991        1042        1041
         4         991         992        1043        1042
         4         992         993        1044        1043
         4         993         994        1045        1044
         4         994         995        1046        1045
         4         995         996        1047        1046
         4         996         997        1048        1047
         4         997         998        1049        1048
         4         998         999        1050        1049
         4         999        1000        1051        1050
         4        1000        1001        1052        1051
         4        1001        1002        1053        1052
         4        1002        1003        1054        1053
         4        1003        1004        1055        1054
         4        1004        1005        1056        1055
         4        1005        1006        1057        1056
         4        1006        1007        1058        1057
         4        1007        1008        1059        1058
         4        1008        1009        1060        1059
         4        1009        1010        1061        1060
         4        1010        1011        1062        1061
         4        1011        1012        1063        1062
         4        1012        1013        1064        1063
         4        1013        1014        1065        1064
         4        1014        1015        1066        1065
         4        1015        1016        1067        1066
         4        1016        1017        1068        1067
         4        1017        1018        1069        1068
         4        1018        1019        1070        1069
         4        1020        1021        1072        1071
         4        1021        1022        1073        1072
         4        1022        1023        1074        1073
         4        1023        1024        1075        1074
         4        1024        1025        1076        1075
         4        1025        1026        1077        1076
         4        1026        1027        1078        1077
         4        1027        1028        1079        1078
         4        1028        1029        1080        1079
         4        1029        1030        1081        1080
         4        1030        1031        1082        1081
         4        1031        1032        1083        1082
         4        1032        1033        1084        1083
         4        1033        1034        1085        1084
         4        1034        1035        1086        1085
         4        1035        1036        1087        1086
         4        1036        1037        1088        1087
         4        1037        1038        1089        1088
         4        1038        1039        1090        1089
         4        1039        1040        1091        1090
         4        1040        1041        1092        1091
         4        1041        1042        1093        1092
         4        1042        1043        1094        1093
         4        1043        1044        1095        1094
         4        1044        1045        1096        1095
         4        1045        1046        1097        1096
         4        1046        1047        1098        1097
         4        1047        1048        1099        1098
         4        1048        1049        1100        1099
         4        1049        1050        1101        1100
         4        1050        1051        1102        1101
         4        1051        1052        1103        1102
         4        1052        1053        1104        1103
         4        1053        1054        1105        1104
         4        1054        1055        1106        1105
         4        1055        1056        1107        1106
         4        1056        1057        1108        1107
         4        1057        1058        1109        1108
         4        1058        1059        1110        1109
         4        1059        1060        1111        1110
         4        1060        1061        1112        1111
         4        1061        1062        1113        1112
         4        1062        1063        1114        1113
         4        1063        1064        1115        1114
         4        1064        1065        1116        1115
         4        1065        1066        1117        1116
         4        1066        1067        1118        1117
         4        1067        1068        1119        1118
         4        1068        1069        1120        1119
         4        1069        1070        1121        1120
         4        1071        1072        1123        1122
         4        1072        1073        1124        1123
         4        1073        1074        1125        1124
         4        1074        1075        1126        1125
         4        1075        1076        1127        1126
         4        1076        1077        1128        1127
         4        1077        1078        1129        1128
         4        1078        1079        1130        1129
         4        1079        1080        1131        1130
         4        1080        1081        1132        1131
         4        1081        1082        1133        1132
         4        1082        1083        1134        1133
         4        1083        1084        1135        1134
         4        1084        1085        1136        1135
         4        1085        1086        1137        1136
         4        1086        1087        1138        1137
         4        1087        1088        1139        1138
         4        1088        1089        1140        1139
         4        1089        1090        1141        1140
         4        1090        1091        1142        1141
         4        1091        1092        1143        1142
         4        1092        1093        1144        1143
         4        1093        1094        1145        1144
         4        1094        1095        1146        1145
         4        1095        1096        1147        1146
         4        1096        1097        1148        1147
         4        1097        1098        1149        1148
         4        1098        1099        1150        1149
         4        1099        1100        1151        1150
         4        1100        1101        1152        1151
         4        1101        1102        1153        1152
         4        1102        1103        1154        1153
         4        1103        1104        1155        1154
         4        1104        1105        1156        1155
         4        1105        1106        1157        1156
         4        1106        1107        1158        1157
         4        1107        1108        1159        1158
         4        1108        1109        1160        1159
         4        1109        1110        1161        1160
         4        1110        1111        1162        1161
         4        1111        1112        1163        1162
         4        1112        1113        1164        1163
         4        1113        1114        1165        1164
         4        1114        1115        1166        1165
         4        1115        1116        1167        1166
         4        1116        1117        1168        1167
         4        1117        1118        1169        1168
         4        1118        1119        1170        1169
         4        1119        1120        1171        1170
         4        1120        1121        1172        1171
         4        1122        1123        1174        1173
         4        1123        1124        1175        1174
         4        1124        1125        1176        1175
         4        1125        1126        1177        1176
         4        1126        1127        1178        1177
         4        1127        1128        1179        1178
         4        1128        1129        1180        1179
         4        1129        1130        1181        1180
         4        1130        1131        1182        1181
         4        1131        1132        1183        1182
         4        1132        1133        1184        1183
         4        1133        1134        1185        1184
         4        1134        1135        1186        1185
         4        1135        1136        1187        1186
         4        1136        1137        1188        1187
         4        1137        1138        1189        1188
         4        1138        1139        1190        1189
         4        1139        1140        1191        1190
         4        1140        1141        1192        1191
         4        1141        1142        1193        1192
         4        1142        1143        1194        1193
         4        1143        1144        1195        1194
         4        1144        1145        1196        1195
         4        1145        1146        1197        1196
         4        1146        1147        1198        1197
         4        1147        1148        1199        1198
         4        1148        1149        1200        1199
         4        1149        1150        1201        1200
         4        1150        1151        1202        1201
         4        1151        1152        1203        1202
         4        1152        1153        1204        1203
         4        1153        1154        1205        1204
         4        1154        1155        1206        1205
         4        1155        1156        1207        1206
         4        1156        1157        1208        1207
         4        1157        1158        1209        1208
         4        1158        1159        1210        1209
         4        1159        1160        1211        1210
         4        1160        1161        1212        1211
         4        1161        1162        1213        1212
         4        1162        1163        1214        1213
         4        1163        1164        1215        1214
         4        1164        1165        1216        1215
         4        1165        1166        1217        1216
         4        1166        1167        1218        1217
         4        1167        1168        1219        1218
         4        1168        1169        1220        1219
         4        1169        1170        1221        1220
         4        1170        1171        1222        1221
         4        1171        1172        1223        1222
         4        1173        1174        1225        1224
         4        1174        1175        1226        1225
         4        1175        1176        1227        1226
         4        1176        1177        1228        1227
         4        1177        1178        1229        1228
         4        1178        1179        1230        1229
         4        1179        1180        1231        1230
         4        1180        1181        1232        1231
         4        1181        1182        1233        1232
         4        1182        1183        1234        1233
         4        1183        1184        1235        1234
         4        1184        1185        1236        1235
         4        1185        1186        1237        1236
         4        1186        1187        1238        1237
         4        1187        1188        1239        1238
         4        1188        1189        1240        1239
         4        1189        1190        1241        1240
         4        1190        1191        1242        1241
         4        1191        1192        1243        1242
         4        1192        1193        1244        1243
         4        1193        1194        1245        1244
         4        1194        1195        1246        1245
         4        1195        1196        1247        1246
         4        1196        1197        1248        1247
         4        1197        1198        1249        1248
         4        1198        1199        1250        1249
         4        1199        1200        1251        1250
         4        1200        1201        1252        1251
         4        1201        1202        1253        1252
         4        1202        1203        1254        1253
         4        1203        1204        1255        1254
         4        1204        1205        1256        1255
         4        1205        1206        1257        1256
         4        1206        1207        1258        1257
         4        1207        1208        1259        1258
         4        1208        1209        1260        1259
         4        1209        1210        1261        1260
         4        1210        1211        1262        1261
         4        1211        1212        1263        1262
         4        1212        1213        1264        1263
         4        1213        1214        1265        1264
         4        1214        1215        1266        1265
         4        1215        1216        1267        1266
         4        1216        1217        1268        1267
         4        1217        1218        1269        1268
         4        1218        1219        1270        1269
         4        1219        1220        1271        1270
         4        1220        1221        1272        1271
         4        1221        1222        1273        1272
         4        1222        1223        1274        1273
         4        1224        1225        1276        1275
         4        1225        1226        1277        1276
         4        1226        1227        1278        1277
         4        1227        1228        1279        1278
         4        1228        1229        1280        1279
         4        1229        1230        1281        1280
         4        1230        1231        1282        1281
         4        1231        1232        1283        1282
         4        1232        1233        1284        1283
         4        1233        1234        1285        1284
         4        1234        1235        1286        1285
         4        1235        1236        1287        1286
         4        1236        1237        1288        1287
         4        1237        1238        1289        1288
         4        1238        1239        1290        1289
         4        1239        1240        1291        1290
         4        1240        1241        1292        1291
         4        1241        1242        1293        1292
         4        1242        1243        1294        1293
         4        1243        1244        1295        1294
         4        1244        1245        1296        1295
         4        1245        1246        1297        1296
         4        1246        1247        1298        1297
         4        1247        1248        1299        1298
         4        1248        1249        1300        1299
         4        1249        1250        1301        1300
         4        1250        1251        1302        1301
         4        1251        1252        1303        1302
         4        1252        1253        1304        1303
         4        1253        1254        1305        1304
         4        1254        1255        1306        1305
         4        1255        1256        1307        1306
         4        1256        1257        1308        1307
         4        1257        1258        1309        1308
         4        1258        1259        1310        1309
         4        1259        1260        1311        1310
         4        1260        1261        1312        1311
         4        1261        1262        1313        1312
         4        1262        1263        1314        1313
         4        1263        1264        1315        1314
         4        1264        1265        1316        1315
         4        1265        1266        1317        1316
         4        1266        1267        1318        1317
         4        1267        1268        1319        1318
         4        1268        1269        1320        1319
         4        1269        1270        1321        1320
         4        1270        1271        1322        1321
         4        1271        1272        1323        1322
         4        1272        1273        1324        1323
         4        1273        1274        1325        1324
         4        1275        1276        1327        1326
         4        1276        1277        1328        1327
         4        1277        1278        1329        1328
         4        1278        1279        1330        1329
         4        1279        1280        1331        1330
         4        1280        1281        1332        1331
         4        1281        1282        1333        1332
         4        1282        1283        1334        1333
         4        1283        1284        1335        1334
         4        1284        1285        1336        1335
         4        1285        1286        1337        1336
         4        1286        1287        1338        1337
         4        1287        1288        1339        1338
         4        1288        1289        1340        1339
         4        1289        1290        1341        1340
         4        1290        1291        1342        1341
         4        1291        1292        1343        1342
         4        1292        1293        1344        1343
         4        1293        1294        1345        1344
         4        1294        1295        1346        1345
         4        1295        1296        1347        1346
         4        1296        1297        1348        1347
         4        1297        1298        1349        1348
         4        1298        1299        1350        1349
         4        1299        1300        1351        1350
         4        1300        1301        1352        1351
         4        1301        1302        1353        1352
         4        1302        1303        1354        1353
         4        1303        1304        1355        1354
         4        1304        1305        1356        1355
         4        1305        1306        1357        1356
         4        1306        1307        1358        1357
         4        1307        1308        1359        1358
         4        1308        1309        1360        1359
         4        1309        1310        1361        1360
         4        1310        1311        1362        1361
         4        1311        1312        1363        1362
         4        1312        1313        1364        1363
         4        1313        1314        1365        1364
         4        1314        1315        1366        1365
         4        1315        1316        1367        1366
         4        1316        1317        1368        1367
         4        1317        1318        1369        1368
         4        1318        1319        1370        1369
         4        1319        1320        1371        1370
         4        1320        1321        1372        1371
         4        1321        1322        1373        1372
         4        1322        1323        1374        1373
         4        1323        1324        1375        1374
         4        1324        1325        1376        1375
         4        1326        1327        1378        1377
         4        1327        1328        1379        1378
         4        1328        1329        1380        1379
         4        1329        1330        1381        1380
         4        1330        1331        1382        1381
         4        1331        1332        1383        1382
         4        1332        1333        1384        1383
         4        1333        1334        1385        1384
         4        1334        1335        1386        1385
         4        1335        1336        1387        1386
         4        1336        1337        1388        1387
         4        1337        1338        1389        1388
         4        1338        1339        1390        1389
         4        1339        1340        1391        1390
         4        1340        1341        1392        1391
         4        1341        1342        1393        1392
         4        1342        1343        1394        1393
         4        1343        1344        1395        1394
         4        1344        1345        1396        1395
         4        1345        1346        1397        1396
         4        1346        1347        1398        1397
         4        1347        1348        1399        1398
         4        1348        1349        1400        1399
         4        1349        1350        1401        1400
         4        1350        1351        1402        1401
         4        1351        1352        1403        1402
         4        1352        1353        1404        1403
         4        1353        1354        1405        1404
         4        1354        1355        1406        1405
         4        1355        1356        1407        1406
         4        1356        1357        1408        1407
         4        1357        1358        1409        1408
         4        1358        1359        1410        1409
         4        1359        1360        1411        1410
         4        1360        1361        1412        1411
         4        1361        1362        1413        1412
         4        1362        1363        1414        1413
         4        1363        1364        1415        1414
         4        1364        1365        1416        1415
         4        1365        1366        1417        1416
         4        1366        1367        1418        1417
         4        1367        1368        1419        1418
         4        1368        1369        1420        1419
         4        1369        1370        1421        1420
         4        1370        1371        1422        1421
         4        1371        1372        1423        1422
         4        1372        1373        1424        1423
         4        1373        1374        1425        1424
         4        1374        1375        1426        1425
         4        1375        1376        1427        1426
         4        1377        1378        1429        1428
         4        1378        1379        1430        1429
         4        1379        1380        1431        1430
         4        1380        1381        1432        1431
         4        1381        1382        1433        1432
         4        1382        1383        1434        1433
         4        1383        1384        1435        1434
         4        1384        1385        1436        1435
         4        1385        1386        1437        1436
         4        1386        1387        1438        1437
         4        1387        1388        1439        1438
         4        1388        1389        1440        1439
         4        1389        1390        1441        1440
         4        1390        1391        1442        1441
         4        1391        1392        1443        1442
         4        1392        1393        1444        1443
         4        1393        1394        1445        1444
         4        1394        1395        1446        1445
         4        1395        1396        1447        1446
         4        1396        1397        1448        1447
         4        1397        1398        1449        1448
         4        1398        1399        1450        1449
         4        1399        1400        1451        1450
         4        1400        1401        1452        1451
         4        1401        1402        1453        1452
         4        1402        1403        1454        1453
         4        1403        1404        1455        1454
         4        1404        1405        1456        1455
         4        1405        1406        1457        1456
         4        1406        1407        1458        1457
         4        1407        1408        1459        1458
         4        1408        1409        1460        1459
         4        1409        1410        1461        1460
         4        1410        1411        1462        1461
         4        1411        1412        1463        1462
         4        1412        1413        1464        1463
         4        1413        1414        1465        1464
         4        1414        1415        1466        1465
         4        1415        1416        1467        1466
         4        1416        1417        1468        1467
         4        1417        1418        1469        1468
         4        1418        1419        1470        1469
         4        1419        1420        1471        1470
         4        1420        1421        1472        1471
         4        1421        1422        1473        1472
         4        1422        1423        1474        1473
         4        1423        1424        1475        1474
         4        1424        1425        1476        1475
         4        1425        1426        1477        1476
         4        1426        1427        1478        1477
         4        1428        1429        1480        1479
         4        1429        1430        1481        1480
         4        1430        1431        1482        1481
         4        1431        1432        1483        1482
         4        1432        1433        1484        1483
         4        1433        1434        1485        1484
         4        1434        1435        1486        1485
         4        1435        1436        1487        1486
         4        1436        1437        1488        1487
         4        1437        1438        1489        1488
         4        1438        1439        1490        1489
         4        1439        1440        1491        1490
         4        1440        1441        1492        1491
         4        1441        1442        1493        1492
         4        1442        1443        1494        1493
         4        1443        1444        1495        1494
         4        1444        1445        1496        1495
         4        1445        1446        1497        1496
         4        1446        1447        1498        1497
         4        1447        1448        1499        1498
         4        1448        1449        1500        1499
         4        1449        1450        1501        1500
         4        1450        1451        1502        1501
         4        1451        1452        1503        1502
         4        1452        1453        1504        1503
         4        1453        1454        1505        1504
         4        1454        1455        1506        1505
         4        1455        1456        1507        1506
         4        1456        1457        1508        1507
         4        1457        1458        1509        1508
         4        1458        1459        1510        1509
         4        1459        1460        1511        1510
         4        1460        1461        1512        1511
         4        1461        1462        1513        1512
         4        1462        1463        1514        1513
         4        1463        1464        1515        1514
         4        1464        1465        1516        1515
         4        1465        1466        1517        1516
         4        1466        1467        1518        1517
         4        1467        1468        1519        1518
         4        1468        1469        1520        1519
         4        1469        1470        1521        1520
         4        1470        1471        1522        1521
         4        1471        1472        1523        1522
         4        1472        1473        1524        1523
         4        1473        1474        1525        1524
         4        1474        1475        1526        1525
         4        1475        1476        1527        1526
         4        1476        1477        1528        1527
         4        1477        1478        1529        1528
         4        1479        1480        1531        1530
         4        1480        1481        1532        1531
         4        1481        1482        1533        1532
         4        1482        1483        1534        1533
         4        1483        1484        1535        1534
         4        1484        1485        1536        1535
         4        1485        1486        1537        1536
         4        1486        1487        1538        1537
         4        1487        1488        1539        1538
         4        1488        1489        1540        1539
         4        1489        1490        1541        1540
         4        1490        1491        1542        1541
         4        1491        1492        1543        1542
         4        1492        1493        1544        1543
         4        1493        1494        1545        1544
         4        1494        1495        1546        1545
         4        1495        1496        1547        1546
         4        1496        1497        1548        1547
         4        1497        1498        1549        1548
         4        1498        1499        1550        1549
         4        1499        1500        1551        1550
         4        1500        1501        1552        1551
         4        1501        1502        1553        1552
         4        1502        1503        1554        1553
         4        1503        1504        1555        1554
         4        1504        1505        1556        1555
         4        1505        1506        1557        1556
         4        1506        1507        1558        1557
         4        1507        1508        1559        1558
         4        1508        1509        1560        1559
         4        1509        1510        1561        1560
         4        1510        1511        1562        1561
         4        1511        1512        1563        1562
         4        1512        1513        1564        1563
         4        1513        1514        1565        1564
         4        1514        1515        1566        1565
         4        1515        1516        1567        1566
         4        1516        1517        1568        1567
         4        1517        1518        1569        1568
         4        1518        1519        1570        1569
         4        1519        1520        1571        1570
         4        1520        1521        1572        1571
         4        1521        1522        1573        1572
         4        1522        1523        1574        1573
         4        1523        1524        1575        1574
         4        1524        1525        1576        1575
         4        1525        1526        1577        1576
         4        1526        1527        1578        1577
         4        1527        1528        1579        1578
         4        1528        1529        1580        1579
         4        1530        1531        1582        1581
         4        1531        1532        1583        1582
         4        1532        1533        1584        1583
         4        1533        1534        1585        1584
         4        1534        1535        1586        1585
         4        1535        1536        1587        1586
         4        1536        1537        1588        1587
         4        1537        1538        1589        1588
         4        1538        1539        1590        1589
         4        1539        1540        1591        1590
         4        1540        1541        1592        1591
         4        1541        1542        1593        1592
         4        1542        1543        1594        1593
         4        1543        1544        1595        1594
         4        1544        1545        1596        1595
         4        1545        1546        1597        1596
         4        1546        1547        1598        1597
         4        1547        1548        1599        1598
         4        1548        1549        1600        1599
         4        1549        1550        1601        1600
         4        1550        1551        1602        1601
         4        1551        1552        1603        1602
         4        1552        1553        1604        1603
         4        1553        1554        1605        1604
         4        1554        1555        1606        1605
         4        1555        1556        1607        1606
         4        1556        1557        1608        1607
         4        1557        1558        1609        1608
         4        1558        1559        1610        1609
         4        1559        1560        1611        1610
         4        1560        1561        1612        1611
         4        1561        1562        1613        1612
         4        1562        1563        1614        1613
         4        1563        1564        1615        1614
         4        1564        1565        1616        1615
         4        1565        1566        1617        1616
         4        1566        1567        1618        1617
         4        1567        1568        1619        1618
         4        1568        1569        1620        1619
         4        1569        1570        1621        1620
         4        1570        1571        1622        1621
         4        1571        1572        1623        1622
         4        1572        1573        1624        1623
         4        1573        1574        1625        1624
         4        1574        1575        1626        1625
         4        1575        1576        1627        1626
         4        1576        1577        1628        1627
         4        1577        1578        1629        1628
         4        1578        1579        1630        1629
         4        1579        1580        1631        1630
         4        1581        1582        1633        1632
         4        1582        1583        1634        1633
         4        1583        1584        1635        1634
         4        1584        1585        1636        1635
         4        1585        1586        1637        1636
         4        1586        1587        1638        1637
         4        1587        1588        1639        1638
         4        1588        1589        1640        1639
         4        1589        1590        1641        1640
         4        1590        1591        1642        1641
         4        1591        1592        1643        1642
         4        1592        1593        1644        1643
         4        1593        1594        1645        1644
         4        1594        1595        1646        1645
         4        1595        1596        1647        1646
         4        1596        1597        1648        1647
         4        1597        1598        1649        1648
         4        1598        1599        1650        1649
         4        1599        1600        1651        1650
         4        1600        1601        1652        1651
         4        1601        1602        1653        1652
         4        1602        1603        1654        1653
         4        1603        1604        1655        1654
         4        1604        1605        1656        1655
         4        1605        1606        1657        1656
         4        1606        1607        1658        1657
         4        1607        1608        1659        1658
         4        1608        1609        1660        1659
         4        1609        1610        1661        1660
         4        1610        1611        1662        1661
         4        1611        1612        1663        1662
         4        1612        1613        1664        1663
         4        1613        1614        1665        1664
         4        1614        1615        1666        1665
         4        1615        1616        1667        1666
         4        1616        1617        1668        1667
         4        1617        1618        1669        1668
         4        1618        1619        1670        1669
         4        1619        1620        1671        1670
         4        1620        1621        1672        1671
         4        1621        1622        1673        1672
         4        1622        1623        1674        1673
         4        1623        1624        1675        1674
         4        1624        1625        1676        1675
         4        1625        1626        1677        1676
         4        1626        1627        1678        1677
         4        1627        1628        1679        1678
         4        1628        1629        1680        1679
         4        1629        1630        1681        1680
         4        1630        1631        1682        1681
         4        1632        1633        1684        1683
         4        1633        1634        1685        1684
         4        1634        1635        1686        1685
         4        1635        1636        1687        1686
         4        1636        1637        1688        1687
         4        1637        1638        1689        1688
         4        1638        1639        1690        1689
         4        1639        1640        1691        1690
         4        1640        1641        1692        1691
         4        1641        1642        1693        1692
         4        1642        1643        1694        1693
         4        1643        1644        1695        1694
         4        1644        1645        1696        1695
         4        1645        1646        1697        1696
         4        1646        1647        1698        1697
         4        1647        1648        1699        1698
         4        1648        1649        1700        1699
         4        1649        1650        1701        1700
         4        1650        1651        1702        1701
         4        1651        1652        1703        1702
         4        1652        1653        1704        1703
         4        1653        1654        1705        1704
         4        1654        1655        1706        1705
         4        1655        1656        1707        1706
         4        1656        1657        1708        1707
         4        1657        1658        1709        1708
         4        1658        1659        1710        1709
         4        1659        1660        1711        1710
         4        1660        1661        1712        1711
         4        1661        1662        1713        1712
         4        1662        1663        1714        1713
         4        1663        1664        1715        1714
         4        1664        1665        1716        1715
         4        1665        1666        1717        1716
         4        1666        1667        1718        1717
         4        1667        1668        1719        1718
         4        1668        1669        1720        1719
         4        1669        1670        1721        1720
         4        1670        1671        1722        1721
         4        1671        1672        1723        1722
         4        1672        1673        1724        1723
         4        1673        1674        1725        1724
         4        1674        1675        1726        1725
         4        1675        1676        1727        1726
         4        1676        1677        1728        1727
         4        1677        1678        1729        1728
         4        1678        1679        1730        1729
         4        1679        1680        1731        1730
         4        1680        1681        1732        1731
         4        1681        1682        1733        1732
         4        1683        1684        1735        1734
         4        1684        1685        1736        1735
         4        1685        1686        1737        1736
         4        1686        1687        1738        1737
         4        1687        1688        1739        1738
         4        1688        1689        1740        1739
         4        1689        1690        1741        1740
         4        1690        1691        1742        1741
         4        1691        1692        1743        1742
         4        1692        1693        1744        1743
         4        1693        1694        1745        1744
         4        1694        1695        1746        1745
         4        1695        1696        1747        1746
         4        1696        1697        1748        1747
         4        1697        1698        1749        1748
         4        1698        1699        1750        1749
         4        1699        1700        1751        1750
         4        1700        1701        1752        1751
         4        1701        1702        1753        1752
         4        1702        1703        1754        1753
         4        1703        1704        1755        1754
         4        1704        1705        1756        1755
         4        1705        1706        1757        1756
         4        1706        1707        1758        1757
         4        1707        1708        1759        1758
         4        1708        1709        1760        1759
         4        1709        1710        1761        1760
         4        1710        1711        1762        1761
         4        1711        1712        1763        1762
         4        1712        1713        1764        1763
         4        1713        1714        1765        1764
         4        1714        1715        1766        1765
         4        1715        1716        1767        1766
         4        1716        1717        1768        1767
         4        1717        1718        1769        1768
         4        1718        1719        1770        1769
         4        1719        1720        1771        1770
         4        1720        1721        1772        1771
         4        1721        1722        1773        1772
         4        1722        1723        1774        1773
         4        1723        1724        1775        1774
         4        1724        1725        1776        1775
         4        1725        1726        1777        1776
         4        1726        1727        1778        1777
         4        1727        1728        1779        1778
         4        1728        1729        1780        1779
         4        1729        1730        1781        1780
         4        1730        1731        1782        1781
         4        1731        1732        1783        1782
         4        1732        1733        1784        1783
         4        1734        1735        1786        1785
         4        1735        1736        1787        1786
         4        1736        1737        1788        1787
         4        1737        1738        1789        1788
         4        1738        1739        1790        1789
         4        1739        1740        1791        1790
         4        1740        1741        1792        1791
         4        1741        1742        1793        1792
         4        1742        1743        1794        1793
         4        1743        1744        1795        1794
         4        1744        1745        1796        1795
         4        1745        1746        1797        1796
         4        1746        1747        1798        1797
         4        1747        1748        1799        1798
         4        1748        1749        1800        1799
         4        1749        1750        1801        1800
         4        1750        1751        1802        1801
         4        1751        1752        1803        1802
         4        1752        1753        1804        1803
         4        1753        1754        1805        1804
         4        1754        1755        1806        1805
         4        1755        1756        1807        1806
         4        1756        1757        1808        1807
         4        1757        1758        1809        1808
         4        1758        1759        1810        1809
         4        1759        1760        1811        1810
         4        1760        1761        1812        1811
         4        1761        1762        1813        1812
         4        1762        1763        1814        1813
         4        1763        1764        1815        1814
         4        1764        1765        1816        1815
         4        1765        1766        1817        1816
         4        1766        1767        1818        1817
         4        1767        1768        1819        1818
         4        1768        1769        1820        1819
         4        1769        1770        1821        1820
         4        1770        1771        1822        1821
         4        1771        1772        1823        1822
         4        1772        1773        1824        1823
         4        1773        1774        1825        1824
         4        1774        1775        1826        1825
         4        1775        1776        1827        1826
         4        1776        1777        1828        1827
         4        1777        1778        1829        1828
         4        1778        1779        1830        1829
         4        1779        1780        1831        1830
         4        1780        1781        1832        1831
         4        1781        1782        1833        1832
         4        1782        1783        1834        1833
         4        1783        1784        1835        1834
         4        1785        1786        1837        1836
         4        1786        1787        1838        1837
         4        1787        1788        1839        1838
         4        1788        1789        1840        1839
         4        1789        1790        1841        1840
         4        1790        1791        1842        1841
         4        1791        1792        1843        1842
         4        1792        1793        1844        1843
         4        1793        1794        1845        1844
         4        1794        1795        1846        1845
         4        1795        1796        1847        1846
         4        1796        1797        1848        1847
         4        1797        1798        1849        1848
         4        1798        1799        1850        1849
         4        1799        1800        1851        1850
         4        1800        1801        1852        1851
         4        1801        1802        1853        1852
         4        1802        1803        1854        1853
         4        1803        1804        1855        1854
         4        1804        1805        1856        1855
         4        1805        1806        1857        1856
         4        1806        1807        1858        1857
         4        1807        1808        1859        1858
         4        1808        1809        1860        1859
         4        1809        1810        1861        1860
         4        1810        1811        1862        1861
         4        1811        1812        1863        1862
         4        1812        1813        1864        1863
         4        1813        1814        1865        1864
         4        1814        1815        1866        1865
         4        1815        1816        1867        1866
         4        1816        1817        1868        1867
         4        1817        1818        1869        1868
         4        1818        1819        1870        1869
         4        1819        1820        1871        1870
         4        1820        1821        1872        1871
         4        1821        1822        1873        1872
         4        1822        1823        1874        1873
         4        1823        1824        1875        1874
         4        1824        1825        1876        1875
         4        1825        1826        1877        1876
         4        1826        1827        1878        1877
         4        1827        1828        1879        1878
         4        1828        1829        1880        1879
         4        1829        1830        1881        1880
         4        1830        1831        1882        1881
         4        1831        1832        1883        1882
         4        1832        1833        1884        1883
         4        1833        1834        1885        1884
         4        1834        1835        1886        1885
         4        1836        1837        1888        1887
         4        1837        1838        1889        1888
         4        1838        1839        1890        1889
         4        1839        1840        1891        1890
         4        1840        1841        1892        1891
         4        1841        1842        1893        1892
         4        1842        1843        1894        1893
         4        1843        1844        1895        1894
         4        1844        1845        1896        1895
         4        1845        1846        1897        1896
         4        1846        1847        1898        1897
         4        1847        1848        1899        1898
         4        1848        1849        1900        1899
         4        1849        1850        1901        1900
         4        1850        1851        1902        1901
         4        1851        1852        1903        1902
         4        1852        1853        1904        1903
         4        1853        1854        1905        1904
         4        1854        1855        1906        1905
         4        1855        1856        1907        1906
         4        1856        1857        1908        1907
         4        1857        1858        1909        1908
         4        1858        1859        1910        1909
         4        1859        1860        1911        1910
         4        1860        1861        1912        1911
         4        1861        1862        1913        1912
         4        1862        1863        1914        1913
         4        1863        1864        1915        1914
         4        1864        1865        1916        1915
         4        1865        1866        1917        1916
         4        1866        1867        1918        1917
         4        1867        1868        1919        1918
         4        1868        1869        1920        1919
         4        1869        1870        1921        1920
         4        1870        1871        1922        1921
         4        1871        1872        1923        1922
         4        1872        1873        1924        1923
         4        1873        1874        1925        1924
         4        1874        1875        1926        1925
         4        1875        1876        1927        1926
         4        1876        1877        1928        1927
         4        1877        1878        1929        1928
         4        1878        1879        1930        1929
         4        1879        1880        1931        1930
         4        1880        1881        1932        1931
         4        1881        1882        1933        1932
         4        1882        1883        1934        1933
         4        1883        1884        1935        1934
         4        1884        1885        1936        1935
         4        1885        1886        1937        1936
         4        1887        1888        1939        1938
         4        1888        1889        1940        1939
         4        1889        1890        1941        1940
         4        1890        1891        1942        1941
         4        1891        1892        1943        1942
         4        1892        1893        1944        1943
         4        1893        1894        1945        1944
         4        1894        1895        1946        1945
         4        1895        1896        1947        1946
         4        1896        1897        1948        1947
         4        1897        1898        1949        1948
         4        1898        1899        1950        1949
         4        1899        1900        1951        1950
         4        1900        1901        1952        1951
         4        1901        1902        1953        1952
         4        1902        1903        1954        1953
         4        1903        1904        1955        1954
         4        1904        1905        1956        1955
         4        1905        1906        1957        1956
         4        1906        1907        1958        1957
         4        1907        1908        1959        1958
         4        1908        1909        1960        1959
         4        1909        1910        1961        1960
         4        1910        1911        1962        1961
         4        1911        1912        1963        1962
         4        1912        1913        1964        1963
         4        1913        1914        1965        1964
         4        1914        1915        1966        1965
         4        1915        1916        1967        1966
         4        1916        1917        1968        1967
         4        1917        1918        1969        1968
         4        1918        1919        1970        1969
         4        1919        1920        1971        1970
         4        1920        1921        1972        1971
         4        1921        1922        1973        1972
         4        1922        1923        1974        1973
         4        1923        1924        1975        1974
         4        1924        1925        1976        1975
         4        1925        1926        1977        1976
         4        1926        1927        1978        1977
         4        1927        1928        1979        1978
         4        1928        1929        1980        1979
         4        1929        1930        1981        1980
         4        1930        1931        1982        1981
         4        1931        1932        1983        1982
         4        1932        1933        1984        1983
         4        1933        1934        1985        1984
         4        1934        1935        1986        1985
         4        1935        1936        1987        1986
         4        1936        1937        1988        1987
         4        1938        1939        1990        1989
         4        1939        1940        1991        1990
         4        1940        1941        1992        1991
         4        1941        1942        1993        1992
         4        1942        1943        1994        1993
         4        1943        1944        1995        1994
         4        1944        1945        1996        1995
         4        1945        1946        1997        1996
         4        1946        1947        1998        1997
         4        1947        1948        1999        1998
         4        1948        1949        2000        1999
         4        1949        1950        2001        2000
         4        1950        1951        2002        2001
         4        1951        1952        2003        2002
         4        1952        1953        2004        2003
         4        1953        1954        2005        2004
         4        1954        1955        2006        2005
         4        1955        1956        2007        2006
         4        1956        1957        2008        2007
         4        1957        1958        2009        2008
         4        1958        1959        2010        2009
         4        1959        1960        2011        2010
         4        1960        1961        2012        2011
         4        1961        1962        2013        2012
         4        1962        1963        2014        2013
         4        1963        1964        2015        2014
         4        1964        1965        2016        2015
         4        1965        1966        2017        2016
         4        1966        1967        2018        2017
         4        1967        1968        2019        2018
         4        1968        1969        2020        2019
         4        1969        1970        2021        2020
         4        1970        1971        2022        2021
         4        1971        1972        2023        2022
         4        1972        1973        2024        2023
         4        1973        1974        2025        2024
         4        1974        1975        2026        2025
         4        1975        1976        2027        2026
         4        1976        1977        2028        2027
         4        1977        1978        2029        2028
         4        1978        1979        2030        2029
         4        1979        1980        2031        2030
         4        1980        1981        2032        2031
         4        1981        1982        2033        2032
         4        1982        1983        2034        2033
         4        1983        1984        2035        2034
         4        1984        1985        2036        2035
         4        1985        1986        2037        2036
         4        1986        1987        2038        2037
         4        1987        1988        2039        2038
         4        1989        1990        2041        2040
         4        1990        1991        2042        2041
         4        1991        1992        2043        2042
         4        1992        1993        2044        2043
         4        1993        1994        2045        2044
         4        1994        1995        2046        2045
         4        1995        1996        2047        2046
         4        1996        1997        2048        2047
         4        1997        1998        2049        2048
         4        1998        1999        2050        2049
         4        1999        2000        2051        2050
         4        2000        2001        2052        2051
         4        2001        2002        2053        2052
         4        2002        2003        2054        2053
         4        2003        2004        2055        2054
         4        2004        2005        2056        2055
         4        2005        2006        2057        2056
         4        2006        2007        2058        2057
         4        2007        2008        2059        2058
         4        2008        2009        2060        2059
         4        2009        2010        2061        2060
         4        2010        2011        2062        2061
         4        2011        2012        2063        2062
         4        2012        2013        2064        2063
         4        2013        2014        2065        2064
         4        2014        2015        2066        2065
         4        2015        2016        2067        2066
         4        2016        2017        2068        2067
         4        2017        2018        2069        2068
         4        2018        2019        2070        2069
         4        2019        2020        2071        2070
         4        2020        2021        2072        2071
         4        2021        2022        2073        2072
         4        2022        2023        2074        2073
         4        2023        2024        2075        2074
         4        2024        2025        2076        2075
         4        2025        2026        2077        2076
         4        2026        2027        2078        2077
         4        2027        2028        2079        2078
         4        2028        2029        2080        2079
         4        2029        2030        2081        2080
         4        2030        2031        2082        2081
         4        2031        2032        2083        2082
         4        2032        2033        2084        2083
         4        2033        2034        2085        2084
         4        2034        2035        2086        2085
         4        2035        2036        2087        2086
         4        2036        2037        2088        2087
         4        2037        2038        2089        2088
         4        2038        2039        2090        2089
         4        2040        2041        2092        2091
         4        2041        2042        2093        2092
         4        2042        2043        2094        2093
         4        2043        2044        2095        2094
         4        2044        2045        2096        2095
         4        2045        2046        2097        2096
         4        2046        2047        2098        2097
         4        2047        2048        2099        2098
         4        2048        2049        2100        2099
         4        2049        2050        2101        2100
         4        2050        2051        2102        2101
         4        2051        2052        2103        2102
         4        2052        2053        2104        2103
         4        2053        2054        2105        2104
         4        2054        2055        2106        2105
         4        2055        2056        2107        2106
         4        2056        2057        2108        2107
         4        2057        2058        2109        2108
         4        2058        2059        2110        2109
         4        2059        2060        2111        2110
         4        2060        2061        2112        2111
         4        2061        2062        2113        2112
         4        2062        2063        2114        2113
         4        2063        2064        2115        2114
         4        2064        2065        2116        2115
         4        2065        2066        2117        2116
         4        2066        2067        2118        2117
         4        2067        2068        2119        2118
         4        2068        2069        2120        2119
         4        2069        2070        2121        2120
         4        2070        2071        2122        2121
         4        2071        2072        2123        2122
         4        2072        2073        2124        2123
         4        2073        2074        2125        2124
         4        2074        2075        2126        2125
         4        2075        2076        2127        2126
         4        2076        2077        2128        2127
         4        2077        2078        2129        2128
         4        2078        2079        2130        2129
         4        2079        2080        2131        2130
         4        2080        2081        2132        2131
         4        2081        2082        2133        2132
         4        2082        2083        2134        2133
         4        2083        2084        2135        2134
         4        2084        2085        2136        2135
         4        2085        2086        2137        2136
         4        2086        2087        2138        2137
         4        2087        2088        2139        2138
         4        2088        2089        2140        2139
         4        2089        2090        2141        2140
         4        2091        2092        2143        2142
         4        2092        2093        2144        2143
         4        2093        2094        2145        2144
         4        2094        2095        2146        2145
         4        2095        2096        2147        2146
         4        2096        2097        2148        2147
         4        2097        2098        2149        2148
         4        2098        2099        2150        2149
         4        2099        2100        2151        2150
         4        2100        2101        2152        2151
         4        2101        2102        2153        2152
         4        2102        2103        2154        2153
         4        2103        2104        2155        2154
         4        2104        2105        2156        2155
         4        2105        2106        2157        2156
         4        2106        2107        2158        2157
         4        2107        2108        2159        2158
         4        2108        2109        2160        2159
         4        2109        2110        2161        2160
         4        2110        2111        2162        2161
         4        2111        2112        2163        2162
         4        2112        2113        2164        2163
         4        2113        2114        2165        2164
         4        2114        2115        2166        2165
         4        2115        2116        2167        2166
         4        2116        2117        2168        2167
         4        2117        2118        2169        2168
         4        2118        2119        2170        2169
         4        2119        2120        2171        2170
         4        2120        2121        2172        2171
         4        2121        2122        2173        2172
         4        2122        2123        2174        2173
         4        2123        2124        2175        2174
         4        2124        2125        2176        2175
         4        2125        2126        2177        2176
         4        2126        2127        2178        2177
         4        2127        2128        2179        2178
         4        2128        2129        2180        2179
         4        2129        2130        2181        2180
         4        2130        2131        2182        2181
         4        2131        2132        2183        2182
         4        2132        2133        2184        2183
         4        2133        2134        2185        2184
         4        2134        2135        2186        2185
         4        2135        2136        2187        2186
         4        2136        2137        2188        2187
         4        2137        2138        2189        2188
         4        2138        2139        2190        2189
         4        2139        2140        2191        2190
         4        2140        2141        2192        2191
         4        2142        2143        2194        2193
         4        2143        2144        2195        2194
         4        2144        2145        2196        2195
         4        2145        2146        2197        2196
         4        2146        2147        2198        2197
         4        2147        2148        2199        2198
         4        2148        2149        2200        2199
         4        2149        2150        2201        2200
         4        2150        2151        2202        2201
         4        2151        2152        2203        2202
         4        2152        2153        2204        2203
         4        2153        2154        2205        2204
         4        2154        2155        2206        2205
         4        2155        2156        2207        2206
         4        2156        2157        2208        2207
         4        2157        2158        2209        2208
         4        2158        2159        2210        2209
         4        2159        2160        2211        2210
         4        2160        2161        2212        2211
         4        2161        2162        2213        2212
         4        2162        2163        2214        2213
         4        2163        2164        2215        2214
         4        2164        2165        2216        2215
         4        2165        2166        2217        2216
         4        2166        2167        2218        2217
         4        2167        2168        2219        2218
         4        2168        2169        2220        2219
         4        2169        2170        2221        2220
         4        2170        2171        2222        2221
         4        2171        2172        2223        2222
         4        2172        2173        2224        2223
         4        2173        2174        2225        2224
         4        2174        2175        2226        2225
         4        2175        2176        2227        2226
         4        2176        2177        2228        2227
         4        2177        2178        2229        2228
         4        2178        2179        2230        2229
         4        2179        2180        2231        2230
         4        2180        2181        2232        2231
         4        2181        2182        2233        2232
         4        2182        2183        2234        2233
         4        2183        2184        2235        2234
         4        2184        2185        2236        2235
         4        2185        2186        2237        2236
         4        2186        2187        2238        2237
         4        2187        2188        2239        2238
         4        2188        2189        2240        2239
         4        2189        2190        2241        2240
         4        2190        2191        2242        2241
         4        2191        2192        2243        2242
         4        2193        2194        2245        2244
         4        2194        2195        2246        2245
         4        2195        2196        2247        2246
         4        2196        2197        2248        2247
         4        2197        2198        2249        2248
         4        2198        2199        2250        2249
         4        2199        2200        2251        2250
         4        2200        2201        2252        2251
         4        2201        2202        2253        2252
         4        2202        2203        2254        2253
         4        2203        2204        2255        2254
         4        2204        2205        2256        2255
         4        2205        2206        2257        2256
         4        2206        2207        2258        2257
         4        2207        2208        2259        2258
         4        2208        2209        2260        2259
         4        2209        2210        2261        2260
         4        2210        2211        2262        2261
         4        2211        2212        2263        2262
         4        2212        2213        2264        2263
         4        2213        2214        2265        2264
         4        2214        2215        2266        2265
         4        2215        2216        2267        2266
         4        2216        2217        2268        2267
         4        2217        2218        2269        2268
         4        2218        2219        2270        2269
         4        2219        2220        2271        2270
         4        2220        2221        2272        2271
         4        2221        2222        2273        2272
         4        2222        2223        2274        2273
         4        2223        2224        2275        2274
         4        2224        2225        2276        2275
         4        2225        2226        2277        2276
         4        2226        2227        2278        2277
         4        2227        2228        2279        2278
         4        2228        2229        2280        2279
         4        2229        2230        2281        2280
         4        2230        2231        2282        2281
         4        2231        2232        2283        2282
         4        2232        2233        2284        2283
         4        2233        2234        2285        2284
         4        2234        2235        2286        2285
         4        2235        2236        2287        2286
         4        2236        2237        2288        2287
         4        2237        2238        2289        2288
         4        2238        2239        2290        2289
         4        2239        2240        2291        2290
         4        2240        2241        2292        2291
         4        2241        2242        2293        2292
         4        2242        2243        2294        2293
         4        2244        2245        2296        2295
         4        2245        2246        2297        2296
         4        2246        2247        2298        2297
         4        2247        2248        2299        2298
         4        2248        2249        2300        2299
         4        2249        2250        2301        2300
         4        2250        2251        2302        2301
         4        2251        2252        2303        2302
         4        2252        2253        2304        2303
         4        2253        2254        2305        2304
         4        2254        2255        2306        2305
         4        2255        2256        2307        2306
         4        2256        2257        2308        2307
         4        2257        2258        2309        2308
         4        2258        2259        2310        2309
         4        2259        2260        2311        2310
         4        2260        2261        2312        2311
         4        2261        2262        2313        2312
         4        2262        2263        2314        2313
         4        2263        2264        2315        2314
         4        2264        2265        2316        2315
         4        2265        2266        2317        2316
         4        2266        2267        2318        2317
         4        2267        2268        2319        2318
         4        2268        2269        2320        2319
         4        2269        2270        2321        2320
         4        2270        2271        2322        2321
         4        2271        2272        2323        2322
         4        2272        2273        2324        2323
         4        2273        2274        2325        2324
         4        2274        2275        2326        2325
         4        2275        2276        2327        2326
         4        2276        2277        2328        2327
         4        2277        2278        2329        2328
         4        2278        2279        2330        2329
         4        2279        2280        2331        2330
         4        2280        2281        2332        2331
         4        2281        2282        2333        2332
         4        2282        2283        2334        2333
         4        2283        2284        2335        2334
         4        2284        2285        2336        2335
         4        2285        2286        2337        2336
         4        2286        2287        2338        2337
         4        2287        2288        2339        2338
         4        2288        2289        2340        2339
         4        2289        2290        2341        2340
         4        2290        2291        2342        2341
         4        2291        2292        2343        2342
         4        2292        2293        2344        2343
         4        2293        2294        2345        2344
         4        2295        2296        2347        2346
         4        2296        2297        2348        2347
         4        2297        2298        2349        2348
         4        2298        2299        2350        2349
         4        2299        2300        2351        2350
         4        2300        2301        2352        2351
         4        2301        2302        2353        2352
         4        2302        2303        2354        2353
         4        2303        2304        2355        2354
         4        2304        2305        2356        2355
         4        2305        2306        2357        2356
         4        2306        2307        2358        2357
         4        2307        2308        2359        2358
         4        2308        2309        2360        2359
         4        2309        2310        2361        2360
         4        2310        2311        2362        2361
         4        2311        2312        2363        2362
         4        2312        2313        2364        2363
         4        2313        2314        2365        2364
         4        2314        2315        2366        2365
         4        2315        2316        2367        2366
         4        2316        2317        2368        2367
         4        2317        2318        2369        2368
         4        2318        2319        2370        2369
         4        2319        2320        2371        2370
         4        2320        2321        2372        2371
         4        2321        2322        2373        2372
         4        2322        2323        2374        2373
         4        2323        2324        2375        2374
         4        2324        2325        2376        2375
         4        2325        2326        2377        2376
         4        2326        2327        2378        2377
         4        2327        2328        2379        2378
         4        2328        2329        2380        2379
         4        2329        2330        2381        2380
         4        2330        2331        2382        2381
         4        2331        2332        2383        2382
         4        2332        2333        2384        2383
         4        2333        2334        2385        2384
         4        2334        2335        2386        2385
         4        2335        2336        2387        2386
         4        2336        2337        2388        2387
         4        2337        2338        2389        2388
         4        2338        2339        2390        2389
         4        2339        2340        2391        2390
         4        2340        2341        2392        2391
         4        2341        2342        2393        2392
         4        2342        2343        2394        2393
         4        2343        2344        2395        2394
         4        2344        2345        2396        2395
         4        2346        2347        2398        2397
         4        2347        2348        2399        2398
         4        2348        2349        2400        2399
         4        2349        2350        2401        2400
         4        2350        2351        2402        2401
         4        2351        2352        2403        2402
         4        2352        2353        2404        2403
         4        2353        2354        2405        2404
         4        2354        2355        2406        2405
         4        2355        2356        2407        2406
         4        2356        2357        2408        2407
         4        2357        2358        2409        2408
         4        2358        2359        2410        2409
         4        2359        2360        2411        2410
         4        2360        2361        2412        2411
         4        2361        2362        2413        2412
         4        2362        2363        2414        2413
         4        2363        2364        2415        2414
         4        2364        2365        2416        2415
         4        2365        2366        2417        2416
         4        2366        2367        2418        2417
         4        2367        2368        2419        2418
         4        2368        2369        2420        2419
         4        2369        2370        2421        2420
         4        2370        2371        2422        2421
         4        2371        2372        2423        2422
         4        2372        2373        2424        2423
         4        2373        2374        2425        2424
         4        2374        2375        2426        2425
         4        2375        2376        2427        2426
         4        2376        2377        2428        2427
         4        2377        2378        2429        2428
         4        2378        2379        2430        2429
         4        2379        2380        2431        2430
         4        2380        2381        2432        2431
         4        2381        2382        2433        2432
         4        2382        2383        2434        2433
         4        2383        2384        2435        2434
         4        2384        2385        2436        2435
         4        2385        2386        2437        2436
         4        2386        2387        2438        2437
         4        2387        2388        2439        2438
         4        2388        2389        2440        2439
         4        2389        2390        2441        2440
         4        2390        2391        2442        2441
         4        2391        2392        2443        2442
         4        2392        2393        2444        2443
         4        2393        2394        2445        2444
         4        2394        2395        2446        2445
         4        2395        2396        2447        2446
         4        2397        2398        2449        2448
         4        2398        2399        2450        2449
         4        2399        2400        2451        2450
         4        2400        2401        2452        2451
         4        2401        2402        2453        2452
         4        2402        2403        2454        2453
         4        2403        2404        2455        2454
         4        2404        2405        2456        2455
         4        2405        2406        2457        2456
         4        2406        2407        2458        2457
         4        2407        2408        2459        2458
         4        2408        2409        2460        2459
         4        2409        2410        2461        2460
         4        2410        2411        2462        2461
         4        2411        2412        2463        2462
         4        2412        2413        2464        2463
         4        2413        2414        2465        2464
         4        2414        2415        2466        2465
         4        2415        2416        2467        2466
         4        2416        2417        2468        2467
         4        2417        2418        2469        2468
         4        2418        2419        2470        2469
         4        2419        2420        2471        2470
         4        2420        2421        2472        2471
         4        2421        2422        2473        2472
         4        2422        2423        2474        2473
         4        2423        2424        2475        2474
         4        2424        2425        2476        2475
         4        2425        2426        2477        2476
         4        2426        2427        2478        2477
         4        2427        2428        2479        2478
         4        2428        2429        2480        2479
         4        2429        2430        2481        2480
         4        2430        2431        2482        2481
         4        2431        2432        2483        2482
         4        2432        2433        2484        2483
         4        2433        2434        2485        2484
         4        2434        2435        2486        2485
         4        2435        2436        2487        2486
         4        2436        2437        2488        2487
         4        2437        2438        2489        2488
         4        2438        2439        2490        2489
         4        2439        2440        2491        2490
         4        2440        2441        2492        2491
         4        2441        2442        2493        2492
         4        2442        2443        2494        2493
         4        2443        2444        2495        2494
         4        2444        2445        2496        2495
         4        2445        2446        2497        2496
         4        2446        2447        2498        2497
         4        2448        2449        2500        2499
         4        2449        2450        2501        2500
         4        2450        2451        2502        2501
         4        2451        2452        2503        2502
         4        2452        2453        2504        2503
         4        2453        2454        2505        2504
         4        2454        2455        2506        2505
         4        2455        2456        2507        2506
         4        2456        2457        2508        2507
         4        2457        2458        2509        2508
         4        2458        2459        2510        2509
         4        2459        2460        2511        2510
         4        2460        2461        2512        2511
         4        2461        2462        2513        2512
         4        2462        2463        2514        2513
         4        2463        2464        2515        2514
         4        2464        2465        2516        2515
         4        2465        2466        2517        2516
         4        2466        2467        2518        2517
         4        2467        2468        2519        2518
         4        2468        2469        2520        2519
         4        2469        2470        2521        2520
         4        2470        2471        2522        2521
         4        2471        2472        2523        2522
         4        2472        2473        2524        2523
         4        2473        2474        2525        2524
         4        2474        2475        2526        2525
         4        2475        2476        2527        2526
         4        2476        2477        2528        2527
         4        2477        2478        2529        2528
         4        2478        2479        2530        2529
         4        2479        2480        2531        2530
         4        2480        2481        2532        2531
         4        2481        2482        2533        2532
         4        2482        2483        2534        2533
         4        2483        2484        2535        2534
         4        2484        2485        2536        2535
         4        2485        2486        2537        2536
         4        2486        2487        2538        2537
         4        2487        2488        2539        2538
         4        2488        2489        2540        2539
         4        2489        2490        2541        2540
         4        2490        2491        2542        2541
         4        2491        2492        2543        2542
         4        2492        2493        2544        2543
         4        2493        2494        2545        2544
         4        2494        2495        2546        2545
         4        2495        2496        2547        2546
         4        2496        2497        2548        2547
         4        2497        2498        2549        2548
         4        2499        2500        2551        2550
         4        2500        2501        2552        2551
         4        2501        2502        2553        2552
         4        2502        2503        2554        2553
         4        2503        2504        2555        2554
         4        2504        2505        2556        2555
         4        2505        2506        2557        2556
         4        2506        2507        2558        2557
         4        2507        2508        2559        2558
         4        2508        2509        2560        2559
         4        2509        2510        2561        2560
         4        2510        2511        2562        2561
         4        2511        2512        2563        2562
         4        2512        2513        2564        2563
         4        2513        2514        2565        2564
         4        2514        2515        2566        2565
         4        2515        2516        2567        2566
         4        2516        2517        2568        2567
         4        2517        2518        2569        2568
         4        2518        2519        2570        2569
         4        2519        2520        2571        2570
         4        2520        2521        2572        2571
         4        2521        2522        2573        2572
         4        2522        2523        2574        2573
         4        2523        2524        2575        2574
         4        2524        2525        2576        2575
         4        2525        2526        2577        2576
         4        2526        2527        2578        2577
         4        2527        2528        2579        2578
         4        2528        2529        2580        2579
         4        2529        2530        2581        2580
         4        2530        2531        2582        2581
         4        2531        2532        2583        2582
         4        2532        2533        2584        2583
         4        2533        2534        2585        2584
         4        2534        2535        2586        2585
         4        2535        2536        2587        2586
         4        2536        2537        2588        2587
         4        2537        2538        2589        2588
         4        2538        2539        2590        2589
         4        2539        2540        2591        2590
         4        2540        2541        2592        2591
         4        2541        2542        2593        2592
         4        2542        2543        2594        2593
         4        2543        2544        2595        2594
         4        2544        2545        2596        2595
         4        2545        2546        2597        2596
         4        2546        2547        2598        2597
         4        2547        2548        2599        2598
         4        2548        2549        2600        2599
         4        2550        2551        2602        2601
         4        2551        2552        2603        2602
         4        2552        2553        2604        2603
         4        2553        2554        2605        2604
         4        2554        2555        2606        2605
         4        2555        2556        2607        2606
         4        2556        2557        2608        2607
         4        2557        2558        2609        2608
         4        2558        2559        2610        2609
         4        2559        2560        2611        2610
         4        2560        2561        2612        2611
         4        2561        2562        2613        2612
         4        2562        2563        2614        2613
         4        2563        2564        2615        2614
         4        2564        2565        2616        2615
         4        2565        2566        2617        2616
         4        2566        2567        2618        2617
         4        2567        2568        2619        2618
         4        2568        2569        2620        2619
         4        2569        2570        2621        2620
         4        2570        2571        2622        2621
         4        2571        2572        2623        2622
         4        2572        2573        2624        2623
         4        2573        2574        2625        2624
         4        2574        2575        2626        2625
         4        2575        2576        2627        2626
         4        2576        2577        2628        2627
         4        2577        2578        2629        2628
         4        2578        2579        2630        2629
         4        2579        2580        2631        2630
         4        2580        2581        2632        2631
         4        2581        2582        2633        2632
         4        2582        2583        2634        2633
         4        2583        2584        2635        2634
         4        2584        2585        2636        2635
         4        2585        2586        2637        2636
         4        2586        2587        2638        2637
         4        2587        2588        2639        2638
         4        2588        2589        2640        2639
         4        2589        2590        2641        2640
         4        2590        2591        2642        2641
         4        2591        2592        2643        2642
         4        2592        2593        2644        2643
         4        2593        2594        2645        2644
         4        2594        2595        2646        2645
         4        2595        2596        2647        2646
         4        2596        2597        2648        2647
         4        2597        2598        2649        2648
         4        2598        2599        2650        2649
         4        2599        2600        2651        2650
         4        2601        2602        2653        2652
         4        2602        2603        2654        2653
         4        2603        2604        2655        2654
         4        2604        2605        2656        2655
         4        2605        2606        2657        2656
         4        2606        2607        2658        2657
         4        2607        2608        2659        2658
         4        2608        2609        2660        2659
         4        2609        2610        2661        2660
         4        2610        2611        2662        2661
         4        2611        2612        2663        2662
         4        2612        2613        2664        2663
         4        2613        2614        2665        2664
         4        2614        2615        2666        2665
         4        2615        2616        2667        2666
         4        2616        2617        2668        2667
         4        2617        2618        2669        2668
         4        2618        2619        2670        2669
         4        2619        2620        2671        2670
         4        2620        2621        2672        2671
         4        2621        2622        2673        2672
         4        2622        2623        2674        2673
         4        2623        2624        2675        2674
         4        2624        2625        2676        2675
         4        2625        2626        2677        2676
         4        2626        2627        2678        2677
         4        2627        2628        2679        2678
         4        2628        2629        2680        2679
         4        2629        2630        2681        2680
         4        2630        2631        2682        2681
         4        2631        2632        2683        2682
         4        2632        2633        2684        2683
         4        2633        2634        2685        2684
         4        2634        2635        2686        2685
         4        2635        2636        2687        2686
         4        2636        2637        2688        2687
         4        2637        2638        2689        2688
         4        2638        2639        2690        2689
         4        2639        2640        2691        2690
         4        2640        2641        2692        2691
         4        2641        2642        2693        2692
         4        2642        2643        2694        2693
         4        2643        2644        2695        2694
         4        2644        2645        2696        2695
         4        2645        2646        2697        2696
         4        2646        2647        2698        2697
         4        2647        2648        2699        2698
         4        2648        2649        2700        2699
         4        2649        2650        2701        2700
         4        2650        2651        2702        2701
         4        2652        2653        2704        2703
         4        2653        2654        2705        2704
         4        2654        2655        2706        2705
         4        2655        2656        2707        2706
         4        2656        2657        2708        2707
         4        2657        2658        2709        2708
         4        2658        2659        2710        2709
         4        2659        2660        2711        2710
         4        2660        2661        2712        2711
         4        2661        2662        2713        2712
         4        2662        2663        2714        2713
         4        2663        2664        2715        2714
         4        2664        2665        2716        2715
         4        2665        2666        2717        2716
         4        2666        2667        2718        2717
         4        2667        2668        2719        2718
         4        2668        2669        2720        2719
         4        2669        2670        2721        2720
         4        2670        2671        2722        2721
         4        2671        2672        2723        2722
         4        2672        2673        2724        2723
         4        2673        2674        2725        2724
         4        2674        2675        2726        2725
         4        2675        2676        2727        2726
         4        2676        2677        2728        2727
         4        2677        2678        2729        2728
         4        2678        2679        2730        2729
         4        2679        2680        2731        2730
         4        2680        2681        2732        2731
         4        2681        2682        2733        2732
         4        2682        2683        2734        2733
         4        2683        2684        2735        2734
         4        2684        2685        2736        2735
         4        2685        2686        2737        2736
         4        2686        2687        2738        2737
         4        2687        2688        2739        2738
         4        2688        2689        2740        2739
         4        2689        2690        2741        2740
         4        2690        2691        2742        2741
         4        2691        2692        2743        2742
         4        2692        2693        2744        2743
         4        2693        2694        2745        2744
         4        2694        2695        2746        2745
         4        2695        2696        2747        2746
         4        2696        2697        2748        2747
         4        2697        2698        2749        2748
         4        2698        2699        2750        2749
         4        2699        2700        2751        2750
         4        2700        2701        2752        2751
         4        2701        2702        2753        2752
         4        2703        2704        2755        2754
         4        2704        2705        2756        2755
         4        2705        2706        2757        2756
         4        2706        2707        2758        2757
         4        2707        2708        2759        2758
         4        2708        2709        2760        2759
         4        2709        2710        2761        2760
         4        2710        2711        2762        2761
         4        2711        2712        2763        2762
         4        2712        2713        2764        2763
         4        2713        2714        2765        2764
         4        2714        2715        2766        2765
         4        2715        2716        2767        2766
         4        2716        2717        2768        2767
         4        2717        2718        2769        2768
         4        2718        2719        2770        2769
         4        2719        2720        2771        2770
         4        2720        2721        2772        2771
         4        2721        2722        2773        2772
         4        2722        2723        2774        2773
         4        2723        2724        2775        2774
         4        2724        2725        2776        2775
         4        2725        2726        2777        2776
         4        2726        2727        2778        2777
         4        2727        2728        2779        2778
         4        2728        2729        2780        2779
         4        2729        2730        2781        2780
         4        2730        2731        2782        2781
         4        2731        2732        2783        2782
         4        2732        2733        2784        2783
         4        2733        2734        2785        2784
         4        2734        2735        2786        2785
         4        2735        2736        2787        2786
         4        2736        2737        2788        2787
         4        2737        2738        2789        2788
         4        2738        2739        2790        2789
         4        2739        2740        2791        2790
         4        2740        2741        2792        2791
         4        2741        2742        2793        2792
         4        2742        2743        2794        2793
         4        2743        2744        2795        2794
         4        2744        2745        2796        2795
         4        2745        2746        2797        2796
         4        2746        2747        2798        2797
         4        2747        2748        2799        2798
         4        2748        2749        2800        2799
         4        2749        2750        2801        2800
         4        2750        2751        2802        2801
         4        2751        2752        2803        2802
         4        2752        2753        2804        2803
         4        2754        2755        2806        2805
         4        2755        2756        2807        2806
         4        2756        2757        2808        2807
         4        2757        2758        2809        2808
         4        2758        2759        2810        2809
         4        2759        2760        2811        2810
         4        2760        2761        2812        2811
         4        2761        2762        2813        2812
         4        2762        2763        2814        2813
         4        2763        2764        2815        2814
         4        2764        2765        2816        2815
         4        2765        2766        2817        2816
         4        2766        2767        2818        2817
         4        2767        2768        2819        2818
         4        2768        2769        2820        2819
         4        2769        2770        2821        2820
         4        2770        2771        2822        2821
         4        2771        2772        2823        2822
         4        2772        2773        2824        2823
         4        2773        2774        2825        2824
         4        2774        2775        2826        2825
         4        2775        2776        2827        2826
         4        2776        2777        2828        2827
         4        2777        2778        2829        2828
         4        2778        2779        2830        2829
         4        2779        2780        2831        2830
         4        2780        2781        2832        2831
         4        2781        2782        2833        2832
         4        2782        2783        2834        2833
         4        2783        2784        2835        2834
         4        2784        2785        2836        2835
         4        2785        2786        2837        2836
         4        2786        2787        2838        2837
         4        2787        2788        2839        2838
         4        2788        2789        2840        2839
         4        2789        2790        2841        2840
         4        2790        2791        2842        2841
         4        2791        2792        2843        2842
         4        2792        2793        2844        2843
         4        2793        2794        2845        2844
         4        2794        2795        2846        2845
         4        2795        2796        2847        2846
         4        2796        2797        2848        2847
         4        2797        2798        2849        2848
         4        2798        2799        2850        2849
         4        2799        2800        2851        2850
         4        2800        2801        2852        2851
         4        2801        2802        2853        2852
         4        2802        2803        2854        2853
         4        2803        2804        2855        2854
         4        2805        2806        2857        2856
         4        2806        2807        2858        2857
         4        2807        2808        2859        2858
         4        2808        2809        2860        2859
         4        2809        2810        2861        2860
         4        2810        2811        2862        2861
         4        2811        2812        2863        2862
         4        2812        2813        2864        2863
         4        2813        2814        2865        2864
         4        2814        2815        2866        2865
         4        2815        2816        2867        2866
         4        2816        2817        2868        2867
         4        2817        2818        2869        2868
         4        2818        2819        2870        2869
         4        2819        2820        2871        2870
         4        2820        2821        2872        2871
         4        2821        2822        2873        2872
         4        2822        2823        2874        2873
         4        2823        2824        2875        2874
         4        2824        2825        2876        2875
         4        2825        2826        2877        2876
         4        2826        2827        2878        2877
         4        2827        2828        2879        2878
         4        2828        2829        2880        2879
         4        2829        2830        2881        2880
         4        2830        2831        2882        2881
         4        2831        2832        2883        2882
         4        2832        2833        2884        2883
         4        2833        2834        2885        2884
         4        2834        2835        2886        2885
         4        2835        2836        2887        2886
         4        2836        2837        2888        2887
         4        2837        2838        2889        2888
         4        2838        2839        2890        2889
         4        2839        2840        2891        2890
         4        2840        2841        2892        2891
         4        2841        2842        2893        2892
         4        2842        2843        2894        2893
         4        2843        2844        2895        2894
         4        2844        2845        2896        2895
         4        2845        2846        2897        2896
         4        2846        2847        2898        2897
         4        2847        2848        2899        2898
         4        2848        2849        2900        2899
         4        2849        2850        2901        2900
         4        2850        2851        2902        2901
         4        2851        2852        2903        2902
         4        2852        2853        2904        2903
         4        2853        2854        2905        2904
         4        2854        2855        2906        2905
         4        2856        2857        2908        2907
         4        2857        2858        2909        2908
         4        2858        2859        2910        2909
         4        2859        2860        2911        2910
         4        2860        2861        2912        2911
         4        2861        2862        2913        2912
         4        2862        2863        2914        2913
         4        2863        2864        2915        2914
         4        2864        2865        2916        2915
         4        2865        2866        2917        2916
         4        2866        2867        2918        2917
         4        2867        2868        2919        2918
         4        2868        2869        2920        2919
         4        2869        2870        2921        2920
         4        2870        2871        2922        2921
         4        2871        2872        2923        2922
         4        2872        2873        2924        2923
         4        2873        2874        2925        2924
         4        2874        2875        2926        2925
         4        2875        2876        2927        2926
         4        2876        2877        2928        2927
         4        2877        2878        2929        2928
         4        2878        2879        2930        2929
         4        2879        2880        2931        2930
         4        2880        2881        2932        2931
         4        2881        2882        2933        2932
         4        2882        2883        2934        2933
         4        2883        2884        2935        2934
         4        2884        2885        2936        2935
         4        2885        2886        2937        2936
         4        2886        2887        2938        2937
         4        2887        2888        2939        2938
         4        2888        2889        2940        2939
         4        2889        2890        2941        2940
         4        2890        2891        2942        2941
         4        2891        2892        2943        2942
         4        2892        2893        2944        2943
         4        2893        2894        2945        2944
         4        2894        2895        2946        2945
         4        2895        2896        2947        2946
         4        2896        2897        2948        2947
         4        2897        2898        2949        2948
         4        2898        2899        2950        2949
         4        2899        2900        2951        2950
         4        2900        2901        2952        2951
         4        2901        2902        2953        2952
         4        2902        2903        2954        2953
         4        2903        2904        2955        2954
         4        2904        2905        2956        2955
         4        2905        2906        2957        2956
         4        2907        2908        2959        2958
         4        2908        2909        2960        2959
         4        2909        2910        2961        2960
         4        2910        2911        2962        2961
         4        2911        2912        2963        2962
         4        2912        2913        2964        2963
         4        2913        2914        2965        2964
         4        2914        2915        2966        2965
         4        2915        2916        2967        2966
         4        2916        2917        2968        2967
         4        2917        2918        2969        2968
         4        2918        2919        2970        2969
         4        2919        2920        2971        2970
         4        2920        2921        2972        2971
         4        2921        2922        2973        2972
         4        2922        2923        2974        2973
         4        2923        2924        2975        2974
         4        2924        2925        2976        2975
         4        2925        2926        2977        2976
         4        2926        2927        2978        2977
         4        2927        2928        2979        2978
         4        2928        2929        2980        2979
         4        2929        2930        2981        2980
         4        2930        2931        2982        2981
         4        2931        2932        2983        2982
         4        2932        2933        2984        2983
         4        2933        2934        2985        2984
         4        2934        2935        2986        2985
         4        2935        2936        2987        2986
         4        2936        2937        2988        2987
         4        2937        2938        2989        2988
         4        2938        2939        2990        2989
         4        2939        2940        2991        2990
         4        2940        2941        2992        2991
         4        2941        2942        2993        2992
         4        2942        2943        2994        2993
         4        2943        2944        2995        2994
         4        2944        2945        2996        2995
         4        2945        2946        2997        2996
         4        2946        2947        2998        2997
         4        2947        2948        2999        2998
         4        2948        2949        3000        2999
         4        2949        2950        3001        3000
         4        2950        2951        3002        3001
         4        2951        2952        3003        3002
         4        2952        2953        3004        3003
         4        2953        2954        3005        3004
         4        2954        2955        3006        3005
         4        2955        2956        3007        3006
         4        2956        2957        3008        3007
         4        2958        2959        3010        3009
         4        2959        2960        3011        3010
         4        2960        2961        3012        3011
         4        2961        2962        3013        3012
         4        2962        2963        3014        3013
         4        2963        2964        3015        3014
         4        2964        2965        3016        3015
         4        2965        2966        3017        3016
         4        2966        2967        3018        3017
         4        2967        2968        3019        3018
         4        2968        2969        3020        3019
         4        2969        2970        3021        3020
         4        2970        2971        3022        3021
         4        2971        2972        3023        3022
         4        2972        2973        3024        3023
         4        2973        2974        3025        3024
         4        2974        2975        3026        3025
         4        2975        2976        3027        3026
         4        2976        2977        3028        3027
         4        2977        2978        3029        3028
         4        2978        2979        3030        3029
         4        2979        2980        3031        3030
         4        2980        2981        3032        3031
         4        2981        2982        3033        3032
         4        2982        2983        3034        3033
         4        2983        2984        3035        3034
         4        2984        2985        3036        3035
         4        2985        2986        3037        3036
         4        2986        2987        3038        3037
         4        2987        2988        3039        3038
         4        2988        2989        3040        3039
         4        2989        2990        3041        3040
         4        2990        2991        3042        3041
         4        2991        2992        3043        3042
         4        2992        2993        3044        3043
         4        2993        2994        3045        3044
         4        2994        2995        3046        3045
         4        2995        2996        3047        3046
         4        2996        2997        3048        3047
         4        2997        2998        3049        3048
         4        2998        2999        3050        3049
         4        2999        3000        3051        3050
         4        3000        3001        3052        3051
         4        3001        3002        3053        3052
         4        3002        3003        3054        3053
         4        3003        3004        3055        3054
         4        3004        3005        3056        3055
         4        3005        3006        3057        3056
         4        3006        3007        3058        3057
         4        3007        3008        3059        3058
         4        3009        3010        3061        3060
         4        3010        3011        3062        3061
         4        3011        3012        3063        3062
         4        3012        3013        3064        3063
         4        3013        3014        3065        3064
         4        3014        3015        3066        3065
         4        3015        3016        3067        3066
         4        3016        3017        3068        3067
         4        3017        3018        3069        3068
         4        3018        3019        3070        3069
         4        3019        3020        3071        3070
         4        3020        3021        3072        3071
         4        3021        3022        3073        3072
         4        3022        3023        3074        3073
         4        3023        3024        3075        3074
         4        3024        3025        3076        3075
         4        3025        3026        3077        3076
         4        3026        3027        3078        3077
         4        3027        3028        3079        3078
         4        3028        3029        3080        3079
         4        3029        3030        3081        3080
         4        3030        3031        3082        3081
         4        3031        3032        3083        3082
         4        3032        3033        3084        3083
         4        3033        3034        3085        3084
         4        3034        3035        3086        3085
         4        3035        3036        3087        3086
         4        3036        3037        3088        3087
         4        3037        3038        3089        3088
         4        3038        3039        3090        3089
         4        3039        3040        3091        3090
         4        3040        3041        3092        3091
         4        3041        3042        3093        3092
         4        3042        3043        3094        3093
         4        3043        3044        3095        3094
         4        3044        3045        3096        3095
         4        3045        3046        3097        3096
         4        3046        3047        3098        3097
         4        3047        3048        3099        3098
         4        3048        3049        3100        3099
         4        3049        3050        3101        3100
         4        3050        3051        3102        3101
         4        3051        3052        3103        3102
         4        3052        3053        3104        3103
         4        3053        3054        3105        3104
         4        3054        3055        3106        3105
         4        3055        3056        3107        3106
         4        3056        3057        3108        3107
         4        3057        3058        3109        3108
         4        3058        3059        3110        3109
         4        3060        3061        3112        3111
         4        3061        3062        3113        3112
         4        3062        3063        3114        3113
         4        3063        3064        3115        3114
         4        3064        3065        3116        3115
         4        3065        3066        3117        3116
         4        3066        3067        3118        3117
         4        3067        3068        3119        3118
         4        3068        3069        3120        3119
         4        3069        3070        3121        3120
         4        3070        3071        3122        3121
         4        3071        3072        3123        3122
         4        3072        3073        3124        3123
         4        3073        3074        3125        3124
         4        3074        3075        3126        3125
         4        3075        3076        3127        3126
         4        3076        3077        3128        3127
         4        3077        3078        3129        3128
         4        3078        3079        3130        3129
         4        3079        3080        3131        3130
         4        3080        3081        3132        3131
         4        3081        3082        3133        3132
         4        3082        3083        3134        3133
         4        3083        3084        3135        3134
         4        3084        3085        3136        3135
         4        3085        3086        3137        3136
         4        3086        3087        3138        3137
         4        3087        3088        3139        3138
         4        3088        3089        3140        3139
         4        3089        3090        3141        3140
         4        3090        3091        3142        3141
         4        3091        3092        3143        3142
         4        3092        3093        3144        3143
         4        3093        3094        3145        3144
         4        3094        3095        3146        3145
         4        3095        3096        3147        3146
         4        3096        3097        3148        3147
         4        3097        3098        3149        3148
         4        3098        3099        3150        3149
         4        3099        3100        3151        3150
         4        3100        3101        3152        3151
         4        3101        3102        3153        3152
         4        3102        3103        3154        3153
         4        3103        3104        3155        3154
         4        3104        3105        3156        3155
         4        3105        3106        3157        3156
         4        3106        3107        3158        3157
         4        3107        3108        3159        3158
         4        3108        3109        3160        3159
         4        3109        3110        3161        3160
         4        3111        3112        3163        3162
         4        3112        3113        3164        3163
         4        3113        3114        3165        3164
         4        3114        3115        3166        3165
         4        3115        3116        3167        3166
         4        3116        3117        3168        3167
         4        3117        3118        3169        3168
         4        3118        3119        3170        3169
         4        3119        3120        3171        3170
         4        3120        3121        3172        3171
         4        3121        3122        3173        3172
         4        3122        3123        3174        3173
         4        3123        3124        3175        3174
         4        3124        3125        3176        3175
         4        3125        3126        3177        3176
         4        3126        3127        3178        3177
         4        3127        3128        3179        3178
         4        3128        3129        3180        3179
         4        3129        3130        3181        3180
         4        3130        3131        3182        3181
         4        3131        3132        3183        3182
         4        3132        3133        3184        3183
         4        3133        3134        3185        3184
         4        3134        3135        3186        3185
         4        3135        3136        3187        3186
         4        3136        3137        3188        3187
         4        3137        3138        3189        3188
         4        3138        3139        3190        3189
         4        3139        3140        3191        3190
         4        3140        3141        3192        3191
         4        3141        3142        3193        3192
         4        3142        3143        3194        3193
         4        3143        3144        3195        3194
         4        3144        3145        3196        3195
         4        3145        3146        3197        3196
         4        3146        3147        3198        3197
         4        3147        3148        3199        3198
         4        3148        3149        3200        3199
         4        3149        3150        3201        3200
         4        3150        3151        3202        3201
         4        3151        3152        3203        3202
         4        3152        3153        3204        3203
         4        3153        3154        3205        3204
         4        3154        3155        3206        3205
         4        3155        3156        3207        3206
         4        3156        3157        3208        3207
         4        3157        3158        3209        3208
         4        3158        3159        3210        3209
         4        3159        3160        3211        3210
         4        3160        3161        3212        3211
         4        3162        3163        3214        3213
         4        3163        3164        3215        3214
         4        3164        3165        3216        3215
         4        3165        3166        3217        3216
         4        3166        3167        3218        3217
         4        3167        3168        3219        3218
         4        3168        3169        3220        3219
         4        3169        3170        3221        3220
         4        3170        3171        3222        3221
         4        3171        3172        3223        3222
         4        3172        3173        3224        3223
         4        3173        3174        3225        3224
         4        3174        3175        3226        3225
         4        3175        3176        3227        3226
         4        3176        3177        3228        3227
         4        3177        3178        3229        3228
         4        3178        3179        3230        3229
         4        3179        3180        3231        3230
         4        3180        3181        3232        3231
         4        3181        3182        3233        3232
         4        3182        3183        3234        3233
         4        3183        3184        3235        3234
         4        3184        3185        3236        3235
         4        3185        3186        3237        3236
         4        3186        3187        3238        3237
         4        3187        3188        3239        3238
         4        3188        3189        3240        3239
         4        3189        3190        3241        3240
         4        3190        3191        3242        3241
         4        3191        3192        3243        3242
         4        3192        3193        3244        3243
         4        3193        3194        3245        3244
         4        3194        3195        3246        3245
         4        3195        3196        3247        3246
         4        3196        3197        3248        3247
         4        3197        3198        3249        3248
         4        3198        3199        3250        3249
         4        3199        3200        3251        3250
         4        3200        3201        3252        3251
         4        3201        3202        3253        3252
         4        3202        3203        3254        3253
         4        3203        3204        3255        3254
         4        3204        3205        3256        3255
         4        3205        3206        3257        3256
         4        3206        3207        3258        3257
         4        3207        3208        3259        3258
         4        3208        3209        3260        3259
         4        3209        3210        3261        3260
         4        3210        3211        3262        3261
         4        3211        3212        3263        3262
         4        3213        3214        3265        3264
         4        3214        3215        3266        3265
         4        3215        3216        3267        3266
         4        3216        3217        3268        3267
         4        3217        3218        3269        3268
         4        3218        3219        3270        3269
         4        3219        3220        3271        3270
         4        3220        3221        3272        3271
         4        3221        3222        3273        3272
         4        3222        3223        3274        3273
         4        3223        3224        3275        3274
         4        3224        3225        3276        3275
         4        3225        3226        3277        3276
         4        3226        3227        3278        3277
         4        3227        3228        3279        3278
         4        3228        3229        3280        3279
         4        3229        3230        3281        3280
         4        3230        3231        3282        3281
         4        3231        3232        3283        3282
         4        3232        3233        3284        3283
         4        3233        3234        3285        3284
         4        3234        3235        3286        3285
         4        3235        3236        3287        3286
         4        3236        3237        3288        3287
         4        3237        3238        3289        3288
         4        3238        3239        3290        3289
         4        3239        3240        3291        3290
         4        3240        3241        3292        3291
         4        3241        3242        3293        3292
         4        3242        3243        3294        3293
         4        3243        3244        3295        3294
         4        3244        3245        3296        3295
         4        3245        3246        3297        3296
         4        3246        3247        3298        3297
         4        3247        3248        3299        3298
         4        3248        3249        3300        3299
         4        3249        3250        3301        3300
         4        3250        3251        3302        3301
         4        3251        3252        3303        3302
         4        3252        3253        3304        3303
         4        3253        3254        3305        3304
         4        3254        3255        3306        3305
         4        3255        3256        3307        3306
         4        3256        3257        3308        3307
         4        3257        3258        3309        3308
         4        3258        3259        3310        3309
         4        3259        3260        3311        3310
         4        3260        3261        3312        3311
         4        3261        3262        3313        3312
         4        3262        3263        3314        3313
         4        3264        3265        3316        3315
         4        3265        3266        3317        3316
         4        3266        3267        3318        3317
         4        3267        3268        3319        3318
         4        3268        3269        3320        3319
         4        3269        3270        3321        3320
         4        3270        3271        3322        3321
         4        3271        3272        3323        3322
         4        3272        3273        3324        3323
         4        3273        3274        3325        3324
         4        3274        3275        3326        3325
         4        3275        3276        3327        3326
         4        3276        3277        3328        3327
         4        3277        3278        3329        3328
         4        3278        3279        3330        3329
         4        3279        3280        3331        3330
         4        3280        3281        3332        3331
         4        3281        3282        3333        3332
         4        3282        3283        3334        3333
         4        3283        3284        3335        3334
         4        3284        3285        3336        3335
         4        3285        3286        3337        3336
         4        3286        3287        3338        3337
         4        3287        3288        3339        3338
         4        3288        3289        3340        3339
         4        3289        3290        3341        3340
         4        3290        3291        3342        3341
         4        3291        3292        3343        3342
         4        3292        3293        3344        3343
         4        3293        3294        3345        3344
         4        3294        3295        3346        3345
         4        3295        3296        3347        3346
         4        3296        3297        3348        3347
         4        3297        3298        3349        3348
         4        3298        3299        3350        3349
         4        3299        3300        3351        3350
         4        3300        3301        3352        3351
         4        3301        3302        3353        3352
         4        3302        3303        3354        3353
         4        3303        3304        3355        3354
         4        3304        3305        3356        3355
         4        3305        3306        3357        3356
         4        3306        3307        3358        3357
         4        3307        3308        3359        3358
         4        3308        3309        3360        3359
         4        3309        3310        3361        3360
         4        3310        3311        3362        3361
         4        3311        3312        3363        3362
         4        3312        3313        3364        3363
         4        3313        3314        3365        3364
         4        3315        3316        3367        3366
         4        3316        3317        3368        3367
         4        3317        3318        3369        3368
         4        3318        3319        3370        3369
         4        3319        3320        3371        3370
         4        3320        3321        3372        3371
         4        3321        3322        3373        3372
         4        3322        3323        3374        3373
         4        3323        3324        3375        3374
         4        3324        3325        3376        3375
         4        3325        3326        3377        3376
         4        3326        3327        3378        3377
         4        3327        3328        3379        3378
         4        3328        3329        3380        3379
         4        3329        3330        3381        3380
         4        3330        3331        3382        3381
         4        3331        3332        3383        3382
         4        3332        3333        3384        3383
         4        3333        3334        3385        3384
         4        3334        3335        3386        3385
         4        3335        3336        3387        3386
         4        3336        3337        3388        3387
         4        3337        3338        3389        3388
         4        3338        3339        3390        3389
         4        3339        3340        3391        3390
         4        3340        3341        3392        3391
         4        3341        3342        3393        3392
         4        3342        3343        3394        3393
         4        3343        3344        3395        3394
         4        3344        3345        3396        3395
         4        3345        3346        3397        3396
         4        3346        3347        3398        3397
         4        3347        3348        3399        3398
         4        3348        3349        3400        3399
         4        3349        3350        3401        3400
         4        3350        3351        3402        3401
         4        3351        3352        3403        3402
         4        3352        3353        3404        3403
         4        3353        3354        3405        3404
         4        3354        3355        3406        3405
         4        3355        3356        3407        3406
         4        3356        3357        3408        3407
         4        3357        3358        3409        3408
         4        3358        3359        3410        3409
         4        3359        3360        3411        3410
         4        3360        3361        3412        3411
         4        3361        3362        3413        3412
         4        3362        3363        3414        3413
         4        3363        3364        3415        3414
         4        3364        3365        3416        3415
         4        3366        3367        3418        3417
         4        3367        3368        3419        3418
         4        3368        3369        3420        3419
         4        3369        3370        3421        3420
         4        3370        3371        3422        3421
         4        3371        3372        3423        3422
         4        3372        3373        3424        3423
         4        3373        3374        3425        3424
         4        3374        3375        3426        3425
         4        3375        3376        3427        3426
         4        3376        3377        3428        3427
         4        3377        3378        3429        3428
         4        3378        3379        3430        3429
         4        3379        3380        3431        3430
         4        3380        3381        3432        3431
         4        3381        3382        3433        3432
         4        3382        3383        3434        3433
         4        3383        3384        3435        3434
         4        3384        3385        3436        3435
         4        3385        3386        3437        3436
         4        3386        3387        3438        3437
         4        3387        3388        3439        3438
         4        3388        3389        3440        3439
         4        3389        3390        3441        3440
         4        3390        3391        3442        3441
         4        3391        3392        3443        3442
         4        3392        3393        3444        3443
         4        3393        3394        3445        3444
         4        3394        3395        3446        3445
         4        3395        3396        3447        3446
         4        3396        3397        3448        3447
         4        3397        3398        3449        3448
         4        3398        3399        3450        3449
         4        3399        3400        3451        3450
         4        3400        3401        3452        3451
         4        3401        3402        3453        3452
         4        3402        3403        3454        3453
         4        3403        3404        3455        3454
         4        3404        3405        3456        3455
         4        3405        3406        3457        3456
         4        3406        3407        3458        3457
         4        3407        3408        3459        3458
         4        3408        3409        3460        3459
         4        3409        3410        3461        3460
         4        3410        3411        3462        3461
         4        3411        3412        3463        3462
         4        3412        3413        3464        3463
         4        3413        3414        3465        3464
         4        3414        3415        3466        3465
         4        3415        3416        3467        3466
         4        3417        3418        3469        3468
         4        3418        3419        3470        3469
         4        3419        3420        3471        3470
         4        3420        3421        3472        3471
         4        3421        3422        3473        3472
         4        3422        3423        3474        3473
         4        3423        3424        3475        3474
         4        3424        3425        3476        3475
         4        3425        3426        3477        3476
         4        3426        3427        3478        3477
         4        3427        3428        3479        3478
         4        3428        3429        3480        3479
         4        3429        3430        3481        3480
         4        3430        3431        3482        3481
         4        3431        3432        3483        3482
         4        3432        3433        3484        3483
         4        3433        3434        3485        3484
         4        3434        3435        3486        3485
         4        3435        3436        3487        3486
         4        3436        3437        3488        3487
         4        3437        3438        3489        3488
         4        3438        3439        3490        3489
         4        3439        3440        3491        3490
         4        3440        3441        3492        3491
         4        3441        3442        3493        3492
         4        3442        3443        3494        3493
         4        3443        3444        3495        3494
         4        3444        3445        3496        3495
         4        3445        3446        3497        3496
         4        3446        3447        3498        3497
         4        3447        3448        3499        3498
         4        3448        3449        3500        3499
         4        3449        3450        3501        3500
         4        3450        3451        3502        3501
         4        3451        3452        3503        3502
         4        3452        3453        3504        3503
         4        3453        3454        3505        3504
         4        3454        3455        3506        3505
         4        3455        3456        3507        3506
         4        3456        3457        3508        3507
         4        3457        3458        3509        3508
         4        3458        3459        3510        3509
         4        3459        3460        3511        3510
         4        3460        3461        3512        3511
         4        3461        3462        3513        3512
         4        3462        3463        3514        3513
         4        3463        3464        3515        3514
         4        3464        3465        3516        3515
         4        3465        3466        3517        3516
         4        3466        3467        3518        3517
         4        3468        3469        3520        3519
         4        3469        3470        3521        3520
         4        3470        3471        3522        3521
         4        3471        3472        3523        3522
         4        3472        3473        3524        3523
         4        3473        3474        3525        3524
         4        3474        3475        3526        3525
         4        3475        3476        3527        3526
         4        3476        3477        3528        3527
         4        3477        3478        3529        3528
         4        3478        3479        3530        3529
         4        3479        3480        3531        3530
         4        3480        3481        3532        3531
         4        3481        3482        3533        3532
         4        3482        3483        3534        3533
         4        3483        3484        3535        3534
         4        3484        3485        3536        3535
         4        3485        3486        3537        3536
         4        3486        3487        3538        3537
         4        3487        3488        3539        3538
         4        3488        3489        3540        3539
         4        3489        3490        3541        3540
         4        3490        3491        3542        3541
         4        3491        3492        3543        3542
         4        3492        3493        3544        3543
         4        3493        3494        3545        3544
         4        3494        3495        3546        3545
         4        3495        3496        3547        3546
         4        3496        3497        3548        3547
         4        3497        3498        3549        3548
         4        3498        3499        3550        3549
         4        3499        3500        3551        3550
         4        3500        3501        3552        3551
         4        3501        3502        3553        3552
         4        3502        3503        3554        3553
         4        3503        3504        3555        3554
         4        3504        3505        3556        3555
         4        3505        3506        3557        3556
         4        3506        3507        3558        3557
         4        3507        3508        3559        3558
         4        3508        3509        3560        3559
         4        3509        3510        3561        3560
         4        3510        3511        3562        3561
         4        3511        3512        3563        3562
         4        3512        3513        3564        3563
         4        3513        3514        3565        3564
         4        3514        3515        3566        3565
         4        3515        3516        3567        3566
         4        3516        3517        3568        3567
         4        3517        3518        3569        3568
         4        3519        3520        3571        3570
         4        3520        3521        3572        3571
         4        3521        3522        3573        3572
         4        3522        3523        3574        3573
         4        3523        3524        3575        3574
         4        3524        3525        3576        3575
         4        3525        3526        3577        3576
         4        3526        3527        3578        3577
         4        3527        3528        3579        3578
         4        3528        3529        3580        3579
         4        3529        3530        3581        3580
         4        3530        3531        3582        3581
         4        3531        3532        3583        3582
         4        3532        3533        3584        3583
         4        3533        3534        3585        3584
         4        3534        3535        3586        3585
         4        3535        3536        3587        3586
         4        3536        3537        3588        3587
         4        3537        3538        3589        3588
         4        3538        3539        3590        3589
         4        3539        3540        3591        3590
         4        3540        3541        3592        3591
         4        3541        3542        3593        3592
         4        3542        3543        3594        3593
         4        3543        3544        3595        3594
         4        3544        3545        3596        3595
         4        3545        3546        3597        3596
         4        3546        3547        3598        3597
         4        3547        3548        3599        3598
         4        3548        3549        3600        3599
         4        3549        3550        3601        3600
         4        3550        3551        3602        3601
         4        3551        3552        3603        3602
         4        3552        3553        3604        3603
         4        3553        3554        3605        3604
         4        3554        3555        3606        3605
         4        3555        3556        3607        3606
         4        3556        3557        3608        3607
         4        3557        3558        3609        3608
         4        3558        3559        3610        3609
         4        3559        3560        3611        3610
         4        3560        3561        3612        3611
         4        3561        3562        3613        3612
         4        3562        3563        3614        3613
         4        3563        3564        3615        3614
         4        3564        3565        3616        3615
         4        3565        3566        3617        3616
         4        3566        3567        3618        3617
         4        3567        3568        3619        3618
         4        3568        3569        3620        3619
         4        3570        3571        3622        3621
         4        3571        3572        3623        3622
         4        3572        3573        3624        3623
         4        3573        3574        3625        3624
         4        3574        3575        3626        3625
         4        3575        3576        3627        3626
         4        3576        3577        3628        3627
         4        3577        3578        3629        3628
         4        3578        3579        3630        3629
         4        3579        3580        3631        3630
         4        3580        3581        3632        3631
         4        3581        3582        3633        3632
         4        3582        3583        3634        3633
         4        3583        3584        3635        3634
         4        3584        3585        3636        3635
         4        3585        3586        3637        3636
         4        3586        3587        3638        3637
         4        3587        3588        3639        3638
         4        3588        3589        3640        3639
         4        3589        3590        3641        3640
         4        3590        3591        3642        3641
         4        3591        3592        3643        3642
         4        3592        3593        3644        3643
         4        3593        3594        3645        3644
         4        3594        3595        3646        3645
         4        3595        3596        3647        3646
         4        3596        3597        3648        3647
         4        3597        3598        3649        3648
         4        3598        3599        3650        3649
         4        3599        3600        3651        3650
         4        3600        3601        3652        3651
         4        3601        3602        3653        3652
         4        3602        3603        3654        3653
         4        3603        3604        3655        3654
         4        3604        3605        3656        3655
         4        3605        3606        3657        3656
         4        3606        3607        3658        3657
         4        3607        3608        3659        3658
         4        3608        3609        3660        3659
         4        3609        3610        3661        3660
         4        3610        3611        3662        3661
         4        3611        3612        3663        3662
         4        3612        3613        3664        3663
         4        3613        3614        3665        3664
         4        3614        3615        3666        3665
         4        3615        3616        3667        3666
         4        3616        3617        3668        3667
         4        3617        3618        3669        3668
         4        3618        3619        3670        3669
         4        3619        3620        3671        3670
         4        3621        3622        3673        3672
         4        3622        3623        3674        3673
         4        3623        3624        3675        3674
         4        3624        3625        3676        3675
         4        3625        3626        3677        3676
         4        3626        3627        3678        3677
         4        3627        3628        3679        3678
         4        3628        3629        3680        3679
         4        3629        3630        3681        3680
         4        3630        3631        3682        3681
         4        3631        3632        3683        3682
         4        3632        3633        3684        3683
         4        3633        3634        3685        3684
         4        3634        3635        3686        3685
         4        3635        3636        3687        3686
         4        3636        3637        3688        3687
         4        3637        3638        3689        3688
         4        3638        3639        3690        3689
         4        3639        3640        3691        3690
         4        3640        3641        3692        3691
         4        3641        3642        3693        3692
         4        3642        3643        3694        3693
         4        3643        3644        3695        3694
         4        3644        3645        3696        3695
         4        3645        3646        3697        3696
         4        3646        3647        3698        3697
         4        3647        3648        3699        3698
         4        3648        3649        3700        3699
         4        3649        3650        3701        3700
         4        3650        3651        3702        3701
         4        3651        3652        3703        3702
         4        3652        3653        3704        3703
         4        3653        3654        3705        3704
         4        3654        3655        3706        3705
         4        3655        3656        3707        3706
         4        3656        3657        3708        3707
         4        3657        3658        3709        3708
         4        3658        3659        3710        3709
         4        3659        3660        3711        3710
         4        3660        3661        3712        3711
         4        3661        3662        3713        3712
         4        3662        3663        3714        3713
         4        3663        3664        3715        3714
         4        3664        3665        3716        3715
         4        3665        3666        3717        3716
         4        3666        3667        3718        3717
         4        3667        3668        3719        3718
         4        3668        3669        3720        3719
         4        3669        3670        3721        3720
         4        3670        3671        3722        3721
         4        3672        3673        3724        3723
         4        3673        3674        3725        3724
         4        3674        3675        3726        3725
         4        3675        3676        3727        3726
         4        3676        3677        3728        3727
         4        3677        3678        3729        3728
         4        3678        3679        3730        3729
         4        3679        3680        3731        3730
         4        3680        3681        3732        3731
         4        3681        3682        3733        3732
         4        3682        3683        3734        3733
         4        3683        3684        3735        3734
         4        3684        3685        3736        3735
         4        3685        3686        3737        3736
         4        3686        3687        3738        3737
         4        3687        3688        3739        3738
         4        3688        3689        3740        3739
         4        3689        3690        3741        3740
         4        3690        3691        3742        3741
         4        3691        3692        3743        3742
         4        3692        3693        3744        3743
         4        3693        3694        3745        3744
         4        3694        3695        3746        3745
         4        3695        3696        3747        3746
         4        3696        3697        3748        3747
         4        3697        3698        3749        3748
         4        3698        3699        3750        3749
         4        3699        3700        3751        3750
         4        3700        3701        3752        3751
         4        3701        3702        3753        3752
         4        3702        3703        3754        3753
         4        3703        3704        3755        3754
         4        3704        3705        3756        3755
         4        3705        3706        3757        3756
         4        3706        3707        3758        3757
         4        3707        3708        3759        3758
         4        3708        3709        3760        3759
         4        3709        3710        3761        3760
         4        3710        3711        3762        3761
         4        3711        3712        3763        3762
         4        3712        3713        3764        3763
         4        3713        3714        3765        3764
         4        3714        3715        3766        3765
         4        3715        3716        3767        3766
         4        3716        3717        3768        3767
         4        3717        3718        3769        3768
         4        3718        3719        3770        3769
         4        3719        3720        3771        3770
         4        3720        3721        3772        3771
         4        3721        3722        3773        3772
         4        3723        3724        3775        3774
         4        3724        3725        3776        3775
         4        3725        3726        3777        3776
         4        3726        3727        3778        3777
         4        3727        3728        3779        3778
         4        3728        3729        3780        3779
         4        3729        3730        3781        3780
         4        3730        3731        3782        3781
         4        3731        3732        3783        3782
         4        3732        3733        3784        3783
         4        3733        3734        3785        3784
         4        3734        3735        3786        3785
         4        3735        3736        3787        3786
         4        3736        3737        3788        3787
         4        3737        3738        3789        3788
         4        3738        3739        3790        3789
         4        3739        3740        3791        3790
         4        3740        3741        3792        3791
         4        3741        3742        3793        3792
         4        3742        3743        3794        3793
         4        3743        3744        3795        3794
         4        3744        3745        3796        3795
         4        3745        3746        3797        3796
         4        3746        3747        3798        3797
         4        3747        3748        3799        3798
         4        3748        3749        3800        3799
         4        3749        3750        3801        3800
         4        3750        3751        3802        3801
         4        3751        3752        3803        3802
         4        3752        3753        3804        3803
         4        3753        3754        3805        3804
         4        3754        3755        3806        3805
         4        3755        3756        3807        3806
         4        3756        3757        3808        3807
         4        3757        3758        3809        3808
         4        3758        3759        3810        3809
         4        3759        3760        3811        3810
         4        3760        3761        3812        3811
         4        3761        3762        3813        3812
         4        3762        3763        3814        3813
         4        3763        3764        3815        3814
         4        3764        3765        3816        3815
         4        3765        3766        3817        3816
         4        3766        3767        3818        3817
         4        3767        3768        3819        3818
         4        3768        3769        3820        3819
         4        3769        3770        3821        3820
         4        3770        3771        3822        3821
         4        3771        3772        3823        3822
         4        3772        3773        3824        3823
         4        3774        3775        3826        3825
         4        3775        3776        3827        3826
         4        3776        3777        3828        3827
         4        3777        3778        3829        3828
         4        3778        3779        3830        3829
         4        3779        3780        3831        3830
         4        3780        3781        3832        3831
         4        3781        3782        3833        3832
         4        3782        3783        3834        3833
         4        3783        3784        3835        3834
         4        3784        3785        3836        3835
         4        3785        3786        3837        3836
         4        3786        3787        3838        3837
         4        3787        3788        3839        3838
         4        3788        3789        3840        3839
         4        3789        3790        3841        3840
         4        3790        3791        3842        3841
         4        3791        3792        3843        3842
         4        3792        3793        3844        3843
         4        3793        3794        3845        3844
         4        3794        3795        3846        3845
         4        3795        3796        3847        3846
         4        3796        3797        3848        3847
         4        3797        3798        3849        3848
         4        3798        3799        3850        3849
         4        3799        3800        3851        3850
         4        3800        3801        3852        3851
         4        3801        3802        3853        3852
         4        3802        3803        3854        3853
         4        3803        3804        3855        3854
         4        3804        3805        3856        3855
         4        3805        3806        3857        3856
         4        3806        3807        3858        3857
         4        3807        3808        3859        3858
         4        3808        3809        3860        3859
         4        3809        3810        3861        3860
         4        3810        3811        3862        3861
         4        3811        3812        3863        3862
         4        3812        3813        3864        3863
         4        3813        3814        3865        3864
         4        3814        3815        3866        3865
         4        3815        3816        3867        3866
         4        3816        3817        3868        3867
         4        3817        3818        3869        3868
         4        3818        3819        3870        3869
         4        3819        3820        3871        3870
         4        3820        3821        3872        3871
         4        3821        3822        3873        3872
         4        3822        3823        3874        3873
         4        3823        3824        3875        3874
         4        3825        3826        3877        3876
         4        3826        3827        3878        3877
         4        3827        3828        3879        3878
         4        3828        3829        3880        3879
         4        3829        3830        3881        3880
         4        3830        3831        3882        3881
         4        3831        3832        3883        3882
         4        3832        3833        3884        3883
         4        3833        3834        3885        3884
         4        3834        3835        3886        3885
         4        3835        3836        3887        3886
         4        3836        3837        3888        3887
         4        3837        3838        3889        3888
         4        3838        3839        3890        3889
         4        3839        3840        3891        3890
         4        3840        3841        3892        3891
         4        3841        3842        3893        3892
         4        3842        3843        3894        3893
         4        3843        3844        3895        3894
         4        3844        3845        3896        3895
         4        3845        3846        3897        3896
         4        3846        3847        3898        3897
         4        3847        3848        3899        3898
         4        3848        3849        3900        3899
         4        3849        3850        3901        3900
         4        3850        3851        3902        3901
         4        3851        3852        3903        3902
         4        3852        3853        3904        3903
         4        3853        3854        3905        3904
         4        3854        3855        3906        3905
         4        3855        3856        3907        3906
         4        3856        3857        3908        3907
         4        3857        3858        3909        3908
         4        3858        3859        3910        3909
         4        3859        3860        3911        3910
         4        3860        3861        3912        3911
         4        3861        3862        3913        3912
         4        3862        3863        3914        3913
         4        3863        3864        3915        3914
         4        3864        3865        3916        3915
         4        3865        3866        3917        3916
         4        3866        3867        3918        3917
         4        3867        3868        3919        3918
         4        3868        3869        3920        3919
         4        3869        3870        3921        3920
         4        3870        3871        3922        3921
         4        3871        3872        3923        3922
         4        3872        3873        3924        3923
         4        3873        3874        3925        3924
         4        3874        3875        3926        3925
         4        3876        3877        3928        3927
         4        3877        3878        3929        3928
         4        3878        3879        3930        3929
         4        3879        3880        3931        3930
         4        3880        3881        3932        3931
         4        3881        3882        3933        3932
         4        3882        3883        3934        3933
         4        3883        3884        3935        3934
         4        3884        3885        3936        3935
         4        3885        3886        3937        3936
         4        3886        3887        3938        3937
         4        3887        3888        3939        3938
         4        3888        3889        3940        3939
         4        3889        3890        3941        3940
         4        3890        3891        3942        3941
         4        3891        3892        3943        3942
         4        3892        3893        3944        3943
         4        3893        3894        3945        3944
         4        3894        3895        3946        3945
         4        3895        3896        3947        3946
         4        3896        3897        3948        3947
         4        3897        3898        3949        3948
         4        3898        3899        3950        3949
         4        3899        3900        3951        3950
         4        3900        3901        3952        3951
         4        3901        3902        3953        3952
         4        3902        3903        3954        3953
         4        3903        3904        3955        3954
         4        3904        3905        3956        3955
         4        3905        3906        3957        3956
         4        3906        3907        3958        3957
         4        3907        3908        3959        3958
         4        3908        3909        3960        3959
         4        3909        3910        3961        3960
         4        3910        3911        3962        3961
         4        3911        3912        3963        3962
         4        3912        3913        3964        3963
         4        3913        3914        3965        3964
         4        3914        3915        3966        3965
         4        3915        3916        3967        3966
         4        3916        3917        3968        3967
         4        3917        3918        3969        3968
         4        3918        3919        3970        3969
         4        3919        3920        3971        3970
         4        3920        3921        3972        3971
         4        3921        3922        3973        3972
         4        3922        3923        3974        3973
         4        3923        3924        3975        3974
         4        3924        3925        3976        3975
         4        3925        3926        3977        3976
         4        3927        3928        3979        3978
         4        3928        3929        3980        3979
         4        3929        3930        3981        3980
         4        3930        3931        3982        3981
         4        3931        3932        3983        3982
         4        3932        3933        3984        3983
         4        3933        3934        3985        3984
         4        3934        3935        3986        3985
         4        3935        3936        3987        3986
         4        3936        3937        3988        3987
         4        3937        3938        3989        3988
         4        3938        3939        3990        3989
         4        3939        3940        3991        3990
         4        3940        3941        3992        3991
         4        3941        3942        3993        3992
         4        3942        3943        3994        3993
         4        3943        3944        3995        3994
         4        3944        3945        3996        3995
         4        3945        3946        3997        3996
         4        3946        3947        3998        3997
         4        3947        3948        3999        3998
         4        3948        3949        4000        3999
         4        3949        3950        4001        4000
         4        3950        3951        4002        4001
         4        3951        3952        4003        4002
         4        3952        3953        4004        4003
         4        3953        3954        4005        4004
         4        3954        3955        4006        4005
         4        3955        3956        4007        4006
         4        3956        3957        4008        4007
         4        3957        3958        4009        4008
         4        3958        3959        4010        4009
         4        3959        3960        4011        4010
         4        3960        3961        4012        4011
         4        3961        3962        4013        4012
         4        3962        3963        4014        4013
         4        3963        3964        4015        4014
         4        3964        3965        4016        4015
         4        3965        3966        4017        4016
         4        3966        3967        4018        4017
         4        3967        3968        4019        4018
         4        3968        3969        4020        4019
         4        3969        3970        4021        4020
         4        3970        3971        4022        4021
         4        3971        3972        4023        4022
         4        3972        3973        4024        4023
         4        3973        3974        4025        4024
         4        3974        3975        4026        4025
         4        3975        3976        4027        4026
         4        3976        3977        4028        4027
         4        3978        3979        4030        4029
         4        3979        3980        4031        4030
         4        3980        3981        4032        4031
         4        3981        3982        4033        4032
         4        3982        3983        4034        4033
         4        3983        3984        4035        4034
         4        3984        3985        4036        4035
         4        3985        3986        4037        4036
         4        3986        3987        4038        4037
         4        3987        3988        4039        4038
         4        3988        3989        4040        4039
         4        3989        3990        4041        4040
         4        3990        3991        4042        4041
         4        3991        3992        4043        4042
         4        3992        3993        4044        4043
         4        3993        3994        4045        4044
         4        3994        3995        4046        4045
         4        3995        3996        4047        4046
         4        3996        3997        4048        4047
         4        3997        3998        4049        4048
         4        3998        3999        4050        4049
         4        3999        4000        4051        4050
         4        4000        4001        4052        4051
         4        4001        4002        4053        4052
         4        4002        4003        4054        4053
         4        4003        4004        4055        4054
         4        4004        4005        4056        4055
         4        4005        4006        4057        4056
         4        4006        4007        4058        4057
         4        4007        4008        4059        4058
         4        4008        4009        4060        4059
         4        4009        4010        4061        4060
         4        4010        4011        4062        4061
         4        4011        4012        4063        4062
         4        4012        4013        4064        4063
         4        4013        4014        4065        4064
         4        4014        4015        4066        4065
         4        4015        4016        4067        4066
         4        4016        4017        4068        4067
         4        4017        4018        4069        4068
         4        4018        4019        4070        4069
         4        4019        4020        4071        4070
         4        4020        4021        4072        4071
         4        4021        4022        4073        4072
         4        4022        4023        4074        4073
         4        4023        4024        4075        4074
         4        4024        4025        4076        4075
         4        4025        4026        4077        4076
         4        4026        4027        4078        4077
         4        4027        4028        4079        4078
         4        4029        4030        4081        4080
         4        4030        4031        4082        4081
         4        4031        4032        4083        4082
         4        4032        4033        4084        4083
         4        4033        4034        4085        4084
         4        4034        4035        4086        4085
         4        4035        4036        4087        4086
         4        4036        4037        4088        4087
         4        4037        4038        4089        4088
         4        4038        4039        4090        4089
         4        4039        4040        4091        4090
         4        4040        4041        4092        4091
         4        4041        4042        4093        4092
         4        4042        4043        4094        4093
         4        4043        4044        4095        4094
         4        4044        4045        4096        4095
         4        4045        4046        4097        4096
         4        4046        4047        4098        4097
         4        4047        4048        4099        4098
         4        4048        4049        4100        4099
         4        4049        4050        4101        4100
         4        4050        4051        4102        4101
         4        4051        4052        4103        4102
         4        4052        4053        4104        4103
         4        4053        4054        4105        4104
         4        4054        4055        4106        4105
         4        4055        4056        4107        4106
         4        4056        4057        4108        4107
         4        4057        4058        4109        4108
         4        4058        4059        4110        4109
         4        4059        4060        4111        4110
         4        4060        4061        4112        4111
         4        4061        4062        4113        4112
         4        4062        4063        4114        4113
         4        4063        4064        4115        4114
         4        4064        4065        4116        4115
         4        4065        4066        4117        4116
         4        4066        4067        4118        4117
         4        4067        4068        4119        4118
         4        4068        4069        4120        4119
         4        4069        4070        4121        4120
         4        4070        4071        4122        4121
         4        4071        4072        4123        4122
         4        4072        4073        4124        4123
         4        4073        4074        4125        4124
         4        4074        4075        4126        4125
         4        4075        4076        4127        4126
         4        4076        4077        4128        4127
         4        4077        4078        4129        4128
         4        4078        4079        4130        4129
         4        4080        4081        4132        4131
         4        4081        4082        4133        4132
         4        4082        4083        4134        4133
         4        4083        4084        4135        4134
         4        4084        4085        4136        4135
         4        4085        4086        4137        4136
         4        4086        4087        4138        4137
         4        4087        4088        4139        4138
         4        4088        4089        4140        4139
         4        4089        4090        4141        4140
         4        4090        4091        4142        4141
         4        4091        4092        4143        4142
         4        4092        4093        4144        4143
         4        4093        4094        4145        4144
         4        4094        4095        4146        4145
         4        4095        4096        4147        4146
         4        4096        4097        4148        4147
         4        4097        4098        4149        4148
         4        4098        4099        4150        4149
         4        4099        4100        4151        4150
         4        4100        4101        4152        4151
         4        4101        4102        4153        4152
         4        4102        4103        4154        4153
         4        4103        4104        4155        4154
         4        4104        4105        4156        4155
         4        4105        4106        4157        4156
         4        4106        4107        4158        4157
         4        4107        4108        4159        4158
         4        4108        4109        4160        4159
         4        4109        4110        4161        4160
         4        4110        4111        4162        4161
         4        4111        4112        4163        4162
         4        4112        4113        4164        4163
         4        4113        4114        4165        4164
         4        4114        4115        4166        4165
         4        4115        4116        4167        4166
         4        4116        4117        4168        4167
         4        4117        4118        4169        4168
         4        4118        4119        4170        4169
         4        4119        4120        4171        4170
         4        4120        4121        4172        4171
         4        4121        4122        4173        4172
         4        4122        4123        4174        4173
         4        4123        4124        4175        4174
         4        4124        4125        4176        4175
         4        4125        4126        4177        4176
         4        4126        4127        4178        4177
         4        4127        4128        4179        4178
         4        4128        4129        4180        4179
         4        4129        4130        4181        4180
         4        4131        4132        4183        4182
         4        4132        4133        4184        4183
         4        4133        4134        4185        4184
         4        4134        4135        4186        4185
         4        4135        4136        4187        4186
         4        4136        4137        4188        4187
         4        4137        4138        4189        4188
         4        4138        4139        4190        4189
         4        4139        4140        4191        4190
         4        4140        4141        4192        4191
         4        4141        4142        4193        4192
         4        4142        4143        4194        4193
         4        4143        4144        4195        4194
         4        4144        4145        4196        4195
         4        4145        4146        4197        4196
         4        4146        4147        4198        4197
         4        4147        4148        4199        4198
         4        4148        4149        4200        4199
         4        4149        4150        4201        4200
         4        4150        4151        4202        4201
         4        4151        4152        4203        4202
         4        4152        4153        4204        4203
         4        4153        4154        4205        4204
         4        4154        4155        4206        4205
         4        4155        4156        4207        4206
         4        4156        4157        4208        4207
         4        4157        4158        4209        4208
         4        4158        4159        4210        4209
         4        4159        4160        4211        4210
         4        4160        4161        4212        4211
         4        4161        4162        4213        4212
         4        4162        4163        4214        4213
         4        4163        4164        4215        4214
         4        4164        4165        4216        4215
         4        4165        4166        4217        4216
         4        4166        4167        4218        4217
         4        4167        4168        4219        4218
         4        4168        4169        4220        4219
         4        4169        4170        4221        4220
         4        4170        4171        4222        4221
         4        4171        4172        4223        4222
         4        4172        4173        4224        4223
         4        4173        4174        4225        4224
         4        4174        4175        4226        4225
         4        4175        4176        4227        4226
         4        4176        4177        4228        4227
         4        4177        4178        4229        4228
         4        4178        4179        4230        4229
         4        4179        4180        4231        4230
         4        4180        4181        4232        4231
         4        4182        4183        4234        4233
         4        4183        4184        4235        4234
         4        4184        4185        4236        4235
         4        4185        4186        4237        4236
         4        4186        4187        4238        4237
         4        4187        4188        4239        4238
         4        4188        4189        4240        4239
         4        4189        4190        4241        4240
         4        4190        4191        4242        4241
         4        4191        4192        4243        4242
         4        4192        4193        4244        4243
         4        4193        4194        4245        4244
         4        4194        4195        4246        4245
         4        4195        4196        4247        4246
         4        4196        4197        4248        4247
         4        4197        4198        4249        4248
         4        4198        4199        4250        4249
         4        4199        4200        4251        4250
         4        4200        4201        4252        4251
         4        4201        4202        4253        4252
         4        4202        4203        4254        4253
         4        4203        4204        4255        4254
         4        4204        4205        4256        4255
         4        4205        4206        4257        4256
         4        4206        4207        4258        4257
         4        4207        4208        4259        4258
         4        4208        4209        4260        4259
         4        4209        4210        4261        4260
         4        4210        4211        4262        4261
         4        4211        4212        4263        4262
         4        4212        4213        4264        4263
         4        4213        4214        4265        4264
         4        4214        4215        4266        4265
         4        4215        4216        4267        4266
         4        4216        4217        4268        4267
         4        4217        4218        4269        4268
         4        4218        4219        4270        4269
         4        4219        4220        4271        4270
         4        4220        4221        4272        4271
         4        4221        4222        4273        4272
         4        4222        4223        4274        4273
         4        4223        4224        4275        4274
         4        4224        4225        4276        4275
         4        4225        4226        4277        4276
         4        4226        4227        4278        4277
         4        4227        4228        4279        4278
         4        4228        4229        4280        4279
         4        4229        4230        4281        4280
         4        4230        4231        4282        4281
         4        4231        4232        4283        4282
         4        4233        4234        4285        4284
         4        4234        4235        4286        4285
         4        4235        4236        4287        4286
         4        4236        4237        4288        4287
         4        4237        4238        4289        4288
         4        4238        4239        4290        4289
         4        4239        4240        4291        4290
         4        4240        4241        4292        4291
         4        4241        4242        4293        4292
         4        4242        4243        4294        4293
         4        4243        4244        4295        4294
         4        4244        4245        4296        4295
         4        4245        4246        4297        4296
         4        4246        4247        4298        4297
         4        4247        4248        4299        4298
         4        4248        4249        4300        4299
         4        4249        4250        4301        4300
         4        4250        4251        4302        4301
         4        4251        4252        4303        4302
         4        4252        4253        4304        4303
         4        4253        4254        4305        4304
         4        4254        4255        4306        4305
         4        4255        4256        4307        4306
         4        4256        4257        4308        4307
         4        4257        4258        4309        4308
         4        4258        4259        4310        4309
         4        4259        4260        4311        4310
         4        4260        4261        4312        4311
         4        4261        4262        4313        4312
         4        4262        4263        4314        4313
         4        4263        4264        4315        4314
         4        4264        4265        4316        4315
         4        4265        4266        4317        4316
         4        4266        4267        4318        4317
         4        4267        4268        4319        4318
         4        4268        4269        4320        4319
         4        4269        4270        4321        4320
         4        4270        4271        4322        4321
         4        4271        4272        4323        4322
         4        4272        4273        4324        4323
         4        4273        4274        4325        4324
         4        4274        4275        4326        4325
         4        4275        4276        4327        4326
         4        4276        4277        4328        4327
         4        4277        4278        4329        4328
         4        4278        4279        4330        4329
         4        4279        4280        4331        4330
         4        4280        4281        4332        4331
         4        4281        4282        4333        4332
         4        4282        4283        4334        4333
         4        4284        4285        4336        4335
         4        4285        4286        4337        4336
         4        4286        4287        4338        4337
         4        4287        4288        4339        4338
         4        4288        4289        4340        4339
         4        4289        4290        4341        4340
         4        4290        4291        4342        4341
         4        4291        4292        4343        4342
         4        4292        4293        4344        4343
         4        4293        4294        4345        4344
         4        4294        4295        4346        4345
         4        4295        4296        4347        4346
         4        4296        4297        4348        4347
         4        4297        4298        4349        4348
         4        4298        4299        4350        4349
         4        4299        4300        4351        4350
         4        4300        4301        4352        4351
         4        4301        4302        4353        4352
         4        4302        4303        4354        4353
         4        4303        4304        4355        4354
         4        4304        4305        4356        4355
         4        4305        4306        4357        4356
         4        4306        4307        4358        4357
         4        4307        4308        4359        4358
         4        4308        4309        4360        4359
         4        4309        4310        4361        4360
         4        4310        4311        4362        4361
         4        4311        4312        4363        4362
         4        4312        4313        4364        4363
         4        4313        4314        4365        4364
         4        4314        4315        4366        4365
         4        4315        4316        4367        4366
         4        4316        4317        4368        4367
         4        4317        4318        4369        4368
         4        4318        4319        4370        4369
         4        4319        4320        4371        4370
         4        4320        4321        4372        4371
         4        4321        4322        4373        4372
         4        4322        4323        4374        4373
         4        4323        4324        4375        4374
         4        4324        4325        4376        4375
         4        4325        4326        4377        4376
         4        4326        4327        4378        4377
         4        4327        4328        4379        4378
         4        4328        4329        4380        4379
         4        4329        4330        4381        4380
         4        4330        4331        4382        4381
         4        4331        4332        4383        4382
         4        4332        4333        4384        4383
         4        4333        4334        4385        4384
         4        4335        4336        4387        4386
         4        4336        4337        4388        4387
         4        4337        4338        4389        4388
         4        4338        4339        4390        4389
         4        4339        4340        4391        4390
         4        4340        4341        4392        4391
         4        4341        4342        4393        4392
         4        4342        4343        4394        4393
         4        4343        4344        4395        4394
         4        4344        4345        4396        4395
         4        4345        4346        4397        4396
         4        4346        4347        4398        4397
         4        4347        4348        4399        4398
         4        4348        4349        4400        4399
         4        4349        4350        4401        4400
         4        4350        4351        4402        4401
         4        4351        4352        4403        4402
         4        4352        4353        4404        4403
         4        4353        4354        4405        4404
         4        4354        4355        4406        4405
         4        4355        4356        4407        4406
         4        4356        4357        4408        4407
         4        4357        4358        4409        4408
         4        4358        4359        4410        4409
         4        4359        4360        4411        4410
         4        4360        4361        4412        4411
         4        4361        4362        4413        4412
         4        4362        4363        4414        4413
         4        4363        4364        4415        4414
         4        4364        4365        4416        4415
         4        4365        4366        4417        4416
         4        4366        4367        4418        4417
         4        4367        4368        4419        4418
         4        4368        4369        4420        4419
         4        4369        4370        4421        4420
         4        4370        4371        4422        4421
         4        4371        4372        4423        4422
         4        4372        4373        4424        4423
         4        4373        4374        4425        4424
         4        4374        4375        4426        4425
         4        4375        4376        4427        4426
         4        4376        4377        4428        4427
         4        4377        4378        4429        4428
         4        4378        4379        4430        4429
         4        4379        4380        4431        4430
         4        4380        4381        4432        4431
         4        4381        4382        4433        4432
         4        4382        4383        4434        4433
         4        4383        4384        4435        4434
         4        4384        4385        4436        4435
         4        4386        4387        4438        4437
         4        4387        4388        4439        4438
         4        4388        4389        4440        4439
         4        4389        4390        4441        4440
         4        4390        4391        4442        4441
         4        4391        4392        4443        4442
         4        4392        4393        4444        4443
         4        4393        4394        4445        4444
         4        4394        4395        4446        4445
         4        4395        4396        4447        4446
         4        4396        4397        4448        4447
         4        4397        4398        4449        4448
         4        4398        4399        4450        4449
         4        4399        4400        4451        4450
         4        4400        4401        4452        4451
         4        4401        4402        4453        4452
         4        4402        4403        4454        4453
         4        4403        4404        4455        4454
         4        4404        4405        4456        4455
         4        4405        4406        4457        4456
         4        4406        4407        4458        4457
         4        4407        4408        4459        4458
         4        4408        4409        4460        4459
         4        4409        4410        4461        4460
         4        4410        4411        4462        4461
         4        4411        4412        4463        4462
         4        4412        4413        4464        4463
         4        4413        4414        4465        4464
         4        4414        4415        4466        4465
         4        4415        4416        4467        4466
         4        4416        4417        4468        4467
         4        4417        4418        4469        4468
         4        4418        4419        4470        4469
         4        4419        4420        4471        4470
         4        4420        4421        4472        4471
         4        4421        4422        4473        4472
         4        4422        4423        4474        4473
         4        4423        4424        4475        4474
         4        4424        4425        4476        4475
         4        4425        4426        4477        4476
         4        4426        4427        4478        4477
         4        4427        4428        4479        4478
         4        4428        4429        4480        4479
         4        4429        4430        4481        4480
         4        4430        4431        4482        4481
         4        4431        4432        4483        4482
         4        4432        4433        4484        4483
         4        4433        4434        4485        4484
         4        4434        4435        4486        4485
         4        4435        4436        4487        4486
         4        4437        4438        4489        4488
         4        4438        4439        4490        4489
         4        4439        4440        4491        4490
         4        4440        4441        4492        4491
         4        4441        4442        4493        4492
         4        4442        4443        4494        4493
         4        4443        4444        4495        4494
         4        4444        4445        4496        4495
         4        4445        4446        4497        4496
         4        4446        4447        4498        4497
         4        4447        4448        4499        4498
         4        4448        4449        4500        4499
         4        4449        4450        4501        4500
         4        4450        4451        4502        4501
         4        4451        4452        4503        4502
         4        4452        4453        4504        4503
         4        4453        4454        4505        4504
         4        4454        4455        4506        4505
         4        4455        4456        4507        4506
         4        4456        4457        4508        4507
         4        4457        4458        4509        4508
         4        4458        4459        4510        4509
         4        4459        4460        4511        4510
         4        4460        4461        4512        4511
         4        4461        4462        4513        4512
         4        4462        4463        4514        4513
         4        4463        4464        4515        4514
         4        4464        4465        4516        4515
         4        4465        4466        4517        4516
         4        4466        4467        4518        4517
         4        4467        4468        4519        4518
         4        4468        4469        4520        4519
         4        4469        4470        4521        4520
         4        4470        4471        4522        4521
         4        4471        4472        4523        4522
         4        4472        4473        4524        4523
         4        4473        4474        4525        4524
         4        4474        4475        4526        4525
         4        4475        4476        4527        4526
         4        4476        4477        4528        4527
         4        4477        4478        4529        4528
         4        4478        4479        4530        4529
         4        4479        4480        4531        4530
         4        4480        4481        4532        4531
         4        4481        4482        4533        4532
         4        4482        4483        4534        4533
         4        4483        4484        4535        4534
         4        4484        4485        4536        4535
         4        4485        4486        4537        4536
         4        4486        4487        4538        4537
         4        4488        4489        4540        4539
         4        4489        4490        4541        4540
         4        4490        4491        4542        4541
         4        4491        4492        4543        4542
         4        4492        4493        4544        4543
         4        4493        4494        4545        4544
         4        4494        4495        4546        4545
         4        4495        4496        4547        4546
         4        4496        4497        4548        4547
         4        4497        4498        4549        4548
         4        4498        4499        4550        4549
         4        4499        4500        4551        4550
         4        4500        4501        4552        4551
         4        4501        4502        4553        4552
         4        4502        4503        4554        4553
         4        4503        4504        4555        4554
         4        4504        4505        4556        4555
         4        4505        4506        4557        4556
         4        4506        4507        4558        4557
         4        4507        4508        4559        4558
         4        4508        4509        4560        4559
         4        4509        4510        4561        4560
         4        4510        4511        4562        4561
         4        4511        4512        4563        4562
         4        4512        4513        4564        4563
         4        4513        4514        4565        4564
         4        4514        4515        4566        4565
         4        4515        4516        4567        4566
         4        4516        4517        4568        4567
         4        4517        4518        4569        4568
         4        4518        4519        4570        4569
         4        4519        4520        4571        4570
         4        4520        4521        4572        4571
         4        4521        4522        4573        4572
         4        4522        4523        4574        4573
         4        4523        4524        4575        4574
         4        4524        4525        4576        4575
         4        4525        4526        4577        4576
         4        4526        4527        4578        4577
         4        4527        4528        4579        4578
         4        4528        4529        4580        4579
         4        4529        4530        4581        4580
         4        4530        4531        4582        4581
         4        4531        4532        4583        4582
         4        4532        4533        4584        4583
         4        4533        4534        4585        4584
         4        4534        4535        4586        4585
         4        4535        4536        4587        4586
         4        4536        4537        4588        4587
         4        4537        4538        4589        4588
         4        4539        4540        4591        4590
         4        4540        4541        4592        4591
         4        4541        4542        4593        4592
         4        4542        4543        4594        4593
         4        4543        4544        4595        4594
         4        4544        4545        4596        4595
         4        4545        4546        4597        4596
         4        4546        4547        4598        4597
         4        4547        4548        4599        4598
         4        4548        4549        4600        4599
         4        4549        4550        4601        4600
         4        4550        4551        4602        4601
         4        4551        4552        4603        4602
         4        4552        4553        4604        4603
         4        4553        4554        4605        4604
         4        4554        4555        4606        4605
         4        4555        4556        4607        4606
         4        4556        4557        4608        4607
         4        4557        4558        4609        4608
         4        4558        4559        4610        4609
         4        4559        4560        4611        4610
         4        4560        4561        4612        4611
         4        4561        4562        4613        4612
         4        4562        4563        4614        4613
         4        4563        4564        4615        4614
         4        4564        4565        4616        4615
         4        4565        4566        4617        4616
         4        4566        4567        4618        4617
         4        4567        4568        4619        4618
         4        4568        4569        4620        4619
         4        4569        4570        4621        4620
         4        4570        4571        4622        4621
         4        4571        4572        4623        4622
         4        4572        4573        4624        4623
         4        4573        4574        4625        4624
         4        4574        4575        4626        4625
         4        4575        4576        4627        4626
         4        4576        4577        4628        4627
         4        4577        4578        4629        4628
         4        4578        4579        4630        4629
         4        4579        4580        4631        4630
         4        4580        4581        4632        4631
         4        4581        4582        4633        4632
         4        4582        4583        4634        4633
         4        4583        4584        4635        4634
         4        4584        4585        4636        4635
         4        4585        4586        4637        4636
         4        4586        4587        4638        4637
         4        4587        4588        4639        4638
         4        4588        4589        4640        4639
         4        4590        4591        4642        4641
         4        4591        4592        4643        4642
         4        4592        4593        4644        4643
         4        4593        4594        4645        4644
         4        4594        4595        4646        4645
         4        4595        4596        4647        4646
         4        4596        4597        4648        4647
         4        4597        4598        4649        4648
         4        4598        4599        4650        4649
         4        4599        4600        4651        4650
         4        4600        4601        4652        4651
         4        4601        4602        4653        4652
         4        4602        4603        4654        4653
         4        4603        4604        4655        4654
         4        4604        4605        4656        4655
         4        4605        4606        4657        4656
         4        4606        4607        4658        4657
         4        4607        4608        4659        4658
         4        4608        4609        4660        4659
         4        4609        4610        4661        4660
         4        4610        4611        4662        4661
         4        4611        4612        4663        4662
         4        4612        4613        4664        4663
         4        4613        4614        4665        4664
         4        4614        4615        4666        4665
         4        4615        4616        4667        4666
         4        4616        4617        4668        4667
         4        4617        4618        4669        4668
         4        4618        4619        4670        4669
         4        4619        4620        4671        4670
         4        4620        4621        4672        4671
         4        4621        4622        4673        4672
         4        4622        4623        4674        4673
         4        4623        4624        4675        4674
         4        4624        4625        4676        4675
         4        4625        4626        4677        4676
         4        4626        4627        4678        4677
         4        4627        4628        4679        4678
         4        4628        4629        4680        4679
         4        4629        4630        4681        4680
         4        4630        4631        4682        4681
         4        4631        4632        4683        4682
         4        4632        4633        4684        4683
         4        4633        4634        4685        4684
         4        4634        4635        4686        4685
         4        4635        4636        4687        4686
         4        4636        4637        4688        4687
         4        4637        4638        4689        4688
         4        4638        4639        4690        4689
         4        4639        4640        4691        4690
         4        4641        4642        4693        4692
         4        4642        4643        4694        4693
         4        4643        4644        4695        4694
         4        4644        4645        4696        4695
         4        4645        4646        4697        4696
         4        4646        4647        4698        4697
         4        4647        4648        4699        4698
         4        4648        4649        4700        4699
         4        4649        4650        4701        4700
         4        4650        4651        4702        4701
         4        4651        4652        4703        4702
         4        4652        4653        4704        4703
         4        4653        4654        4705        4704
         4        4654        4655        4706        4705
         4        4655        4656        4707        4706
         4        4656        4657        4708        4707
         4        4657        4658        4709        4708
         4        4658        4659        4710        4709
         4        4659        4660        4711        4710
         4        4660        4661        4712        4711
         4        4661        4662        4713        4712
         4        4662        4663        4714        4713
         4        4663        4664        4715        4714
         4        4664        4665        4716        4715
         4        4665        4666        4717        4716
         4        4666        4667        4718        4717
         4        4667        4668        4719        4718
         4        4668        4669        4720        4719
         4        4669        4670        4721        4720
         4        4670        4671        4722        4721
         4        4671        4672        4723        4722
         4        4672        4673        4724        4723
         4        4673        4674        4725        4724
         4        4674        4675        4726        4725
         4        4675        4676        4727        4726
         4        4676        4677        4728        4727
         4        4677        4678        4729        4728
         4        4678        4679        4730        4729
         4        4679        4680        4731        4730
         4        4680        4681        4732        4731
         4        4681        4682        4733        4732
         4        4682        4683        4734        4733
         4        4683        4684        4735        4734
         4        4684        4685        4736        4735
         4        4685        4686        4737        4736
         4        4686        4687        4738        4737
         4        4687        4688        4739        4738
         4        4688        4689        4740        4739
         4        4689        4690        4741        4740
         4        4690        4691        4742        4741
         4        4692        4693        4744        4743
         4        4693        4694        4745        4744
         4        4694        4695        4746        4745
         4        4695        4696        4747        4746
         4        4696        4697        4748        4747
         4        4697        4698        4749        4748
         4        4698        4699        4750        4749
         4        4699        4700        4751        4750
         4        4700        4701        4752        4751
         4        4701        4702        4753        4752
         4        4702        4703        4754        4753
         4        4703        4704        4755        4754
         4        4704        4705        4756        4755
         4        4705        4706        4757        4756
         4        4706        4707        4758        4757
         4        4707        4708        4759        4758
         4        4708        4709        4760        4759
         4        4709        4710        4761        4760
         4        4710        4711        4762        4761
         4        4711        4712        4763        4762
         4        4712        4713        4764        4763
         4        4713        4714        4765        4764
         4        4714        4715        4766        4765
         4        4715        4716        4767        4766
         4        4716        4717        4768        4767
         4        4717        4718        4769        4768
         4        4718        4719        4770        4769
         4        4719        4720        4771        4770
         4        4720        4721        4772        4771
         4        4721        4722        4773        4772
         4        4722        4723        4774        4773
         4        4723        4724        4775        4774
         4        4724        4725        4776        4775
         4        4725        4726        4777        4776
         4        4726        4727        4778        4777
         4        4727        4728        4779        4778
         4        4728        4729        4780        4779
         4        4729        4730        4781        4780
         4        4730        4731        4782        4781
         4        4731        4732        4783        4782
         4        4732        4733        4784        4783
         4        4733        4734        4785        4784
         4        4734        4735        4786        4785
         4        4735        4736        4787        4786
         4        4736        4737        4788        4787
         4        4737        4738        4789        4788
         4        4738        4739        4790        4789
         4        4739        4740        4791        4790
         4        4740        4741        4792        4791
         4        4741        4742        4793        4792
         4        4743        4744        4795        4794
         4        4744        4745        4796        4795
         4        4745        4746        4797        4796
         4        4746        4747        4798        4797
         4        4747        4748        4799        4798
         4        4748        4749        4800        4799
         4        4749        4750        4801        4800
         4        4750        4751        4802        4801
         4        4751        4752        4803        4802
         4        4752        4753        4804        4803
         4        4753        4754        4805        4804
         4        4754        4755        4806        4805
         4        4755        4756        4807        4806
         4        4756        4757        4808        4807
         4        4757        4758        4809        4808
         4        4758        4759        4810        4809
         4        4759        4760        4811        4810
         4        4760        4761        4812        4811
         4        4761        4762        4813        4812
         4        4762        4763        4814        4813
         4        4763        4764        4815        4814
         4        4764        4765        4816        4815
         4        4765        4766        4817        4816
         4        4766        4767        4818        4817
         4        4767        4768        4819        4818
         4        4768        4769        4820        4819
         4        4769        4770        4821        4820
         4        4770        4771        4822        4821
         4        4771        4772        4823        4822
         4        4772        4773        4824        4823
         4        4773        4774        4825        4824
         4        4774        4775        4826        4825
         4        4775        4776        4827        4826
         4        4776        4777        4828        4827
         4        4777        4778        4829        4828
         4        4778        4779        4830        4829
         4        4779        4780        4831        4830
         4        4780        4781        4832        4831
         4        4781        4782        4833        4832
         4        4782        4783        4834        4833
         4        4783        4784        4835        4834
         4        4784        4785        4836        4835
         4        4785        4786        4837        4836
         4        4786        4787        4838        4837
         4        4787        4788        4839        4838
         4        4788        4789        4840        4839
         4        4789        4790        4841        4840
         4        4790        4791        4842        4841
         4        4791        4792        4843        4842
         4        4792        4793        4844        4843
         4        4794        4795        4846        4845
         4        4795        4796        4847        4846
         4        4796        4797        4848        4847
         4        4797        4798        4849        4848
         4        4798        4799        4850        4849
         4        4799        4800        4851        4850
         4        4800        4801        4852        4851
         4        4801        4802        4853        4852
         4        4802        4803        4854        4853
         4        4803        4804        4855        4854
         4        4804        4805        4856        4855
         4        4805        4806        4857        4856
         4        4806        4807        4858        4857
         4        4807        4808        4859        4858
         4        4808        4809        4860        4859
         4        4809        4810        4861        4860
         4        4810        4811        4862        4861
         4        4811        4812        4863        4862
         4        4812        4813        4864        4863
         4        4813        4814        4865        4864
         4        4814        4815        4866        4865
         4        4815        4816        4867        4866
         4        4816        4817        4868        4867
         4        4817        4818        4869        4868
         4        4818        4819        4870        4869
         4        4819        4820        4871        4870
         4        4820        4821        4872        4871
         4        4821        4822        4873        4872
         4        4822        4823        4874        4873
         4        4823        4824        4875        4874
         4        4824        4825        4876        4875
         4        4825        4826        4877        4876
         4        4826        4827        4878        4877
         4        4827        4828        4879        4878
         4        4828        4829        4880        4879
         4        4829        4830        4881        4880
         4        4830        4831        4882        4881
         4        4831        4832        4883        4882
         4        4832        4833        4884        4883
         4        4833        4834        4885        4884
         4        4834        4835        4886        4885
         4        4835        4836        4887        4886
         4        4836        4837        4888        4887
         4        4837        4838        4889        4888
         4        4838        4839        4890        4889
         4        4839        4840        4891        4890
         4        4840        4841        4892        4891
         4        4841        4842        4893        4892
         4        4842        4843        4894        4893
         4        4843        4844        4895        4894
         4        4845        4846        4897        4896
         4        4846        4847        4898        4897
         4        4847        4848        4899        4898
         4        4848        4849        4900        4899
         4        4849        4850        4901        4900
         4        4850        4851        4902        4901
         4        4851        4852        4903        4902
         4        4852        4853        4904        4903
         4        4853        4854        4905        4904
         4        4854        4855        4906        4905
         4        4855        4856        4907        4906
         4        4856        4857        4908        4907
         4        4857        4858        4909        4908
         4        4858        4859        4910        4909
         4        4859        4860        4911        4910
         4        4860        4861        4912        4911
         4        4861        4862        4913        4912
         4        4862        4863        4914        4913
         4        4863        4864        4915        4914
         4        4864        4865        4916        4915
         4        4865        4866        4917        4916
         4        4866        4867        4918        4917
         4        4867        4868        4919        4918
         4        4868        4869        4920        4919
         4        4869        4870        4921        4920
         4        4870        4871        4922        4921
         4        4871        4872        4923        4922
         4        4872        4873        4924        4923
         4        4873        4874        4925        4924
         4        4874        4875        4926        4925
         4        4875        4876        4927        4926
         4        4876        4877        4928        4927
         4        4877        4878        4929        4928
         4        4878        4879        4930        4929
         4        4879        4880        4931        4930
         4        4880        4881        4932        4931
         4        4881        4882        4933        4932
         4        4882        4883        4934        4933
         4        4883        4884        4935        4934
         4        4884        4885        4936        4935
         4        4885        4886        4937        4936
         4        4886        4887        4938        4937
         4        4887        4888        4939        4938
         4        4888        4889        4940        4939
         4        4889        4890        4941        4940
         4        4890        4891        4942        4941
         4        4891        4892        4943        4942
         4        4892        4893        4944        4943
         4        4893        4894        4945        4944
         4        4894        4895        4946        4945
         4        4896        4897        4948        4947
         4        4897        4898        4949        4948
         4        4898        4899        4950        4949
         4        4899        4900        4951        4950
         4        4900        4901        4952        4951
         4        4901        4902        4953        4952
         4        4902        4903        4954        4953
         4        4903        4904        4955        4954
         4        4904        4905        4956        4955
         4        4905        4906        4957        4956
         4        4906        4907        4958        4957
         4        4907        4908        4959        4958
         4        4908        4909        4960        4959
         4        4909        4910        4961        4960
         4        4910        4911        4962        4961
         4        4911        4912        4963        4962
         4        4912        4913        4964        4963
         4        4913        4914        4965        4964
         4        4914        4915        4966        4965
         4        4915        4916        4967        4966
         4        4916        4917        4968        4967
         4        4917        4918        4969        4968
         4        4918        4919        4970        4969
         4        4919        4920        4971        4970
         4        4920        4921        4972        4971
         4        4921        4922        4973        4972
         4        4922        4923        4974        4973
         4        4923        4924        4975        4974
         4        4924        4925        4976        4975
         4        4925        4926        4977        4976
         4        4926        4927        4978        4977
         4        4927        4928        4979        4978
         4        4928        4929        4980        4979
         4        4929        4930        4981        4980
         4        4930        4931        4982        4981
         4        4931        4932        4983        4982
         4        4932        4933        4984        4983
         4        4933        4934        4985        4984
         4        4934        4935        4986        4985
         4        4935        4936        4987        4986
         4        4936        4937        4988        4987
         4        4937        4938        4989        4988
         4        4938        4939        4990        4989
         4        4939        4940        4991        4990
         4        4940        4941        4992        4991
         4        4941        4942        4993        4992
         4        4942        4943        4994        4993
         4        4943        4944        4995        4994
         4        4944        4945        4996        4995
         4        4945        4946        4997        4996
         4        4947        4948        4999        4998
         4        4948        4949        5000        4999
         4        4949        4950        5001        5000
         4        4950        4951        5002        5001
         4        4951        4952        5003        5002
         4        4952        4953        5004        5003
         4        4953        4954        5005        5004
         4        4954        4955        5006        5005
         4        4955        4956        5007        5006
         4        4956        4957        5008        5007
         4        4957        4958        5009        5008
         4        4958        4959        5010        5009
         4        4959        4960        5011        5010
         4        4960        4961        5012        5011
         4        4961        4962        5013        5012
         4        4962        4963        5014        5013
         4        4963        4964        5015        5014
         4        4964        4965        5016        5015
         4        4965        4966        5017        5016
         4        4966        4967        5018        5017
         4        4967        4968        5019        5018
         4        4968        4969        5020        5019
         4        4969        4970        5021        5020
         4        4970        4971        5022        5021
         4        4971        4972        5023        5022
         4        4972        4973        5024        5023
         4        4973        4974        5025        5024
         4        4974        4975        5026        5025
         4        4975        4976        5027        5026
         4        4976        4977        5028        5027
         4        4977        4978        5029        5028
         4        4978        4979        5030        5029
         4        4979        4980        5031        5030
         4        4980        4981        5032        5031
         4        4981        4982        5033        5032
         4        4982        4983        5034        5033
         4        4983        4984        5035        5034
         4        4984        4985        5036        5035
         4        4985        4986        5037        5036
         4        4986        4987        5038        5037
         4        4987        4988        5039        5038
         4        4988        4989        5040        5039
         4        4989        4990        5041        5040
         4        4990        4991        5042        5041
         4        4991        4992        5043        5042
         4        4992        4993        5044        5043
         4        4993        4994        5045        5044
         4        4994        4995        5046        5045
         4        4995        4996        5047        5046
         4        4996        4997        5048        5047
         4        4998        4999        5050        5049
         4        4999        5000        5051        5050
         4        5000        5001        5052        5051
         4        5001        5002        5053        5052
         4        5002        5003        5054        5053
         4        5003        5004        5055        5054
         4        5004        5005        5056        5055
         4        5005        5006        5057        5056
         4        5006        5007        5058        5057
         4        5007        5008        5059        5058
         4        5008        5009        5060        5059
         4        5009        5010        5061        5060
         4        5010        5011        5062        5061
         4        5011        5012        5063        5062
         4        5012        5013        5064        5063
         4        5013        5014        5065        5064
         4        5014        5015        5066        5065
         4        5015        5016        5067        5066
         4        5016        5017        5068        5067
         4        5017        5018        5069        5068
         4        5018        5019        5070        5069
         4        5019        5020        5071        5070
         4        5020        5021        5072        5071
         4        5021        5022        5073        5072
         4        5022        5023        5074        5073
         4        5023        5024        5075        5074
         4        5024        5025        5076        5075
         4        5025        5026        5077        5076
         4        5026        5027        5078        5077
         4        5027        5028        5079        5078
         4        5028        5029        5080        5079
         4        5029        5030        5081        5080
         4        5030        5031        5082        5081
         4        5031        5032        5083        5082
         4        5032        5033        5084        5083
         4        5033        5034        5085        5084
         4        5034        5035        5086        5085
         4        5035        5036        5087        5086
         4        5036        5037        5088        5087
         4        5037        5038        5089        5088
         4        5038        5039        5090        5089
         4        5039        5040        5091        5090
         4        5040        5041        5092        5091
         4        5041        5042        5093        5092
         4        5042        5043        5094        5093
         4        5043        5044        5095        5094
         4        5044        5045        5096        5095
         4        5045        5046        5097        5096
         4        5046        5047        5098        5097
         4        5047        5048        5099        5098
         4        5049        5050        5101        5100
         4        5050        5051        5102        5101
         4        5051        5052        5103        5102
         4        5052        5053        5104        5103
         4        5053        5054        5105        5104
         4        5054        5055        5106        5105
         4        5055        5056        5107        5106
         4        5056        5057        5108        5107
         4        5057        5058        5109        5108
         4        5058        5059        5110        5109
         4        5059        5060        5111        5110
         4        5060        5061        5112        5111
         4        5061        5062        5113        5112
         4        5062        5063        5114        5113
         4        5063        5064        5115        5114
         4        5064        5065        5116        5115
         4        5065        5066        5117        5116
         4        5066        5067        5118        5117
         4        5067        5068        5119        5118
         4        5068        5069        5120        5119
         4        5069        5070        5121        5120
         4        5070        5071        5122        5121
         4        5071        5072        5123        5122
         4        5072        5073        5124        5123
         4        5073        5074        5125        5124
         4        5074        5075        5126        5125
         4        5075        5076        5127        5126
         4        5076        5077        5128        5127
         4        5077        5078        5129        5128
         4        5078        5079        5130        5129
         4        5079        5080        5131        5130
         4        5080        5081        5132        5131
         4        5081        5082        5133        5132
         4        5082        5083        5134        5133
         4        5083        5084        5135        5134
         4        5084        5085        5136        5135
         4        5085        5086        5137        5136
         4        5086        5087        5138        5137
         4        5087        5088        5139        5138
         4        5088        5089        5140        5139
         4        5089        5090        5141        5140
         4        5090        5091        5142        5141
         4        5091        5092        5143        5142
         4        5092        5093        5144        5143
         4        5093        5094        5145        5144
         4        5094        5095        5146        5145
         4        5095        5096        5147        5146
         4        5096        5097        5148        5147
         4        5097        5098        5149        5148
         4        5098        5099        5150        5149
CELL_TYPES       5000
9
9
9
9
9
9
9
9
9
9
9
9
9
9
9
9
9
9
9
9
9
9
9
9
9
9
9
9
9
9
9
9
9
9
9
9
9
9
9
9
9
9
9
9
9
9
9
9
9
9
9
9
9
9
9
9
9
9
9
9
9
9
9
9
9
9
9
9
9
9
9
9
9
9
9
9
9
9
9
9
9
9
9
9
9
9
9
9
9
9
9
9
9
9
9
9
9
9
9
9
9
9
9
9
9
9
9
9
9
9
9
9
9
9
9
9
9
9
9
9
9
9
9
9
9
9
9
9
9
9
9
9
9
9
9
9
9
9
9
9
9
9
9
9
9
9
9
9
9
9
9
9
9
9
9
9
9
9
9
9
9
9
9
9
9
9
9
9
9
9
9
9
9
9
9
9
9
9
9
9
9
9
9
9
9
9
9
9
9
9
9
9
9
9
9
9
9
9
9
9
9
9
9
9
9
9
9
9
9
9
9
9
9
9
9
9
9
9
9
9
9
9
9
9
9
9
9
9
9
9
9
9
9
9
9
9
9
9
9
9
9
9
9
9
9
9
9
9
9
9
9
9
9
9
9
9
9
9
9
9
9
9
9
9
9
9
9
9
9
9
9
9
9
9
9
9
9
9
9
9
9
9
9
9
9
9
9
9
9
9
9
9
9
9
9
9
9
9
9
9
9
9
9
9
9
9
9
9
9
9
9
9
9
9
9
9
9
9
9
9
9
9
9
9
9
9
9
9
9
9
9
9
9
9
9
9
9
9
9
9
9
9
9
9
9
9
9
9
9
9
9
9
9
9
9
9
9
9
9
9
9
9
9
9
9
9
9
9
9
9
9
9
9
9
9
9
9
9
9
9
9
9
9
9
9
9
9
9
9
9
9
9
9
9
9
9
9
9
9
9
9
9
9
9
9
9
9
9
9
9
9
9
9
9
9
9
9
9
9
9
9
9
9
9
9
9
9
9
9
9
9
9
9
9
9
9
9
9
9
9
9
9
9
9
9
9
9
9
9
9
9
9
9
9
9
9
9
9
9
9
9
9
9
9
9
9
9
9
9
9
9
9
9
9
9
9
9
9
9
9
9
9
9
9
9
9
9
9
9
9
9
9
9
9
9
9
9
9
9
9
9
9
9
9
9
9
9
9
9
9
9
9
9
9
9
9
9
9
9
9
9
9
9
9
9
9
9
9
9
9
9
9
9
9
9
9
9
9
9
9
9
9
9
9
9
9
9
9
9
9
9
9
9
9
9
9
9
9
9
9
9
9
9
9
9
9
9
9
9
9
9
9
9
9
9
9
9
9
9
9
9
9
9
9
9
9
9
9
9
9
9
9
9
9
9
9
9
9
9
9
9
9
9
9
9
9
9
9
9
9
9
9
9
9
9
9
9
9
9
9
9
9
9
9
9
9
9
9
9
9
9
9
9
9
9
9
9
9
9
9
9
9
9
9
9
9
9
9
9
9
9
9
9
9
9
9
9
9
9
9
9
9
9
9
9
9
9
9
9
9
9
9
9
9
9
9
9
9
9
9
9
9
9
9
9
9
9
9
9
9
9
9
9
9
9
9
9
9
9
9
9
9
9
9
9
9
9
9
9
9
9
9
9
9
9
9
9
9
9
9
9
9
9
9
9
9
9
9
9
9
9
9
9
9
9
9
9
9
9
9
9
9
9
9
9
9
9
9
9
9
9
9
9
9
9
9
9
9
9
9
9
9
9
9
9
9
9
9
9
9
9
9
9
9
9
9
9
9
9
9
9
9
9
9
9
9
9
9
9
9
9
9
9
9
9
9
9
9
9
9
9
9
9
9
9
9
9
9
9
9
9
9
9
9
9
9
9
9
9
9
9
9
9
9
9
9
9
9
9
9
9
9
9
9
9
9
9
9
9
9
9
9
9
9
9
9
9
9
9
9
9
9
9
9
9
9
9
9
9
9
9
9
9
9
9
9
9
9
9
9
9
9
9
9
9
9
9
9
9
9
9
9
9
9
9
9
9
9
9
9
9
9
9
9
9
9
9
9
9
9
9
9
9
9
9
9
9
9
9
9
9
9
9
9
9
9
9
9
9
9
9
9
9
9
9
9
9
9
9
9
9
9
9
9
9
9
9
9
9
9
9
9
9
9
9
9
9
9
9
9
9
9
9
9
9
9
9
9
9
9
9
9
9
9
9
9
9
9
9
9
9
9
9
9
9
9
9
9
9
9
9
9
9
9
9
9
9
9
9
9
9
9
9
9
9
9
9
9
9
9
9
9
9
9
9
9
9
9
9
9
9
9
9
9
9
9
9
9
9
9
9
9
9
9
9
9
9
9
9
9
9
9
9
9
9
9
9
9
9
9
9
9
9
9
9
9
9
9
9
9
9
9
9
9
9
9
9
9
9
9
9
9
9
9
9
9
9
9
9
9
9
9
9
9
9
9
9
9
9
9
9
9
9
9
9
9
9
9
9
9
9
9
9
9
9
9
9
9
9
9
9
9
9
9
9
9
9
9
9
9
9
9
9
9
9
9
9
9
9
9
9
9
9
9
9
9
9
9
9
9
9
9
9
9
9
9
9
9
9
9
9
9
9
9
9
9
9
9
9
9
9
9
9
9
9
9
9
9
9
9
9
9
9
9
9
9
9
9
9
9
9
9
9
9
9
9
9
9
9
9
9
9
9
9
9
9
9
9
9
9
9
9
9
9
9
9
9
9
9
9
9
9
9
9
9
9
9
9
9
9
9
9
9
9
9
9
9
9
9
9
9
9
9
9
9
9
9
9
9
9
9
9
9
9
9
9
9
9
9
9
9
9
9
9
9
9
9
9
9
9
9
9
9
9
9
9
9
9
9
9
9
9
9
9
9
9
9
9
9
9
9
9
9
9
9
9
9
9
9
9
9
9
9
9
9
9
9
9
9
9
9
9
9
9
9
9
9
9
9
9
9
9
9
9
9
9
9
9
9
9
9
9
9
9
9
9
9
9
9
9
9
9
9
9
9
9
9
9
9
9
9
9
9
9
9
9
9
9
9
9
9
9
9
9
9
9
9
9
9
9
9
9
9
9
9
9
9
9
9
9
9
9
9
9
9
9
9
9
9
9
9
9
9
9
9
9
9
9
9
9
9
9
9
9
9
9
9
9
9
9
9
9
9
9
9
9
9
9
9
9
9
9
9
9
9
9
9
9
9
9
9
9
9
9
9
9
9
9
9
9
9
9
9
9
9
9
9
9
9
9
9
9
9
9
9
9
9
9
9
9
9
9
9
9
9
9
9
9
9
9
9
9
9
9
9
9
9
9
9
9
9
9
9
9
9
9
9
9
9
9
9
9
9
9
9
9
9
9
9
9
9
9
9
9
9
9
9
9
9
9
9
9
9
9
9
9
9
9
9
9
9
9
9
9
9
9
9
9
9
9
9
9
9
9
9
9
9
9
9
9
9
9
9
9
9
9
9
9
9
9
9
9
9
9
9
9
9
9
9
9
9
9
9
9
9
9
9
9
9
9
9
9
9
9
9
9
9
9
9
9
9
9
9
9
9
9
9
9
9
9
9
9
9
9
9
9
9
9
9
9
9
9
9
9
9
9
9
9
9
9
9
9
9
9
9
9
9
9
9
9
9
9
9
9
9
9
9
9
9
9
9
9
9
9
9
9
9
9
9
9
9
9
9
9
9
9
9
9
9
9
9
9
9
9
9
9
9
9
9
9
9
9
9
9
9
9
9
9
9
9
9
9
9
9
9
9
9
9
9
9
9
9
9
9
9
9
9
9
9
9
9
9
9
9
9
9
9
9
9
9
9
9
9
9
9
9
9
9
9
9
9
9
9
9
9
9
9
9
9
9
9
9
9
9
9
9
9
9
9
9
9
9
9
9
9
9
9
9
9
9
9
9
9
9
9
9
9
9
9
9
9
9
9
9
9
9
9
9
9
9
9
9
9
9
9
9
9
9
9
9
9
9
9
9
9
9
9
9
9
9
9
9
9
9
9
9
9
9
9
9
9
9
9
9
9
9
9
9
9
9
9
9
9
9
9
9
9
9
9
9
9
9
9
9
9
9
9
9
9
9
9
9
9
9
9
9
9
9
9
9
9
9
9
9
9
9
9
9
9
9
9
9
9
9
9
9
9
9
9
9
9
9
9
9
9
9
9
9
9
9
9
9
9
9
9
9
9
9
9
9
9
9
9
9
9
9
9
9
9
9
9
9
9
9
9
9
9
9
9
9
9
9
9
9
9
9
9
9
9
9
9
9
9
9
9
9
9
9
9
9
9
9
9
9
9
9
9
9
9
9
9
9
9
9
9
9
9
9
9
9
9
9
9
9
9
9
9
9
9
9
9
9
9
9
9
9
9
9
9
9
9
9
9
9
9
9
9
9
9
9
9
9
9
9
9
9
9
9
9
9
9
9
9
9
9
9
9
9
9
9
9
9
9
9
9
9
9
9
9
9
9
9
9
9
9
9
9
9
9
9
9
9
9
9
9
9
9
9
9
9
9
9
9
9
9
9
9
9
9
9
9
9
9
9
9
9
9
9
9
9
9
9
9
9
9
9
9
9
9
9
9
9
9
9
9
9
9
9
9
9
9
9
9
9
9
9
9
9
9
9
9
9
9
9
9
9
9
9
9
9
9
9
9
9
9
9
9
9
9
9
9
9
9
9
9
9
9
9
9
9
9
9
9
9
9
9
9
9
9
9
9
9
9
9
9
9
9
9
9
9
9
9
9
9
9
9
9
9
9
9
9
9
9
9
9
9
9
9
9
9
9
9
9
9
9
9
9
9
9
9
9
9
9
9
9
9
9
9
9
9
9
9
9
9
9
9
9
9
9
9
9
9
9
9
9
9
9
9
9
9
9
9
9
9
9
9
9
9
9
9
9
9
9
9
9
9
9
9
9
9
9
9
9
9
9
9
9
9
9
9
9
9
9
9
9
9
9
9
9
9
9
9
9
9
9
9
9
9
9
9
9
9
9
9
9
9
9
9
9
9
9
9
9
9
9
9
9
9
9
9
9
9
9
9
9
9
9
9
9
9
9
9
9
9
9
9
9
9
9
9
9
9
9
9
9
9
9
9
9
9
9
9
9
9
9
9
9
9
9
9
9
9
9
9
9
9
9
9
9
9
9
9
9
9
9
9
9
9
9
9
9
9
9
9
9
9
9
9
9
9
9
9
9
9
9
9
9
9
9
9
9
9
9
9
9
9
9
9
9
9
9
9
9
9
9
9
9
9
9
9
9
9
9
9
9
9
9
9
9
9
9
9
9
9
9
9
9
9
9
9
9
9
9
9
9
9
9
9
9
9
9
9
9
9
9
9
9
9
9
9
9
9
9
9
9
9
9
9
9
9
9
9
9
9
9
9
9
9
9
9
9
9
9
9
9
9
9
9
9
9
9
9
9
9
9
9
9
9
9
9
9
9
9
9
9
9
9
9
9
9
9
9
9
9
9
9
9
9
9
9
9
9
9
9
9
9
9
9
9
9
9
9
9
9
9
9
9
9
9
9
9
9
9
9
9
9
9
9
9
9
9
9
9
9
9
9
9
9
9
9
9
9
9
9
9
9
9
9
9
9
9
9
9
9
9
9
9
9
9
9
9
9
9
9
9
9
9
9
9
9
9
9
9
9
9
9
9
9
9
9
9
9
9
9
9
9
9
9
9
9
9
9
9
9
9
9
9
9
9
9
9
9
9
9
9
9
9
9
9
9
9
9
9
9
9
9
9
9
9
9
9
9
9
9
9
9
9
9
9
9
9
9
9
9
9
9
9
9
9
9
9
9
9
9
9
9
9
9
9
9
9
9
9
9
9
9
9
9
9
9
9
9
9
9
9
9
9
9
9
9
9
9
9
9
9
9
9
9
9
9
9
9
9
9
9
9
9
9
9
9
9
9
9
9
9
9
9
9
9
9
9
9
9
9
9
9
9
9
9
9
9
9
9
9
9
9
9
9
9
9
9
9
9
9
9
9
9
9
9
9
9
9
9
9
9
9
9
9
9
9
9
9
9
9
9
9
9
9
9
9
9
9
9
9
9
9
9
9
9
9
9
9
9
9
9
9
9
9
9
9
9
9
9
9
9
9
9
9
9
9
9
9
9
9
9
9
9
9
9
9
9
9
9
9
9
9
9
9
9
9
9
9
9
9
9
9
9
9
9
9
9
9
9
9
9
9
9
9
9
9
9
9
9
9
9
9
9
9
9
9
9
9
9
9
9
9
9
9
9
9
9
9
9
9
9
9
9
9
9
9
9
9
9
9
9
9
9
9
9
9
9
9
9
9
9
9
9
9
9
9
9
9
9
9
9
9
9
9
9
9
9
9
9
9
9
9
9
9
9
9
9
9
9
9
9
9
9
9
9
9
9
9
9
9
9
9
9
9
9
9
9
9
9
9
9
9
9
9
9
9
9
9
9
9
9
9
9
9
9
9
9
9
9
9
9
9
9
9
9
9
9
9
9
9
9
9
9
9
9
9
9
9
9
9
9
9
9
9
9
9
9
9
9
9
9
9
9
9
9
9
9
9
9
9
9
9
9
9
9
9
9
9
9
9
9
9
9
9
9
9
9
9
9
9
9
9
9
9
9
9
9
9
9
9
9
9
9
9
9
9
9
9
9
9
9
9
9
9
9
9
9
9
9
9
9
9
9
9
9
9
9
9
9
9
9
9
9
9
9
9
9
9
9
9
9
9
9
9
9
9
9
9
9
9
9
9
9
9
9
9
9
9
9
9
9
9
9
9
9
9
9
9
9
9
9
9
9
9
9
9
9
9
9
9
9
9
9
9
9
9
9
9
9
9
9
9
9
9
9
9
9
9
9
9
9
9
9
9
9
9
9
9
9
9
9
9
9
9
9
9
9
9
9
9
9
9
9
9
9
9
9
9
9
9
9
9
9
9
9
9
9
9
9
9
9
9
9
9
9
9
9
9
9
9
9
9
9
9
9
9
9
9
9
9
9
9
9
9
9
9
9
9
9
9
9
9
9
9
9
9
9
9
9
9
9
9
9
9
9
9
9
9
9
9
9
9
9
9
9
9
9
9
9
9
9
9
9
9
9
9
9
9
9
9
9
9
9
9
9
9
9
9
9
9
9
9
9
9
9
9
9
9
9
9
9
9
9
9
9
9
9
9
9
9
9
9
9
9
9
9
9
9
9
9
9
9
9
9
9
9
9
9
9
9
9
9
9
9
9
9
9
9
9
9
9
9
9
9
9
9
9
9
9
9
9
9
9
9
9
9
9
9
9
9
9
9
9
9
9
9
9
9
9
9
9
9
9
9
9
9
9
9
9
9
9
9
9
9
9
9
9
9
9
9
9
9
9
9
9
9
9
9
9
9
9
9
9
9
9
9
9
9
9
9
9
9
9
9
9
9
9
9
9
9
9
9
9
9
9
9
9
9
9
9
9
9
9
9
9
9
9
9
9
9
9
9
9
9
9
9
9
9
9
9
9
9
9
9
9
9
9
9
9
9
9
9
9
9
9
9
9
9
9
9
9
9
9
9
9
9
9
9
9
9
9
9
9
9
9
9
9
9
9
9
9
9
9
9
9
9
9
9
9
9
9
9
9
9
9
9
9
9
9
9
9
9
9
9
9
9
9
9
9
9
9
9
9
9
9
9
9
9
9
9
9
9
9
9
9
9
9
9
9
9
9
9
9
9
9
9
9
9
9
9
9
9
9
9
9
9
9
9
9
9
9
9
9
9
9
9
9
9
9
9
9
9
9
9
9
9
9
9
9
9
9
9
9
9
9
9
9
9
9
9
9
9
9
9
9
9
9
9
9
9
9
9
9
9
9
9
9
9
9
9
9
9
9
9
9
9
9
9
9
9
9
9
9
9
9
9
9
9
9
9
9
9
9
9
9
9
9
9
9
9
9
9
9
9
9
9
9
9
9
9
9
9
9
9
9
9
9
9
9
9
9
9
9
9
9
9
9
9
9
9
9
9
9
9
9
9
9
9
9
9
9
9
9
9
9
9
9
9
9
9
9
9
9
9
9
9
9
9
9
9
9
9
9
9
9
9
9
9
9
9
9
9
9
9
9
9
9
9
9
9
9
9
9
9
9
9
9
9
9
9
9
9
9
9
9
9
9
9
9
9
9
9
9
9
9
9
9
9
9
9
9
9
9
9
9
9
9
9
9
9
9
9
9
9
9
9
9
9
9
9
9
9
9
9
9
9
9
9
9
9
9
9
9
9
9
9
9
9
9
9
9
9
9
9
9
9
9
9
9
9
9
9
9
9
9
9
9
9
9
9
9
9
9
9
9
9
9
9
9
9
9
9
9
9
9
9
9
9
9
9
9
9
9
9
9
9
9
9
9
9
9
9
9
9
9
9
9
9
9
9
9
9
9
9
9
9
9
9
9
9
9
9
9
9
9
9
9
9
9
9
9
9
9
9
9
9
9
9
9
9
9
9
9
9
9
9
9
9
9
9
9
9
9
9
9
9
9
9
9
9
9
9
9
9
9
9
9
9
9
9
9
9
9
9
9
9
9
9
9
9
9
9
9
9
9
9
9
9
9
9
9
9
9
9
9
9
9
9
9
9
9
9
9
9
9
9
9
9
9
9
9
9
9
9
9
9
9
9
9
9
9
9
9
9
9
9
9
9
9
9
9
9
9
9
9
9
9
9
9
9
9
9
9
9
9
9
9
9
9
9
9
9
9
9
9
9
9
9
9
9
9
9
9
9
9
9
9
9
9
9
9
9
9
9
9
9
9
9
9
9
9
9
9
9
9
9
9
9
9
9
9
9
9
9
9
9
9
9
9
9
9
9
9
9
9
9
9
9
9
9
9
9
9
9
9
9
9
9
9
9
9
9
9
9
9
9
9
9
9
9
9
9
9
9
9
9
9
9
9
9
9
9
9
9
9
9
9
9
9
9
9
9
9
9
9
9
9
9
9
9
9
9
9
9
9
9
9
9
9
9
9
9
9
9
9
9
9
9
9
9
9
9
9
9
9
9
9
9
9
9
9
9
9
9
9
9
9
9
9
9
9
9
9
9
9
9
9
9
9
9
9
9
9
9
9
9
9
9
9
9
9
9
9
9
9
9
9
9
9
9
9
9
9
9
9
9
9
9
9
9
9
9
9
9
9
9
9
9
9
9
9
9
9
9
9
9
9
9
9
9
9
9
9
9
9
9
9
9
9
9
9
9
9
9
9
9
9
9
9
9
9
9
9
9
9
9
9
9
9
9
9
9
9
9
9
9
9
9
9
9
9
9
9
9
9
9
9
9
9
9
9
9
9
9
9
9
9
9
9
9
9
9
9
9
9
9
9
9
9
9
9
9
9
9
9
9
9
9
9
9
9
9
9
9
9
9
9
9
9
9
9
9
9
9
9
9
9
9
9
9
9
9
9
9
9
9
9
9
9
9
9
9
9
9
9
9
9
9
9
9
9
9
9
9
9
9
9
9
9
9
9
9
9
9
9
9
9
9
9
9
9
9
9
9
9
9
9
9
9
9
9
9
9
9
9
9
9
9
9
9
9
9
9
9
9
9
9
9
9
9
9
9
9
9
9
9
9
9
9
9
9
9
9
9
9
9
9
9
9
9
9
9
9
9
9
9
9
9
9
9
9
9
9
9
9
9
9
9
9
9
9
9
9
9
9
9
9
9
9
9
9
9
9
9
9
9
9
9
9
9
9
9
9
9
9
9
9
9
9
9
9
9
9
9
9
9
9
9
9
9
9
9
9
9
9
9
9
9
9
9
9
9
9
9
9
9
9
9
9
9
9
9
9
9
9
9
9
9
9
9
9
9
9
9
9
9
9
9
9
9
9
9
9
9
9
9
9
9
9
9
9
9
9
9
9
9
9
9
9
9
9
9
9
9
9
9
9
9
9
9
9
9
9
9
9
9
9
9
9
9
9
9
9
9
9
9
9
9
9
9
9
9
9
9
9
9
9
9
9
9
9
9
9
9
9
9
9
9
9
9
9
9
9
9
9
9
9
9
9
9
9
9
9
9
9
9
9
9
9
9
9
9
9
9
9
9
9
9
9
9
9
9
9
9
9
9
9
9
9
9
9
9
9
9
9
9
9
9
9
9
9
9
9
9
9
9
9
9
9
9
9
9
9
9
9
9
9
9
9
9
9
9
9
9
9
9
9
9
9
9
9
9
9
9
9
9
9
9
9
9
9
9
9
9
9
9
9
9
9
9
9
9
9
9
9
9
9
9
9
9
9
9
9
9
9
9
9
9
9
9
9
9
9
9
9
9
9
9
9
9
9
9
9
9
9
9
9
9
9
9
9
9
9
9
9
9
9
9
9
9
9
9
9
9
9
9
9
9
9
9
9
9
9
9
9
9
9
9
9
9
9
9
9
9
9
9
9
9
9
9
9
9
9
9
9
9
9
9
9
9
9
9
9
9
9
9
9
9
9
9
9
9
9
9
9
9
9
9
9
9
9
9
9
9
9
9
9
9
9
9
9
9
9
9
9
9
9
9
9
9
9
9
9
9
9
9
9
9
9
9
9
9
9
9
9
9
9
9
9
9
9
9
9
9
9
9
9
9
9
9
9
9
9
9
9
9
9
9
9
9
9
9
9
9
9
9
9
9
9
9
9
9
9
9
9
9
9
9
9
9
9
9
9
9
9
9
9
9
9
9
9
9
9
9
9
9
9
9
9
9
9
9
9
9
9
9
9
9
9
9
9
9
9
9
9
9
9
9
9
9
9
9
9
9
9
9
9
9
9
9
9
9
9
9
9
9
9
9
9
9
9
9
9
9
9
9
9
9
9
9
9
9
9
9
9
9
9
9
9
9
9
9
9
9
9
9
9
9
9
9
9
9
9
9
9
9
9
9
9
9
9
9
9
9
9
9
9
9
9
9
9
9
9
9
9
9
9
9
9
9
9
9
9
9
9
9
9
9
9
9
9
9
9
9
9
9
9
9
9
9
9
9
9
9
9
9
9
9
9
9
9
9
9
9
9
9
9
9
9
9
9
9
9
9
9
9
9
9
9
9
9
9
9
9
9
9
9
9
9
9
9
9
9
9
9
9
9
9
9
9
9
9
9
9
9
9
9
9
9
9
9
9
9
9
9
9
9
9
9
9
9
9
9
9
9
9
9
9
9
9
9
9
9
9
9
9
9
9
9
9
9
9
9
9
9
9
9
9
9
9
9
9
9
9
9
9
9
9
9
9
9
9
9
9
9
9
9
9
9
9
9
9
9
9
9
9
9
9
9
9
9
9
9
9
9
9
9
9
9
9
9
9
9
9
9
9
9
9
9
9
9
9
9
9
9
9
POINT_DATA      5151
SCALARS p double 
LOOKUP_TABLE default
   70000000.0000000     
   70000000.0000000     
   70000000.0000000     
   70000000.0000000     
   70000000.0000000     
   70000000.0000000     
   70000000.0000000     
   70000000.0000000     
   70000000.0000000     
   70000000.0000000     
   70000000.0000000     
   70000000.0000000     
   70000000.0000000     
   70000000.0000000     
   70000000.0000000     
   70000000.0000000     
   70000000.0000000     
   70000000.0000000     
   70000000.0000000     
   70000000.0000000     
   70000000.0000000     
   70000000.0000000     
   70000000.0000000     
   70000000.0000000     
   70000000.0000000     
   70000000.0000000     
   70000000.0000000     
   70000000.0000000     
   70000000.0000000     
   70000000.0000000     
   70000000.0000000     
   70000000.0000000     
   70000000.0000000     
   70000000.0000000     
   70000000.0000000     
   70000000.0000000     
   70000000.0000000     
   70000000.0000000     
   70000000.0000000     
   70000000.0000000     
   70000000.0000000     
   70000000.0000000     
   70000000.0000000     
   70000000.0000000     
   70000000.0000000     
   70000000.0000000     
   70000000.0000000     
   70000000.0000000     
   70000000.0000000     
   70000000.0000000     
   70000000.0000000     
   69173686.2830258     
   69173509.8400928     
   69173009.4746532     
   69172215.0925459     
   69171167.0104124     
   69169917.7688512     
   69168503.9655571     
   69166950.5225851     
   69165281.2177955     
   69163518.3379227     
   69161682.4993809     
   69159792.5764745     
   69157865.7422754     
   69155917.9773971     
   69153964.8482709     
   69152020.5587129     
   69150097.8759828     
   69148209.4557987     
   69146367.4016496     
   69144583.1793473     
   69142867.5071555     
   69141229.9736505     
   69139680.0283058     
   69138227.3500094     
   69136880.3741453     
   69135645.8025963     
   69134528.8775851     
   69133533.8472229     
   69132663.7110885     
   69131919.7187074     
   69131301.5940621     
   69130807.7664138     
   69130435.6927258     
   69130182.1188505     
   69130043.2200226     
   69130014.8668936     
   69130092.4163399     
   69130270.6350400     
   69130543.9595360     
   69130905.8599224     
   69131348.7748042     
   69131864.2130891     
   69132442.0315336     
   69133069.7501773     
   69133731.6609647     
   69134407.5757251     
   69135071.1704772     
   69135688.2551489     
   69136212.9001102     
   69136582.5422631     
   69136718.5535409     
   68348156.7402628     
   68347993.2756665     
   68347509.1443707     
   68346722.9936112     
   68345655.7905293     
   68344328.7784641     
   68342765.7855319     
   68340991.4220973     
   68339029.1493727     
   68336901.6531861     
   68334631.1386456     
   68332238.9603543     
   68329745.5077895     
   68327170.8952112     
   68324534.8619929     
   68321856.5334965     
   68319154.5960973     
   68316447.5834547     
   68313754.1028025     
   68311092.8526099     
   68308482.7205403     
   68305942.6962414     
   68303491.5381613     
   68301147.5235298     
   68298928.3362541     
   68296850.5844831     
   68294929.2383163     
   68293177.0713300     
   68291604.3146367     
   68290218.5256743     
   68289024.5178660     
   68288024.5252616     
   68287218.3375996     
   68286603.4674758     
   68286175.4522649     
   68285928.0603742     
   68285853.5308315     
   68285942.6232713     
   68286184.4722227     
   68286566.6380292     
   68287074.7638518     
   68287691.9346166     
   68288398.2142837     
   68289170.0089581     
   68289979.2200057     
   68290792.3506127     
   68291569.6523189     
   68292264.5243333     
   68292823.7499256     
   68293190.2679842     
   68293317.9792566     
   67534797.0476591     
   67534691.7423284     
   67534376.3151203     
   67533855.0815566     
   67533128.2932850     
   67532192.9763388     
   67531045.3638890     
   67529683.6982623     
   67528110.0215948     
   67526330.3817860     
   67524354.2366389     
   67522194.0095045     
   67519864.3867004     
   67517381.6074453     
   67514763.3746234     
   67512028.6000485     
   67509197.0611508     
   67506289.2873258     
   67503326.5173957     
   67500330.8775160     
   67497325.5325229     
   67494334.7642516     
   67491383.9642025     
   67488499.3545341     
   67485707.4425403     
   67483034.4110872     
   67480505.3859617     
   67478143.6767762     
   67475970.0625245     
   67474002.0696600     
   67472253.3741655     
   67470733.4168984     
   67469447.3416280     
   67468396.2052662     
   67467577.3476547     
   67466984.8318378     
   67466609.7983934     
   67466440.7249702     
   67466463.5607519     
   67466661.6543240     
   67467015.6459458     
   67467503.2429215     
   67468098.7976204     
   67468772.9823584     
   67469492.5980200     
   67470220.4523146     
   67470915.4376491     
   67471532.8419354     
   67472024.8014172     
   67472344.4364755     
   67472455.4033261     
   66742260.9234088     
   66742260.4218723     
   66742225.2726718     
   66742112.2792500     
   66741870.7711388     
   66741457.1848732     
   66740840.3202862     
   66740001.0544967     
   66738928.8762582     
   66737619.7719022     
   66736075.5370498     
   66734302.0523955     
   66732308.8352844     
   66730108.9374110     
   66727717.3487962     
   66725150.1865266     
   66722424.5266014     
   66719558.4241146     
   66716571.5183135     
   66713485.2440455     
   66710322.9107074     
   66707109.8304745     
   66703873.1289448     
   66700641.6046733     
   66697445.6287222     
   66694316.8124766     
   66691287.5203664     
   66688390.1685315     
   66685656.0254080     
   66683113.8456026     
   66680788.6544176     
   66678700.7079840     
   66676864.7177750     
   66675289.5474912     
   66673978.1988418     
   66672928.0164020     
   66672131.1923256     
   66671575.5357871     
   66671245.1683572     
   66671120.8188567     
   66671179.9680499     
   66671397.0675799     
   66671743.7201779     
   66672188.7156189     
   66672698.1787490     
   66673235.9146095     
   66673763.7564788     
   66674241.9971949     
   66674629.9946342     
   66674885.6848141     
   66674975.0368655     
   65977875.9056205     
   65977972.8476892     
   65978138.0462848     
   65978219.1458207     
   65978139.3172596     
   65977865.4173065     
   65977381.2037174     
   65976673.5627495     
   65975735.7594588     
   65974566.5235832     
   65973165.7104712     
   65971537.9878388     
   65969691.4108881     
   65967632.0063671     
   65965365.9911698     
   65962901.7203480     
   65960250.3425731     
   65957425.9230571     
   65954444.4801657     
   65951324.4355374     
   65948085.8203517     
   65944748.8694752     
   65941334.6048876     
   65937866.3594158     
   65934370.7475854     
   65930878.1764479     
   65927422.7350871     
   65924040.5188954     
   65920768.2724756     
   65917642.8522337     
   65914700.2265664     
   65911974.1452010     
   65909494.3485519     
   65907283.9443905     
   65905357.7308745     
   65903721.9210465     
   65902374.6136004     
   65901306.4014786     
   65900501.0899403     
   65899937.3996839     
   65899590.5883206     
   65899433.2066493     
   65899435.6815573     
   65899566.8396751     
   65899794.1200764     
   65900083.7139840     
   65900400.8372676     
   65900709.8240004     
   65900973.9662758     
   65901155.9338105     
   65901221.7384492     
   65244915.7619653     
   65244801.6232283     
   65244475.5011472     
   65243967.3541026     
   65243302.9600362     
   65242500.3393923     
   65241559.8084599     
   65240462.8847563     
   65239191.1956488     
   65237743.7818939     
   65236140.2663887     
   65234381.8576021     
   65232445.5597303     
   65230317.0473991     
   65227993.2798283     
   65225479.5614362     
   65222788.2579524     
   65219934.4934674     
   65216933.8141356     
   65213795.3080776     
   65210523.2976450     
   65207126.0522450     
   65203616.8430058     
   65200010.9325836     
   65196326.4702126     
   65192585.7071779     
   65188812.4800288     
   65185034.9542903     
   65181288.4766474     
   65177613.6857552     
   65174055.0769367     
   65170658.3070931     
   65167466.5224028     
   65164519.4360607     
   65161850.8547858     
   65159485.6923096     
   65157437.6982511     
   65155708.2288240     
   65154288.1434894     
   65153159.4303393     
   65152296.9495482     
   65151671.3830047     
   65151251.5382886     
   65151005.4885191     
   65150900.7647834     
   65150904.3163900     
   65150982.3676231     
   65151100.7909322     
   65151225.7249231     
   65151323.7759396     
   65151362.0030555     
   64534666.2110497     
   64534498.9756004     
   64534038.5296455     
   64533333.7019221     
   64532421.1758737     
   64531325.6480211     
   64530062.7697753     
   64528640.7639334     
   64527058.2488727     
   64525322.6667946     
   64523446.4562096     
   64521427.6880167     
   64519251.3863193     
   64516905.2981689     
   64514404.3872032     
   64511771.8079954     
   64509017.9894863     
   64506148.3135311     
   64503164.3847258     
   64500054.6865399     
   64496807.3693514     
   64493425.2742433     
   64489918.6730255     
   64486308.0473727     
   64482604.0384420     
   64478796.8121779     
   64474885.2711250     
   64470886.9810446     
   64466832.0038939     
   64462762.8556861     
   64458724.1049713     
   64454757.3443392     
   64450907.3695701     
   64447221.8983447     
   64443753.3738389     
   64440551.0742638     
   64437652.2001823     
   64435085.1879444     
   64432867.0346869     
   64430999.8666545     
   64429471.4686606     
   64428257.8018918     
   64427326.2768440     
   64426638.3140013     
   64426154.2015383     
   64425836.1312868     
   64425649.1501054     
   64425560.3687444     
   64425537.3512782     
   64425547.0019182     
   64425555.9554665     
   63844005.7868444     
   63843854.5737520     
   63843418.8640535     
   63842725.5458277     
   63841799.5793574     
   63840663.1214454     
   63839334.8899667     
   63837830.4281850     
   63836164.0113509     
   63834345.3893778     
   63832380.4539137     
   63830275.3502574     
   63828036.5593867     
   63825671.7825831     
   63823188.3187037     
   63820592.5517180     
   63817889.4110068     
   63815079.9846795     
   63812160.3554113     
   63809122.8356236     
   63805967.3901222     
   63802701.4749989     
   63799326.0369186     
   63795829.1384853     
   63792192.6210491     
   63788426.1022294     
   63784554.3576897     
   63780586.5589086     
   63776526.6461721     
   63772381.5841887     
   63768168.5905780     
   63763912.9594926     
   63759660.1938953     
   63755469.3528043     
   63751370.6667701     
   63747396.9985347     
   63743621.7899651     
   63740116.5789798     
   63736932.6337072     
   63734110.9937697     
   63731684.7956316     
   63729665.1361582     
   63728034.3682079     
   63726760.1210236     
   63725798.7385933     
   63725100.5096263     
   63724617.6238330     
   63724306.6998762     
   63724128.1138802     
   63724045.6328365     
   63724024.1536392     
   63173091.9896715     
   63172961.1756053     
   63172579.0410869     
   63171961.0197752     
   63171122.4566043     
   63170078.2472797     
   63168842.5867033     
   63167428.6848736     
   63165848.1332201     
   63164111.6934535     
   63162229.4116783     
   63160209.9667054     
   63158061.0143047     
   63155789.1401397     
   63153400.2607607     
   63150899.4039026     
   63148290.3905484     
   63145576.2796671     
   63142759.9139291     
   63139844.3895896     
   63136831.0510684     
   63133719.2778237     
   63130508.9640857     
   63127201.5897385     
   63123800.6760291     
   63120309.4038932     
   63116730.1116962     
   63113063.8571887     
   63109306.1284118     
   63105444.1760416     
   63101477.4362236     
   63097412.5005537     
   63093231.1339870     
   63088942.5519871     
   63084596.0261277     
   63080229.6515402     
   63075888.4213763     
   63071631.8227106     
   63067541.1247502     
   63063721.3806923     
   63060230.9959107     
   63057117.6073905     
   63054448.6264449     
   63052252.4260893     
   63050525.0914030     
   63049240.7107737     
   63048339.8290802     
   63047744.5497718     
   63047383.3716222     
   63047197.0683344     
   63047141.4043197     
   62522629.6442631     
   62522517.2179468     
   62522186.6707637     
   62521648.1774891     
   62520911.9634206     
   62519988.1955610     
   62518886.8463453     
   62517617.5841825     
   62516189.8110176     
   62514612.3808078     
   62512893.5099834     
   62511040.9227591     
   62509061.7428687     
   62506962.4951646     
   62504748.9895308     
   62502426.4207611     
   62499999.5274906     
   62497472.5417961     
   62494849.1126543     
   62492132.2025729     
   62489324.5843783     
   62486429.0145543     
   62483447.8173636     
   62480382.8276091     
   62477235.4201639     
   62474007.1016876     
   62470699.2036611     
   62467312.4268052     
   62463847.8706135     
   62460308.4754393     
   62456694.8862890     
   62453006.1754404     
   62449246.6270534     
   62445421.0679578     
   62441530.1839175     
   62437567.4905386     
   62433522.2211397     
   62429398.1386642     
   62425189.4671976     
   62420921.5486116     
   62416684.1511758     
   62412572.8764819     
   62408700.4638146     
   62405215.4473858     
   62402253.2576290     
   62399870.0970546     
   62398087.9462712     
   62396884.7445837     
   62396165.9150411     
   62395816.9021686     
   62395719.8206681     
   61893159.3582620     
   61893063.5687837     
   61892780.6249916     
   61892317.4071171     
   61891681.0219988     
   61890878.6839951     
   61889917.6265285     
   61888805.0243209     
   61887547.8877740     
   61886153.0552272     
   61884627.1486763     
   61882976.4764179     
   61881207.0219203     
   61879324.4202020     
   61877333.9842378     
   61875240.6789522     
   61873049.0873425     
   61870763.4438245     
   61868387.6760992     
   61865925.4640469     
   61863380.1575110     
   61860754.7745605     
   61858052.1536132     
   61855275.0027443     
   61852425.9039052     
   61849507.1548355     
   61846520.9120511     
   61843469.4152740     
   61840354.7761030     
   61837178.5670232     
   61833942.8005633     
   61830649.8583733     
   61827300.9656224     
   61823897.5783065     
   61820442.3224669     
   61816939.3945099     
   61813394.4138109     
   61809810.1219857     
   61806191.1572574     
   61802542.9861670     
   61798862.0951812     
   61795129.3505666     
   61791348.2127309     
   61787526.9828935     
   61783742.5211170     
   61780169.8811457     
   61777011.9621420     
   61774490.2140779     
   61772774.0537319     
   61771862.7444992     
   61771591.8465674     
   61285043.9277906     
   61284962.8109108     
   61284722.7360081     
   61284328.7435144     
   61283786.0278934     
   61283099.8939770     
   61282275.7074397     
   61281318.8477296     
   61280234.6755720     
   61279028.4805163     
   61277705.4459620     
   61276270.6374498     
   61274728.9742696     
   61273085.2120647     
   61271343.9182108     
   61269509.4695713     
   61267586.0588278     
   61265577.6879855     
   61263488.1670921     
   61261321.1138065     
   61259079.9933380     
   61256768.1394703     
   61254388.7339406     
   61251944.8157942     
   61249439.3098559     
   61246875.1085470     
   61244255.0667382     
   61241581.9713524     
   61238858.6358345     
   61236088.0582056     
   61233273.2256527     
   61230417.1889098     
   61227523.5208322     
   61224595.9742281     
   61221638.3237321     
   61218654.3887939     
   61215648.0043007     
   61212624.0293538     
   61209587.2573265     
   61206543.2855030     
   61203501.2849082     
   61200476.1187855     
   61197479.5799757     
   61194524.0895062     
   61191620.5232924     
   61188764.8822473     
   61185969.7459266     
   61183276.0229719     
   61180864.1480845     
   61179083.3186261     
   61178395.9978035     
   60698457.2689129     
   60698389.6144926     
   60698189.1948414     
   60697859.9030827     
   60697405.7199917     
   60696830.6949071     
   60696138.9274701     
   60695334.5486176     
   60694421.6984862     
   60693404.5119873     
   60692287.1021564     
   60691073.5400298     
   60689767.8428451     
   60688373.9627725     
   60686895.7817159     
   60685337.1038249     
   60683701.6498719     
   60681993.0593405     
   60680214.8945444     
   60678370.6479919     
   60676463.7422468     
   60674497.5385588     
   60672475.3612701     
   60670400.5181294     
   60668276.3190366     
   60666106.0825476     
   60663893.1712557     
   60661641.0389290     
   60659353.2478740     
   60657033.4753742     
   60654685.6207801     
   60652313.8431093     
   60649922.4980692     
   60647516.3152663     
   60645100.5331845     
   60642680.9953785     
   60640264.3235083     
   60637857.8718888     
   60635470.2798039     
   60633111.4719716     
   60630792.2858765     
   60628524.3470107     
   60626322.7541461     
   60624205.8878130     
   60622198.4376643     
   60620337.4766658     
   60618667.4374465     
   60617240.3478275     
   60616113.8488915     
   60615348.0906682     
   60615063.9870872     
   60133401.8747304     
   60133346.9894653     
   60133184.3195736     
   60132916.8789579     
   60132547.7296829     
   60132079.9811011     
   60131516.7860656     
   60130861.3356626     
   60130116.8538858     
   60129286.5898257     
   60128373.8108160     
   60127381.7974141     
   60126313.8373234     
   60125173.2209473     
   60123963.2372283     
   60122687.1723712     
   60121348.3104252     
   60119949.9342919     
   60118495.3289746     
   60116987.7868387     
   60115430.6180937     
   60113827.1621353     
   60112180.7978053     
   60110494.9581848     
   60108773.1493059     
   60107018.9764907     
   60105236.1669970     
   60103428.5943125     
   60101600.3161335     
   60099755.6208888     
   60097899.0533466     
   60096035.4694525     
   60094170.1317672     
   60092308.7482346     
   60090457.5378609     
   60088623.3265842     
   60086813.6374285     
   60085036.8590383     
   60083302.2712055     
   60081620.2704702     
   60080002.7317758     
   60078463.3490159     
   60077017.3064514     
   60075681.7717507     
   60074475.2192048     
   60073415.8410280     
   60072522.5482142     
   60071813.8659256     
   60071307.5564124     
   60071017.8872109     
   60070930.7545201     
   59589734.7381868     
   59589692.1473496     
   59589565.8028444     
   59589357.8841137     
   59589070.6223127     
   59588706.3034239     
   59588267.2698078     
   59587755.9203525     
   59587174.7093679     
   59586526.1454244     
   59585812.7895931     
   59585037.2532465     
   59584202.1965893     
   59583310.3274357     
   59582364.4009286     
   59581367.2197243     
   59580321.6351624     
   59579230.5500065     
   59578096.9224294     
   59576923.7714955     
   59575714.1833395     
   59574471.3193814     
   59573198.4272726     
   59571898.8531897     
   59570576.0558984     
   59569233.6215686     
   59567875.2826699     
   59566504.9395987     
   59565126.6819009     
   59563744.8108671     
   59562363.8719333     
   59560988.6823044     
   59559624.3499192     
   59558276.3117403     
   59556950.3668024     
   59555652.7015146     
   59554389.9158185     
   59553169.0236419     
   59551997.4870022     
   59550883.1741394     
   59549834.2479072     
   59548859.0100959     
   59547965.8468119     
   59547162.8233336     
   59546457.5078648     
   59545856.8598388     
   59545366.2037621     
   59544988.5851128     
   59544723.4419173     
   59544565.9978440     
   59544513.7160940     
   59067194.3425635     
   59067163.4566582     
   59067071.6386094     
   59066920.2109602     
   59066710.5811952     
   59066444.2423915     
   59066122.7731207     
   59065747.8368101     
   59065321.1807700     
   59064844.6347860     
   59064320.1096649     
   59063749.5959054     
   59063135.1623677     
   59062478.9552800     
   59061783.1975419     
   59061050.1886092     
   59060282.3049465     
   59059482.0010015     
   59058651.8108796     
   59057794.3507080     
   59056912.3219792     
   59056008.5155388     
   59055085.8160275     
   59054147.2071207     
   59053195.7773404     
   59052234.7266487     
   59051267.3727300     
   59050297.1570886     
   59049327.6514808     
   59048362.5636707     
   59047405.7394183     
   59046461.1640707     
   59045532.9639478     
   59044625.3979921     
   59043742.8447810     
   59042889.7832283     
   59042070.7616535     
   59041290.3590871     
   59040553.1164358     
   59039863.4646368     
   59039225.6436768     
   59038643.6002515     
   59038120.8205724     
   59037660.2284673     
   59037263.9743392     
   59036933.1763597     
   59036667.9070030     
   59036467.0903022     
   59036328.7404050     
   59036250.1382921     
   59036226.0545558     
   58565423.8095528     
   58565403.7390266     
   58565343.7751145     
   58565244.3876813     
   58565106.1751835     
   58564929.8601739     
   58564716.2850035     
   58564466.4076812     
   58564181.2978673     
   58563862.1330786     
   58563510.1950471     
   58563126.8662445     
   58562713.6266624     
   58562272.0508019     
   58561803.8049331     
   58561310.6445792     
   58560794.4122532     
   58560257.0354629     
   58559700.5249291     
   58559126.9729933     
   58558538.5520761     
   58557937.5131928     
   58557326.1844622     
   58556706.9693631     
   58556082.3446180     
   58555454.8573848     
   58554827.1217510     
   58554201.8141199     
   58553581.6668916     
   58552969.4601786     
   58552368.0118220     
   58551780.1640012     
   58551208.7654591     
   58550656.6510978     
   58550126.6164503     
   58549621.3864196     
   58549143.5786086     
   58548695.6590429     
   58548279.8962729     
   58547898.3055793     
   58547552.5847524     
   58547244.0457925     
   58546973.5570460     
   58546741.4605530     
   58546547.5220345     
   58546390.9032531     
   58546270.0799460     
   58546182.8060675     
   58546125.9792976     
   58546095.5140013     
   58546086.7744936     
   58083988.6401447     
   58083978.1616906     
   58083946.4287904     
   58083893.1242396     
   58083818.0974597     
   58083721.3552244     
   58083603.0531045     
   58083463.4875282     
   58083303.0883797     
   58083122.4120407     
   58082922.1348356     
   58082703.0468262     
   58082466.0458898     
   58082212.1320522     
   58081942.4020175     
   58081658.0438614     
   58081360.3318287     
   58081050.6211720     
   58080730.3429742     
   58080400.9988741     
   58080064.1556315     
   58079721.4394131     
   58079374.5296726     
   58079025.1525302     
   58078675.0734895     
   58078326.0893680     
   58077980.0191984     
   58077638.6939423     
   58077303.9448839     
   58076977.5904596     
   58076661.4210939     
   58076357.1821741     
   58076066.5551106     
   58075791.1356711     
   58075532.4100188     
   58075291.7284140     
   58075070.2764364     
   58074869.0444663     
   58074688.7938558     
   58074530.0226366     
   58074392.9312540     
   58074277.3882190     
   58074182.8927217     
   58074108.5462606     
   58074053.0177787     
   58074014.5054842     
   58073990.7178550     
   58073978.8447161     
   58073975.5660726     
   58073977.0749843     
   58073978.9569458     
   57622389.3434668     
   57622386.9796098     
   57622379.1355032     
   57622364.8304921     
   57622343.2740142     
   57622313.8533219     
   57622276.1220887     
   57622229.7897829     
   57622174.7117047     
   57622110.8795987     
   57622038.4127535     
   57621957.5495079     
   57621868.6390991     
   57621772.1337773     
   57621668.5811245     
   57621558.6165082     
   57621442.9556066     
   57621322.3869402     
   57621197.7643377     
   57621069.9992701     
   57620940.0529673     
   57620808.9282493     
   57620677.6609908     
   57620547.3111272     
   57620418.9531208     
   57620293.6657891     
   57620172.5214259     
   57620056.5741231     
   57619946.8471967     
   57619844.3196561     
   57619749.9117283     
   57619664.4693111     
   57619588.7473038     
   57619523.3920195     
   57619468.9225874     
   57619425.7114486     
   57619393.9641348     
   57619373.6983347     
   57619364.7230413     
   57619366.6173801     
   57619378.7093958     
   57619400.0552968     
   57619429.4205752     
   57619465.2599014     
   57619505.7007913     
   57619548.5310407     
   57619591.1842246     
   57619630.7327643     
   57619663.8745855     
   57619686.9187005     
   57619695.8148602     
   57180070.2801263     
   57180074.4297259     
   57180085.7861423     
   57180102.8645108     
   57180124.3768058     
   57180149.2185539     
   57180176.4563502     
   57180205.3160850     
   57180235.1717962     
   57180265.5350664     
   57180296.0448914     
   57180326.4579475     
   57180356.6391917     
   57180386.5527303     
   57180416.2528940     
   57180445.8754622     
   57180475.6289763     
   57180505.7860882     
   57180536.6748866     
   57180568.6701489     
   57180602.1844665     
   57180637.6591908     
   57180675.5551496     
   57180716.3430892     
   57180760.4937969     
   57180808.4678660     
   57180860.7050660     
   57180917.6132922     
   57180979.5570814     
   57181046.8456838     
   57181119.7206773     
   57181198.3431644     
   57181282.7805990     
   57181372.9932400     
   57181468.8203416     
   57181569.9661581     
   57181675.9858545     
   57181786.2714973     
   57181900.0380874     
   57182016.3099587     
   57182133.9077098     
   57182251.4357907     
   57182367.2705905     
   57182479.5502452     
   57182586.1650539     
   57182684.7486904     
   57182772.6720743     
   57182847.0372091     
   57182904.6752448     
   57182942.1479097     
   57182955.7395217     
   56756426.2748835     
   56756435.3444620     
   56756461.2415966     
   56756502.1465196     
   56756556.4285111     
   56756622.6331926     
   56756699.4704259     
   56756785.8027600     
   56756880.6343711     
   56756983.1004412     
   56757092.4569221     
   56757208.0706359     
   56757329.4096620     
   56757456.0339654     
   56757587.5862195     
   56757723.7827827     
   56757864.4047857     
   56758009.2892926     
   56758158.3204969     
   56758311.4209193     
   56758468.5425738     
   56758629.6580736     
   56758794.7516502     
   56758963.8100630     
   56759136.8133812     
   56759313.7256229     
   56759494.4852446     
   56759678.9954770     
   56759867.1145109     
   56760058.6455422     
   56760253.3267018     
   56760450.8208893     
   56760650.7055415     
   56760852.4623937     
   56761055.4672728     
   56761258.9799855     
   56761462.1343702     
   56761663.9285693     
   56761863.2156532     
   56762058.6946340     
   56762248.9019561     
   56762432.2035653     
   56762606.7877504     
   56762770.6585373     
   56762921.6300678     
   56763057.3220556     
   56763175.1558941     
   56763272.3523331     
   56763345.9295974     
   56763392.7021067     
   56763409.2835039     
   56350808.2723041     
   56350820.7796919     
   56350856.8825769     
   56350914.5852869     
   56350992.0629385     
   56351087.6503000     
   56351199.8310416     
   56351327.2273456     
   56351468.5898489     
   56351622.7878890     
   56351788.8000252     
   56351965.7048055     
   56352152.6717526     
   56352348.9525392     
   56352553.8723285     
   56352766.8212534     
   56352987.2460089     
   56353214.6415385     
   56353448.5427897     
   56353688.5165231     
   56353934.1531565     
   56354185.0586305     
   56354440.8462839     
   56354701.1287297     
   56354965.5097274     
   56355233.5760490     
   56355504.8893402     
   56355778.9779832     
   56356055.3289708     
   56356333.3798062     
   56356612.5104461     
   56356892.0353108     
   56357171.1953908     
   56357449.1504778     
   56357724.9715581     
   56357997.6334092     
   56358266.0074393     
   56358528.8548241     
   56358784.8199735     
   56359032.4243897     
   56359270.0609698     
   56359495.9887993     
   56359708.3284534     
   56359905.0579451     
   56360084.0092686     
   56360242.8655730     
   56360379.1591459     
   56360490.2699844     
   56360573.4253070     
   56360625.7000326     
   56360644.0171776     
   55962528.8298965     
   55962543.4712060     
   55962585.9621812     
   55962654.2673693     
   55962746.4976245     
   55962860.9009977     
   55962995.8538212     
   55963149.8519864     
   55963321.5024032     
   55963509.5146351     
   55963712.6926987     
   55963929.9270163     
   55964160.1865112     
   55964402.5108336     
   55964656.0027058     
   55964919.8203754     
   55965193.1701666     
   55965475.2991189     
   55965765.4877069     
   55966063.0426297     
   55966367.2896689     
   55966677.5666067     
   55966993.2162037     
   55967313.5792351     
   55967637.9875869     
   55967965.7574154     
   55968296.1823754     
   55968628.5269272     
   55968962.0197306     
   55969295.8471411     
   55969629.1468221     
   55969961.0014933     
   55970290.4328330     
   55970616.3955577     
   55970937.7717051     
   55971253.3651430     
   55971561.8963347     
   55971861.9973862     
   55972152.2074095     
   55972430.9682265     
   55972696.6204450     
   55972947.3999355     
   55973181.4347456     
   55973396.7424553     
   55973591.2280225     
   55973762.6821435     
   55973908.7801086     
   55974027.0812432     
   55974115.0288574     
   55974169.9507010     
   55974189.0602365     
   55590867.7987778     
   55590883.4815621     
   55590929.1564441     
   55591002.8558947     
   55591102.7315537     
   55591227.0472212     
   55591374.1719003     
   55591542.5728987     
   55591730.8089947     
   55591937.5236709     
   55592161.4384186     
   55592401.3461139     
   55592656.1044644     
   55592924.6295289     
   55593205.8893066     
   55593498.8973969     
   55593802.7067272     
   55594116.4033501     
   55594439.1003081     
   55594769.9315662     
   55595108.0460149     
   55595452.6015436     
   55595802.7591880     
   55596157.6773559     
   55596516.5061352     
   55596878.3816912     
   55597242.4207603     
   55597607.7152486     
   55597973.3269459     
   55598338.2823664     
   55598701.5677279     
   55599062.1240838     
   55599418.8426237     
   55599770.5601559     
   55600116.0547914     
   55600454.0418445     
   55600783.1699700     
   55601102.0175536     
   55601409.0893749     
   55601702.8135614     
   55601981.5388509     
   55602243.5321822     
   55602486.9766249     
   55602709.9696738     
   55602910.5219140     
   55603086.5560692     
   55603235.9064571     
   55603356.3188390     
   55603445.4506964     
   55603500.8719474     
   55603520.0660168     
   55235078.2325695     
   55235094.0830107     
   55235140.3728225     
   55235215.2811544     
   55235317.0791481     
   55235444.1248799     
   55235594.8582528     
   55235767.7958553     
   55235961.5257984     
   55236174.7025402     
   55236406.0417098     
   55236654.3149363     
   55236918.3446923     
   55237196.9991567     
   55237489.1871040     
   55237793.8528242     
   55238109.9710799     
   55238436.5421046     
   55238772.5866470     
   55239117.1410675     
   55239469.2524902     
   55239827.9740188     
   55240192.3600193     
   55240561.4614776     
   55240934.3214383     
   55241309.9705331     
   55241687.4226045     
   55242065.6704358     
   55242443.6815956     
   55242820.3944059     
   55243194.7140451     
   55243565.5087963     
   55243931.6064521     
   55244291.7908877     
   55244644.7988144     
   55244989.3167250     
   55245323.9780448     
   55245647.3604988     
   55245957.9837092     
   55246254.3070330     
   55246534.7276542     
   55246797.5789378     
   55247041.1290615     
   55247263.5799285     
   55247463.0663761     
   55247637.6556849     
   55247785.3473955     
   55247904.0734416     
   55247991.6985993     
   55248046.0212523     
   55248064.7745003     
   54894392.3970038     
   54894407.7496359     
   54894452.6919027     
   54894525.6018987     
   54894624.9242222     
   54894749.1666003     
   54894896.8964050     
   54895066.7370748     
   54895257.3644573     
   54895467.5030876     
   54895695.9224131     
   54895941.4329780     
   54896202.8825773     
   54896479.1523911     
   54896769.1531069     
   54897071.8210413     
   54897386.1142668     
   54897711.0087536     
   54898045.4945333     
   54898388.5718922     
   54898739.2476024     
   54899096.5311970     
   54899459.4312982     
   54899826.9520048     
   54900198.0893475     
   54900571.8278196     
   54900947.1369916     
   54901322.9682165     
   54901698.2514362     
   54902071.8920957     
   54902442.7681752     
   54902809.7273481     
   54903171.5842738     
   54903527.1180352     
   54903875.0697296     
   54904214.1402206     
   54904542.9880626     
   54904860.2276042     
   54905164.4272805     
   54905454.1081022     
   54905727.7423490     
   54905983.7524756     
   54906220.5102366     
   54906436.3360369     
   54906629.4985142     
   54906798.2143569     
   54906940.6483644     
   54907054.9137500     
   54907139.0726929     
   54907191.1371407     
   54907209.0698566     
   54568027.6896833     
   54568042.0668305     
   54568084.2468828     
   54568152.8365716     
   54568246.4863342     
   54568363.8883205     
   54568503.7742572     
   54568664.9131852     
   54568846.1090846     
   54569046.1984012     
   54569264.0474901     
   54569498.5499858     
   54569748.6241131     
   54570013.2099493     
   54570291.2666474     
   54570581.7696323     
   54570883.7077780     
   54571196.0805759     
   54571517.8953029     
   54571848.1641988     
   54572185.9016594     
   54572530.1214564     
   54572879.8339898     
   54573234.0435822     
   54573591.7458218     
   54573951.9249632     
   54574313.5513928     
   54574675.5791667     
   54575036.9436287     
   54575396.5591170     
   54575753.3167648     
   54576106.0824056     
   54576453.6945871     
   54576794.9627042     
   54577128.6652559     
   54577453.5482342     
   54577768.3236521     
   54578071.6682162     
   54578362.2221518     
   54578638.5881846     
   54578899.3306870     
   54579142.9749922     
   54579368.0068829     
   54579572.8722572     
   54579755.9769776     
   54579915.6869052     
   54580050.3281224     
   54580158.1873476     
   54580237.5125415     
   54580286.5137074     
   54580303.3638879     
   54255192.2800344     
   54255205.3662740     
   54255243.8438117     
   54255306.5594776     
   54255392.3841787     
   54255500.2119924     
   54255628.9591041     
   54255777.5626020     
   54255944.9791457     
   54256130.1835191     
   54256332.1670820     
   54256549.9361322     
   54256782.5101896     
   54257028.9202129     
   54257288.2067606     
   54257559.4181050     
   54257841.6083106     
   54258133.8352848     
   54258435.1588109     
   54258744.6385723     
   54259061.3321751     
   54259384.2931792     
   54259712.5691443     
   54260045.1996995     
   54260381.2146442     
   54260719.6320867     
   54261059.4566288     
   54261399.6776040     
   54261739.2673740     
   54262077.1796931     
   54262412.3481451     
   54262743.6846597     
   54263070.0781159     
   54263390.3930362     
   54263703.4683799     
   54264008.1164396     
   54264303.1218469     
   54264587.2406930     
   54264859.1997685     
   54265117.6959270     
   54265361.3955776     
   54265588.9343096     
   54265798.9166537     
   54265989.9159822     
   54266160.4745527     
   54266309.1036950     
   54266434.2841464     
   54266534.4665352     
   54266608.0720141     
   54266653.4930439     
   54266669.0943285     
   53955090.3116095     
   53955101.9268525     
   53955136.1581680     
   53955192.0899085     
   53955268.8141644     
   53955365.4306767     
   53955481.0465951     
   53955614.7760909     
   53955765.7398407     
   53955933.0643889     
   53956115.8814031     
   53956313.3268319     
   53956524.5399758     
   53956748.6624820     
   53956984.8372717     
   53957232.2074111     
   53957489.9149329     
   53957757.0996198     
   53958032.8977557     
   53958316.4408557     
   53958606.8543805     
   53958903.2564442     
   53959204.7565227     
   53959510.4541699     
   53959819.4377492     
   53960130.7831861     
   53960443.5527498     
   53960756.7938697     
   53961069.5379918     
   53961380.7994841     
   53961689.5745936     
   53961994.8404621     
   53962295.5542067     
   53962590.6520690     
   53962879.0486387     
   53963159.6361560     
   53963431.2838982     
   53963692.8376539     
   53963943.1192883     
   53964180.9264057     
   53964405.0321100     
   53964614.1848677     
   53964807.1084764     
   53964982.5021408     
   53965139.0406586     
   53965275.3747187     
   53965390.1313123     
   53965481.9142590     
   53965549.3048479     
   53965590.8625952     
   53965605.1261170     
   53666926.5521576     
   53666936.6255946     
   53666966.3880235     
   53667015.1484506     
   53667082.2104594     
   53667166.8727151     
   53667268.4293236     
   53667386.1700514     
   53667519.3804211     
   53667667.3416889     
   53667829.3307154     
   53668004.6197384     
   53668192.4760581     
   53668392.1616413     
   53668602.9326560     
   53668824.0389420     
   53669054.7234278     
   53669294.2215004     
   53669541.7603362     
   53669796.5582003     
   53670057.8237207     
   53670324.7551461     
   53670596.5395915     
   53670872.3522809     
   53671151.3557911     
   53671432.6993037     
   53671715.5178719     
   53671998.9317064     
   53672282.0454867     
   53672563.9477033     
   53672843.7100356     
   53673120.3867699     
   53673393.0142633     
   53673660.6104571     
   53673922.1744444     
   53674176.6860958     
   53674423.1057470     
   53674660.3739514     
   53674887.4113031     
   53675103.1183296     
   53675306.3754616     
   53675496.0430783     
   53675670.9616339     
   53675829.9518649     
   53675971.8150812     
   53676095.3335427     
   53676199.2709211     
   53676282.3728498     
   53676343.3675614     
   53676380.9666123     
   53676393.8656963     
   53389910.4200688     
   53389918.9662696     
   53389944.2886779     
   53389985.9009709     
   53390043.3011738     
   53390115.9725685     
   53390203.3844703     
   53390304.9928777     
   53390420.2410060     
   53390548.5597121     
   53390689.3678171     
   53390842.0723370     
   53391006.0686273     
   53391180.7404492     
   53391365.4599658     
   53391559.5876741     
   53391762.4722807     
   53391973.4505270     
   53392191.8469717     
   53392416.9737365     
   53392648.1302204     
   53392884.6027901     
   53393125.6644512     
   53393370.5745069     
   53393618.5782082     
   53393868.9064031     
   53394120.7751882     
   53394373.3855676     
   53394625.9231257     
   53394877.5577163     
   53395127.4431742     
   53395374.7170519     
   53395618.5003874     
   53395857.8975047     
   53396091.9958521     
   53396319.8658820     
   53396540.5609741     
   53396753.1174060     
   53396956.5543739     
   53397149.8740657     
   53397332.0617890     
   53397502.0861562     
   53397658.8993290     
   53397801.4373227     
   53397928.6203734     
   53398039.3533685     
   53398132.5263407     
   53398207.0150275     
   53398261.6814967     
   53398295.3748361     
   53398306.9319102     
   53123259.3536301     
   53123266.4514374     
   53123287.5526701     
   53123322.3511786     
   53123370.5175439     
   53123431.7002424     
   53123505.5266918     
   53123591.6041861     
   53123689.5207255     
   53123798.8457476     
   53123919.1307672     
   53124049.9099301     
   53124190.7004869     
   53124341.0031945     
   53124500.3026493     
   53124668.0675597     
   53124843.7509626     
   53125026.7903904     
   53125216.6079925     
   53125412.6106192     
   53125614.1898707     
   53125820.7221186     
   53126031.5685021     
   53126246.0749073     
   53126463.5719309     
   53126683.3748352     
   53126904.7834979     
   53127127.0823601     
   53127349.5403788     
   53127571.4109855     
   53127791.9320560     
   53128010.3258946     
   53128225.7992361     
   53128437.5432690     
   53128644.7336833     
   53128846.5307446     
   53129042.0793990     
   53129230.5094094     
   53129410.9355276     
   53129582.4577027     
   53129744.1613289     
   53129895.1175334     
   53130034.3835074     
   53130161.0028802     
   53130274.0061385     
   53130372.4110915     
   53130455.2233831     
   53130521.4370507     
   53130570.0351320     
   53130599.9903194     
   53130610.2656626     
   52866201.5200803     
   52866207.2945184     
   52866224.5305098     
   52866253.0751215     
   52866292.7468010     
   52866343.3366791     
   52866404.6097707     
   52866476.3060794     
   52866558.1416104     
   52866649.8092967     
   52866750.9798438     
   52866861.3024985     
   52866980.4057446     
   52867107.8979334     
   52867243.3678519     
   52867386.3852334     
   52867536.5012165     
   52867693.2487554     
   52867856.1429878     
   52868024.6815638     
   52868198.3449395     
   52868376.5966418     
   52868558.8835059     
   52868744.6358915     
   52868933.2678804     
   52869124.1774601     
   52869316.7466961     
   52869510.3418982     
   52869704.3137819     
   52869897.9976304     
   52870090.7134585     
   52870281.7661828     
   52870470.4458006     
   52870656.0275799     
   52870837.7722633     
   52871014.9262890     
   52871186.7220299     
   52871352.3780533     
   52871511.0994046     
   52871662.0779143     
   52871804.4925325     
   52871937.5096900     
   52872060.2836899     
   52872171.9571285     
   52872271.6613478     
   52872358.5169203     
   52872431.6341665     
   52872490.1137053     
   52872533.0470386     
   52872559.5171693     
   52872568.5992521     
   52617977.8845945     
   52617982.4917524     
   52617996.3112269     
   52618019.3154662     
   52618051.4448689     
   52618092.6091374     
   52618142.6885461     
   52618201.5351271     
   52618268.9737779     
   52618344.8032950     
   52618428.7973359     
   52618520.7053161     
   52618620.2532417     
   52618727.1444837     
   52618841.0604963     
   52618961.6614847     
   52619088.5870243     
   52619221.4566354     
   52619359.8703189     
   52619503.4090534     
   52619651.6352595     
   52619804.0932346     
   52619960.3095600     
   52620119.7934858     
   52620282.0372941     
   52620446.5166471     
   52620612.6909194     
   52620780.0035199     
   52620947.8822057     
   52621115.7393897     
   52621282.9724457     
   52621448.9640131     
   52621613.0823027     
   52621774.6814080     
   52621933.1016212     
   52622087.6697593     
   52622237.6994987     
   52622382.4917232     
   52622521.3348849     
   52622653.5053808     
   52622778.2679450     
   52622894.8760600     
   52623002.5723859     
   52623100.5892098     
   52623188.1489165     
   52623264.4644790     
   52623328.7399731     
   52623380.1711124     
   52623417.9458068     
   52623441.2447438     
   52623449.2419922     
   52377843.6757534     
   52377847.2904510     
   52377858.1986896     
   52377876.4707536     
   52377902.1430404     
   52377935.2194014     
   52377975.6724112     
   52378023.4445696     
   52378078.4494386     
   52378140.5727154     
   52378209.6732462     
   52378285.5839839     
   52378368.1128901     
   52378457.0437873     
   52378552.1371623     
   52378653.1309237     
   52378759.7411182     
   52378871.6626056     
   52378988.5696982     
   52379110.1167656     
   52379235.9388085     
   52379365.6520037     
   52379498.8542231     
   52379635.1255303     
   52379774.0286552     
   52379915.1094516     
   52380057.8973380     
   52380201.9057257     
   52380346.6324358     
   52380491.5601066     
   52380636.1565944     
   52380779.8753705     
   52380922.1559135     
   52381062.4241024     
   52381200.0926095     
   52381334.5612959     
   52381465.2176108     
   52381591.4369969     
   52381712.5833018     
   52381828.0091981     
   52381937.0566120     
   52382039.0571626     
   52382133.3326125     
   52382219.1953293     
   52382295.9487609     
   52382362.8879235     
   52382419.2999027     
   52382464.4643694     
   52382497.6541095     
   52382518.1355678     
   52382525.1694061     
   52145069.2947607     
   52145072.1007196     
   52145080.6306112     
   52145095.0261336     
   52145115.3945540     
   52145141.8099925     
   52145174.3146484     
   52145212.9199705     
   52145257.6077746     
   52145308.3313084     
   52145365.0162670     
   52145427.5617609     
   52145495.8412376     
   52145569.7033612     
   52145648.9728490     
   52145733.4512702     
   52145822.9178073     
   52145917.1299820     
   52146015.8243498     
   52146118.7171624     
   52146225.5050032     
   52146335.8653955     
   52146449.4573873     
   52146565.9221129     
   52146684.8833357     
   52146805.9479713     
   52146928.7065957     
   52147052.7339383     
   52147177.5893620     
   52147302.8173337     
   52147427.9478842     
   52147552.4970616     
   52147675.9673783     
   52147797.8482535     
   52147917.6164526     
   52148034.7365252     
   52148148.6612423     
   52148258.8320341     
   52148364.6794302     
   52148465.6235021     
   52148561.0743091     
   52148650.4323500     
   52148733.0890184     
   52148808.4270658     
   52148875.8210698     
   52148934.6379104     
   52148984.2372524     
   52149023.9720371     
   52149053.1889803     
   52149071.2290794     
   52149077.4281282     
   51918940.7217285     
   51918942.9039350     
   51918949.5934193     
   51918960.9785489     
   51918977.2137456     
   51918998.4206835     
   51919024.6894411     
   51919056.0796090     
   51919092.6213547     
   51919134.3164445     
   51919181.1392253     
   51919233.0375676     
   51919289.9337698     
   51919351.7254270     
   51919418.2862650     
   51919489.4669407     
   51919565.0958117     
   51919644.9796750     
   51919728.9044781     
   51919816.6360033     
   51919907.9205261     
   51920002.4854507     
   51920100.0399232     
   51920200.2754246     
   51920302.8663445     
   51920407.4705380     
   51920513.7298656     
   51920621.2707203     
   51920729.7045397     
   51920838.6283081     
   51920947.6250472     
   51921056.2642980     
   51921164.1025950     
   51921270.6839336     
   51921375.5402316     
   51921478.1917869     
   51921578.1477311     
   51921674.9064808     
   51921767.9561871     
   51921856.7751844     
   51921940.8324387     
   51922019.5879971     
   51922092.4934374     
   51922158.9923207     
   51922218.5206450     
   51922270.5073018     
   51922314.3745358     
   51922349.5384069     
   51922375.4092565     
   51922391.3921761     
   51922396.8874800     
   51698759.4747437     
   51698761.2136829     
   51698766.5886591     
   51698775.8119827     
   51698789.0633047     
   51698806.4907112     
   51698828.2117840     
   51698854.3146245     
   51698884.8588446     
   51698919.8765235     
   51698959.3731320     
   51699003.3284251     
   51699051.6973038     
   51699104.4106475     
   51699161.3761173     
   51699222.4789319     
   51699287.5826168     
   51699356.5297291     
   51699429.1425566     
   51699505.2237946     
   51699584.5572012     
   51699666.9082315     
   51699752.0246517     
   51699839.6371359     
   51699929.4598448     
   51700021.1909885     
   51700114.5133743     
   51700209.0949410     
   51700304.5892798     
   51700400.6361437     
   51700496.8619459     
   51700592.8802491     
   51700688.2922449     
   51700782.6872264     
   51700875.6430532     
   51700966.7266099     
   51701055.4942598     
   51701141.4922933     
   51701224.2573730     
   51701303.3169748     
   51701378.1898267     
   51701448.3863448     
   51701513.4090680     
   51701572.7530915     
   51701625.9064988     
   51701672.3507932     
   51701711.5613296     
   51701743.0077453     
   51701766.1543908     
   51701780.4607612     
   51701785.3819271     
   51483842.1770404     
   51483843.6444892     
   51483848.2062903     
   51483856.0781611     
   51483867.4450533     
   51483882.4621380     
   51483901.2557639     
   51483923.9243871     
   51483950.5394764     
   51483981.1463905     
   51484015.7652303     
   51484054.3916659     
   51484096.9977384     
   51484143.5326387     
   51484193.9234622     
   51484248.0759408     
   51484305.8751535     
   51484367.1862157     
   51484431.8549477     
   51484499.7085245     
   51484570.5561059     
   51484644.1894495     
   51484720.3835061     
   51484798.8969993     
   51484879.4729892     
   51484961.8394219     
   51485045.7096652     
   51485130.7830313     
   51485216.7452871     
   51485303.2691538     
   51485390.0147953     
   51485476.6302970     
   51485562.7521356     
   51485648.0056400     
   51485732.0054452     
   51485814.3559380     
   51485894.6516975     
   51485972.4779286     
   51486047.4108902     
   51486119.0183190     
   51486186.8598484     
   51486250.4874233     
   51486309.4457118     
   51486363.2725127     
   51486411.4991608     
   51486453.6509286     
   51486489.2474264     
   51486517.8029992     
   51486538.8271213     
   51486551.8247898     
   51486556.2969143     
   51273519.7851769     
   51273521.1412659     
   51273525.3578577     
   51273532.6357767     
   51273543.1474264     
   51273557.0376626     
   51273574.4246473     
   51273595.4006807     
   51273620.0330146     
   51273648.3646435     
   51273680.4150776     
   51273716.1810942     
   51273755.6374713     
   51273798.7377007     
   51273845.4146826     
   51273895.5814029     
   51273949.1315909     
   51274005.9403611     
   51274065.8648371     
   51274128.7447594     
   51274194.4030778     
   51274262.6465279     
   51274333.2661932     
   51274406.0380532     
   51274480.7235176     
   51274557.0699476     
   51274634.8111656     
   51274713.6679519     
   51274793.3485314     
   51274873.5490486     
   51274953.9540335     
   51275034.2368572     
   51275114.0601791     
   51275193.0763854     
   51275270.9280195     
   51275347.2482054     
   51275421.6610635     
   51275493.7821199     
   51275563.2187100     
   51275629.5703758     
   51275692.4292579     
   51275751.3804825     
   51275806.0025430     
   51275855.8676781     
   51275900.5422446     
   51275939.5870864     
   51275972.5578995     
   51275999.0055936     
   51276018.4766492     
   51276030.5134716     
   51276034.6547413     
   51067136.5272807     
   51067137.9185606     
   51067142.2186965     
   51067149.5975138     
   51067160.1990854     
   51067174.1424978     
   51067191.5226021     
   51067212.4107492     
   51067236.8555100     
   51067264.8833803     
   51067296.4994694     
   51067331.6881748     
   51067370.4138398     
   51067412.6213977     
   51067458.2369995     
   51067507.1686283     
   51067559.3066976     
   51067614.5246368     
   51067672.6794619     
   51067733.6123329     
   51067797.1490978     
   51067863.1008238     
   51067931.2643159     
   51068001.4226232     
   51068073.3455339     
   51068146.7900582     
   51068221.5009013     
   51068297.2109244     
   51068373.6415973     
   51068450.5034397     
   51068527.4964541     
   51068604.3105498     
   51068680.6259575     
   51068756.1136368     
   51068830.4356753     
   51068903.2456802     
   51068974.1891633     
   51069042.9039184     
   51069109.0203933     
   51069172.1620547     
   51069231.9457475     
   51069287.9820484     
   51069339.8756142     
   51069387.2255251     
   51069429.6256217     
   51069466.6648388     
   51069497.9275337     
   51069522.9938093     
   51069541.4398334     
   51069552.8381536     
   51069556.7580069     
   50864048.5956845     
   50864050.1539641     
   50864054.9236144     
   50864063.0294451     
   50864074.5734096     
   50864089.6352697     
   50864108.2732488     
   50864130.5246740     
   50864156.4066075     
   50864185.9164641     
   50864219.0326196     
   50864255.7150050     
   50864295.9056900     
   50864339.5294544     
   50864386.4943470     
   50864436.6922335     
   50864489.9993320     
   50864546.2767368     
   50864605.3709316     
   50864667.1142905     
   50864731.3255685     
   50864797.8103804     
   50864866.3616699     
   50864936.7601681     
   50865008.7748411     
   50865082.1633287     
   50865156.6723730     
   50865232.0382373     
   50865307.9871170     
   50865384.2355406     
   50865460.4907627     
   50865536.4511489     
   50865611.8065526     
   50865686.2386838     
   50865759.4214713     
   50865831.0214167     
   50865900.6979424     
   50865968.1037328     
   50866032.8850681     
   50866094.6821534     
   50866153.1294407     
   50866207.8559453     
   50866258.4855569     
   50866304.6373444     
   50866345.9258567     
   50866381.9614169     
   50866412.3504120     
   50866436.6955778     
   50866454.5962784     
   50866465.6487815     
   50866469.4465277     
   50663622.6330516     
   50663624.4748013     
   50663630.0552570     
   50663639.4421464     
   50663652.6833930     
   50663669.8076867     
   50663690.8250471     
   50663715.7273781     
   50663744.4890138     
   50663777.0672551     
   50663813.4028982     
   50663853.4207521     
   50663897.0301486     
   50663944.1254414     
   50663994.5864961     
   50664048.2791710     
   50664105.0557874     
   50664164.7555920     
   50664227.2052077     
   50664292.2190768     
   50664359.5998939     
   50664429.1390302     
   50664500.6169482     
   50664573.8036079     
   50664648.4588640     
   50664724.3328547     
   50664801.1663818     
   50664878.6912829     
   50664956.6307953     
   50665034.6999122     
   50665112.6057311     
   50665190.0477948     
   50665266.7184249     
   50665342.3030488     
   50665416.4805192     
   50665488.9234270     
   50665559.2984083     
   50665627.2664436     
   50665692.4831528     
   50665754.5990824     
   50665813.2599881     
   50665868.1071105     
   50665918.7774466     
   50665964.9040147     
   50666006.1161145     
   50666042.0395818     
   50666072.2970383     
   50666096.5081356     
   50666114.2897955     
   50666125.2564441     
   50666129.0202413     
   50465234.0456970     
   50465236.2718417     
   50465242.9589782     
   50465254.1074793     
   50465269.7010717     
   50465289.7073222     
   50465314.0781180     
   50465342.7501402     
   50465375.6453307     
   50465412.6713522     
   50465453.7220405     
   50465498.6778501     
   50465547.4062913     
   50465599.7623607     
   50465655.5889628     
   50465714.7173245     
   50465776.9674014     
   50465842.1482760     
   50465910.0585484     
   50465980.4867188     
   50466053.2115619     
   50466128.0024941     
   50466204.6199324     
   50466282.8156457     
   50466362.3330984     
   50466442.9077874     
   50466524.2675701     
   50466606.1329868     
   50466688.2175746     
   50466770.2281757     
   50466851.8652369     
   50466932.8231045     
   50467012.7903113     
   50467091.4498571     
   50467168.4794837     
   50467243.5519426     
   50467316.3352580     
   50467386.4929827     
   50467453.6844488     
   50467517.5650125     
   50467577.7862938     
   50467633.9964100     
   50467685.8402044     
   50467732.9594701     
   50467774.9931678     
   50467811.5776392     
   50467842.3468152     
   50467866.9324195     
   50467884.9641669     
   50467896.0699571     
   50467899.8760639     
   50268265.1725215     
   50268267.8684746     
   50268275.9127367     
   50268289.2296880     
   50268307.7302970     
   50268331.3125312     
   50268359.8617609     
   50268393.2511589     
   50268431.3420941     
   50268473.9845195     
   50268521.0173539     
   50268572.2688578     
   50268627.5570021     
   50268686.6898318     
   50268749.4658213     
   50268815.6742244     
   50268885.0954173     
   50268957.5012338     
   50269032.6552955     
   50269110.3133334     
   50269190.2235040     
   50269272.1266978     
   50269355.7568413     
   50269440.8411927     
   50269527.1006305     
   50269614.2499352     
   50269701.9980654     
   50269790.0484269     
   50269878.0991354     
   50269965.8432731     
   50270052.9691394     
   50270139.1604947     
   50270224.0967999     
   50270307.4534480     
   50270388.9019916     
   50270468.1103638     
   50270544.7430946     
   50270618.4615201     
   50270688.9239887     
   50270755.7860602     
   50270818.7007004     
   50270877.3184714     
   50270931.2877157     
   50270980.2547362     
   50271023.8639715     
   50271061.7581661     
   50271093.5785365     
   50271118.9649318     
   50271137.5559912     
   50271148.9892958     
   50271152.9015164     
   50072103.3329811     
   50072106.5687920     
   50072116.1755327     
   50072131.9944401     
   50072153.8566379     
   50072181.5834767     
   50072214.9868694     
   50072253.8696225     
   50072298.0257610     
   50072347.2408499     
   50072401.2923087     
   50072459.9497210     
   50072522.9751393     
   50072590.1233819     
   50072661.1423264     
   50072735.7731955     
   50072813.7508376     
   50072894.8040014     
   50072978.6556043     
   50073065.0229947     
   50073153.6182086     
   50073244.1482199     
   50073336.3151847     
   50073429.8166802     
   50073524.3459364     
   50073619.5920639     
   50073715.2402740     
   50073810.9720942     
   50073906.4655778     
   50074001.3955077     
   50074095.4335952     
   50074188.2486728     
   50074279.5068819     
   50074368.8718556     
   50074456.0048957     
   50074540.5651455     
   50074622.2097562     
   50074700.5940506     
   50074775.3716796     
   50074846.1947756     
   50074912.7141010     
   50074974.5791915     
   50075031.4384957     
   50075082.9395100     
   50075128.7289089     
   50075168.4526719     
   50075201.7562048     
   50075228.2844588     
   50075247.6820435     
   50075259.5933378     
   50075263.6625953     
   49876138.7729703     
   49876142.6034850     
   49876153.9333533     
   49876172.5148812     
   49876198.0936214     
   49876230.4086497     
   49876269.1928366     
   49876314.1731142     
   49876365.0707381     
   49876421.6015442     
   49876483.4762006     
   49876550.4004531     
   49876622.0753670     
   49876698.1975623     
   49876778.4594438     
   49876862.5494253     
   49876950.1521493     
   49877040.9486998     
   49877134.6168113     
   49877230.8310701     
   49877329.2631124     
   49877429.5818151     
   49877531.4534823     
   49877634.5420260     
   49877738.5091416     
   49877843.0144780     
   49877947.7158028     
   49878052.2691619     
   49878156.3290344     
   49878259.5484823     
   49878361.5792959     
   49878462.0721332     
   49878560.6766557     
   49878657.0416587     
   49878750.8151978     
   49878841.6447101     
   49878929.1771316     
   49879013.0590100     
   49879092.9366132     
   49879168.4560338     
   49879239.2632891     
   49879305.0044178     
   49879365.3255725     
   49879419.8731076     
   49879468.2936647     
   49879510.2342531     
   49879545.3423276     
   49879573.2658616     
   49879593.6534184     
   49879606.1542168     
   49879610.4181952     
   49679762.5235349     
   49679766.9884829     
   49679780.1576164     
   49679801.6897866     
   49679831.2405232     
   49679868.4622511     
   49679913.0045012     
   49679964.5141164     
   49680022.6354522     
   49680087.0105715     
   49680157.2794352     
   49680233.0800859     
   49680314.0488275     
   49680399.8203990     
   49680490.0281426     
   49680584.3041671     
   49680682.2795053     
   49680783.5842669     
   49680887.8477854     
   49680994.6987603     
   49681103.7653945     
   49681214.6755253     
   49681327.0567522     
   49681440.5365583     
   49681554.7424277     
   49681669.3019577     
   49681783.8429664     
   49681897.9935958     
   49682011.3824104     
   49682123.6384907     
   49682234.3915235     
   49682343.2718867     
   49682449.9107308     
   49682553.9400559     
   49682654.9927844     
   49682752.7028308     
   49682846.7051662     
   49682936.6358802     
   49683022.1322386     
   49683102.8327378     
   49683178.3771550     
   49683248.4065961     
   49683312.5635391     
   49683370.4918752     
   49683421.8369457     
   49683466.2455767     
   49683503.3661102     
   49683532.8484322     
   49683554.3439983     
   49683567.5058556     
   49683571.9886628     
   49482364.1840197     
   49482369.3079629     
   49482384.3877879     
   49482408.9855679     
   49482442.6635768     
   49482484.9844470     
   49482535.5113203     
   49482593.8079946     
   49482659.4390626     
   49482731.9700467     
   49482810.9675271     
   49482895.9992640     
   49482986.6343155     
   49483082.4431485     
   49483182.9977449     
   49483287.8717030     
   49483396.6403322     
   49483508.8807439     
   49483624.1719369     
   49483742.0948775     
   49483862.2325752     
   49483984.1701532     
   49484107.4949146     
   49484231.7964039     
   49484356.6664638     
   49484481.6992882     
   49484606.4914702     
   49484730.6420467     
   49484853.7525381     
   49484975.4269853     
   49485095.2719811     
   49485212.8966996     
   49485327.9129212     
   49485439.9350535     
   49485548.5801496     
   49485653.4679229     
   49485754.2207583     
   49485850.4637205     
   49485941.8245591     
   49486027.9337109     
   49486108.4242990     
   49486182.9321293     
   49486251.0956843     
   49486312.5561143     
   49486366.9572256     
   49486413.9454666     
   49486453.1699116     
   49486484.2822420     
   49486506.9367247     
   49486520.7901896     
   49486525.5020036     
   49283329.6386955     
   49283335.4307876     
   49283352.4472781     
   49283380.1513169     
   49283418.0098897     
   49283465.4939153     
   49283522.0783368     
   49283587.2422053     
   49283660.4687583     
   49283741.2454904     
   49283829.0642184     
   49283923.4211404     
   49284023.8168890     
   49284129.7565787     
   49284240.7498474     
   49284356.3108931     
   49284475.9585050     
   49284599.2160895     
   49284725.6116915     
   49284854.6780100     
   49284985.9524106     
   49285118.9769320     
   49285253.2982890     
   49285388.4678710     
   49285524.0417364     
   49285659.5806031     
   49285794.6498352     
   49285928.8194259     
   49286061.6639770     
   49286192.7626752     
   49286321.6992642     
   49286448.0620147     
   49286571.4436907     
   49286691.4415128     
   49286807.6571195     
   49286919.6965242     
   49287027.1700713     
   49287129.6923887     
   49287226.8823380     
   49287318.3629628     
   49287403.7614344     
   49287482.7089953     
   49287554.8409011     
   49287619.7963599     
   49287677.2184703     
   49287726.7541572     
   49287768.0541057     
   49287800.7726947     
   49287824.5679266     
   49287839.1013579     
   49287844.0380266     
   49082038.7141407     
   49082045.1676608     
   49082064.0999508     
   49082094.8742886     
   49082136.8615607     
   49082189.4402976     
   49082251.9966993     
   49082323.9246545     
   49082404.6257523     
   49082493.5092871     
   49082589.9922563     
   49082693.4993523     
   49082803.4629473     
   49082919.3230737     
   49083040.5273973     
   49083166.5311857     
   49083296.7972717     
   49083430.7960109     
   49083568.0052355     
   49083707.9102026     
   49083850.0035386     
   49083993.7851795     
   49084138.7623065     
   49084284.4492787     
   49084430.3675614     
   49084576.0456509     
   49084721.0189972     
   49084864.8299216     
   49085007.0275328     
   49085147.1676400     
   49085284.8126622     
   49085419.5315363     
   49085550.8996220     
   49085678.4986045     
   49085801.9163953     
   49085920.7470306     
   49086034.5905681     
   49086143.0529815     
   49086245.7460543     
   49086342.2872704     
   49086432.2997050     
   49086515.4119126     
   49086591.2578145     
   49086659.4765852     
   49086719.7125367     
   49086771.6150033     
   49086814.8382235     
   49086849.0412232     
   49086873.8876961     
   49086889.0458846     
   49086894.1884597     
   48877862.7837429     
   48877869.8753809     
   48877890.6536632     
   48877924.3823066     
   48877970.3365756     
   48878027.8032468     
   48878096.0805648     
   48878174.4781891     
   48878262.3171337     
   48878358.9297001     
   48878463.6594012     
   48878575.8608810     
   48878694.8998260     
   48878820.1528716     
   48878951.0075027     
   48879086.8619483     
   48879227.1250719     
   48879371.2162563     
   48879518.5652845     
   48879668.6122158     
   48879820.8072585     
   48879974.6106379     
   48880129.4924615     
   48880284.9325810     
   48880440.4204503     
   48880595.4549816     
   48880749.5443981     
   48880902.2060846     
   48881052.9664353     
   48881201.3607001     
   48881346.9328283     
   48881489.2353109     
   48881627.8290205     
   48881762.2830510     
   48881892.1745542     
   48882017.0885767     
   48882136.6178945     
   48882250.3628471     
   48882357.9311710     
   48882458.9378315     
   48882553.0048546     
   48882639.7611584     
   48882718.8423831     
   48882789.8907214     
   48882852.5547489     
   48882906.4892531     
   48882951.3550631     
   48882986.8188796     
   48883012.5531038     
   48883028.2356673     
   48883033.5498623     
   48670162.3256646     
   48670170.0145489     
   48670192.5172335     
   48670228.9995566     
   48670278.6430324     
   48670340.6447360     
   48670414.2171790     
   48670498.5881770     
   48670593.0007081     
   48670696.7127647     
   48670808.9971979     
   48670929.1415548     
   48671056.4479101     
   48671190.2326915     
   48671329.8264995     
   48671474.5739231     
   48671623.8333492     
   48671776.9767689     
   48671933.3895792     
   48672092.4703810     
   48672253.6307739     
   48672416.2951476     
   48672579.9004702     
   48672743.8960746     
   48672907.7434416     
   48673070.9159818     
   48673232.8988147     
   48673393.1885467     
   48673551.2930470     
   48673706.7312231     
   48673859.0327942     
   48674007.7380641     
   48674152.3976930     
   48674292.5724695     
   48674427.8330805     
   48674557.7598827     
   48674681.9426717     
   48674799.9804534     
   48674911.4812129     
   48675016.0616858     
   48675113.3471278     
   48675202.9710863     
   48675284.5751711     
   48675357.8088265     
   48675422.3291034     
   48675477.8004328     
   48675523.8943992     
   48675560.2895156     
   48675586.6709993     
   48675602.7305481     
   48675608.1661186     
   48458284.4415595     
   48458292.6680320     
   48458316.7181783     
   48458355.6631703     
   48458408.5941927     
   48458474.6222363     
   48458552.8778825     
   48458642.5110790     
   48458742.6909073     
   48458852.6053432     
   48458971.4610099     
   48459098.4829251     
   48459232.9142427     
   48459374.0159880     
   48459521.0667895     
   48459673.3626051     
   48459830.2164447     
   48459990.9580892     
   48460154.9338061     
   48460321.5060624     
   48460490.0532347     
   48460659.9693170     
   48460830.6636272     
   48461001.5605106     
   48461172.0990434     
   48461341.7327342     
   48461509.9292247     
   48461676.1699901     
   48461839.9500386     
   48462000.7776105     
   48462158.1738777     
   48462311.6726430     
   48462460.8200397     
   48462605.1742310     
   48462744.3051115     
   48462877.7940074     
   48463005.2333792     
   48463126.2265240     
   48463240.3872800     
   48463347.3397313     
   48463446.7179144     
   48463538.1655257     
   48463621.3356311     
   48463695.8903764     
   48463761.5006996     
   48463817.8460452     
   48463864.6140797     
   48463901.5004094     
   48463928.2082999     
   48463944.4483976     
   48463949.9384533     
   48241560.3452414     
   48241569.0293979     
   48241594.3904774     
   48241635.4099321     
   48241691.0937842     
   48241760.4723134     
   48241842.5997356     
   48241936.5538734     
   48242041.4358197     
   48242156.3695941     
   48242280.5017936     
   48242413.0012378     
   48242553.0586093     
   48242699.8860890     
   48242852.7169891     
   48243010.8053809     
   48243173.4257213     
   48243339.8724758     
   48243509.4597397     
   48243681.5208579     
   48243855.4080430     
   48244030.4919925     
   48244206.1615055     
   48244381.8230985     
   48244556.9006217     
   48244730.8348750     
   48244903.0832245     
   48245073.1192195     
   48245240.4322107     
   48245404.5269688     
   48245564.9233047     
   48245721.1556906     
   48245872.7728835     
   48246019.3375491     
   48246160.4258884     
   48246295.6272662     
   48246424.5438405     
   48246546.7901960     
   48246661.9929776     
   48246769.7905279     
   48246869.8325264     
   48246961.7796312     
   48247045.3031235     
   48247120.0845544     
   48247185.8153949     
   48247242.1966879     
   48247288.9387043     
   48247325.7606003     
   48247352.3900794     
   48247368.5630563     
   48247374.0233237     
   48019302.8334693     
   48019311.8735010     
   48019338.2445927     
   48019380.8454089     
   48019438.6039628     
   48019510.4771802     
   48019595.4504570     
   48019692.5372089     
   48019800.7784160     
   48019919.2421612     
   48020047.0231648     
   48020183.2423147     
   48020327.0461935     
   48020477.6066028     
   48020634.1200851     
   48020795.8074443     
   48020961.9132643     
   48021131.7054280     
   48021304.4746346     
   48021479.5339178     
   48021656.2181639     
   48021833.8836303     
   48022011.9074663     
   48022189.6872335     
   48022366.6404286     
   48022542.2040081     
   48022715.8339144     
   48022887.0046048     
   48023055.2085824     
   48023219.9559295     
   48023380.7738441     
   48023537.2061789     
   48023688.8129836     
   48023835.1700500     
   48023975.8684603     
   48024110.5141391     
   48024238.7274083     
   48024360.1425461     
   48024474.4073484     
   48024581.1826954     
   48024680.1421206     
   48024770.9713839     
   48024853.3680489     
   48024927.0410632     
   48024991.7103438     
   48025047.1063652     
   48025092.9697518     
   48025129.0508751     
   48025155.1094540     
   48025170.9141596     
   48025176.2422239     
   47790803.7550521     
   47790813.0254395     
   47790840.0360144     
   47790883.6118627     
   47790942.6124053     
   47791015.9308209     
   47791102.4934630     
   47791201.2592722     
   47791311.2191851     
   47791431.3955396     
   47791560.8414784     
   47791698.6403504     
   47791843.9051116     
   47791995.7777252     
   47792153.4285617     
   47792316.0557997     
   47792482.8848284     
   47792653.1676500     
   47792826.1822860     
   47793001.2321838     
   47793177.6456274     
   47793354.7751502     
   47793531.9969508     
   47793708.7103127     
   47793884.3370273     
   47794058.3208209     
   47794230.1267856     
   47794399.2408138     
   47794565.1690386     
   47794727.4372764     
   47794885.5904760     
   47795039.1921712     
   47795187.8239384     
   47795331.0848593     
   47795468.5909878     
   47795599.9748224     
   47795724.8847833     
   47795842.9846942     
   47795953.9532699     
   47796057.4836080     
   47796153.2826861     
   47796241.0708645     
   47796320.5813930     
   47796391.5599236     
   47796453.7640281     
   47796506.9627206     
   47796550.9359855     
   47796585.4743106     
   47796610.3782251     
   47796625.4578427     
   47796630.5324109     
   47555331.4996175     
   47555340.8492495     
   47555368.0537565     
   47555411.8764597     
   47555471.1201800     
   47555544.6264981     
   47555631.2750125     
   47555729.9825954     
   47555839.7026488     
   47555959.4243606     
   47556088.1719615     
   47556225.0039834     
   47556369.0125206     
   47556519.3224922     
   47556675.0909100     
   47556835.5061478     
   47556999.7872163     
   47557167.1830419     
   47557336.9717504     
   47557508.4599558     
   47557680.9820543     
   47557853.8995245     
   47558026.6002329     
   47558198.4977452     
   47558369.0306448     
   47558537.6618564     
   47558703.8779768     
   47558867.1886116     
   47559027.1257192     
   47559183.2429608     
   47559335.1150574     
   47559482.3371528     
   47559624.5241846     
   47559761.3102608     
   47559892.3480431     
   47560017.3081377     
   47560135.8784919     
   47560247.7637975     
   47560352.6849015     
   47560450.3782220     
   47560540.5951721     
   47560623.1015892     
   47560697.6771712     
   47560764.1149187     
   47560822.2205845     
   47560871.8121284     
   47560912.7191788     
   47560944.7825005     
   47560967.8534688     
   47560981.7935501     
   47560986.4737878     
   47312128.5336637     
   47312137.7839772     
   47312164.6565097     
   47312207.8675947     
   47312266.1783559     
   47312338.3937834     
   47312423.3618126     
   47312519.9724050     
   47312627.1566344     
   47312743.8857770     
   47312869.1704063     
   47313002.0594950     
   47313141.6395223     
   47313287.0335883     
   47313437.4005361     
   47313591.9340809     
   47313749.8619476     
   47313910.4450161     
   47314072.9764759     
   47314236.7809886     
   47314401.2138598     
   47314565.6602193     
   47314729.5342116     
   47314892.2781944     
   47315053.3619469     
   47315212.2818872     
   47315368.5602991     
   47315521.7445679     
   47315671.4064254     
   47315817.1412043     
   47315958.5671014     
   47316095.3244499     
   47316227.0750005     
   47316353.5012114     
   47316474.3055474     
   47316589.2097865     
   47316697.9543359     
   47316800.2975564     
   47316896.0150943     
   47316984.8992222     
   47317066.7581871     
   47317141.4155673     
   47317208.7096360     
   47317268.4927336     
   47317320.6306468     
   47317365.0019956     
   47317401.4976279     
   47317430.0200207     
   47317450.4826898     
   47317462.8096050     
   47317466.9346144     
   47060409.0189361     
   47060417.9621949     
   47060443.8915908     
   47060485.4945848     
   47060541.5087671     
   47060610.7207284     
   47060691.9649395     
   47060784.1226397     
   47060886.1207360     
   47060996.9307110     
   47061115.5675433     
   47061241.0886380     
   47061372.5927697     
   47061509.2190372     
   47061650.1458303     
   47061794.5898102     
   47061941.8049017     
   47062091.0812980     
   47062241.7444801     
   47062393.1542474     
   47062544.7037622     
   47062695.8186077     
   47062845.9558580     
   47062994.6031615     
   47063141.2778370     
   47063285.5259828     
   47063426.9215978     
   47063565.0657148     
   47063699.5855470     
   47063830.1336453     
   47063956.3870676     
   47064078.0465605     
   47064194.8357510     
   47064306.5003503     
   47064412.8073678     
   47064513.5443363     
   47064608.5185466     
   47064697.5562937     
   47064780.5021313     
   47064857.2181372     
   47064927.5831876     
   47064991.4922406     
   47065048.8556294     
   47065099.5983635     
   47065143.6594391     
   47065180.9911579     
   47065211.5584542     
   47065235.3382308     
   47065252.3187020     
   47065262.4987454     
   47065265.8872613     
   46799356.5566802     
   46799364.9545414     
   46799389.2403508     
   46799428.0945296     
   46799480.2529086     
   46799544.5053750     
   46799619.6945351     
   46799704.7143936     
   46799798.5090503     
   46799900.0714139     
   46800008.4419340     
   46800122.7073512     
   46800241.9994651     
   46800365.4939216     
   46800492.4090179     
   46800622.0045267     
   46800753.5805382     
   46800886.4763216     
   46801020.0692036     
   46801153.7734664     
   46801287.0392626     
   46801419.3515482     
   46801550.2290335     
   46801679.2231505     
   46801805.9170372     
   46801929.9245391     
   46802050.8892262     
   46802168.4834261     
   46802282.4072722     
   46802392.3877674     
   46802498.1778624     
   46802599.5555475     
   46802696.3229594     
   46802788.3055005     
   46802875.3509715     
   46802957.3287172     
   46803034.1287834     
   46803105.6610870     
   46803171.8545962     
   46803232.6565234     
   46803288.0315275     
   46803337.9609273     
   46803382.4419253     
   46803421.4868408     
   46803455.1223526     
   46803483.3887518     
   46803506.3392026     
   46803524.0390125     
   46803536.5649115     
   46803544.0043390     
   46803546.4547397     
   46528122.1109157     
   46528129.6934619     
   46528151.5433048     
   46528186.3597402     
   46528232.9025556     
   46528289.9904349     
   46528356.4993896     
   46528431.3612153     
   46528513.5619751     
   46528602.1405088     
   46528696.1869685     
   46528794.8413808     
   46528897.2922352     
   46529002.7750984     
   46529110.5712546     
   46529220.0063715     
   46529330.4491916     
   46529441.3102482     
   46529552.0406062     
   46529662.1306266     
   46529771.1087548     
   46529878.5403324     
   46529984.0264306     
   46530087.2027059     
   46530187.7382781     
   46530285.3346273     
   46530379.7245129     
   46530470.6709109     
   46530557.9659703     
   46530641.4299888     
   46530720.9104046     
   46530796.2808064     
   46530867.4399595     
   46530934.3108473     
   46530996.8397285     
   46531054.9952090     
   46531108.7673268     
   46531158.1666518     
   46531203.2233971     
   46531243.9865439     
   46531280.5229772     
   46531312.9166337     
   46531341.2676600     
   46531365.6915819     
   46531386.3184832     
   46531403.2921948     
   46531416.7694924     
   46531426.9193042     
   46531433.9219270     
   46531437.9682501     
   46531439.2589890     
   46245822.1743879     
   46245828.6398369     
   46245847.1687678     
   46245876.5096758     
   46245915.4762520     
   46245962.9455352     
   46246017.8561011     
   46246079.2062882     
   46246146.0524611     
   46246217.5073106     
   46246292.7381902     
   46246370.9654883     
   46246451.4610369     
   46246533.5465538     
   46246616.5921209     
   46246700.0146948     
   46246783.2766516     
   46246865.8843631     
   46246947.3868050     
   46247027.3741960     
   46247105.4766658     
   46247181.3629536     
   46247254.7391330     
   46247325.3473657     
   46247392.9646799     
   46247457.4017755     
   46247518.5018530     
   46247576.1394654     
   46247630.2193936     
   46247680.6755429     
   46247727.4698602     
   46247770.5912710     
   46247810.0546354     
   46247845.8997221     
   46247878.1901992     
   46247907.0126420     
   46247932.4755554     
   46247954.7084120     
   46247973.8607030     
   46247990.1010035     
   46248003.6160494     
   46248014.6098266     
   46248023.3026713     
   46248029.9303811     
   46248034.7433359     
   46248038.0056283     
   46248039.9942039     
   46248040.9980092     
   46248041.3171484     
   46248041.2620482     
   46248041.1526300     
   45951537.2521538     
   45951542.2674889     
   45951556.5000845     
   45951578.7826288     
   45951608.0171147     
   45951643.1727329     
   45951683.2838157     
   45951727.4478320     
   45951774.8234318     
   45951824.6285391     
   45951876.1384935     
   45951928.6842392     
   45951981.6505592     
   45952034.4743558     
   45952086.6429747     
   45952137.6925714     
   45952187.2065205     
   45952234.8138650     
   45952280.1878040     
   45952323.0442201     
   45952363.1402420     
   45952400.2728432     
   45952434.2774746     
   45952465.0267299     
   45952492.4290422     
   45952516.4274108     
   45952536.9981569     
   45952554.1497063     
   45952567.9213990     
   45952578.3823223     
   45952585.6301692     
   45952589.7901174     
   45952591.0137308     
   45952589.4778799     
   45952585.3836816     
   45952578.9554562     
   45952570.4397011     
   45952560.1040799     
   45952548.2364261     
   45952535.1437598     
   45952521.1513179     
   45952506.6015946     
   45952491.8533940     
   45952477.2808922     
   45952463.2727087     
   45952450.2309866     
   45952438.5704807     
   45952428.7176535     
   45952421.1097774     
   45952416.1940444     
   45952414.4266813     
   45644310.7495866     
   45644313.9523869     
   45644322.8283644     
   45644336.3342236     
   45644353.4992229     
   45644373.4228141     
   45644395.2723487     
   45644418.2808495     
   45644441.7448475     
   45644465.0222800     
   45644487.5304514     
   45644508.7440534     
   45644528.1932424     
   45644545.4617747     
   45644560.1851956     
   45644572.0490814     
   45644580.7873333     
   45644586.1805200     
   45644588.0542681     
   45644586.2776985     
   45644580.7619063     
   45644571.4584832     
   45644558.3580796     
   45644541.4890060     
   45644520.9158697     
   45644496.7382476     
   45644469.0893910     
   45644438.1349622     
   45644404.0718000     
   45644367.1267139     
   45644327.5553033     
   45644285.6408019     
   45644241.6929444     
   45644196.0468551     
   45644149.0619556     
   45644101.1208910     
   45644052.6284734     
   45644004.0106398     
   45643955.7134256     
   45643908.2019497     
   45643861.9594124     
   45643817.4861030     
   45643775.2984174     
   45643735.9278843     
   45643699.9201988     
   45643667.8342628     
   45643640.2412313     
   45643617.7235640     
   45643600.8740813     
   45643590.2950248     
   45643586.5971206     
   45323148.3635873     
   45323149.3653664     
   45323151.7496336     
   45323154.6417768     
   45323157.2418201     
   45323158.8218277     
   45323158.7233918     
   45323156.3552033     
   45323151.1907031     
   45323142.7658115     
   45323130.6767329     
   45323114.5778349     
   45323094.1795979     
   45323069.2466330     
   45323039.5957668     
   45323005.0941897     
   45322965.6576651     
   45322921.2487976     
   45322871.8753574     
   45322817.5886588     
   45322758.4819891     
   45322694.6890874     
   45322626.3826692     
   45322553.7729950     
   45322477.1064806     
   45322396.6643466     
   45322312.7613048     
   45322225.7442790     
   45322135.9911587     
   45322043.9095822     
   45321949.9357482     
   45321854.5332531     
   45321758.1919523     
   45321661.4268430     
   45321564.7769673     
   45321468.8043331     
   45321374.0928513     
   45321281.2472875     
   45321190.8922266     
   45321103.6710489     
   45321020.2449152     
   45320941.2917613     
   45320867.5052985     
   45320799.5940207     
   45320738.2802154     
   45320684.2989788     
   45320638.3972328     
   45320601.3327439     
   45320573.8731431     
   45320556.7949454     
   45320550.8825694     
   44987018.0875405     
   44987016.4789275     
   44987011.1770307     
   44987001.5252554     
   44986986.9422071     
   44986966.9188940     
   44986941.0160323     
   44986908.8614533     
   44986870.1476086     
   44986824.6291697     
   44986772.1207187     
   44986712.4945275     
   44986645.6784214     
   44986571.6537244     
   44986490.4532824     
   44986402.1595609     
   44986306.9028149     
   44986204.8593266     
   44986096.2497075     
   44985981.3372634     
   44985860.4264171     
   44985733.8611864     
   44985602.0237147     
   44985465.3328507     
   44985324.2427741     
   44985179.2416644     
   44985030.8504097     
   44984879.6213533     
   44984726.1370746     
   44984571.0092009     
   44984414.8772497     
   44984258.4074960     
   44984102.2918644     
   44983947.2468416     
   44983794.0124091     
   44983643.3509912     
   44983496.0464182     
   44983352.9029019     
   44983214.7440204     
   44983082.4117120     
   44982956.7652757     
   44982838.6803748     
   44982729.0480451     
   44982628.7737037     
   44982538.7761573     
   44982459.9866103     
   44982393.3476690     
   44982339.8123430     
   44982300.3430411     
   44982275.9105624     
   44982267.4930801     
   44634850.9514498     
   44634846.3095607     
   44634832.0895363     
   44634807.9063748     
   44634773.4489298     
   44634728.4769644     
   44634672.8183312     
   44634606.3662721     
   44634529.0768349     
   44634440.9664010     
   44634342.1093213     
   44634232.6356543     
   44634112.7290030     
   44633982.6244464     
   44633842.6065604     
   44633693.0075246     
   44633534.2053109     
   44633366.6219495     
   44633190.7218672     
   44633007.0102964     
   44632816.0317476     
   44632618.3685452     
   44632414.6394187     
   44632205.4981486     
   44631991.6322622     
   44631773.7617749     
   44631552.6379744     
   44631329.0422442     
   44631103.7849219     
   44630877.7041906     
   44630651.6649982     
   44630426.5580028     
   44630203.2985409     
   44629982.8256143     
   44629766.1008944     
   44629554.1077395     
   44629347.8502231     
   44629148.3521714     
   44628956.6562051     
   44628773.8227859     
   44628600.9292636     
   44628439.0689223     
   44628289.3500231     
   44628152.8948424     
   44628030.8387032     
   44627924.3289981     
   44627834.5242022     
   44627762.5928750     
   44627709.7126498     
   44627677.0692097     
   44627665.8552491     
   44265542.6280292     
   44265534.5263727     
   44265510.1479906     
   44265469.4365569     
   44265412.4059242     
   44265339.1371102     
   44265249.7754301     
   44265144.5277698     
   44265023.6599927     
   44264887.4944758     
   44264736.4077683     
   44264570.8283678     
   44264391.2346080     
   44264198.1526538     
   44263992.1545964     
   44263773.8566450     
   44263543.9174093     
   44263303.0362672     
   44263051.9518133     
   44262791.4403838     
   44262522.3146513     
   44262245.4222867     
   44261961.6446822     
   44261671.8957312     
   44261377.1206608     
   44261078.2949125     
   44260776.4230661     
   44260472.5378037     
   44260167.6989084     
   44259862.9922941     
   44259559.5290637     
   44259258.4445891     
   44258960.8976119     
   44258668.0693596     
   44258381.1626738     
   44258101.4011486     
   44257830.0282729     
   44257568.3065761     
   44257317.5167734     
   44257078.9569065     
   44256853.9414794     
   44256643.8005834     
   44256449.8790125     
   44256273.5353637     
   44256116.1411219     
   44255979.0797273     
   44255863.7456220     
   44255771.5432764     
   44255703.8861919     
   44255662.1958802     
   44255647.9008168     
   43877956.0424389     
   43877944.0636672     
   43877908.3159531     
   43877849.1311266     
   43877766.9047517     
   43877662.0931525     
   43877535.2106056     
   43877386.8266903     
   43877217.5637907     
   43877028.0947416     
   43876819.1406108     
   43876591.4686127     
   43876345.8901452     
   43876083.2589432     
   43875804.4693438     
   43875510.4546555     
   43875202.1856259     
   43874880.6690025     
   43874546.9461798     
   43874202.0919271     
   43873847.2131922     
   43873483.4479745     
   43873111.9642628     
   43872733.9590315     
   43872350.6572909     
   43871963.3111865     
   43871573.1991407     
   43871181.6250339     
   43870789.9174186     
   43870399.4287622     
   43870011.5347145     
   43869627.6333935     
   43869249.1446872     
   43868877.5095646     
   43868514.1893942     
   43868160.6652634     
   43867818.4372968     
   43867489.0239680     
   43867173.9614023     
   43866874.8026659     
   43866593.1170387     
   43866330.4892678     
   43866088.5187977     
   43865868.8189748     
   43865673.0162248     
   43865502.7491982     
   43865359.6678839     
   43865245.4326873     
   43865161.7134728     
   43865110.1885673     
   43865092.5437245     
   43470925.1268495     
   43470908.8785875     
   43470860.6262744     
   43470781.1502283     
   43470671.2848630     
   43470531.9158934     
   43470363.9777222     
   43470168.4510010     
   43469946.3603557     
   43469698.7722678     
   43469426.7931046     
   43469131.5672892     
   43468814.2756029     
   43468476.1336134     
   43468118.3902209     
   43467742.3263147     
   43467349.2535344     
   43466940.5131284     
   43466517.4749033     
   43466081.5362577     
   43465634.1212941     
   43465176.6800028     
   43464710.6875111     
   43464237.6433930     
   43463759.0710313     
   43463276.5170289     
   43462791.5506609     
   43462305.7633629     
   43461820.7682502     
   43461338.1996617     
   43460859.7127220     
   43460386.9829184     
   43459921.7056855     
   43459465.5959927     
   43459020.3879305     
   43458587.8342881     
   43458169.7061206     
   43457767.7922978     
   43457383.8990328     
   43457019.8493846     
   43456677.4827303     
   43456358.6542038     
   43456065.2340973     
   43455799.1072208     
   43455562.1722180     
   43455356.3408348     
   43455183.5371376     
   43455045.6966792     
   43454944.7656109     
   43454882.6997366     
   43454861.4635113     
   43043259.8599855     
   43043238.9938227     
   43043177.2329473     
   43043075.8653165     
   43042936.2197772     
   43042759.6636196     
   43042547.6003245     
   43042301.4674919     
   43042022.7349428     
   43041712.9029838     
   43041373.5008262     
   43041006.0851500     
   43040612.2388063     
   43040193.5696482     
   43039751.7094838     
   43039288.3131440     
   43038805.0576563     
   43038303.6415196     
   43037785.7840712     
   43037253.2249406     
   43036707.7235824     
   43036151.0588815     
   43035585.0288250     
   43035011.4502330     
   43034432.1585421     
   43033849.0076354     
   43033263.8697117     
   43032678.6351873     
   43032095.2126250     
   43031515.5286821     
   43030941.5280713     
   43030375.1735296     
   43029818.4457854     
   43029273.3435212     
   43028741.8833228     
   43028226.0996096     
   43027728.0445406     
   43027249.7878898     
   43026793.4168844     
   43026361.0360017     
   43025954.7667187     
   43025576.7472093     
   43025229.1319845     
   43024914.0914715     
   43024633.8115276     
   43024390.4928839     
   43024186.3505178     
   43024023.6129492     
   43023904.5214588     
   43023831.3292264     
   43023806.3003859     
   42593752.7251534     
   42593726.9586329     
   42593650.8807552     
   42593526.3425499     
   42593355.2188946     
   42593139.4066157     
   42592880.8227832     
   42592581.4031858     
   42592243.1009783     
   42591867.8854904     
   42591457.7411886     
   42591014.6667819     
   42590540.6744647     
   42590037.7892879     
   42589508.0486508     
   42588953.5019083     
   42588376.2100836     
   42587778.2456827     
   42587161.6926013     
   42586528.6461188     
   42585881.2129722     
   42585221.5115033     
   42584551.6718718     
   42583873.8363282     
   42583190.1595385     
   42582502.8089539     
   42581813.9652191     
   42581125.8226096     
   42580440.5894925     
   42579760.4888016     
   42579087.7585208     
   42578424.6521657     
   42577773.4392568     
   42577136.4057767     
   42576515.8546026     
   42575914.1059058     
   42575333.4975122     
   42574776.3852145     
   42574245.1430291     
   42573742.1633907     
   42573269.8572787     
   42572830.6542659     
   42572427.0024864     
   42572061.3685157     
   42571736.2371565     
   42571454.1111279     
   42571217.5106511     
   42571028.9729296     
   42570891.0515187     
   42570806.3155848     
   42570777.3490512     
   42121186.7070587     
   42121155.8480966     
   42121064.9114601     
   42120916.3599670     
   42120712.6593271     
   42120456.2770045     
   42120149.6812580     
   42119795.3403471     
   42119395.7218960     
   42118953.2924073     
   42118470.5169169     
   42117949.8587842     
   42117393.7796099     
   42116804.7392771     
   42116185.1961076     
   42115537.6071289     
   42114864.4284470     
   42114168.1157175     
   42113451.1247107     
   42112715.9119642     
   42111964.9355181     
   42111200.6557247     
   42110425.5361277     
   42109642.0444033     
   42108852.6533562     
   42108059.8419629     
   42107266.0964540     
   42106473.9114279     
   42105685.7909862     
   42104904.2498823     
   42104131.8146740     
   42103371.0248696     
   42102624.4340582     
   42101894.6110136     
   42101184.1407624     
   42100495.6256041     
   42099831.6860750     
   42099194.9618439     
   42098588.1125300     
   42098013.8184342     
   42097474.7811720     
   42096973.7242006     
   42096513.3932317     
   42096096.5565203     
   42095726.0050236     
   42095404.5524227     
   42095135.0350013     
   42094920.3113768     
   42094763.2620801     
   42094666.7889781     
   42094633.8145320     
   41624344.9275960     
   41624308.9001602     
   41624202.9043685     
   41624030.0535165     
   41623793.4391371     
   41623496.1308285     
   41623141.1762219     
   41622731.6010828     
   41622270.4095391     
   41621760.5844328     
   41621205.0877909     
   41620606.8614114     
   41619968.8275634     
   41619293.8897962     
   41618584.9338569     
   41617844.8287126     
   41617076.4276758     
   41616282.5696284     
   41615466.0803428     
   41614629.7738951     
   41613776.4541671     
   41612908.9164317     
   41612029.9490167     
   41611142.3350406     
   41610248.8542140     
   41609352.2846983     
   41608455.4050133     
   41607560.9959857     
   41606671.8427262     
   41605790.7366262     
   41604920.4773618     
   41604063.8748924     
   41603223.7514418     
   41602402.9434473     
   41601604.3034635     
   41600830.7020063     
   41600085.0293218     
   41599370.1970671     
   41598689.1398862     
   41598044.8168690     
   41597440.2128770     
   41596878.3397234     
   41596362.2371949     
   41595894.9739030     
   41595479.6479540     
   41595119.3874288     
   41594817.3506608     
   41594576.7263054     
   41594400.7331949     
   41594292.6199853     
   41594255.6645987     
   41102021.9944863     
   41101980.8635103     
   41101860.0218595     
   41101663.2586885     
   41101394.3136668     
   41101056.8779208     
   41100654.5950519     
   41100191.0622333     
   41099669.8313858     
   41099094.4104355     
   41098468.2646559     
   41097794.8180994     
   41097077.4551191     
   41096319.5219855     
   41095524.3286026     
   41094695.1503233     
   41093835.2298690     
   41092947.7793546     
   41092035.9824184     
   41091102.9964596     
   41090151.9549804     
   41089185.9700320     
   41088208.1347622     
   41087221.5260577     
   41086229.2072793     
   41085234.2310794     
   41084239.6422964     
   41083248.4809136     
   41082263.7850727     
   41081288.5941289     
   41080325.9517316     
   41079378.9089168     
   41078450.5271924     
   41077543.8815981     
   41076662.0637210     
   41075808.1846450     
   41074985.3778130     
   41074196.8017796     
   41073445.6428341     
   41072735.1174665     
   41072068.4746621     
   41071448.9979976     
   41070880.0075202     
   41070364.8613879     
   41069906.9572570     
   41069509.7333951     
   41069176.6695209     
   41068911.2873513     
   41068717.1508469     
   41068597.8661062     
   41068557.0809149     
   40553037.1070248     
   40552991.0994401     
   40552856.0999586     
   40552636.5830079     
   40552336.9438959     
   40551961.5008901     
   40551514.4972853     
   40551000.1034749     
   40550422.4190361     
   40549785.4748453     
   40549093.2352351     
   40548349.6002074     
   40547558.4077146     
   40546723.4360212     
   40545848.4061577     
   40544936.9844763     
   40543992.7853206     
   40543019.3738143     
   40542020.2687804     
   40540998.9457941     
   40539958.8403761     
   40538903.3513284     
   40537835.8442153     
   40536759.6549883     
   40535678.0937533     
   40534594.4486747     
   40533511.9900107     
   40532433.9742699     
   40531363.6484762     
   40530304.2545290     
   40529259.0336405     
   40528231.2308289     
   40527224.0994449     
   40526240.9057072     
   40525284.9332163     
   40524359.4874169     
   40523467.8999775     
   40522613.5330534     
   40521799.7833903     
   40521030.0862469     
   40520307.9190799     
   40519636.8049695     
   40519020.3157524     
   40518462.0748306     
   40517965.7596194     
   40517535.1036098     
   40517173.8979829     
   40516885.9927856     
   40516675.2976737     
   40516545.7823550     
   40516501.4765889     
   39976248.9366846     
   39976198.4542762     
   39976050.4972428     
   39975810.2176166     
   39975482.6584723     
   39975072.7569542     
   39974585.3471901     
   39974025.1631225     
   39973396.8412865     
   39972704.9235629     
   39971953.8599310     
   39971148.0112500     
   39970291.6520901     
   39969388.9736368     
   39968444.0866914     
   39967461.0247856     
   39966443.7474303     
   39965396.1435165     
   39964322.0348836     
   39963225.1800701     
   39962109.2782606     
   39960977.9734394     
   39959834.8587612     
   39958683.4811461     
   39957527.3461029     
   39956369.9227841     
   39955214.6492700     
   39954064.9380780     
   39952924.1818881     
   39951795.7594707     
   39950683.0417980     
   39949589.3983179     
   39948518.2033597     
   39947472.8426370     
   39946456.7198084     
   39945473.2630538     
   39944525.9316080     
   39943618.2222025     
   39942753.6753719     
   39941935.8815259     
   39941168.4867857     
   39940455.1984612     
   39939799.7901117     
   39939206.1061169     
   39938678.0657395     
   39938219.6666318     
   39937834.9878527     
   39937528.1922060     
   39937303.5277501     
   39937165.3280434     
   39937118.0119104     
   39370572.2882383     
   39370517.9072245     
   39370358.7047663     
   39370100.4873699     
   39369748.9246436     
   39369309.5527793     
   39368787.7778342     
   39368188.8788647     
   39367518.0109555     
   39366780.2081891     
   39365980.3865937     
   39365123.3471059     
   39364213.7785840     
   39363256.2609020     
   39362255.2681558     
   39361215.1720099     
   39360140.2452119     
   39359034.6653020     
   39357902.5185415     
   39356747.8040860     
   39355574.4384279     
   39354386.2601295     
   39353187.0348695     
   39351980.4608249     
   39350770.1744055     
   39349559.7563576     
   39348352.7382525     
   39347152.6093695     
   39345962.8239750     
   39344786.8089995     
   39343627.9721079     
   39342489.7101352     
   39341375.4178671     
   39340288.4971344     
   39339232.3661619     
   39338210.4691109     
   39337226.2857559     
   39336283.3412002     
   39335385.2154763     
   39334535.5530624     
   39333738.0719879     
   39332996.5726464     
   39332314.9461502     
   39331697.1821119     
   39331147.3755704     
   39330669.7328858     
   39330268.5762339     
   39329948.3472965     
   39329713.6105685     
   39329569.0572236     
   39329519.5058083     
   38734996.5662424     
   38734939.0189498     
   38734770.7438047     
   38734498.1687245     
   38734127.5606566     
   38733665.0286823     
   38733116.5269066     
   38732487.8571958     
   38731784.6718199     
   38731012.4760508     
   38730176.6307587     
   38729282.3550499     
   38728334.7289810     
   38727338.6963845     
   38726299.0678376     
   38725220.5238064     
   38724107.6179934     
   38722964.7809209     
   38721796.3237807     
   38720606.4425819     
   38719399.2226290     
   38718178.6433686     
   38716948.5836416     
   38715712.8273766     
   38714475.0697706     
   38713238.9239999     
   38712007.9285009     
   38710785.5548636     
   38709575.2163882     
   38708380.2773381     
   38707204.0629074     
   38706049.8699541     
   38704920.9784950     
   38703820.6639203     
   38702752.2099337     
   38701718.9221504     
   38700724.1422335     
   38699771.2624725     
   38698863.7408394     
   38698005.1158753     
   38697199.0218895     
   38696449.2033638     
   38695759.5285898     
   38695134.0023528     
   38694576.7780707     
   38694092.1693346     
   38693684.6610052     
   38693358.9168965     
   38693119.7821777     
   38692972.2789991     
   38692921.6103055     
   38068606.1409526     
   38068546.2780631     
   38068371.4574976     
   38068088.6954667     
   38067704.8278667     
   38067226.5119388     
   38066660.2278401     
   38066012.2801847     
   38065288.7996027     
   38064495.7443589     
   38063638.9020631     
   38062723.8915012     
   38061756.1646118     
   38060741.0086303     
   38059683.5484193     
   38058588.7490050     
   38057461.4183410     
   38056306.2103219     
   38055127.6280659     
   38053930.0274991     
   38052717.6212773     
   38051494.4830766     
   38050264.5522954     
   38049031.6392402     
   38047799.4308429     
   38046571.4969774     
   38045351.2974795     
   38044142.1899659     
   38042947.4385255     
   38041770.2234124     
   38040613.6519135     
   38039480.7704197     
   38038374.5778760     
   38037298.0408346     
   38036254.1100866     
   38035245.7389549     
   38034275.9033087     
   38033347.6231611     
   38032463.9850902     
   38031628.1667805     
   38030843.4610662     
   38030113.3020884     
   38029441.2916442     
   38028831.2246318     
   38028287.1105305     
   38027813.1902168     
   38027413.9480118     
   38027094.1281526     
   38026858.7602644     
   38026713.1898847     
   38026663.0592736     
   37370602.8368097     
   37370541.5756765     
   37370362.9463309     
   37370074.5329582     
   37369683.7232053     
   37369197.7074176     
   37368623.4781153     
   37367967.8297308     
   37367237.3586203     
   37366438.4633507     
   37365577.3452644     
   37364660.0093172     
   37363692.2651760     
   37362679.7285688     
   37361627.8228768     
   37360541.7809625     
   37359426.6472098     
   37358287.2797784     
   37357128.3530803     
   37355954.3604653     
   37354769.6171138     
   37353578.2631833     
   37352384.2672408     
   37351191.4299620     
   37350003.3881964     
   37348823.6195009     
   37347655.4471706     
   37346502.0458861     
   37345366.4482486     
   37344251.5523620     
   37343160.1305152     
   37342094.8395499     
   37341058.2330878     
   37340052.7756494     
   37339080.8594983     
   37338144.8247007     
   37337246.9828561     
   37336389.6451185     
   37335575.1567908     
   37334805.9332630     
   37334084.5043156     
   37333413.5557185     
   37332795.9728113     
   37332234.8865830     
   37331733.7290670     
   37331296.2931149     
   37330926.7883952     
   37330629.8625603     
   37330410.5711997     
   37330274.3359596     
   37330227.0640936     
   36640330.9357737     
   36640269.2110264     
   36640089.5804663     
   36639800.2003283     
   36639409.0119518     
   36638923.7382536     
   36638351.8809669     
   36637700.7185922     
   36636977.3050017     
   36636188.4686528     
   36635340.8123383     
   36634440.7134138     
   36633494.3244600     
   36632507.5743153     
   36631486.1694150     
   36630435.5953699     
   36629361.1187799     
   36628267.7892006     
   36627160.4411677     
   36626043.6962908     
   36624921.9654110     
   36623799.4506783     
   36622680.1474976     
   36621567.8465428     
   36620466.1356805     
   36619378.4016823     
   36618307.8319655     
   36617257.4164539     
   36616229.9492231     
   36615228.0301398     
   36614254.0673871     
   36613310.2802175     
   36612398.7027757     
   36611521.1906443     
   36610679.4294056     
   36609874.9457282     
   36609109.1220451     
   36608383.2164102     
   36607698.3834570     
   36607055.7181425     
   36606456.3022370     
   36605901.2897058     
   36605392.0107917     
   36604930.0860889     
   36604517.5131706     
   36604156.7415652     
   36603850.7550668     
   36603603.2238299     
   36603418.7791003     
   36603303.1806362     
   36603262.9041707     
   35877305.2255790     
   35877243.9691093     
   35877066.1599913     
   35876780.5582939     
   35876395.6797538     
   35875919.7904065     
   35875360.9025728     
   35874726.7720587     
   35874024.8964425     
   35873262.5142826     
   35872446.6051702     
   35871583.8905197     
   35870680.8349278     
   35869743.6480146     
   35868778.2866828     
   35867790.4577300     
   35866785.6205396     
   35865768.9898696     
   35864745.5388262     
   35863720.0016996     
   35862696.8764308     
   35861680.4269856     
   35860674.6856060     
   35859683.4540207     
   35858710.3039988     
   35857758.5776791     
   35856831.3868603     
   35855931.6108688     
   35855061.8943467     
   35854224.6446117     
   35853422.0256959     
   35852655.9519051     
   35851928.0795696     
   35851239.7932557     
   35850592.1916726     
   35849986.0760523     
   35849421.9414511     
   35848899.9695553     
   35848420.0445014     
   35847981.7236806     
   35847584.2420551     
   35847226.4619086     
   35846906.8562556     
   35846623.5818622     
   35846374.8116153     
   35846159.2068403     
   35845976.4223726     
   35845827.4792991     
   35845714.5760647     
   35845641.2914032     
   35845614.0569878     
   35081242.6065398     
   35081182.7872689     
   35081009.7491817     
   35080732.9029513     
   35080361.3639083     
   35079903.9473176     
   35079369.1654531     
   35078765.2262444     
   35078100.0332539     
   35077381.1869294     
   35076615.9867951     
   35075811.4343996     
   35074974.2371040     
   35074110.8125029     
   35073227.2932027     
   35072329.5317282     
   35071423.1060806     
   35070513.3253934     
   35069605.2349096     
   35068703.6210102     
   35067813.0167200     
   35066937.7062281     
   35066081.7280200     
   35065248.8793752     
   35064442.7203443     
   35063666.5746412     
   35062923.5296334     
   35062216.4364419     
   35061547.9047769     
   35060920.2930884     
   35060335.7043751     
   35059795.9768809     
   35059302.6720340     
   35058857.0715992     
   35058460.1623663     
   35058112.5949244     
   35057814.6225619     
   35057566.0317148     
   35057365.9887334     
   35057213.0678464     
   35057105.2051460     
   35057039.7972930     
   35057013.7323214     
   35057023.1996633     
   35057062.6623356     
   35057123.9035779     
   35057195.7417854     
   35057264.6995787     
   35057319.0588623     
   35057351.6103241     
   35057360.2132379     
   34252097.4729982     
   34252040.2146944     
   34251875.3540630     
   34251612.9815360     
   34251262.8115261     
   34250834.1822345     
   34250336.0572829     
   34249777.0288950     
   34249165.3225098     
   34248508.8021889     
   34247814.9772299     
   34247091.0098838     
   34246343.7232031     
   34245579.6091579     
   34244804.8375163     
   34244025.2657068     
   34243246.4473156     
   34242473.6407134     
   34241711.8200854     
   34240965.6855991     
   34240239.6704409     
   34239537.9494597     
   34238864.4503176     
   34238222.8568750     
   34237616.6109185     
   34237048.9217989     
   34236522.7745127     
   34236040.9307746     
   34235605.9405724     
   34235220.1583765     
   34234885.7232483     
   34234604.5433281     
   34234378.2767746     
   34234208.2600302     
   34234095.4736409     
   34234040.5962729     
   34234044.0684034     
   34234106.1167518     
   34234227.0332922     
   34234406.6411625     
   34234643.8423909     
   34234935.9667579     
   34235278.1294890     
   34235663.1022118     
   34236084.3414917     
   34236537.1902497     
   34237016.5607883     
   34237513.3402143     
   34237997.4975374     
   34238383.7453860     
   34238536.3956685     
   33390100.4651087     
   33390047.2310409     
   33389894.9292603     
   33389654.2908803     
   33389335.5601991     
   33388948.5034565     
   33388502.4186530     
   33388006.1463926     
   33387468.0812806     
   33386896.1852100     
   33386298.0003211     
   33385680.6613722     
   33385050.9103443     
   33384415.1120699     
   33383779.2683463     
   33383149.0294401     
   33382529.7107911     
   33381926.3092474     
   33381343.5105376     
   33380785.6995976     
   33380256.9818900     
   33379761.1975959     
   33379301.9251188     
   33378882.5085867     
   33378506.0859390     
   33378175.5801653     
   33377893.6938872     
   33377662.9235201     
   33377485.5285733     
   33377363.4919054     
   33377298.6163668     
   33377292.5733679     
   33377346.9363499     
   33377463.4079079     
   33377643.8086321     
   33377889.6306401     
   33378201.7148536     
   33378580.1135246     
   33379022.8051864     
   33379527.6636805     
   33380094.1847844     
   33380723.6541923     
   33381420.1673385     
   33382190.8579833     
   33383033.4489302     
   33383911.0439227     
   33384760.8527628     
   33385515.1316656     
   33386097.7919647     
   33386448.8112733     
   33386562.4648225     
   32495799.3473552     
   32495752.1483711     
   32495618.3387253     
   32495409.1299009     
   32495135.1138096     
   32494806.2832739     
   32494432.0537989     
   32494021.2856867     
   32493582.3070693     
   32493122.9326447     
   32492650.4852414     
   32492171.8205355     
   32491693.3447487     
   32491221.0296620     
   32490760.4341871     
   32490316.7349476     
   32489894.7381455     
   32489498.8918167     
   32489133.3265414     
   32488801.8827789     
   32488508.0959447     
   32488255.2079442     
   32488046.2130719     
   32487883.8206654     
   32487770.4247056     
   32487708.2142382     
   32487699.2382000     
   32487745.4057165     
   32487848.6668620     
   32488011.1390338     
   32488234.6748729     
   32488520.7609380     
   32488870.4918121     
   32489283.6198369     
   32489758.8195837     
   32490295.8206047     
   32490895.9368099     
   32491561.7230672     
   32492302.2411268     
   32493125.1876670     
   32494028.9897932     
   32494986.7006216     
   32495951.8994435     
   32496878.9727459     
   32497710.0948874     
   32498395.4433920     
   32498918.6970469     
   32499287.2344800     
   32499518.1092874     
   32499637.2273567     
   32499673.6664410     
   31570099.9314363     
   31570061.4801729     
   31569954.0959290     
   31569789.1370939     
   31569577.2061084     
   31569328.1877036     
   31569051.2820403     
   31568755.0360418     
   31568447.3710779     
   31568135.6243671     
   31567826.5789277     
   31567526.4803445     
   31567241.0749969     
   31566975.6539727     
   31566735.0696915     
   31566523.7219394     
   31566345.6087726     
   31566204.3759756     
   31566103.2693890     
   31566045.1357785     
   31566032.5677365     
   31566067.9319249     
   31566153.2968865     
   31566290.6526800     
   31566482.0493260     
   31566729.2042286     
   31567033.4569802     
   31567395.8360701     
   31567816.2662721     
   31568293.3970537     
   31568826.7060198     
   31569416.4485296     
   31570063.4241531     
   31570773.6136874     
   31571556.8957124     
   31572418.0614018     
   31573343.8949220     
   31574304.9031565     
   31575269.4581034     
   31576201.1557856     
   31577053.8873834     
   31577789.6512900     
   31578397.0237098     
   31578880.8687230     
   31579247.7301685     
   31579510.1603573     
   31579685.2550500     
   31579789.5289990     
   31579841.0209231     
   31579858.3545731     
   31579860.7610937     
   30614304.3250433     
   30614278.1237671     
   30614207.2544060     
   30614102.6888258     
   30613974.5352153     
   30613832.0805226     
   30613683.8413844     
   30613537.6128203     
   30613400.5225225     
   30613279.0326736     
   30613178.9776125     
   30613105.6456715     
   30613063.7843750     
   30613057.5802411     
   30613090.7270916     
   30613166.5772296     
   30613288.0653463     
   30613457.6477219     
   30613677.5748119     
   30613949.9842458     
   30614276.5063725     
   30614658.3546386     
   30615096.5570734     
   30615591.0922844     
   30616140.6465712     
   30616744.4008701     
   30617401.6846414     
   30618112.1342183     
   30618880.2444432     
   30619715.4195535     
   30620622.5658782     
   30621591.8083560     
   30622600.3315236     
   30623624.3116973     
   30624640.1278636     
   30625610.1767803     
   30626499.0572181     
   30627284.4490127     
   30627960.0166727     
   30628529.7426386     
   30628993.2228716     
   30629356.2180127     
   30629627.4390725     
   30629815.4924945     
   30629931.9952399     
   30629989.6968471     
   30630001.9529414     
   30629983.5656191     
   30629950.1142811     
   30629918.0100964     
   30629904.5228403     
   29630143.7643293     
   29630133.8686384     
   29630111.3357173     
   29630086.0450552     
   29630066.9250455     
   29630062.0402291     
   29630078.6442729     
   29630123.2274925     
   29630201.5214059     
   29630318.6649875     
   29630479.2332183     
   29630687.0985011     
   29630945.5619208     
   29631257.5966976     
   29631625.7913854     
   29632052.0411747     
   29632537.9110341     
   29633084.7711479     
   29633692.7912670     
   29634360.7514901     
   29635087.6439625     
   29635872.3968873     
   29636714.3440442     
   29637617.7089057     
   29638591.4765848     
   29639640.7452498     
   29640754.1686622     
   29641910.0556835     
   29643090.8320622     
   29644279.8490957     
   29645449.2480169     
   29646565.0783801     
   29647599.1240159     
   29648541.1819474     
   29649391.9528015     
   29650145.6209786     
   29650797.9241218     
   29651350.2584579     
   29651804.4886155     
   29652163.3543288     
   29652433.7591377     
   29652623.5404837     
   29652741.6704679     
   29652798.7158970     
   29652805.8482966     
   29652775.0327483     
   29652718.9979579     
   29652650.9270005     
   29652584.6033550     
   29652534.3808072     
   29652515.0133696     
   28619801.1959753     
   28619812.2252774     
   28619850.8676040     
   28619925.0582894     
   28620041.8532801     
   28620207.3933389     
   28620426.9646626     
   28620705.1023920     
   28621045.8923000     
   28621452.6669241     
   28621928.0761796     
   28622474.6527878     
   28623094.3180889     
   28623787.4273971     
   28624553.0557018     
   28625390.3370786     
   28626298.2664907     
   28627276.9833567     
   28628332.0138522     
   28629473.2904892     
   28630700.8911367     
   28631999.7110987     
   28633353.3793213     
   28634750.2968502     
   28636178.5702307     
   28637617.1160077     
   28639033.5478541     
   28640398.2369970     
   28641698.0336957     
   28642929.3040964     
   28644084.1599096     
   28645151.4773792     
   28646124.7253506     
   28646999.2253459     
   28647770.3686154     
   28648437.9609662     
   28649004.0264484     
   28649471.6437898     
   28649845.7526924     
   28650132.9472271     
   28650340.4145516     
   28650476.4610212     
   28650550.2262984     
   28650571.4176317     
   28650550.5073412     
   28650498.6622551     
   28650427.6693481     
   28650349.9081038     
   28650278.1824604     
   28650225.6162577     
   28650205.6666540     
   27585927.0189364     
   27585962.8651218     
   27586074.5624501     
   27586267.0649985     
   27586544.5555153     
   27586910.8061332     
   27587369.0760976     
   27587921.6588566     
   27588568.6837073     
   27589309.6757638     
   27590144.5394912     
   27591072.9749188     
   27592097.3330083     
   27593225.8539004     
   27594466.9086212     
   27595811.6587228     
   27597242.9807807     
   27598751.4352415     
   27600330.0876802     
   27601970.2502460     
   27603656.2893010     
   27605362.1161554     
   27607057.5805528     
   27608726.8957210     
   27610366.0120830     
   27611965.4328211     
   27613509.4713529     
   27614984.6704174     
   27616380.5119010     
   27617686.3681198     
   27618894.7420741     
   27620001.0887101     
   27621002.0761277     
   27621896.1063452     
   27622683.7301614     
   27623366.5266084     
   27623947.4302124     
   27624430.7087214     
   27624821.5978346     
   27625126.1884121     
   27625351.6151192     
   27625505.8587960     
   27625597.7382007     
   27625636.8672364     
   27625633.4771703     
   27625598.3267575     
   27625542.6520312     
   27625478.1030986     
   27625416.7192977     
   27625370.8980266     
   27625353.3216422     
   26531627.6030624     
   26531693.0520714     
   26531888.2216538     
   26532212.3741247     
   26532665.2365249     
   26533247.0414456     
   26533959.8381487     
   26534809.3490721     
   26535805.0675360     
   26536943.6925877     
   26538210.2918181     
   26539595.8843239     
   26541095.0364319     
   26542702.5577513     
   26544410.5525117     
   26546205.3429355     
   26548063.4983227     
   26549957.5973608     
   26551877.6830172     
   26553821.9657103     
   26555778.4466032     
   26557729.3337782     
   26559657.4354915     
   26561547.4211066     
   26563384.0565052     
   26565154.4334856     
   26566848.2713658     
   26568456.3279741     
   26569970.4974654     
   26571384.6561446     
   26572694.0115203     
   26573895.1256853     
   26574986.1465244     
   26575966.5345430     
   26576836.8280660     
   26577598.8319130     
   26578255.4751004     
   26578810.7691370     
   26579269.8062462     
   26579638.6948982     
   26579924.4072746     
   26580134.7339134     
   26580278.2031127     
   26580364.0154844     
   26580402.0119745     
   26580402.6174088     
   26580376.7678399     
   26580335.8550445     
   26580291.6753597     
   26580256.3680547     
   26580242.3576563     
   25460403.8892335     
   25460498.6804358     
   25460784.4404451     
   25461257.8336002     
   25461911.8406194     
   25462740.7930325     
   25463740.8207157     
   25464908.6449346     
   25466239.0637482     
   25467722.5427114     
   25469341.4571706     
   25471069.4934848     
   25472894.3941794     
   25474816.2616203     
   25476826.4135178     
   25478909.7454051     
   25481047.6892684     
   25483222.6190478     
   25485417.0002083     
   25487613.2852843     
   25489796.1791709     
   25491951.7080032     
   25494066.2946216     
   25496127.0134011     
   25498122.2958693     
   25500041.6662871     
   25501875.8120253     
   25503616.8890110     
   25505258.4035487     
   25506794.9653511     
   25508222.4159672     
   25509537.8049379     
   25510739.3265895     
   25511826.3482880     
   25512799.4164117     
   25513660.1526623     
   25514411.2396833     
   25515056.3810922     
   25515600.2571256     
   25516048.4854533     
   25516407.5985881     
   25516684.9872201     
   25516888.8486534     
   25517028.1311901     
   25517112.4743149     
   25517152.1588857     
   25517158.0693765     
   25517141.6409717     
   25517114.7772675     
   25517089.7705905     
   25517079.2432864     
   24375999.0083144     
   24376104.2066164     
   24376432.5786345     
   24376987.0119252     
   24377754.7843737     
   24378722.4669587     
   24379886.1085876     
   24381241.0619647     
   24382776.2374648     
   24384475.9017099     
   24386321.5559567     
   24388294.3948316     
   24390375.1095927     
   24392544.6013218     
   24394785.1448235     
   24397079.6080588     
   24399411.1870638     
   24401762.9856240     
   24404118.7581481     
   24406463.2099014     
   24408781.7602758     
   24411060.9291543     
   24413288.5194194     
   24415453.4900402     
   24417545.8022099     
   24419556.5069001     
   24421477.7461331     
   24423302.7114006     
   24425025.6720216     
   24426642.0014135     
   24428148.0963195     
   24429541.3381388     
   24430820.0846890     
   24431983.6485418     
   24433032.2758207     
   24433967.1601776     
   24434790.4372531     
   24435505.1770263     
   24436115.3785636     
   24436625.9757414     
   24437042.8347021     
   24437372.7530892     
   24437623.4501877     
   24437803.5502231     
   24437922.5546099     
   24437990.7799799     
   24438019.2630649     
   24438019.6724292     
   24438004.2500856     
   24437985.7695472     
   24437977.4114129     
   23281091.0516739     
   23281228.6508434     
   23281639.1353480     
   23282311.6572205     
   23283232.8868669     
   23284385.9056665     
   23285751.7133446     
   23287310.8770231     
   23289043.0167015     
   23290927.1071019     
   23292941.9349966     
   23295066.2736314     
   23297279.5951580     
   23299562.2371908     
   23301895.3457156     
   23304261.1994010     
   23306643.2777654     
   23309026.3319130     
   23311396.1693950     
   23313739.6167757     
   23316044.6028437     
   23318300.0880447     
   23320496.0470708     
   23322623.4982663     
   23324674.5032059     
   23326642.0937535     
   23328520.2192531     
   23330303.7009200     
   23331988.1875133     
   23333570.1239598     
   23335046.7347960     
   23336416.0008338     
   23337676.6301782     
   23338828.0426311     
   23339870.3681130     
   23340804.4406034     
   23341631.8071466     
   23342354.7468042     
   23342976.3135494     
   23343500.3916480     
   23343931.7555174     
   23344276.1338193     
   23344540.2738061     
   23344731.9936243     
   23344860.2173872     
   23344934.9819176     
   23344967.3952226     
   23344969.5348592     
   23344954.3086826     
   23344935.3054982     
   23344926.8909122     
   22180997.2477877     
   22181177.3964527     
   22181697.1158576     
   22182517.5228183     
   22183598.9864473     
   22184909.3262906     
   22186417.3320148     
   22188089.3861381     
   22189896.1313012     
   22191812.0095552     
   22193814.4851386     
   22195883.5038184     
   22198000.8908964     
   22200150.1172256     
   22202316.1856110     
   22204485.4512050     
   22206645.5212742     
   22208785.1498388     
   22210894.2105516     
   22212963.6106610     
   22214985.1861790     
   22216951.6476668     
   22218856.5204650     
   22220694.0829621     
   22222459.3187050     
   22224147.8861917     
   22225756.0759856     
   22227280.7659761     
   22228719.3892529     
   22230069.9038199     
   22231330.7539450     
   22232500.8439892     
   22233579.5243712     
   22234566.5771263     
   22235462.2089348     
   22236267.0551210     
   22236982.1809813     
   22237609.0963337     
   22238149.8051698     
   22238606.8748952     
   22238983.5145614     
   22239283.6792028     
   22239512.2035149     
   22239674.9626306     
   22239779.0339779     
   22239832.8736487     
   22239846.5715966     
   22239832.0847765     
   22239803.2039103     
   22239775.1734501     
   22239763.5527148     
   21083605.5555813     
   21083803.2603492     
   21084342.0237215     
   21085161.9278315     
   21086210.4383626     
   21087412.7310730     
   21088709.2686769     
   21090076.4288508     
   21091496.7460247     
   21092955.5889381     
   21094440.2275446     
   21095939.3096345     
   21097442.9689989     
   21098942.6552661     
   21100430.9221177     
   21101901.2138048     
   21103347.7271028     
   21104765.3455657     
   21106149.5442196     
   21107496.3301818     
   21108802.1969701     
   21110064.0809727     
   21111279.3243945     
   21112445.6400625     
   21113561.0788967     
   21114623.9989258     
   21115633.0413690     
   21116587.1106649     
   21117485.3543093     
   21118327.1449638     
   21119112.0631088     
   21119839.8772775     
   21120510.5360650     
   21121124.1636479     
   21121681.0492474     
   21122181.6472791     
   21122626.5846118     
   21123016.6612562     
   21123352.8559468     
   21123636.3567914     
   21123868.6191646     
   21124051.4380318     
   21124187.0421927     
   21124278.2348526     
   21124328.6056264     
   21124342.8177756     
   21124326.9800754     
   21124289.1921858     
   21124240.6006415     
   21124196.8959946     
   21124180.3919722     
   20000000.0000000     
   20000000.0000000     
   20000000.0000000     
   20000000.0000000     
   20000000.0000000     
   20000000.0000000     
   20000000.0000000     
   20000000.0000000     
   20000000.0000000     
   20000000.0000000     
   20000000.0000000     
   20000000.0000000     
   20000000.0000000     
   20000000.0000000     
   20000000.0000000     
   20000000.0000000     
   20000000.0000000     
   20000000.0000000     
   20000000.0000000     
   20000000.0000000     
   20000000.0000000     
   20000000.0000000     
   20000000.0000000     
   20000000.0000000     
   20000000.0000000     
   20000000.0000000     
   20000000.0000000     
   20000000.0000000     
   20000000.0000000     
   20000000.0000000     
   20000000.0000000     
   20000000.0000000     
   20000000.0000000     
   20000000.0000000     
   20000000.0000000     
   20000000.0000000     
   20000000.0000000     
   20000000.0000000     
   20000000.0000000     
   20000000.0000000     
   20000000.0000000     
   20000000.0000000     
   20000000.0000000     
   20000000.0000000     
   20000000.0000000     
   20000000.0000000     
   20000000.0000000     
   20000000.0000000     
   20000000.0000000     
   20000000.0000000     
   20000000.0000000     
VECTORS u double 
    0.00000E+00         0.11853E+00         0.00000E+00
    0.00000E+00         0.11620E+00         0.00000E+00
    0.00000E+00         0.11389E+00         0.00000E+00
    0.00000E+00         0.11161E+00         0.00000E+00
    0.00000E+00         0.10938E+00         0.00000E+00
    0.00000E+00         0.10714E+00         0.00000E+00
    0.00000E+00         0.10487E+00         0.00000E+00
    0.00000E+00         0.10255E+00         0.00000E+00
    0.00000E+00         0.10022E+00         0.00000E+00
    0.00000E+00         0.97867E-01         0.00000E+00
    0.00000E+00         0.95503E-01         0.00000E+00
    0.00000E+00         0.93130E-01         0.00000E+00
    0.00000E+00         0.90751E-01         0.00000E+00
    0.00000E+00         0.88369E-01         0.00000E+00
    0.00000E+00         0.85986E-01         0.00000E+00
    0.00000E+00         0.83603E-01         0.00000E+00
    0.00000E+00         0.81222E-01         0.00000E+00
    0.00000E+00         0.78844E-01         0.00000E+00
    0.00000E+00         0.76470E-01         0.00000E+00
    0.00000E+00         0.74101E-01         0.00000E+00
    0.00000E+00         0.71736E-01         0.00000E+00
    0.00000E+00         0.69377E-01         0.00000E+00
    0.00000E+00         0.67022E-01         0.00000E+00
    0.00000E+00         0.64673E-01         0.00000E+00
    0.00000E+00         0.62329E-01         0.00000E+00
    0.00000E+00         0.59992E-01         0.00000E+00
    0.00000E+00         0.57660E-01         0.00000E+00
    0.00000E+00         0.55335E-01         0.00000E+00
    0.00000E+00         0.53015E-01         0.00000E+00
    0.00000E+00         0.50701E-01         0.00000E+00
    0.00000E+00         0.48392E-01         0.00000E+00
    0.00000E+00         0.46087E-01         0.00000E+00
    0.00000E+00         0.43785E-01         0.00000E+00
    0.00000E+00         0.41485E-01         0.00000E+00
    0.00000E+00         0.39186E-01         0.00000E+00
    0.00000E+00         0.36886E-01         0.00000E+00
    0.00000E+00         0.34585E-01         0.00000E+00
    0.00000E+00         0.32280E-01         0.00000E+00
    0.00000E+00         0.29968E-01         0.00000E+00
    0.00000E+00         0.27648E-01         0.00000E+00
    0.00000E+00         0.25316E-01         0.00000E+00
    0.00000E+00         0.22969E-01         0.00000E+00
    0.00000E+00         0.20603E-01         0.00000E+00
    0.00000E+00         0.18213E-01         0.00000E+00
    0.00000E+00         0.15794E-01         0.00000E+00
    0.00000E+00         0.13339E-01         0.00000E+00
    0.00000E+00         0.10840E-01         0.00000E+00
    0.00000E+00         0.82843E-02         0.00000E+00
    0.00000E+00         0.56520E-02         0.00000E+00
    0.00000E+00         0.29117E-02         0.00000E+00
    0.00000E+00         0.00000E+00         0.00000E+00
    0.10311E-01         0.11544E+00         0.00000E+00
    0.94975E-02         0.11344E+00         0.00000E+00
    0.87975E-02         0.11141E+00         0.00000E+00
    0.81865E-02         0.10937E+00         0.00000E+00
    0.76432E-02         0.10727E+00         0.00000E+00
    0.71526E-02         0.10513E+00         0.00000E+00
    0.67075E-02         0.10296E+00         0.00000E+00
    0.63026E-02         0.10075E+00         0.00000E+00
    0.59332E-02         0.98525E-01         0.00000E+00
    0.55944E-02         0.96274E-01         0.00000E+00
    0.52815E-02         0.94006E-01         0.00000E+00
    0.49919E-02         0.91724E-01         0.00000E+00
    0.47234E-02         0.89432E-01         0.00000E+00
    0.44743E-02         0.87134E-01         0.00000E+00
    0.42419E-02         0.84830E-01         0.00000E+00
    0.40257E-02         0.82525E-01         0.00000E+00
    0.38248E-02         0.80217E-01         0.00000E+00
    0.36384E-02         0.77910E-01         0.00000E+00
    0.34653E-02         0.75604E-01         0.00000E+00
    0.33045E-02         0.73299E-01         0.00000E+00
    0.31558E-02         0.70996E-01         0.00000E+00
    0.30190E-02         0.68695E-01         0.00000E+00
    0.28938E-02         0.66397E-01         0.00000E+00
    0.27795E-02         0.64102E-01         0.00000E+00
    0.26753E-02         0.61809E-01         0.00000E+00
    0.25805E-02         0.59518E-01         0.00000E+00
    0.24946E-02         0.57230E-01         0.00000E+00
    0.24165E-02         0.54945E-01         0.00000E+00
    0.23451E-02         0.52662E-01         0.00000E+00
    0.22793E-02         0.50381E-01         0.00000E+00
    0.22183E-02         0.48102E-01         0.00000E+00
    0.21612E-02         0.45824E-01         0.00000E+00
    0.21073E-02         0.43547E-01         0.00000E+00
    0.20560E-02         0.41271E-01         0.00000E+00
    0.20064E-02         0.38993E-01         0.00000E+00
    0.19578E-02         0.36713E-01         0.00000E+00
    0.19093E-02         0.34429E-01         0.00000E+00
    0.18602E-02         0.32140E-01         0.00000E+00
    0.18093E-02         0.29843E-01         0.00000E+00
    0.17557E-02         0.27536E-01         0.00000E+00
    0.16982E-02         0.25216E-01         0.00000E+00
    0.16355E-02         0.22879E-01         0.00000E+00
    0.15659E-02         0.20522E-01         0.00000E+00
    0.14874E-02         0.18140E-01         0.00000E+00
    0.13973E-02         0.15726E-01         0.00000E+00
    0.12921E-02         0.13273E-01         0.00000E+00
    0.11666E-02         0.10775E-01         0.00000E+00
    0.10070E-02         0.82186E-02         0.00000E+00
    0.79264E-03         0.55881E-02         0.00000E+00
    0.48695E-03         0.28598E-02         0.00000E+00
    0.00000E+00         0.00000E+00         0.00000E+00
    0.16947E-01         0.11114E+00         0.00000E+00
    0.16001E-01         0.10907E+00         0.00000E+00
    0.15088E-01         0.10703E+00         0.00000E+00
    0.14218E-01         0.10498E+00         0.00000E+00
    0.13397E-01         0.10294E+00         0.00000E+00
    0.12627E-01         0.10090E+00         0.00000E+00
    0.11908E-01         0.98848E-01         0.00000E+00
    0.11236E-01         0.96784E-01         0.00000E+00
    0.10610E-01         0.94708E-01         0.00000E+00
    0.10027E-01         0.92618E-01         0.00000E+00
    0.94845E-02         0.90516E-01         0.00000E+00
    0.89786E-02         0.88402E-01         0.00000E+00
    0.85072E-02         0.86278E-01         0.00000E+00
    0.80682E-02         0.84145E-01         0.00000E+00
    0.76595E-02         0.82005E-01         0.00000E+00
    0.72787E-02         0.79858E-01         0.00000E+00
    0.69237E-02         0.77707E-01         0.00000E+00
    0.65929E-02         0.75552E-01         0.00000E+00
    0.62848E-02         0.73393E-01         0.00000E+00
    0.59981E-02         0.71232E-01         0.00000E+00
    0.57315E-02         0.69068E-01         0.00000E+00
    0.54838E-02         0.66902E-01         0.00000E+00
    0.52541E-02         0.64734E-01         0.00000E+00
    0.50413E-02         0.62563E-01         0.00000E+00
    0.48443E-02         0.60389E-01         0.00000E+00
    0.46623E-02         0.58212E-01         0.00000E+00
    0.44940E-02         0.56032E-01         0.00000E+00
    0.43383E-02         0.53847E-01         0.00000E+00
    0.41943E-02         0.51659E-01         0.00000E+00
    0.40607E-02         0.49466E-01         0.00000E+00
    0.39361E-02         0.47268E-01         0.00000E+00
    0.38193E-02         0.45066E-01         0.00000E+00
    0.37089E-02         0.42857E-01         0.00000E+00
    0.36035E-02         0.40644E-01         0.00000E+00
    0.35016E-02         0.38423E-01         0.00000E+00
    0.34017E-02         0.36195E-01         0.00000E+00
    0.33020E-02         0.33958E-01         0.00000E+00
    0.32008E-02         0.31712E-01         0.00000E+00
    0.30960E-02         0.29453E-01         0.00000E+00
    0.29855E-02         0.27181E-01         0.00000E+00
    0.28668E-02         0.24891E-01         0.00000E+00
    0.27370E-02         0.22581E-01         0.00000E+00
    0.25930E-02         0.20247E-01         0.00000E+00
    0.24309E-02         0.17883E-01         0.00000E+00
    0.22460E-02         0.15485E-01         0.00000E+00
    0.20326E-02         0.13045E-01         0.00000E+00
    0.17843E-02         0.10557E-01         0.00000E+00
    0.14800E-02         0.80132E-02         0.00000E+00
    0.10969E-02         0.54069E-02         0.00000E+00
    0.60790E-03         0.27335E-02         0.00000E+00
    0.00000E+00         0.00000E+00         0.00000E+00
    0.22230E-01         0.10546E+00         0.00000E+00
    0.21005E-01         0.10351E+00         0.00000E+00
    0.19870E-01         0.10156E+00         0.00000E+00
    0.18809E-01         0.99619E-01         0.00000E+00
    0.17813E-01         0.97678E-01         0.00000E+00
    0.16875E-01         0.95742E-01         0.00000E+00
    0.15993E-01         0.93808E-01         0.00000E+00
    0.15162E-01         0.91874E-01         0.00000E+00
    0.14381E-01         0.89939E-01         0.00000E+00
    0.13646E-01         0.88001E-01         0.00000E+00
    0.12954E-01         0.86058E-01         0.00000E+00
    0.12304E-01         0.84110E-01         0.00000E+00
    0.11693E-01         0.82157E-01         0.00000E+00
    0.11119E-01         0.80198E-01         0.00000E+00
    0.10579E-01         0.78233E-01         0.00000E+00
    0.10071E-01         0.76264E-01         0.00000E+00
    0.95932E-02         0.74289E-01         0.00000E+00
    0.91439E-02         0.72309E-01         0.00000E+00
    0.87213E-02         0.70324E-01         0.00000E+00
    0.83240E-02         0.68334E-01         0.00000E+00
    0.79505E-02         0.66339E-01         0.00000E+00
    0.75997E-02         0.64338E-01         0.00000E+00
    0.72704E-02         0.62331E-01         0.00000E+00
    0.69617E-02         0.60318E-01         0.00000E+00
    0.66726E-02         0.58296E-01         0.00000E+00
    0.64020E-02         0.56266E-01         0.00000E+00
    0.61491E-02         0.54227E-01         0.00000E+00
    0.59128E-02         0.52178E-01         0.00000E+00
    0.56918E-02         0.50118E-01         0.00000E+00
    0.54850E-02         0.48047E-01         0.00000E+00
    0.52908E-02         0.45963E-01         0.00000E+00
    0.51077E-02         0.43867E-01         0.00000E+00
    0.49340E-02         0.41759E-01         0.00000E+00
    0.47678E-02         0.39636E-01         0.00000E+00
    0.46070E-02         0.37500E-01         0.00000E+00
    0.44495E-02         0.35348E-01         0.00000E+00
    0.42927E-02         0.33180E-01         0.00000E+00
    0.41342E-02         0.30995E-01         0.00000E+00
    0.39709E-02         0.28791E-01         0.00000E+00
    0.37998E-02         0.26567E-01         0.00000E+00
    0.36171E-02         0.24320E-01         0.00000E+00
    0.34193E-02         0.22048E-01         0.00000E+00
    0.32017E-02         0.19748E-01         0.00000E+00
    0.29595E-02         0.17417E-01         0.00000E+00
    0.26875E-02         0.15051E-01         0.00000E+00
    0.23800E-02         0.12646E-01         0.00000E+00
    0.20316E-02         0.10200E-01         0.00000E+00
    0.16347E-02         0.77101E-02         0.00000E+00
    0.11709E-02         0.51775E-02         0.00000E+00
    0.62931E-03         0.26068E-02         0.00000E+00
    0.00000E+00         0.00000E+00         0.00000E+00
    0.26355E-01         0.98612E-01         0.00000E+00
    0.24968E-01         0.96860E-01         0.00000E+00
    0.23678E-01         0.95108E-01         0.00000E+00
    0.22476E-01         0.93353E-01         0.00000E+00
    0.21353E-01         0.91596E-01         0.00000E+00
    0.20300E-01         0.89839E-01         0.00000E+00
    0.19309E-01         0.88080E-01         0.00000E+00
    0.18375E-01         0.86320E-01         0.00000E+00
    0.17493E-01         0.84558E-01         0.00000E+00
    0.16659E-01         0.82793E-01         0.00000E+00
    0.15869E-01         0.81025E-01         0.00000E+00
    0.15121E-01         0.79253E-01         0.00000E+00
    0.14413E-01         0.77477E-01         0.00000E+00
    0.13741E-01         0.75696E-01         0.00000E+00
    0.13103E-01         0.73910E-01         0.00000E+00
    0.12499E-01         0.72119E-01         0.00000E+00
    0.11925E-01         0.70322E-01         0.00000E+00
    0.11380E-01         0.68520E-01         0.00000E+00
    0.10862E-01         0.66711E-01         0.00000E+00
    0.10371E-01         0.64896E-01         0.00000E+00
    0.99044E-02         0.63074E-01         0.00000E+00
    0.94614E-02         0.61245E-01         0.00000E+00
    0.90410E-02         0.59407E-01         0.00000E+00
    0.86423E-02         0.57559E-01         0.00000E+00
    0.82647E-02         0.55701E-01         0.00000E+00
    0.79073E-02         0.53831E-01         0.00000E+00
    0.75693E-02         0.51947E-01         0.00000E+00
    0.72498E-02         0.50050E-01         0.00000E+00
    0.69479E-02         0.48136E-01         0.00000E+00
    0.66625E-02         0.46204E-01         0.00000E+00
    0.63923E-02         0.44254E-01         0.00000E+00
    0.61358E-02         0.42285E-01         0.00000E+00
    0.58910E-02         0.40295E-01         0.00000E+00
    0.56560E-02         0.38283E-01         0.00000E+00
    0.54284E-02         0.36249E-01         0.00000E+00
    0.52056E-02         0.34193E-01         0.00000E+00
    0.49849E-02         0.32112E-01         0.00000E+00
    0.47631E-02         0.30007E-01         0.00000E+00
    0.45371E-02         0.27876E-01         0.00000E+00
    0.43034E-02         0.25718E-01         0.00000E+00
    0.40578E-02         0.23532E-01         0.00000E+00
    0.37961E-02         0.21316E-01         0.00000E+00
    0.35139E-02         0.19070E-01         0.00000E+00
    0.32065E-02         0.16793E-01         0.00000E+00
    0.28695E-02         0.14484E-01         0.00000E+00
    0.24989E-02         0.12143E-01         0.00000E+00
    0.20908E-02         0.97707E-02         0.00000E+00
    0.16427E-02         0.73677E-02         0.00000E+00
    0.11526E-02         0.49372E-02         0.00000E+00
    0.60873E-03         0.24811E-02         0.00000E+00
    0.00000E+00         0.00000E+00         0.00000E+00
    0.29374E-01         0.91256E-01         0.00000E+00
    0.27941E-01         0.89721E-01         0.00000E+00
    0.26605E-01         0.88191E-01         0.00000E+00
    0.25355E-01         0.86660E-01         0.00000E+00
    0.24179E-01         0.85122E-01         0.00000E+00
    0.23070E-01         0.83576E-01         0.00000E+00
    0.22022E-01         0.82020E-01         0.00000E+00
    0.21029E-01         0.80456E-01         0.00000E+00
    0.20087E-01         0.78883E-01         0.00000E+00
    0.19191E-01         0.77303E-01         0.00000E+00
    0.18338E-01         0.75715E-01         0.00000E+00
    0.17526E-01         0.74120E-01         0.00000E+00
    0.16751E-01         0.72518E-01         0.00000E+00
    0.16011E-01         0.70908E-01         0.00000E+00
    0.15303E-01         0.69293E-01         0.00000E+00
    0.14627E-01         0.67670E-01         0.00000E+00
    0.13980E-01         0.66041E-01         0.00000E+00
    0.13360E-01         0.64406E-01         0.00000E+00
    0.12767E-01         0.62763E-01         0.00000E+00
    0.12199E-01         0.61113E-01         0.00000E+00
    0.11654E-01         0.59455E-01         0.00000E+00
    0.11131E-01         0.57788E-01         0.00000E+00
    0.10631E-01         0.56113E-01         0.00000E+00
    0.10151E-01         0.54427E-01         0.00000E+00
    0.96912E-02         0.52729E-01         0.00000E+00
    0.92512E-02         0.51018E-01         0.00000E+00
    0.88305E-02         0.49292E-01         0.00000E+00
    0.84283E-02         0.47549E-01         0.00000E+00
    0.80440E-02         0.45787E-01         0.00000E+00
    0.76770E-02         0.44005E-01         0.00000E+00
    0.73262E-02         0.42199E-01         0.00000E+00
    0.69906E-02         0.40368E-01         0.00000E+00
    0.66686E-02         0.38510E-01         0.00000E+00
    0.63585E-02         0.36624E-01         0.00000E+00
    0.60579E-02         0.34709E-01         0.00000E+00
    0.57643E-02         0.32763E-01         0.00000E+00
    0.54751E-02         0.30787E-01         0.00000E+00
    0.51870E-02         0.28780E-01         0.00000E+00
    0.48970E-02         0.26742E-01         0.00000E+00
    0.46015E-02         0.24672E-01         0.00000E+00
    0.42971E-02         0.22570E-01         0.00000E+00
    0.39799E-02         0.20437E-01         0.00000E+00
    0.36465E-02         0.18273E-01         0.00000E+00
    0.32937E-02         0.16079E-01         0.00000E+00
    0.29179E-02         0.13856E-01         0.00000E+00
    0.25138E-02         0.11606E-01         0.00000E+00
    0.20790E-02         0.93289E-02         0.00000E+00
    0.16124E-02         0.70283E-02         0.00000E+00
    0.11096E-02         0.47041E-02         0.00000E+00
    0.57119E-03         0.23595E-02         0.00000E+00
    0.00000E+00         0.00000E+00         0.00000E+00
    0.31398E-01         0.84008E-01         0.00000E+00
    0.30059E-01         0.82701E-01         0.00000E+00
    0.28784E-01         0.81383E-01         0.00000E+00
    0.27568E-01         0.80050E-01         0.00000E+00
    0.26407E-01         0.78701E-01         0.00000E+00
    0.25299E-01         0.77337E-01         0.00000E+00
    0.24240E-01         0.75960E-01         0.00000E+00
    0.23227E-01         0.74571E-01         0.00000E+00
    0.22258E-01         0.73171E-01         0.00000E+00
    0.21330E-01         0.71759E-01         0.00000E+00
    0.20441E-01         0.70336E-01         0.00000E+00
    0.19588E-01         0.68902E-01         0.00000E+00
    0.18769E-01         0.67458E-01         0.00000E+00
    0.17983E-01         0.66005E-01         0.00000E+00
    0.17227E-01         0.64544E-01         0.00000E+00
    0.16500E-01         0.63074E-01         0.00000E+00
    0.15799E-01         0.61597E-01         0.00000E+00
    0.15122E-01         0.60111E-01         0.00000E+00
    0.14470E-01         0.58617E-01         0.00000E+00
    0.13840E-01         0.57115E-01         0.00000E+00
    0.13232E-01         0.55605E-01         0.00000E+00
    0.12644E-01         0.54087E-01         0.00000E+00
    0.12075E-01         0.52559E-01         0.00000E+00
    0.11526E-01         0.51021E-01         0.00000E+00
    0.10994E-01         0.49471E-01         0.00000E+00
    0.10480E-01         0.47909E-01         0.00000E+00
    0.99831E-02         0.46334E-01         0.00000E+00
    0.95030E-02         0.44741E-01         0.00000E+00
    0.90393E-02         0.43130E-01         0.00000E+00
    0.85917E-02         0.41497E-01         0.00000E+00
    0.81598E-02         0.39839E-01         0.00000E+00
    0.77431E-02         0.38155E-01         0.00000E+00
    0.73408E-02         0.36441E-01         0.00000E+00
    0.69519E-02         0.34695E-01         0.00000E+00
    0.65749E-02         0.32915E-01         0.00000E+00
    0.62080E-02         0.31099E-01         0.00000E+00
    0.58487E-02         0.29248E-01         0.00000E+00
    0.54944E-02         0.27359E-01         0.00000E+00
    0.51422E-02         0.25435E-01         0.00000E+00
    0.47892E-02         0.23475E-01         0.00000E+00
    0.44323E-02         0.21481E-01         0.00000E+00
    0.40686E-02         0.19454E-01         0.00000E+00
    0.36956E-02         0.17395E-01         0.00000E+00
    0.33091E-02         0.15307E-01         0.00000E+00
    0.29067E-02         0.13190E-01         0.00000E+00
    0.24849E-02         0.11046E-01         0.00000E+00
    0.20419E-02         0.88779E-02         0.00000E+00
    0.15753E-02         0.66876E-02         0.00000E+00
    0.10790E-02         0.44770E-02         0.00000E+00
    0.55558E-03         0.22483E-02         0.00000E+00
    0.00000E+00         0.00000E+00         0.00000E+00
    0.32678E-01         0.77621E-01         0.00000E+00
    0.31490E-01         0.76379E-01         0.00000E+00
    0.30328E-01         0.75138E-01         0.00000E+00
    0.29196E-01         0.73894E-01         0.00000E+00
    0.28097E-01         0.72646E-01         0.00000E+00
    0.27033E-01         0.71393E-01         0.00000E+00
    0.26004E-01         0.70134E-01         0.00000E+00
    0.25008E-01         0.68869E-01         0.00000E+00
    0.24045E-01         0.67598E-01         0.00000E+00
    0.23114E-01         0.66317E-01         0.00000E+00
    0.22214E-01         0.65026E-01         0.00000E+00
    0.21345E-01         0.63727E-01         0.00000E+00
    0.20504E-01         0.62421E-01         0.00000E+00
    0.19690E-01         0.61106E-01         0.00000E+00
    0.18903E-01         0.59777E-01         0.00000E+00
    0.18141E-01         0.58437E-01         0.00000E+00
    0.17402E-01         0.57088E-01         0.00000E+00
    0.16686E-01         0.55730E-01         0.00000E+00
    0.15990E-01         0.54366E-01         0.00000E+00
    0.15314E-01         0.52995E-01         0.00000E+00
    0.14657E-01         0.51616E-01         0.00000E+00
    0.14018E-01         0.50228E-01         0.00000E+00
    0.13395E-01         0.48831E-01         0.00000E+00
    0.12789E-01         0.47424E-01         0.00000E+00
    0.12198E-01         0.46007E-01         0.00000E+00
    0.11623E-01         0.44579E-01         0.00000E+00
    0.11061E-01         0.43139E-01         0.00000E+00
    0.10512E-01         0.41684E-01         0.00000E+00
    0.99771E-02         0.40213E-01         0.00000E+00
    0.94554E-02         0.38723E-01         0.00000E+00
    0.89475E-02         0.37211E-01         0.00000E+00
    0.84533E-02         0.35674E-01         0.00000E+00
    0.79726E-02         0.34110E-01         0.00000E+00
    0.75052E-02         0.32514E-01         0.00000E+00
    0.70512E-02         0.30884E-01         0.00000E+00
    0.66100E-02         0.29218E-01         0.00000E+00
    0.61801E-02         0.27513E-01         0.00000E+00
    0.57600E-02         0.25769E-01         0.00000E+00
    0.53476E-02         0.23984E-01         0.00000E+00
    0.49404E-02         0.22159E-01         0.00000E+00
    0.45356E-02         0.20295E-01         0.00000E+00
    0.41297E-02         0.18396E-01         0.00000E+00
    0.37203E-02         0.16461E-01         0.00000E+00
    0.33053E-02         0.14495E-01         0.00000E+00
    0.28820E-02         0.12498E-01         0.00000E+00
    0.24478E-02         0.10475E-01         0.00000E+00
    0.20008E-02         0.84258E-02         0.00000E+00
    0.15352E-02         0.63521E-02         0.00000E+00
    0.10498E-02         0.42555E-02         0.00000E+00
    0.53865E-03         0.21375E-02         0.00000E+00
    0.00000E+00         0.00000E+00         0.00000E+00
    0.33472E-01         0.71911E-01         0.00000E+00
    0.32391E-01         0.70728E-01         0.00000E+00
    0.31329E-01         0.69544E-01         0.00000E+00
    0.30287E-01         0.68360E-01         0.00000E+00
    0.29266E-01         0.67174E-01         0.00000E+00
    0.28268E-01         0.65986E-01         0.00000E+00
    0.27293E-01         0.64796E-01         0.00000E+00
    0.26341E-01         0.63601E-01         0.00000E+00
    0.25413E-01         0.62402E-01         0.00000E+00
    0.24507E-01         0.61199E-01         0.00000E+00
    0.23625E-01         0.59990E-01         0.00000E+00
    0.22766E-01         0.58776E-01         0.00000E+00
    0.21929E-01         0.57556E-01         0.00000E+00
    0.21112E-01         0.56329E-01         0.00000E+00
    0.20317E-01         0.55096E-01         0.00000E+00
    0.19541E-01         0.53856E-01         0.00000E+00
    0.18785E-01         0.52609E-01         0.00000E+00
    0.18047E-01         0.51356E-01         0.00000E+00
    0.17327E-01         0.50097E-01         0.00000E+00
    0.16623E-01         0.48833E-01         0.00000E+00
    0.15934E-01         0.47561E-01         0.00000E+00
    0.15260E-01         0.46281E-01         0.00000E+00
    0.14599E-01         0.44995E-01         0.00000E+00
    0.13951E-01         0.43702E-01         0.00000E+00
    0.13316E-01         0.42404E-01         0.00000E+00
    0.12692E-01         0.41090E-01         0.00000E+00
    0.12079E-01         0.39765E-01         0.00000E+00
    0.11476E-01         0.38428E-01         0.00000E+00
    0.10883E-01         0.37081E-01         0.00000E+00
    0.10300E-01         0.35722E-01         0.00000E+00
    0.97276E-02         0.34346E-01         0.00000E+00
    0.91657E-02         0.32952E-01         0.00000E+00
    0.86153E-02         0.31534E-01         0.00000E+00
    0.80772E-02         0.30092E-01         0.00000E+00
    0.75509E-02         0.28622E-01         0.00000E+00
    0.70368E-02         0.27118E-01         0.00000E+00
    0.65356E-02         0.25578E-01         0.00000E+00
    0.60473E-02         0.23998E-01         0.00000E+00
    0.55710E-02         0.22375E-01         0.00000E+00
    0.51059E-02         0.20710E-01         0.00000E+00
    0.46508E-02         0.19002E-01         0.00000E+00
    0.42036E-02         0.17252E-01         0.00000E+00
    0.37604E-02         0.15463E-01         0.00000E+00
    0.33186E-02         0.13636E-01         0.00000E+00
    0.28747E-02         0.11775E-01         0.00000E+00
    0.24244E-02         0.98802E-02         0.00000E+00
    0.19651E-02         0.79556E-02         0.00000E+00
    0.14952E-02         0.60033E-02         0.00000E+00
    0.10134E-02         0.40255E-02         0.00000E+00
    0.51794E-03         0.20243E-02         0.00000E+00
    0.00000E+00         0.00000E+00         0.00000E+00
    0.33899E-01         0.66685E-01         0.00000E+00
    0.32904E-01         0.65559E-01         0.00000E+00
    0.31922E-01         0.64432E-01         0.00000E+00
    0.30956E-01         0.63305E-01         0.00000E+00
    0.30005E-01         0.62177E-01         0.00000E+00
    0.29070E-01         0.61048E-01         0.00000E+00
    0.28151E-01         0.59916E-01         0.00000E+00
    0.27249E-01         0.58782E-01         0.00000E+00
    0.26364E-01         0.57646E-01         0.00000E+00
    0.25496E-01         0.56506E-01         0.00000E+00
    0.24645E-01         0.55361E-01         0.00000E+00
    0.23811E-01         0.54213E-01         0.00000E+00
    0.22993E-01         0.53060E-01         0.00000E+00
    0.22192E-01         0.51903E-01         0.00000E+00
    0.21406E-01         0.50740E-01         0.00000E+00
    0.20636E-01         0.49572E-01         0.00000E+00
    0.19882E-01         0.48398E-01         0.00000E+00
    0.19141E-01         0.47218E-01         0.00000E+00
    0.18415E-01         0.46032E-01         0.00000E+00
    0.17701E-01         0.44839E-01         0.00000E+00
    0.17000E-01         0.43641E-01         0.00000E+00
    0.16311E-01         0.42436E-01         0.00000E+00
    0.15633E-01         0.41225E-01         0.00000E+00
    0.14964E-01         0.40006E-01         0.00000E+00
    0.14305E-01         0.38781E-01         0.00000E+00
    0.13654E-01         0.37550E-01         0.00000E+00
    0.13011E-01         0.36312E-01         0.00000E+00
    0.12377E-01         0.35067E-01         0.00000E+00
    0.11749E-01         0.33818E-01         0.00000E+00
    0.11128E-01         0.32562E-01         0.00000E+00
    0.10513E-01         0.31297E-01         0.00000E+00
    0.99035E-02         0.30023E-01         0.00000E+00
    0.93011E-02         0.28742E-01         0.00000E+00
    0.87056E-02         0.27440E-01         0.00000E+00
    0.81172E-02         0.26117E-01         0.00000E+00
    0.75378E-02         0.24771E-01         0.00000E+00
    0.69690E-02         0.23401E-01         0.00000E+00
    0.64121E-02         0.21998E-01         0.00000E+00
    0.58690E-02         0.20558E-01         0.00000E+00
    0.53413E-02         0.19079E-01         0.00000E+00
    0.48279E-02         0.17556E-01         0.00000E+00
    0.43278E-02         0.15985E-01         0.00000E+00
    0.38398E-02         0.14366E-01         0.00000E+00
    0.33609E-02         0.12701E-01         0.00000E+00
    0.28886E-02         0.10990E-01         0.00000E+00
    0.24208E-02         0.92398E-02         0.00000E+00
    0.19526E-02         0.74532E-02         0.00000E+00
    0.14799E-02         0.56339E-02         0.00000E+00
    0.99942E-03         0.37839E-02         0.00000E+00
    0.50679E-03         0.19048E-02         0.00000E+00
    0.00000E+00         0.00000E+00         0.00000E+00
    0.34013E-01         0.61869E-01         0.00000E+00
    0.33094E-01         0.60799E-01         0.00000E+00
    0.32185E-01         0.59728E-01         0.00000E+00
    0.31287E-01         0.58657E-01         0.00000E+00
    0.30400E-01         0.57584E-01         0.00000E+00
    0.29524E-01         0.56511E-01         0.00000E+00
    0.28661E-01         0.55435E-01         0.00000E+00
    0.27809E-01         0.54358E-01         0.00000E+00
    0.26969E-01         0.53278E-01         0.00000E+00
    0.26141E-01         0.52196E-01         0.00000E+00
    0.25325E-01         0.51111E-01         0.00000E+00
    0.24522E-01         0.50022E-01         0.00000E+00
    0.23731E-01         0.48929E-01         0.00000E+00
    0.22952E-01         0.47832E-01         0.00000E+00
    0.22184E-01         0.46730E-01         0.00000E+00
    0.21429E-01         0.45624E-01         0.00000E+00
    0.20684E-01         0.44513E-01         0.00000E+00
    0.19951E-01         0.43397E-01         0.00000E+00
    0.19228E-01         0.42275E-01         0.00000E+00
    0.18515E-01         0.41147E-01         0.00000E+00
    0.17812E-01         0.40014E-01         0.00000E+00
    0.17118E-01         0.38874E-01         0.00000E+00
    0.16433E-01         0.37728E-01         0.00000E+00
    0.15756E-01         0.36576E-01         0.00000E+00
    0.15087E-01         0.35417E-01         0.00000E+00
    0.14426E-01         0.34252E-01         0.00000E+00
    0.13771E-01         0.33080E-01         0.00000E+00
    0.13123E-01         0.31902E-01         0.00000E+00
    0.12481E-01         0.30716E-01         0.00000E+00
    0.11844E-01         0.29523E-01         0.00000E+00
    0.11211E-01         0.28324E-01         0.00000E+00
    0.10583E-01         0.27117E-01         0.00000E+00
    0.99574E-02         0.25904E-01         0.00000E+00
    0.93349E-02         0.24684E-01         0.00000E+00
    0.87162E-02         0.23459E-01         0.00000E+00
    0.81017E-02         0.22228E-01         0.00000E+00
    0.74913E-02         0.20988E-01         0.00000E+00
    0.68862E-02         0.19736E-01         0.00000E+00
    0.62893E-02         0.18474E-01         0.00000E+00
    0.57002E-02         0.17181E-01         0.00000E+00
    0.51208E-02         0.15853E-01         0.00000E+00
    0.45555E-02         0.14490E-01         0.00000E+00
    0.40054E-02         0.13078E-01         0.00000E+00
    0.34725E-02         0.11613E-01         0.00000E+00
    0.29577E-02         0.10098E-01         0.00000E+00
    0.24564E-02         0.85281E-02         0.00000E+00
    0.19648E-02         0.69061E-02         0.00000E+00
    0.14767E-02         0.52365E-02         0.00000E+00
    0.98909E-03         0.35253E-02         0.00000E+00
    0.49942E-03         0.17796E-02         0.00000E+00
    0.00000E+00         0.00000E+00         0.00000E+00
    0.33864E-01         0.57431E-01         0.00000E+00
    0.33016E-01         0.56414E-01         0.00000E+00
    0.32175E-01         0.55397E-01         0.00000E+00
    0.31341E-01         0.54380E-01         0.00000E+00
    0.30514E-01         0.53361E-01         0.00000E+00
    0.29695E-01         0.52342E-01         0.00000E+00
    0.28884E-01         0.51321E-01         0.00000E+00
    0.28081E-01         0.50298E-01         0.00000E+00
    0.27286E-01         0.49273E-01         0.00000E+00
    0.26500E-01         0.48245E-01         0.00000E+00
    0.25721E-01         0.47215E-01         0.00000E+00
    0.24952E-01         0.46182E-01         0.00000E+00
    0.24191E-01         0.45146E-01         0.00000E+00
    0.23438E-01         0.44105E-01         0.00000E+00
    0.22693E-01         0.43062E-01         0.00000E+00
    0.21957E-01         0.42013E-01         0.00000E+00
    0.21229E-01         0.40961E-01         0.00000E+00
    0.20509E-01         0.39904E-01         0.00000E+00
    0.19796E-01         0.38842E-01         0.00000E+00
    0.19091E-01         0.37775E-01         0.00000E+00
    0.18394E-01         0.36702E-01         0.00000E+00
    0.17703E-01         0.35625E-01         0.00000E+00
    0.17019E-01         0.34541E-01         0.00000E+00
    0.16341E-01         0.33452E-01         0.00000E+00
    0.15669E-01         0.32356E-01         0.00000E+00
    0.15003E-01         0.31255E-01         0.00000E+00
    0.14343E-01         0.30147E-01         0.00000E+00
    0.13687E-01         0.29033E-01         0.00000E+00
    0.13037E-01         0.27912E-01         0.00000E+00
    0.12390E-01         0.26785E-01         0.00000E+00
    0.11748E-01         0.25651E-01         0.00000E+00
    0.11110E-01         0.24510E-01         0.00000E+00
    0.10476E-01         0.23362E-01         0.00000E+00
    0.98449E-02         0.22207E-01         0.00000E+00
    0.92174E-02         0.21045E-01         0.00000E+00
    0.85928E-02         0.19875E-01         0.00000E+00
    0.79708E-02         0.18698E-01         0.00000E+00
    0.73513E-02         0.17514E-01         0.00000E+00
    0.67333E-02         0.16323E-01         0.00000E+00
    0.61172E-02         0.15126E-01         0.00000E+00
    0.55053E-02         0.13924E-01         0.00000E+00
    0.48994E-02         0.12716E-01         0.00000E+00
    0.43002E-02         0.11491E-01         0.00000E+00
    0.37144E-02         0.10250E-01         0.00000E+00
    0.31384E-02         0.89618E-02         0.00000E+00
    0.25772E-02         0.76220E-02         0.00000E+00
    0.20336E-02         0.62214E-02         0.00000E+00
    0.15084E-02         0.47533E-02         0.00000E+00
    0.10020E-02         0.32248E-02         0.00000E+00
    0.50176E-03         0.16363E-02         0.00000E+00
    0.00000E+00         0.00000E+00         0.00000E+00
    0.33500E-01         0.53348E-01         0.00000E+00
    0.32719E-01         0.52384E-01         0.00000E+00
    0.31942E-01         0.51419E-01         0.00000E+00
    0.31169E-01         0.50453E-01         0.00000E+00
    0.30400E-01         0.49487E-01         0.00000E+00
    0.29635E-01         0.48520E-01         0.00000E+00
    0.28875E-01         0.47551E-01         0.00000E+00
    0.28119E-01         0.46581E-01         0.00000E+00
    0.27369E-01         0.45609E-01         0.00000E+00
    0.26623E-01         0.44634E-01         0.00000E+00
    0.25883E-01         0.43658E-01         0.00000E+00
    0.25148E-01         0.42679E-01         0.00000E+00
    0.24419E-01         0.41696E-01         0.00000E+00
    0.23695E-01         0.40711E-01         0.00000E+00
    0.22976E-01         0.39723E-01         0.00000E+00
    0.22263E-01         0.38731E-01         0.00000E+00
    0.21555E-01         0.37735E-01         0.00000E+00
    0.20853E-01         0.36735E-01         0.00000E+00
    0.20156E-01         0.35731E-01         0.00000E+00
    0.19464E-01         0.34723E-01         0.00000E+00
    0.18776E-01         0.33710E-01         0.00000E+00
    0.18094E-01         0.32692E-01         0.00000E+00
    0.17417E-01         0.31669E-01         0.00000E+00
    0.16743E-01         0.30641E-01         0.00000E+00
    0.16075E-01         0.29608E-01         0.00000E+00
    0.15410E-01         0.28570E-01         0.00000E+00
    0.14749E-01         0.27526E-01         0.00000E+00
    0.14092E-01         0.26476E-01         0.00000E+00
    0.13439E-01         0.25421E-01         0.00000E+00
    0.12789E-01         0.24359E-01         0.00000E+00
    0.12142E-01         0.23292E-01         0.00000E+00
    0.11498E-01         0.22218E-01         0.00000E+00
    0.10858E-01         0.21138E-01         0.00000E+00
    0.10220E-01         0.20052E-01         0.00000E+00
    0.95846E-02         0.18959E-01         0.00000E+00
    0.89520E-02         0.17859E-01         0.00000E+00
    0.83221E-02         0.16753E-01         0.00000E+00
    0.76949E-02         0.15639E-01         0.00000E+00
    0.70706E-02         0.14519E-01         0.00000E+00
    0.64494E-02         0.13391E-01         0.00000E+00
    0.58310E-02         0.12254E-01         0.00000E+00
    0.52149E-02         0.11109E-01         0.00000E+00
    0.46016E-02         0.99580E-02         0.00000E+00
    0.39900E-02         0.87988E-02         0.00000E+00
    0.33819E-02         0.76344E-02         0.00000E+00
    0.27823E-02         0.64645E-02         0.00000E+00
    0.21932E-02         0.52780E-02         0.00000E+00
    0.16230E-02         0.40691E-02         0.00000E+00
    0.10641E-02         0.27934E-02         0.00000E+00
    0.52207E-03         0.14421E-02         0.00000E+00
    0.00000E+00         0.00000E+00         0.00000E+00
    0.32967E-01         0.49601E-01         0.00000E+00
    0.32250E-01         0.48687E-01         0.00000E+00
    0.31533E-01         0.47772E-01         0.00000E+00
    0.30818E-01         0.46857E-01         0.00000E+00
    0.30103E-01         0.45941E-01         0.00000E+00
    0.29390E-01         0.45024E-01         0.00000E+00
    0.28679E-01         0.44106E-01         0.00000E+00
    0.27969E-01         0.43187E-01         0.00000E+00
    0.27262E-01         0.42266E-01         0.00000E+00
    0.26557E-01         0.41344E-01         0.00000E+00
    0.25855E-01         0.40419E-01         0.00000E+00
    0.25155E-01         0.39492E-01         0.00000E+00
    0.24459E-01         0.38563E-01         0.00000E+00
    0.23765E-01         0.37631E-01         0.00000E+00
    0.23074E-01         0.36697E-01         0.00000E+00
    0.22386E-01         0.35759E-01         0.00000E+00
    0.21701E-01         0.34819E-01         0.00000E+00
    0.21020E-01         0.33875E-01         0.00000E+00
    0.20341E-01         0.32928E-01         0.00000E+00
    0.19665E-01         0.31977E-01         0.00000E+00
    0.18993E-01         0.31022E-01         0.00000E+00
    0.18323E-01         0.30063E-01         0.00000E+00
    0.17656E-01         0.29100E-01         0.00000E+00
    0.16992E-01         0.28133E-01         0.00000E+00
    0.16331E-01         0.27162E-01         0.00000E+00
    0.15672E-01         0.26186E-01         0.00000E+00
    0.15016E-01         0.25205E-01         0.00000E+00
    0.14362E-01         0.24220E-01         0.00000E+00
    0.13711E-01         0.23230E-01         0.00000E+00
    0.13062E-01         0.22236E-01         0.00000E+00
    0.12415E-01         0.21236E-01         0.00000E+00
    0.11770E-01         0.20231E-01         0.00000E+00
    0.11127E-01         0.19221E-01         0.00000E+00
    0.10486E-01         0.18205E-01         0.00000E+00
    0.98466E-02         0.17185E-01         0.00000E+00
    0.92094E-02         0.16158E-01         0.00000E+00
    0.85740E-02         0.15127E-01         0.00000E+00
    0.79405E-02         0.14089E-01         0.00000E+00
    0.73090E-02         0.13046E-01         0.00000E+00
    0.66794E-02         0.11996E-01         0.00000E+00
    0.60520E-02         0.10941E-01         0.00000E+00
    0.54272E-02         0.98795E-02         0.00000E+00
    0.48050E-02         0.88112E-02         0.00000E+00
    0.41863E-02         0.77362E-02         0.00000E+00
    0.35712E-02         0.66534E-02         0.00000E+00
    0.29592E-02         0.55620E-02         0.00000E+00
    0.23506E-02         0.44638E-02         0.00000E+00
    0.17447E-02         0.33587E-02         0.00000E+00
    0.11454E-02         0.22497E-02         0.00000E+00
    0.56224E-03         0.11364E-02         0.00000E+00
    0.00000E+00         0.00000E+00         0.00000E+00
    0.32309E-01         0.46168E-01         0.00000E+00
    0.31651E-01         0.45302E-01         0.00000E+00
    0.30990E-01         0.44435E-01         0.00000E+00
    0.30328E-01         0.43569E-01         0.00000E+00
    0.29665E-01         0.42701E-01         0.00000E+00
    0.29001E-01         0.41833E-01         0.00000E+00
    0.28336E-01         0.40964E-01         0.00000E+00
    0.27671E-01         0.40094E-01         0.00000E+00
    0.27005E-01         0.39223E-01         0.00000E+00
    0.26340E-01         0.38351E-01         0.00000E+00
    0.25675E-01         0.37476E-01         0.00000E+00
    0.25010E-01         0.36600E-01         0.00000E+00
    0.24347E-01         0.35723E-01         0.00000E+00
    0.23684E-01         0.34843E-01         0.00000E+00
    0.23021E-01         0.33961E-01         0.00000E+00
    0.22360E-01         0.33076E-01         0.00000E+00
    0.21700E-01         0.32189E-01         0.00000E+00
    0.21041E-01         0.31300E-01         0.00000E+00
    0.20384E-01         0.30408E-01         0.00000E+00
    0.19727E-01         0.29512E-01         0.00000E+00
    0.19072E-01         0.28614E-01         0.00000E+00
    0.18418E-01         0.27713E-01         0.00000E+00
    0.17766E-01         0.26809E-01         0.00000E+00
    0.17114E-01         0.25901E-01         0.00000E+00
    0.16464E-01         0.24990E-01         0.00000E+00
    0.15816E-01         0.24076E-01         0.00000E+00
    0.15168E-01         0.23158E-01         0.00000E+00
    0.14522E-01         0.22236E-01         0.00000E+00
    0.13876E-01         0.21311E-01         0.00000E+00
    0.13232E-01         0.20382E-01         0.00000E+00
    0.12589E-01         0.19449E-01         0.00000E+00
    0.11947E-01         0.18513E-01         0.00000E+00
    0.11306E-01         0.17572E-01         0.00000E+00
    0.10665E-01         0.16628E-01         0.00000E+00
    0.10026E-01         0.15680E-01         0.00000E+00
    0.93880E-02         0.14727E-01         0.00000E+00
    0.87508E-02         0.13771E-01         0.00000E+00
    0.81146E-02         0.12811E-01         0.00000E+00
    0.74795E-02         0.11847E-01         0.00000E+00
    0.68455E-02         0.10879E-01         0.00000E+00
    0.62128E-02         0.99074E-02         0.00000E+00
    0.55815E-02         0.89317E-02         0.00000E+00
    0.49517E-02         0.79522E-02         0.00000E+00
    0.43235E-02         0.69691E-02         0.00000E+00
    0.36971E-02         0.59825E-02         0.00000E+00
    0.30732E-02         0.49928E-02         0.00000E+00
    0.24522E-02         0.39998E-02         0.00000E+00
    0.18349E-02         0.30040E-02         0.00000E+00
    0.12214E-02         0.20048E-02         0.00000E+00
    0.60986E-03         0.10020E-02         0.00000E+00
    0.00000E+00         0.00000E+00         0.00000E+00
    0.31562E-01         0.43022E-01         0.00000E+00
    0.30957E-01         0.42202E-01         0.00000E+00
    0.30349E-01         0.41382E-01         0.00000E+00
    0.29737E-01         0.40562E-01         0.00000E+00
    0.29121E-01         0.39742E-01         0.00000E+00
    0.28502E-01         0.38921E-01         0.00000E+00
    0.27881E-01         0.38099E-01         0.00000E+00
    0.27258E-01         0.37276E-01         0.00000E+00
    0.26632E-01         0.36453E-01         0.00000E+00
    0.26005E-01         0.35629E-01         0.00000E+00
    0.25376E-01         0.34803E-01         0.00000E+00
    0.24746E-01         0.33976E-01         0.00000E+00
    0.24114E-01         0.33148E-01         0.00000E+00
    0.23482E-01         0.32318E-01         0.00000E+00
    0.22849E-01         0.31486E-01         0.00000E+00
    0.22215E-01         0.30653E-01         0.00000E+00
    0.21581E-01         0.29818E-01         0.00000E+00
    0.20946E-01         0.28981E-01         0.00000E+00
    0.20311E-01         0.28142E-01         0.00000E+00
    0.19676E-01         0.27300E-01         0.00000E+00
    0.19040E-01         0.26457E-01         0.00000E+00
    0.18404E-01         0.25611E-01         0.00000E+00
    0.17769E-01         0.24763E-01         0.00000E+00
    0.17133E-01         0.23913E-01         0.00000E+00
    0.16497E-01         0.23060E-01         0.00000E+00
    0.15861E-01         0.22205E-01         0.00000E+00
    0.15225E-01         0.21347E-01         0.00000E+00
    0.14589E-01         0.20486E-01         0.00000E+00
    0.13954E-01         0.19623E-01         0.00000E+00
    0.13318E-01         0.18757E-01         0.00000E+00
    0.12682E-01         0.17889E-01         0.00000E+00
    0.12047E-01         0.17017E-01         0.00000E+00
    0.11411E-01         0.16144E-01         0.00000E+00
    0.10775E-01         0.15267E-01         0.00000E+00
    0.10140E-01         0.14388E-01         0.00000E+00
    0.95045E-02         0.13506E-01         0.00000E+00
    0.88691E-02         0.12622E-01         0.00000E+00
    0.82339E-02         0.11735E-01         0.00000E+00
    0.75989E-02         0.10846E-01         0.00000E+00
    0.69641E-02         0.99538E-02         0.00000E+00
    0.63295E-02         0.90596E-02         0.00000E+00
    0.56952E-02         0.81632E-02         0.00000E+00
    0.50612E-02         0.72645E-02         0.00000E+00
    0.44277E-02         0.63637E-02         0.00000E+00
    0.37947E-02         0.54608E-02         0.00000E+00
    0.31621E-02         0.45558E-02         0.00000E+00
    0.25299E-02         0.36488E-02         0.00000E+00
    0.18978E-02         0.27398E-02         0.00000E+00
    0.12655E-02         0.18288E-02         0.00000E+00
    0.63318E-03         0.91586E-03         0.00000E+00
    0.00000E+00         0.00000E+00         0.00000E+00
    0.30757E-01         0.40135E-01         0.00000E+00
    0.30201E-01         0.39360E-01         0.00000E+00
    0.29639E-01         0.38585E-01         0.00000E+00
    0.29072E-01         0.37810E-01         0.00000E+00
    0.28500E-01         0.37034E-01         0.00000E+00
    0.27923E-01         0.36258E-01         0.00000E+00
    0.27343E-01         0.35482E-01         0.00000E+00
    0.26758E-01         0.34705E-01         0.00000E+00
    0.26170E-01         0.33928E-01         0.00000E+00
    0.25579E-01         0.33149E-01         0.00000E+00
    0.24985E-01         0.32370E-01         0.00000E+00
    0.24388E-01         0.31590E-01         0.00000E+00
    0.23788E-01         0.30809E-01         0.00000E+00
    0.23186E-01         0.30027E-01         0.00000E+00
    0.22581E-01         0.29244E-01         0.00000E+00
    0.21975E-01         0.28460E-01         0.00000E+00
    0.21367E-01         0.27674E-01         0.00000E+00
    0.20757E-01         0.26887E-01         0.00000E+00
    0.20145E-01         0.26099E-01         0.00000E+00
    0.19532E-01         0.25309E-01         0.00000E+00
    0.18917E-01         0.24518E-01         0.00000E+00
    0.18301E-01         0.23725E-01         0.00000E+00
    0.17684E-01         0.22930E-01         0.00000E+00
    0.17066E-01         0.22134E-01         0.00000E+00
    0.16446E-01         0.21336E-01         0.00000E+00
    0.15825E-01         0.20536E-01         0.00000E+00
    0.15204E-01         0.19735E-01         0.00000E+00
    0.14581E-01         0.18932E-01         0.00000E+00
    0.13957E-01         0.18127E-01         0.00000E+00
    0.13333E-01         0.17320E-01         0.00000E+00
    0.12707E-01         0.16511E-01         0.00000E+00
    0.12081E-01         0.15701E-01         0.00000E+00
    0.11453E-01         0.14889E-01         0.00000E+00
    0.10825E-01         0.14075E-01         0.00000E+00
    0.10196E-01         0.13260E-01         0.00000E+00
    0.95664E-02         0.12442E-01         0.00000E+00
    0.89357E-02         0.11623E-01         0.00000E+00
    0.83042E-02         0.10803E-01         0.00000E+00
    0.76719E-02         0.99806E-02         0.00000E+00
    0.70388E-02         0.91568E-02         0.00000E+00
    0.64049E-02         0.83315E-02         0.00000E+00
    0.57700E-02         0.75047E-02         0.00000E+00
    0.51343E-02         0.66764E-02         0.00000E+00
    0.44975E-02         0.58467E-02         0.00000E+00
    0.38597E-02         0.50156E-02         0.00000E+00
    0.32207E-02         0.41831E-02         0.00000E+00
    0.25802E-02         0.33491E-02         0.00000E+00
    0.19382E-02         0.25138E-02         0.00000E+00
    0.12944E-02         0.16771E-02         0.00000E+00
    0.64840E-03         0.83910E-03         0.00000E+00
    0.00000E+00         0.00000E+00         0.00000E+00
    0.29917E-01         0.37480E-01         0.00000E+00
    0.29404E-01         0.36748E-01         0.00000E+00
    0.28884E-01         0.36016E-01         0.00000E+00
    0.28358E-01         0.35283E-01         0.00000E+00
    0.27825E-01         0.34551E-01         0.00000E+00
    0.27288E-01         0.33818E-01         0.00000E+00
    0.26744E-01         0.33086E-01         0.00000E+00
    0.26196E-01         0.32352E-01         0.00000E+00
    0.25643E-01         0.31619E-01         0.00000E+00
    0.25085E-01         0.30885E-01         0.00000E+00
    0.24524E-01         0.30150E-01         0.00000E+00
    0.23958E-01         0.29415E-01         0.00000E+00
    0.23389E-01         0.28679E-01         0.00000E+00
    0.22816E-01         0.27943E-01         0.00000E+00
    0.22240E-01         0.27206E-01         0.00000E+00
    0.21660E-01         0.26468E-01         0.00000E+00
    0.21078E-01         0.25729E-01         0.00000E+00
    0.20492E-01         0.24990E-01         0.00000E+00
    0.19904E-01         0.24249E-01         0.00000E+00
    0.19314E-01         0.23508E-01         0.00000E+00
    0.18721E-01         0.22766E-01         0.00000E+00
    0.18125E-01         0.22022E-01         0.00000E+00
    0.17527E-01         0.21278E-01         0.00000E+00
    0.16927E-01         0.20532E-01         0.00000E+00
    0.16325E-01         0.19786E-01         0.00000E+00
    0.15721E-01         0.19038E-01         0.00000E+00
    0.15115E-01         0.18289E-01         0.00000E+00
    0.14507E-01         0.17539E-01         0.00000E+00
    0.13897E-01         0.16788E-01         0.00000E+00
    0.13286E-01         0.16036E-01         0.00000E+00
    0.12672E-01         0.15282E-01         0.00000E+00
    0.12057E-01         0.14528E-01         0.00000E+00
    0.11440E-01         0.13772E-01         0.00000E+00
    0.10821E-01         0.13016E-01         0.00000E+00
    0.10200E-01         0.12258E-01         0.00000E+00
    0.95781E-02         0.11499E-01         0.00000E+00
    0.89541E-02         0.10739E-01         0.00000E+00
    0.83284E-02         0.99778E-02         0.00000E+00
    0.77009E-02         0.92158E-02         0.00000E+00
    0.70715E-02         0.84528E-02         0.00000E+00
    0.64403E-02         0.76888E-02         0.00000E+00
    0.58071E-02         0.69238E-02         0.00000E+00
    0.51719E-02         0.61579E-02         0.00000E+00
    0.45346E-02         0.53911E-02         0.00000E+00
    0.38950E-02         0.46234E-02         0.00000E+00
    0.32530E-02         0.38548E-02         0.00000E+00
    0.26084E-02         0.30854E-02         0.00000E+00
    0.19610E-02         0.23152E-02         0.00000E+00
    0.13107E-02         0.15442E-02         0.00000E+00
    0.65711E-03         0.77247E-03         0.00000E+00
    0.00000E+00         0.00000E+00         0.00000E+00
    0.29061E-01         0.35029E-01         0.00000E+00
    0.28586E-01         0.34338E-01         0.00000E+00
    0.28103E-01         0.33647E-01         0.00000E+00
    0.27613E-01         0.32956E-01         0.00000E+00
    0.27117E-01         0.32265E-01         0.00000E+00
    0.26614E-01         0.31574E-01         0.00000E+00
    0.26104E-01         0.30883E-01         0.00000E+00
    0.25589E-01         0.30191E-01         0.00000E+00
    0.25068E-01         0.29500E-01         0.00000E+00
    0.24542E-01         0.28808E-01         0.00000E+00
    0.24011E-01         0.28116E-01         0.00000E+00
    0.23475E-01         0.27423E-01         0.00000E+00
    0.22935E-01         0.26731E-01         0.00000E+00
    0.22390E-01         0.26037E-01         0.00000E+00
    0.21840E-01         0.25344E-01         0.00000E+00
    0.21287E-01         0.24650E-01         0.00000E+00
    0.20729E-01         0.23956E-01         0.00000E+00
    0.20168E-01         0.23261E-01         0.00000E+00
    0.19604E-01         0.22566E-01         0.00000E+00
    0.19035E-01         0.21870E-01         0.00000E+00
    0.18464E-01         0.21173E-01         0.00000E+00
    0.17889E-01         0.20476E-01         0.00000E+00
    0.17311E-01         0.19779E-01         0.00000E+00
    0.16730E-01         0.19081E-01         0.00000E+00
    0.16146E-01         0.18382E-01         0.00000E+00
    0.15560E-01         0.17682E-01         0.00000E+00
    0.14970E-01         0.16982E-01         0.00000E+00
    0.14378E-01         0.16281E-01         0.00000E+00
    0.13783E-01         0.15580E-01         0.00000E+00
    0.13185E-01         0.14878E-01         0.00000E+00
    0.12585E-01         0.14175E-01         0.00000E+00
    0.11982E-01         0.13471E-01         0.00000E+00
    0.11376E-01         0.12767E-01         0.00000E+00
    0.10768E-01         0.12063E-01         0.00000E+00
    0.10158E-01         0.11357E-01         0.00000E+00
    0.95445E-02         0.10651E-01         0.00000E+00
    0.89288E-02         0.99448E-02         0.00000E+00
    0.83105E-02         0.92377E-02         0.00000E+00
    0.76896E-02         0.85300E-02         0.00000E+00
    0.70660E-02         0.78217E-02         0.00000E+00
    0.64396E-02         0.71129E-02         0.00000E+00
    0.58105E-02         0.64035E-02         0.00000E+00
    0.51783E-02         0.56936E-02         0.00000E+00
    0.45432E-02         0.49833E-02         0.00000E+00
    0.39049E-02         0.42725E-02         0.00000E+00
    0.32633E-02         0.35613E-02         0.00000E+00
    0.26183E-02         0.28497E-02         0.00000E+00
    0.19697E-02         0.21377E-02         0.00000E+00
    0.13172E-02         0.14254E-02         0.00000E+00
    0.66072E-03         0.71280E-03         0.00000E+00
    0.00000E+00         0.00000E+00         0.00000E+00
    0.28202E-01         0.32757E-01         0.00000E+00
    0.27760E-01         0.32106E-01         0.00000E+00
    0.27310E-01         0.31454E-01         0.00000E+00
    0.26852E-01         0.30803E-01         0.00000E+00
    0.26388E-01         0.30151E-01         0.00000E+00
    0.25916E-01         0.29500E-01         0.00000E+00
    0.25438E-01         0.28848E-01         0.00000E+00
    0.24953E-01         0.28197E-01         0.00000E+00
    0.24462E-01         0.27545E-01         0.00000E+00
    0.23965E-01         0.26894E-01         0.00000E+00
    0.23462E-01         0.26242E-01         0.00000E+00
    0.22953E-01         0.25590E-01         0.00000E+00
    0.22440E-01         0.24939E-01         0.00000E+00
    0.21921E-01         0.24287E-01         0.00000E+00
    0.21397E-01         0.23634E-01         0.00000E+00
    0.20868E-01         0.22982E-01         0.00000E+00
    0.20335E-01         0.22330E-01         0.00000E+00
    0.19797E-01         0.21677E-01         0.00000E+00
    0.19255E-01         0.21024E-01         0.00000E+00
    0.18709E-01         0.20371E-01         0.00000E+00
    0.18159E-01         0.19717E-01         0.00000E+00
    0.17604E-01         0.19064E-01         0.00000E+00
    0.17046E-01         0.18410E-01         0.00000E+00
    0.16484E-01         0.17756E-01         0.00000E+00
    0.15919E-01         0.17101E-01         0.00000E+00
    0.15350E-01         0.16447E-01         0.00000E+00
    0.14777E-01         0.15792E-01         0.00000E+00
    0.14201E-01         0.15136E-01         0.00000E+00
    0.13621E-01         0.14481E-01         0.00000E+00
    0.13038E-01         0.13825E-01         0.00000E+00
    0.12452E-01         0.13169E-01         0.00000E+00
    0.11862E-01         0.12512E-01         0.00000E+00
    0.11269E-01         0.11855E-01         0.00000E+00
    0.10673E-01         0.11198E-01         0.00000E+00
    0.10074E-01         0.10541E-01         0.00000E+00
    0.94712E-02         0.98832E-02         0.00000E+00
    0.88652E-02         0.92253E-02         0.00000E+00
    0.82559E-02         0.85672E-02         0.00000E+00
    0.76433E-02         0.79089E-02         0.00000E+00
    0.70272E-02         0.72504E-02         0.00000E+00
    0.64077E-02         0.65917E-02         0.00000E+00
    0.57847E-02         0.59328E-02         0.00000E+00
    0.51580E-02         0.52738E-02         0.00000E+00
    0.45276E-02         0.46146E-02         0.00000E+00
    0.38934E-02         0.39554E-02         0.00000E+00
    0.32553E-02         0.32961E-02         0.00000E+00
    0.26130E-02         0.26368E-02         0.00000E+00
    0.19665E-02         0.19774E-02         0.00000E+00
    0.13157E-02         0.13182E-02         0.00000E+00
    0.66020E-03         0.65901E-03         0.00000E+00
    0.00000E+00         0.00000E+00         0.00000E+00
    0.27347E-01         0.30643E-01         0.00000E+00
    0.26935E-01         0.30030E-01         0.00000E+00
    0.26514E-01         0.29416E-01         0.00000E+00
    0.26086E-01         0.28802E-01         0.00000E+00
    0.25650E-01         0.28189E-01         0.00000E+00
    0.25206E-01         0.27575E-01         0.00000E+00
    0.24756E-01         0.26962E-01         0.00000E+00
    0.24298E-01         0.26348E-01         0.00000E+00
    0.23834E-01         0.25735E-01         0.00000E+00
    0.23364E-01         0.25122E-01         0.00000E+00
    0.22887E-01         0.24509E-01         0.00000E+00
    0.22404E-01         0.23895E-01         0.00000E+00
    0.21916E-01         0.23282E-01         0.00000E+00
    0.21421E-01         0.22669E-01         0.00000E+00
    0.20921E-01         0.22056E-01         0.00000E+00
    0.20416E-01         0.21443E-01         0.00000E+00
    0.19906E-01         0.20830E-01         0.00000E+00
    0.19391E-01         0.20217E-01         0.00000E+00
    0.18870E-01         0.19604E-01         0.00000E+00
    0.18345E-01         0.18991E-01         0.00000E+00
    0.17815E-01         0.18378E-01         0.00000E+00
    0.17281E-01         0.17765E-01         0.00000E+00
    0.16742E-01         0.17152E-01         0.00000E+00
    0.16199E-01         0.16539E-01         0.00000E+00
    0.15652E-01         0.15926E-01         0.00000E+00
    0.15100E-01         0.15313E-01         0.00000E+00
    0.14544E-01         0.14700E-01         0.00000E+00
    0.13984E-01         0.14087E-01         0.00000E+00
    0.13421E-01         0.13474E-01         0.00000E+00
    0.12853E-01         0.12861E-01         0.00000E+00
    0.12281E-01         0.12248E-01         0.00000E+00
    0.11705E-01         0.11634E-01         0.00000E+00
    0.11126E-01         0.11021E-01         0.00000E+00
    0.10542E-01         0.10408E-01         0.00000E+00
    0.99552E-02         0.97948E-02         0.00000E+00
    0.93641E-02         0.91816E-02         0.00000E+00
    0.87690E-02         0.85685E-02         0.00000E+00
    0.81701E-02         0.79554E-02         0.00000E+00
    0.75672E-02         0.73424E-02         0.00000E+00
    0.69604E-02         0.67294E-02         0.00000E+00
    0.63495E-02         0.61166E-02         0.00000E+00
    0.57345E-02         0.55038E-02         0.00000E+00
    0.51153E-02         0.48913E-02         0.00000E+00
    0.44919E-02         0.42789E-02         0.00000E+00
    0.38641E-02         0.36667E-02         0.00000E+00
    0.32319E-02         0.30547E-02         0.00000E+00
    0.25952E-02         0.24431E-02         0.00000E+00
    0.19538E-02         0.18317E-02         0.00000E+00
    0.13075E-02         0.12207E-02         0.00000E+00
    0.65631E-03         0.61012E-03         0.00000E+00
    0.00000E+00         0.00000E+00         0.00000E+00
    0.26505E-01         0.28668E-01         0.00000E+00
    0.26119E-01         0.28090E-01         0.00000E+00
    0.25724E-01         0.27513E-01         0.00000E+00
    0.25321E-01         0.26935E-01         0.00000E+00
    0.24911E-01         0.26358E-01         0.00000E+00
    0.24493E-01         0.25781E-01         0.00000E+00
    0.24068E-01         0.25204E-01         0.00000E+00
    0.23635E-01         0.24627E-01         0.00000E+00
    0.23196E-01         0.24050E-01         0.00000E+00
    0.22749E-01         0.23473E-01         0.00000E+00
    0.22297E-01         0.22897E-01         0.00000E+00
    0.21837E-01         0.22320E-01         0.00000E+00
    0.21372E-01         0.21744E-01         0.00000E+00
    0.20901E-01         0.21168E-01         0.00000E+00
    0.20423E-01         0.20592E-01         0.00000E+00
    0.19940E-01         0.20016E-01         0.00000E+00
    0.19451E-01         0.19441E-01         0.00000E+00
    0.18957E-01         0.18865E-01         0.00000E+00
    0.18458E-01         0.18290E-01         0.00000E+00
    0.17953E-01         0.17715E-01         0.00000E+00
    0.17443E-01         0.17140E-01         0.00000E+00
    0.16928E-01         0.16565E-01         0.00000E+00
    0.16408E-01         0.15990E-01         0.00000E+00
    0.15883E-01         0.15416E-01         0.00000E+00
    0.15353E-01         0.14842E-01         0.00000E+00
    0.14819E-01         0.14268E-01         0.00000E+00
    0.14280E-01         0.13694E-01         0.00000E+00
    0.13737E-01         0.13120E-01         0.00000E+00
    0.13189E-01         0.12546E-01         0.00000E+00
    0.12636E-01         0.11973E-01         0.00000E+00
    0.12079E-01         0.11400E-01         0.00000E+00
    0.11518E-01         0.10827E-01         0.00000E+00
    0.10952E-01         0.10254E-01         0.00000E+00
    0.10382E-01         0.96813E-02         0.00000E+00
    0.98079E-02         0.91090E-02         0.00000E+00
    0.92291E-02         0.85369E-02         0.00000E+00
    0.86460E-02         0.79651E-02         0.00000E+00
    0.80585E-02         0.73935E-02         0.00000E+00
    0.74666E-02         0.68223E-02         0.00000E+00
    0.68703E-02         0.62513E-02         0.00000E+00
    0.62694E-02         0.56807E-02         0.00000E+00
    0.56641E-02         0.51105E-02         0.00000E+00
    0.50542E-02         0.45406E-02         0.00000E+00
    0.44396E-02         0.39712E-02         0.00000E+00
    0.38203E-02         0.34022E-02         0.00000E+00
    0.31961E-02         0.28337E-02         0.00000E+00
    0.25671E-02         0.22657E-02         0.00000E+00
    0.19331E-02         0.16983E-02         0.00000E+00
    0.12940E-02         0.11315E-02         0.00000E+00
    0.64967E-03         0.56541E-03         0.00000E+00
    0.00000E+00         0.00000E+00         0.00000E+00
    0.25680E-01         0.26815E-01         0.00000E+00
    0.25317E-01         0.26272E-01         0.00000E+00
    0.24945E-01         0.25729E-01         0.00000E+00
    0.24565E-01         0.25186E-01         0.00000E+00
    0.24178E-01         0.24644E-01         0.00000E+00
    0.23783E-01         0.24101E-01         0.00000E+00
    0.23380E-01         0.23559E-01         0.00000E+00
    0.22970E-01         0.23017E-01         0.00000E+00
    0.22553E-01         0.22475E-01         0.00000E+00
    0.22129E-01         0.21933E-01         0.00000E+00
    0.21698E-01         0.21391E-01         0.00000E+00
    0.21261E-01         0.20850E-01         0.00000E+00
    0.20817E-01         0.20309E-01         0.00000E+00
    0.20367E-01         0.19768E-01         0.00000E+00
    0.19911E-01         0.19227E-01         0.00000E+00
    0.19448E-01         0.18687E-01         0.00000E+00
    0.18980E-01         0.18146E-01         0.00000E+00
    0.18505E-01         0.17607E-01         0.00000E+00
    0.18025E-01         0.17067E-01         0.00000E+00
    0.17540E-01         0.16528E-01         0.00000E+00
    0.17049E-01         0.15988E-01         0.00000E+00
    0.16552E-01         0.15450E-01         0.00000E+00
    0.16050E-01         0.14911E-01         0.00000E+00
    0.15543E-01         0.14373E-01         0.00000E+00
    0.15031E-01         0.13835E-01         0.00000E+00
    0.14514E-01         0.13298E-01         0.00000E+00
    0.13991E-01         0.12760E-01         0.00000E+00
    0.13464E-01         0.12223E-01         0.00000E+00
    0.12932E-01         0.11687E-01         0.00000E+00
    0.12395E-01         0.11151E-01         0.00000E+00
    0.11853E-01         0.10615E-01         0.00000E+00
    0.11306E-01         0.10079E-01         0.00000E+00
    0.10755E-01         0.95442E-02         0.00000E+00
    0.10199E-01         0.90094E-02         0.00000E+00
    0.96376E-02         0.84751E-02         0.00000E+00
    0.90719E-02         0.79412E-02         0.00000E+00
    0.85014E-02         0.74078E-02         0.00000E+00
    0.79262E-02         0.68748E-02         0.00000E+00
    0.73462E-02         0.63423E-02         0.00000E+00
    0.67615E-02         0.58102E-02         0.00000E+00
    0.61719E-02         0.52788E-02         0.00000E+00
    0.55775E-02         0.47478E-02         0.00000E+00
    0.49782E-02         0.42175E-02         0.00000E+00
    0.43739E-02         0.36877E-02         0.00000E+00
    0.37646E-02         0.31586E-02         0.00000E+00
    0.31503E-02         0.26302E-02         0.00000E+00
    0.25308E-02         0.21026E-02         0.00000E+00
    0.19062E-02         0.15757E-02         0.00000E+00
    0.12762E-02         0.10496E-02         0.00000E+00
    0.64084E-03         0.52432E-03         0.00000E+00
    0.00000E+00         0.00000E+00         0.00000E+00
    0.24875E-01         0.25071E-01         0.00000E+00
    0.24532E-01         0.24561E-01         0.00000E+00
    0.24181E-01         0.24051E-01         0.00000E+00
    0.23822E-01         0.23542E-01         0.00000E+00
    0.23455E-01         0.23033E-01         0.00000E+00
    0.23081E-01         0.22523E-01         0.00000E+00
    0.22699E-01         0.22014E-01         0.00000E+00
    0.22310E-01         0.21505E-01         0.00000E+00
    0.21913E-01         0.20996E-01         0.00000E+00
    0.21509E-01         0.20488E-01         0.00000E+00
    0.21099E-01         0.19980E-01         0.00000E+00
    0.20682E-01         0.19472E-01         0.00000E+00
    0.20258E-01         0.18964E-01         0.00000E+00
    0.19827E-01         0.18456E-01         0.00000E+00
    0.19390E-01         0.17949E-01         0.00000E+00
    0.18947E-01         0.17442E-01         0.00000E+00
    0.18498E-01         0.16936E-01         0.00000E+00
    0.18042E-01         0.16430E-01         0.00000E+00
    0.17581E-01         0.15924E-01         0.00000E+00
    0.17113E-01         0.15418E-01         0.00000E+00
    0.16640E-01         0.14913E-01         0.00000E+00
    0.16162E-01         0.14408E-01         0.00000E+00
    0.15677E-01         0.13904E-01         0.00000E+00
    0.15187E-01         0.13400E-01         0.00000E+00
    0.14692E-01         0.12897E-01         0.00000E+00
    0.14191E-01         0.12394E-01         0.00000E+00
    0.13685E-01         0.11891E-01         0.00000E+00
    0.13173E-01         0.11389E-01         0.00000E+00
    0.12657E-01         0.10887E-01         0.00000E+00
    0.12135E-01         0.10386E-01         0.00000E+00
    0.11608E-01         0.98847E-02         0.00000E+00
    0.11076E-01         0.93843E-02         0.00000E+00
    0.10539E-01         0.88845E-02         0.00000E+00
    0.99968E-02         0.83852E-02         0.00000E+00
    0.94496E-02         0.78864E-02         0.00000E+00
    0.88974E-02         0.73882E-02         0.00000E+00
    0.83401E-02         0.68906E-02         0.00000E+00
    0.77778E-02         0.63935E-02         0.00000E+00
    0.72105E-02         0.58971E-02         0.00000E+00
    0.66382E-02         0.54014E-02         0.00000E+00
    0.60607E-02         0.49063E-02         0.00000E+00
    0.54782E-02         0.44119E-02         0.00000E+00
    0.48906E-02         0.39182E-02         0.00000E+00
    0.42978E-02         0.34254E-02         0.00000E+00
    0.36998E-02         0.29333E-02         0.00000E+00
    0.30966E-02         0.24421E-02         0.00000E+00
    0.24881E-02         0.19517E-02         0.00000E+00
    0.18743E-02         0.14623E-02         0.00000E+00
    0.12550E-02         0.97381E-03         0.00000E+00
    0.63028E-03         0.48637E-03         0.00000E+00
    0.00000E+00         0.00000E+00         0.00000E+00
    0.24092E-01         0.23424E-01         0.00000E+00
    0.23768E-01         0.22947E-01         0.00000E+00
    0.23435E-01         0.22469E-01         0.00000E+00
    0.23095E-01         0.21991E-01         0.00000E+00
    0.22747E-01         0.21513E-01         0.00000E+00
    0.22392E-01         0.21036E-01         0.00000E+00
    0.22029E-01         0.20559E-01         0.00000E+00
    0.21658E-01         0.20081E-01         0.00000E+00
    0.21280E-01         0.19604E-01         0.00000E+00
    0.20895E-01         0.19128E-01         0.00000E+00
    0.20504E-01         0.18651E-01         0.00000E+00
    0.20105E-01         0.18175E-01         0.00000E+00
    0.19699E-01         0.17699E-01         0.00000E+00
    0.19287E-01         0.17224E-01         0.00000E+00
    0.18868E-01         0.16748E-01         0.00000E+00
    0.18443E-01         0.16274E-01         0.00000E+00
    0.18011E-01         0.15799E-01         0.00000E+00
    0.17574E-01         0.15325E-01         0.00000E+00
    0.17130E-01         0.14851E-01         0.00000E+00
    0.16680E-01         0.14378E-01         0.00000E+00
    0.16224E-01         0.13905E-01         0.00000E+00
    0.15762E-01         0.13433E-01         0.00000E+00
    0.15294E-01         0.12961E-01         0.00000E+00
    0.14820E-01         0.12489E-01         0.00000E+00
    0.14341E-01         0.12018E-01         0.00000E+00
    0.13856E-01         0.11548E-01         0.00000E+00
    0.13366E-01         0.11077E-01         0.00000E+00
    0.12870E-01         0.10608E-01         0.00000E+00
    0.12369E-01         0.10139E-01         0.00000E+00
    0.11862E-01         0.96705E-02         0.00000E+00
    0.11350E-01         0.92027E-02         0.00000E+00
    0.10833E-01         0.87354E-02         0.00000E+00
    0.10310E-01         0.82687E-02         0.00000E+00
    0.97821E-02         0.78027E-02         0.00000E+00
    0.92488E-02         0.73373E-02         0.00000E+00
    0.87103E-02         0.68725E-02         0.00000E+00
    0.81666E-02         0.64085E-02         0.00000E+00
    0.76176E-02         0.59452E-02         0.00000E+00
    0.70634E-02         0.54825E-02         0.00000E+00
    0.65040E-02         0.50207E-02         0.00000E+00
    0.59394E-02         0.45596E-02         0.00000E+00
    0.53695E-02         0.40994E-02         0.00000E+00
    0.47943E-02         0.36400E-02         0.00000E+00
    0.42139E-02         0.31815E-02         0.00000E+00
    0.36281E-02         0.27239E-02         0.00000E+00
    0.30370E-02         0.22673E-02         0.00000E+00
    0.24405E-02         0.18116E-02         0.00000E+00
    0.18386E-02         0.13571E-02         0.00000E+00
    0.12313E-02         0.90355E-03         0.00000E+00
    0.61843E-03         0.45118E-03         0.00000E+00
    0.00000E+00         0.00000E+00         0.00000E+00
    0.23334E-01         0.21866E-01         0.00000E+00
    0.23026E-01         0.21419E-01         0.00000E+00
    0.22711E-01         0.20972E-01         0.00000E+00
    0.22388E-01         0.20524E-01         0.00000E+00
    0.22057E-01         0.20077E-01         0.00000E+00
    0.21719E-01         0.19630E-01         0.00000E+00
    0.21373E-01         0.19183E-01         0.00000E+00
    0.21019E-01         0.18736E-01         0.00000E+00
    0.20659E-01         0.18290E-01         0.00000E+00
    0.20291E-01         0.17843E-01         0.00000E+00
    0.19916E-01         0.17397E-01         0.00000E+00
    0.19535E-01         0.16952E-01         0.00000E+00
    0.19146E-01         0.16506E-01         0.00000E+00
    0.18751E-01         0.16061E-01         0.00000E+00
    0.18349E-01         0.15616E-01         0.00000E+00
    0.17941E-01         0.15172E-01         0.00000E+00
    0.17526E-01         0.14728E-01         0.00000E+00
    0.17105E-01         0.14285E-01         0.00000E+00
    0.16677E-01         0.13841E-01         0.00000E+00
    0.16244E-01         0.13399E-01         0.00000E+00
    0.15804E-01         0.12956E-01         0.00000E+00
    0.15358E-01         0.12515E-01         0.00000E+00
    0.14906E-01         0.12073E-01         0.00000E+00
    0.14448E-01         0.11633E-01         0.00000E+00
    0.13985E-01         0.11192E-01         0.00000E+00
    0.13515E-01         0.10753E-01         0.00000E+00
    0.13040E-01         0.10314E-01         0.00000E+00
    0.12560E-01         0.98751E-02         0.00000E+00
    0.12073E-01         0.94372E-02         0.00000E+00
    0.11581E-01         0.89999E-02         0.00000E+00
    0.11084E-01         0.85632E-02         0.00000E+00
    0.10581E-01         0.81272E-02         0.00000E+00
    0.10072E-01         0.76918E-02         0.00000E+00
    0.95586E-02         0.72571E-02         0.00000E+00
    0.90393E-02         0.68232E-02         0.00000E+00
    0.85146E-02         0.63899E-02         0.00000E+00
    0.79846E-02         0.59575E-02         0.00000E+00
    0.74491E-02         0.55258E-02         0.00000E+00
    0.69084E-02         0.50950E-02         0.00000E+00
    0.63623E-02         0.46649E-02         0.00000E+00
    0.58108E-02         0.42358E-02         0.00000E+00
    0.52540E-02         0.38076E-02         0.00000E+00
    0.46919E-02         0.33803E-02         0.00000E+00
    0.41244E-02         0.29539E-02         0.00000E+00
    0.35515E-02         0.25286E-02         0.00000E+00
    0.29732E-02         0.21043E-02         0.00000E+00
    0.23895E-02         0.16811E-02         0.00000E+00
    0.18003E-02         0.12590E-02         0.00000E+00
    0.12057E-02         0.83811E-03         0.00000E+00
    0.60563E-03         0.41842E-03         0.00000E+00
    0.00000E+00         0.00000E+00         0.00000E+00
    0.22602E-01         0.20389E-01         0.00000E+00
    0.22310E-01         0.19970E-01         0.00000E+00
    0.22010E-01         0.19552E-01         0.00000E+00
    0.21703E-01         0.19134E-01         0.00000E+00
    0.21387E-01         0.18716E-01         0.00000E+00
    0.21065E-01         0.18298E-01         0.00000E+00
    0.20735E-01         0.17880E-01         0.00000E+00
    0.20397E-01         0.17462E-01         0.00000E+00
    0.20052E-01         0.17045E-01         0.00000E+00
    0.19701E-01         0.16628E-01         0.00000E+00
    0.19342E-01         0.16211E-01         0.00000E+00
    0.18976E-01         0.15794E-01         0.00000E+00
    0.18603E-01         0.15378E-01         0.00000E+00
    0.18224E-01         0.14962E-01         0.00000E+00
    0.17838E-01         0.14546E-01         0.00000E+00
    0.17445E-01         0.14131E-01         0.00000E+00
    0.17046E-01         0.13716E-01         0.00000E+00
    0.16640E-01         0.13302E-01         0.00000E+00
    0.16228E-01         0.12888E-01         0.00000E+00
    0.15810E-01         0.12474E-01         0.00000E+00
    0.15385E-01         0.12061E-01         0.00000E+00
    0.14955E-01         0.11649E-01         0.00000E+00
    0.14518E-01         0.11237E-01         0.00000E+00
    0.14075E-01         0.10825E-01         0.00000E+00
    0.13627E-01         0.10414E-01         0.00000E+00
    0.13172E-01         0.10004E-01         0.00000E+00
    0.12712E-01         0.95942E-02         0.00000E+00
    0.12246E-01         0.91851E-02         0.00000E+00
    0.11774E-01         0.87766E-02         0.00000E+00
    0.11296E-01         0.83687E-02         0.00000E+00
    0.10813E-01         0.79616E-02         0.00000E+00
    0.10324E-01         0.75551E-02         0.00000E+00
    0.98301E-02         0.71494E-02         0.00000E+00
    0.93302E-02         0.67444E-02         0.00000E+00
    0.88248E-02         0.63401E-02         0.00000E+00
    0.83139E-02         0.59367E-02         0.00000E+00
    0.77975E-02         0.55341E-02         0.00000E+00
    0.72757E-02         0.51323E-02         0.00000E+00
    0.67485E-02         0.47314E-02         0.00000E+00
    0.62159E-02         0.43313E-02         0.00000E+00
    0.56778E-02         0.39322E-02         0.00000E+00
    0.51344E-02         0.35341E-02         0.00000E+00
    0.45855E-02         0.31370E-02         0.00000E+00
    0.40313E-02         0.27408E-02         0.00000E+00
    0.34716E-02         0.23458E-02         0.00000E+00
    0.29066E-02         0.19518E-02         0.00000E+00
    0.23361E-02         0.15590E-02         0.00000E+00
    0.17603E-02         0.11674E-02         0.00000E+00
    0.11790E-02         0.77696E-03         0.00000E+00
    0.59222E-03         0.38782E-03         0.00000E+00
    0.00000E+00         0.00000E+00         0.00000E+00
    0.21898E-01         0.18984E-01         0.00000E+00
    0.21620E-01         0.18593E-01         0.00000E+00
    0.21335E-01         0.18203E-01         0.00000E+00
    0.21041E-01         0.17813E-01         0.00000E+00
    0.20740E-01         0.17422E-01         0.00000E+00
    0.20432E-01         0.17032E-01         0.00000E+00
    0.20117E-01         0.16642E-01         0.00000E+00
    0.19794E-01         0.16253E-01         0.00000E+00
    0.19464E-01         0.15863E-01         0.00000E+00
    0.19126E-01         0.15474E-01         0.00000E+00
    0.18782E-01         0.15085E-01         0.00000E+00
    0.18431E-01         0.14696E-01         0.00000E+00
    0.18073E-01         0.14308E-01         0.00000E+00
    0.17708E-01         0.13919E-01         0.00000E+00
    0.17337E-01         0.13532E-01         0.00000E+00
    0.16959E-01         0.13144E-01         0.00000E+00
    0.16575E-01         0.12757E-01         0.00000E+00
    0.16184E-01         0.12371E-01         0.00000E+00
    0.15786E-01         0.11985E-01         0.00000E+00
    0.15382E-01         0.11599E-01         0.00000E+00
    0.14972E-01         0.11214E-01         0.00000E+00
    0.14556E-01         0.10829E-01         0.00000E+00
    0.14134E-01         0.10445E-01         0.00000E+00
    0.13706E-01         0.10062E-01         0.00000E+00
    0.13271E-01         0.96786E-02         0.00000E+00
    0.12831E-01         0.92962E-02         0.00000E+00
    0.12385E-01         0.89145E-02         0.00000E+00
    0.11933E-01         0.85333E-02         0.00000E+00
    0.11475E-01         0.81528E-02         0.00000E+00
    0.11011E-01         0.77730E-02         0.00000E+00
    0.10542E-01         0.73939E-02         0.00000E+00
    0.10067E-01         0.70156E-02         0.00000E+00
    0.95865E-02         0.66379E-02         0.00000E+00
    0.91003E-02         0.62611E-02         0.00000E+00
    0.86086E-02         0.58850E-02         0.00000E+00
    0.81113E-02         0.55098E-02         0.00000E+00
    0.76085E-02         0.51354E-02         0.00000E+00
    0.71002E-02         0.47618E-02         0.00000E+00
    0.65864E-02         0.43892E-02         0.00000E+00
    0.60672E-02         0.40175E-02         0.00000E+00
    0.55426E-02         0.36468E-02         0.00000E+00
    0.50126E-02         0.32770E-02         0.00000E+00
    0.44771E-02         0.29083E-02         0.00000E+00
    0.39363E-02         0.25407E-02         0.00000E+00
    0.33901E-02         0.21741E-02         0.00000E+00
    0.28385E-02         0.18087E-02         0.00000E+00
    0.22816E-02         0.14444E-02         0.00000E+00
    0.17192E-02         0.10814E-02         0.00000E+00
    0.11515E-02         0.71963E-03         0.00000E+00
    0.57846E-03         0.35914E-03         0.00000E+00
    0.00000E+00         0.00000E+00         0.00000E+00
    0.21224E-01         0.17646E-01         0.00000E+00
    0.20959E-01         0.17283E-01         0.00000E+00
    0.20686E-01         0.16919E-01         0.00000E+00
    0.20406E-01         0.16555E-01         0.00000E+00
    0.20118E-01         0.16192E-01         0.00000E+00
    0.19823E-01         0.15828E-01         0.00000E+00
    0.19521E-01         0.15465E-01         0.00000E+00
    0.19212E-01         0.15102E-01         0.00000E+00
    0.18895E-01         0.14739E-01         0.00000E+00
    0.18572E-01         0.14377E-01         0.00000E+00
    0.18241E-01         0.14014E-01         0.00000E+00
    0.17904E-01         0.13652E-01         0.00000E+00
    0.17559E-01         0.13290E-01         0.00000E+00
    0.17208E-01         0.12929E-01         0.00000E+00
    0.16851E-01         0.12568E-01         0.00000E+00
    0.16486E-01         0.12207E-01         0.00000E+00
    0.16115E-01         0.11847E-01         0.00000E+00
    0.15738E-01         0.11487E-01         0.00000E+00
    0.15354E-01         0.11128E-01         0.00000E+00
    0.14964E-01         0.10769E-01         0.00000E+00
    0.14568E-01         0.10410E-01         0.00000E+00
    0.14166E-01         0.10052E-01         0.00000E+00
    0.13757E-01         0.96947E-02         0.00000E+00
    0.13342E-01         0.93378E-02         0.00000E+00
    0.12922E-01         0.89815E-02         0.00000E+00
    0.12495E-01         0.86258E-02         0.00000E+00
    0.12062E-01         0.82707E-02         0.00000E+00
    0.11624E-01         0.79162E-02         0.00000E+00
    0.11179E-01         0.75624E-02         0.00000E+00
    0.10729E-01         0.72093E-02         0.00000E+00
    0.10273E-01         0.68569E-02         0.00000E+00
    0.98118E-02         0.65053E-02         0.00000E+00
    0.93446E-02         0.61544E-02         0.00000E+00
    0.88718E-02         0.58043E-02         0.00000E+00
    0.83933E-02         0.54549E-02         0.00000E+00
    0.79093E-02         0.51065E-02         0.00000E+00
    0.74198E-02         0.47589E-02         0.00000E+00
    0.69248E-02         0.44121E-02         0.00000E+00
    0.64244E-02         0.40663E-02         0.00000E+00
    0.59185E-02         0.37215E-02         0.00000E+00
    0.54072E-02         0.33776E-02         0.00000E+00
    0.48905E-02         0.30347E-02         0.00000E+00
    0.43684E-02         0.26929E-02         0.00000E+00
    0.38410E-02         0.23521E-02         0.00000E+00
    0.33082E-02         0.20125E-02         0.00000E+00
    0.27701E-02         0.16740E-02         0.00000E+00
    0.22266E-02         0.13366E-02         0.00000E+00
    0.16779E-02         0.10006E-02         0.00000E+00
    0.11239E-02         0.66572E-03         0.00000E+00
    0.56459E-03         0.33218E-03         0.00000E+00
    0.00000E+00         0.00000E+00         0.00000E+00
    0.20580E-01         0.16370E-01         0.00000E+00
    0.20327E-01         0.16032E-01         0.00000E+00
    0.20066E-01         0.15694E-01         0.00000E+00
    0.19798E-01         0.15356E-01         0.00000E+00
    0.19523E-01         0.15019E-01         0.00000E+00
    0.19240E-01         0.14681E-01         0.00000E+00
    0.18950E-01         0.14343E-01         0.00000E+00
    0.18653E-01         0.14006E-01         0.00000E+00
    0.18349E-01         0.13669E-01         0.00000E+00
    0.18038E-01         0.13331E-01         0.00000E+00
    0.17720E-01         0.12995E-01         0.00000E+00
    0.17395E-01         0.12658E-01         0.00000E+00
    0.17064E-01         0.12322E-01         0.00000E+00
    0.16726E-01         0.11986E-01         0.00000E+00
    0.16381E-01         0.11651E-01         0.00000E+00
    0.16029E-01         0.11315E-01         0.00000E+00
    0.15671E-01         0.10981E-01         0.00000E+00
    0.15307E-01         0.10646E-01         0.00000E+00
    0.14936E-01         0.10312E-01         0.00000E+00
    0.14559E-01         0.99790E-02         0.00000E+00
    0.14176E-01         0.96460E-02         0.00000E+00
    0.13786E-01         0.93135E-02         0.00000E+00
    0.13390E-01         0.89816E-02         0.00000E+00
    0.12989E-01         0.86502E-02         0.00000E+00
    0.12581E-01         0.83194E-02         0.00000E+00
    0.12167E-01         0.79891E-02         0.00000E+00
    0.11747E-01         0.76595E-02         0.00000E+00
    0.11322E-01         0.73305E-02         0.00000E+00
    0.10890E-01         0.70022E-02         0.00000E+00
    0.10453E-01         0.66746E-02         0.00000E+00
    0.10010E-01         0.63477E-02         0.00000E+00
    0.95612E-02         0.60215E-02         0.00000E+00
    0.91069E-02         0.56961E-02         0.00000E+00
    0.86470E-02         0.53714E-02         0.00000E+00
    0.81815E-02         0.50476E-02         0.00000E+00
    0.77104E-02         0.47246E-02         0.00000E+00
    0.72339E-02         0.44025E-02         0.00000E+00
    0.67519E-02         0.40812E-02         0.00000E+00
    0.62644E-02         0.37609E-02         0.00000E+00
    0.57715E-02         0.34415E-02         0.00000E+00
    0.52733E-02         0.31231E-02         0.00000E+00
    0.47696E-02         0.28057E-02         0.00000E+00
    0.42607E-02         0.24893E-02         0.00000E+00
    0.37465E-02         0.21740E-02         0.00000E+00
    0.32269E-02         0.18598E-02         0.00000E+00
    0.27021E-02         0.15468E-02         0.00000E+00
    0.21721E-02         0.12349E-02         0.00000E+00
    0.16369E-02         0.92428E-03         0.00000E+00
    0.10964E-02         0.61488E-03         0.00000E+00
    0.55080E-03         0.30678E-03         0.00000E+00
    0.00000E+00         0.00000E+00         0.00000E+00
    0.19968E-01         0.15151E-01         0.00000E+00
    0.19726E-01         0.14838E-01         0.00000E+00
    0.19476E-01         0.14525E-01         0.00000E+00
    0.19219E-01         0.14211E-01         0.00000E+00
    0.18955E-01         0.13898E-01         0.00000E+00
    0.18684E-01         0.13585E-01         0.00000E+00
    0.18405E-01         0.13272E-01         0.00000E+00
    0.18120E-01         0.12959E-01         0.00000E+00
    0.17827E-01         0.12646E-01         0.00000E+00
    0.17528E-01         0.12334E-01         0.00000E+00
    0.17222E-01         0.12022E-01         0.00000E+00
    0.16909E-01         0.11710E-01         0.00000E+00
    0.16589E-01         0.11398E-01         0.00000E+00
    0.16263E-01         0.11087E-01         0.00000E+00
    0.15930E-01         0.10776E-01         0.00000E+00
    0.15590E-01         0.10465E-01         0.00000E+00
    0.15244E-01         0.10155E-01         0.00000E+00
    0.14892E-01         0.98450E-02         0.00000E+00
    0.14533E-01         0.95356E-02         0.00000E+00
    0.14168E-01         0.92266E-02         0.00000E+00
    0.13797E-01         0.89181E-02         0.00000E+00
    0.13420E-01         0.86100E-02         0.00000E+00
    0.13036E-01         0.83025E-02         0.00000E+00
    0.12646E-01         0.79956E-02         0.00000E+00
    0.12251E-01         0.76891E-02         0.00000E+00
    0.11849E-01         0.73833E-02         0.00000E+00
    0.11442E-01         0.70781E-02         0.00000E+00
    0.11029E-01         0.67735E-02         0.00000E+00
    0.10609E-01         0.64695E-02         0.00000E+00
    0.10184E-01         0.61662E-02         0.00000E+00
    0.97538E-02         0.58637E-02         0.00000E+00
    0.93176E-02         0.55618E-02         0.00000E+00
    0.88756E-02         0.52607E-02         0.00000E+00
    0.84281E-02         0.49604E-02         0.00000E+00
    0.79750E-02         0.46608E-02         0.00000E+00
    0.75165E-02         0.43621E-02         0.00000E+00
    0.70524E-02         0.40643E-02         0.00000E+00
    0.65829E-02         0.37673E-02         0.00000E+00
    0.61081E-02         0.34712E-02         0.00000E+00
    0.56278E-02         0.31761E-02         0.00000E+00
    0.51423E-02         0.28819E-02         0.00000E+00
    0.46514E-02         0.25887E-02         0.00000E+00
    0.41553E-02         0.22965E-02         0.00000E+00
    0.36539E-02         0.20054E-02         0.00000E+00
    0.31473E-02         0.17154E-02         0.00000E+00
    0.26355E-02         0.14265E-02         0.00000E+00
    0.21186E-02         0.11387E-02         0.00000E+00
    0.15966E-02         0.85216E-03         0.00000E+00
    0.10695E-02         0.56683E-03         0.00000E+00
    0.53726E-03         0.28276E-03         0.00000E+00
    0.00000E+00         0.00000E+00         0.00000E+00
    0.19389E-01         0.13985E-01         0.00000E+00
    0.19157E-01         0.13695E-01         0.00000E+00
    0.18917E-01         0.13405E-01         0.00000E+00
    0.18671E-01         0.13115E-01         0.00000E+00
    0.18417E-01         0.12826E-01         0.00000E+00
    0.18156E-01         0.12536E-01         0.00000E+00
    0.17888E-01         0.12247E-01         0.00000E+00
    0.17613E-01         0.11958E-01         0.00000E+00
    0.17332E-01         0.11669E-01         0.00000E+00
    0.17043E-01         0.11380E-01         0.00000E+00
    0.16748E-01         0.11092E-01         0.00000E+00
    0.16446E-01         0.10803E-01         0.00000E+00
    0.16137E-01         0.10515E-01         0.00000E+00
    0.15822E-01         0.10227E-01         0.00000E+00
    0.15500E-01         0.99399E-02         0.00000E+00
    0.15171E-01         0.96528E-02         0.00000E+00
    0.14837E-01         0.93661E-02         0.00000E+00
    0.14496E-01         0.90798E-02         0.00000E+00
    0.14148E-01         0.87938E-02         0.00000E+00
    0.13794E-01         0.85083E-02         0.00000E+00
    0.13435E-01         0.82233E-02         0.00000E+00
    0.13069E-01         0.79387E-02         0.00000E+00
    0.12696E-01         0.76546E-02         0.00000E+00
    0.12318E-01         0.73711E-02         0.00000E+00
    0.11934E-01         0.70881E-02         0.00000E+00
    0.11544E-01         0.68056E-02         0.00000E+00
    0.11148E-01         0.65238E-02         0.00000E+00
    0.10747E-01         0.62425E-02         0.00000E+00
    0.10339E-01         0.59619E-02         0.00000E+00
    0.99260E-02         0.56820E-02         0.00000E+00
    0.95072E-02         0.54027E-02         0.00000E+00
    0.90826E-02         0.51241E-02         0.00000E+00
    0.86525E-02         0.48463E-02         0.00000E+00
    0.82169E-02         0.45692E-02         0.00000E+00
    0.77757E-02         0.42929E-02         0.00000E+00
    0.73291E-02         0.40173E-02         0.00000E+00
    0.68770E-02         0.37427E-02         0.00000E+00
    0.64196E-02         0.34688E-02         0.00000E+00
    0.59568E-02         0.31959E-02         0.00000E+00
    0.54887E-02         0.29238E-02         0.00000E+00
    0.50154E-02         0.26527E-02         0.00000E+00
    0.45368E-02         0.23826E-02         0.00000E+00
    0.40531E-02         0.21135E-02         0.00000E+00
    0.35641E-02         0.18454E-02         0.00000E+00
    0.30701E-02         0.15783E-02         0.00000E+00
    0.25709E-02         0.13123E-02         0.00000E+00
    0.20667E-02         0.10475E-02         0.00000E+00
    0.15575E-02         0.78380E-03         0.00000E+00
    0.10433E-02         0.52129E-03         0.00000E+00
    0.52411E-03         0.26002E-03         0.00000E+00
    0.00000E+00         0.00000E+00         0.00000E+00
    0.18843E-01         0.12866E-01         0.00000E+00
    0.18620E-01         0.12599E-01         0.00000E+00
    0.18391E-01         0.12332E-01         0.00000E+00
    0.18153E-01         0.12065E-01         0.00000E+00
    0.17909E-01         0.11799E-01         0.00000E+00
    0.17658E-01         0.11532E-01         0.00000E+00
    0.17400E-01         0.11265E-01         0.00000E+00
    0.17135E-01         0.10999E-01         0.00000E+00
    0.16863E-01         0.10733E-01         0.00000E+00
    0.16585E-01         0.10466E-01         0.00000E+00
    0.16299E-01         0.10201E-01         0.00000E+00
    0.16007E-01         0.99350E-02         0.00000E+00
    0.15709E-01         0.96697E-02         0.00000E+00
    0.15404E-01         0.94046E-02         0.00000E+00
    0.15092E-01         0.91398E-02         0.00000E+00
    0.14774E-01         0.88754E-02         0.00000E+00
    0.14450E-01         0.86113E-02         0.00000E+00
    0.14119E-01         0.83476E-02         0.00000E+00
    0.13782E-01         0.80843E-02         0.00000E+00
    0.13439E-01         0.78213E-02         0.00000E+00
    0.13090E-01         0.75588E-02         0.00000E+00
    0.12735E-01         0.72968E-02         0.00000E+00
    0.12373E-01         0.70353E-02         0.00000E+00
    0.12006E-01         0.67742E-02         0.00000E+00
    0.11633E-01         0.65137E-02         0.00000E+00
    0.11254E-01         0.62537E-02         0.00000E+00
    0.10869E-01         0.59943E-02         0.00000E+00
    0.10478E-01         0.57354E-02         0.00000E+00
    0.10081E-01         0.54772E-02         0.00000E+00
    0.96792E-02         0.52196E-02         0.00000E+00
    0.92714E-02         0.49627E-02         0.00000E+00
    0.88581E-02         0.47064E-02         0.00000E+00
    0.84391E-02         0.44509E-02         0.00000E+00
    0.80147E-02         0.41960E-02         0.00000E+00
    0.75849E-02         0.39420E-02         0.00000E+00
    0.71496E-02         0.36886E-02         0.00000E+00
    0.67090E-02         0.34361E-02         0.00000E+00
    0.62630E-02         0.31844E-02         0.00000E+00
    0.58118E-02         0.29336E-02         0.00000E+00
    0.53553E-02         0.26836E-02         0.00000E+00
    0.48937E-02         0.24346E-02         0.00000E+00
    0.44269E-02         0.21865E-02         0.00000E+00
    0.39549E-02         0.19393E-02         0.00000E+00
    0.34779E-02         0.16931E-02         0.00000E+00
    0.29959E-02         0.14479E-02         0.00000E+00
    0.25089E-02         0.12038E-02         0.00000E+00
    0.20169E-02         0.96077E-03         0.00000E+00
    0.15199E-02         0.71883E-03         0.00000E+00
    0.10181E-02         0.47804E-03         0.00000E+00
    0.51147E-03         0.23841E-03         0.00000E+00
    0.00000E+00         0.00000E+00         0.00000E+00
    0.18333E-01         0.11792E-01         0.00000E+00
    0.18118E-01         0.11547E-01         0.00000E+00
    0.17897E-01         0.11302E-01         0.00000E+00
    0.17669E-01         0.11057E-01         0.00000E+00
    0.17433E-01         0.10812E-01         0.00000E+00
    0.17191E-01         0.10567E-01         0.00000E+00
    0.16942E-01         0.10323E-01         0.00000E+00
    0.16686E-01         0.10078E-01         0.00000E+00
    0.16423E-01         0.98339E-02         0.00000E+00
    0.16154E-01         0.95898E-02         0.00000E+00
    0.15878E-01         0.93458E-02         0.00000E+00
    0.15595E-01         0.91021E-02         0.00000E+00
    0.15306E-01         0.88586E-02         0.00000E+00
    0.15010E-01         0.86154E-02         0.00000E+00
    0.14708E-01         0.83725E-02         0.00000E+00
    0.14400E-01         0.81299E-02         0.00000E+00
    0.14085E-01         0.78876E-02         0.00000E+00
    0.13764E-01         0.76457E-02         0.00000E+00
    0.13437E-01         0.74041E-02         0.00000E+00
    0.13104E-01         0.71630E-02         0.00000E+00
    0.12765E-01         0.69222E-02         0.00000E+00
    0.12419E-01         0.66819E-02         0.00000E+00
    0.12068E-01         0.64420E-02         0.00000E+00
    0.11711E-01         0.62026E-02         0.00000E+00
    0.11348E-01         0.59637E-02         0.00000E+00
    0.10979E-01         0.57253E-02         0.00000E+00
    0.10604E-01         0.54875E-02         0.00000E+00
    0.10223E-01         0.52502E-02         0.00000E+00
    0.98372E-02         0.50135E-02         0.00000E+00
    0.94454E-02         0.47774E-02         0.00000E+00
    0.90480E-02         0.45419E-02         0.00000E+00
    0.86451E-02         0.43070E-02         0.00000E+00
    0.82368E-02         0.40729E-02         0.00000E+00
    0.78230E-02         0.38394E-02         0.00000E+00
    0.74038E-02         0.36066E-02         0.00000E+00
    0.69792E-02         0.33746E-02         0.00000E+00
    0.65494E-02         0.31434E-02         0.00000E+00
    0.61143E-02         0.29129E-02         0.00000E+00
    0.56740E-02         0.26832E-02         0.00000E+00
    0.52286E-02         0.24544E-02         0.00000E+00
    0.47780E-02         0.22264E-02         0.00000E+00
    0.43223E-02         0.19993E-02         0.00000E+00
    0.38616E-02         0.17732E-02         0.00000E+00
    0.33960E-02         0.15479E-02         0.00000E+00
    0.29253E-02         0.13237E-02         0.00000E+00
    0.24498E-02         0.11004E-02         0.00000E+00
    0.19694E-02         0.87815E-03         0.00000E+00
    0.14842E-02         0.65695E-03         0.00000E+00
    0.99418E-03         0.43685E-03         0.00000E+00
    0.49944E-03         0.21785E-03         0.00000E+00
    0.00000E+00         0.00000E+00         0.00000E+00
    0.17857E-01         0.10758E-01         0.00000E+00
    0.17651E-01         0.10534E-01         0.00000E+00
    0.17437E-01         0.10311E-01         0.00000E+00
    0.17217E-01         0.10087E-01         0.00000E+00
    0.16990E-01         0.98633E-02         0.00000E+00
    0.16756E-01         0.96397E-02         0.00000E+00
    0.16515E-01         0.94163E-02         0.00000E+00
    0.16267E-01         0.91930E-02         0.00000E+00
    0.16013E-01         0.89699E-02         0.00000E+00
    0.15752E-01         0.87469E-02         0.00000E+00
    0.15484E-01         0.85241E-02         0.00000E+00
    0.15210E-01         0.83015E-02         0.00000E+00
    0.14930E-01         0.80791E-02         0.00000E+00
    0.14643E-01         0.78570E-02         0.00000E+00
    0.14350E-01         0.76352E-02         0.00000E+00
    0.14050E-01         0.74136E-02         0.00000E+00
    0.13744E-01         0.71924E-02         0.00000E+00
    0.13432E-01         0.69715E-02         0.00000E+00
    0.13114E-01         0.67509E-02         0.00000E+00
    0.12790E-01         0.65307E-02         0.00000E+00
    0.12460E-01         0.63109E-02         0.00000E+00
    0.12124E-01         0.60915E-02         0.00000E+00
    0.11782E-01         0.58725E-02         0.00000E+00
    0.11434E-01         0.56540E-02         0.00000E+00
    0.11080E-01         0.54360E-02         0.00000E+00
    0.10721E-01         0.52184E-02         0.00000E+00
    0.10355E-01         0.50013E-02         0.00000E+00
    0.99844E-02         0.47848E-02         0.00000E+00
    0.96078E-02         0.45688E-02         0.00000E+00
    0.92257E-02         0.43534E-02         0.00000E+00
    0.88381E-02         0.41385E-02         0.00000E+00
    0.84450E-02         0.39243E-02         0.00000E+00
    0.80465E-02         0.37107E-02         0.00000E+00
    0.76426E-02         0.34978E-02         0.00000E+00
    0.72334E-02         0.32855E-02         0.00000E+00
    0.68189E-02         0.30739E-02         0.00000E+00
    0.63992E-02         0.28631E-02         0.00000E+00
    0.59743E-02         0.26530E-02         0.00000E+00
    0.55443E-02         0.24436E-02         0.00000E+00
    0.51091E-02         0.22350E-02         0.00000E+00
    0.46690E-02         0.20273E-02         0.00000E+00
    0.42238E-02         0.18204E-02         0.00000E+00
    0.37737E-02         0.16143E-02         0.00000E+00
    0.33187E-02         0.14092E-02         0.00000E+00
    0.28588E-02         0.12049E-02         0.00000E+00
    0.23941E-02         0.10016E-02         0.00000E+00
    0.19246E-02         0.79924E-03         0.00000E+00
    0.14505E-02         0.59787E-03         0.00000E+00
    0.97159E-03         0.39753E-03         0.00000E+00
    0.48809E-03         0.19823E-03         0.00000E+00
    0.00000E+00         0.00000E+00         0.00000E+00
    0.17418E-01         0.97615E-02         0.00000E+00
    0.17219E-01         0.95582E-02         0.00000E+00
    0.17013E-01         0.93550E-02         0.00000E+00
    0.16799E-01         0.91518E-02         0.00000E+00
    0.16580E-01         0.89487E-02         0.00000E+00
    0.16353E-01         0.87457E-02         0.00000E+00
    0.16119E-01         0.85428E-02         0.00000E+00
    0.15879E-01         0.83400E-02         0.00000E+00
    0.15633E-01         0.81373E-02         0.00000E+00
    0.15379E-01         0.79348E-02         0.00000E+00
    0.15120E-01         0.77324E-02         0.00000E+00
    0.14854E-01         0.75303E-02         0.00000E+00
    0.14581E-01         0.73283E-02         0.00000E+00
    0.14302E-01         0.71266E-02         0.00000E+00
    0.14017E-01         0.69252E-02         0.00000E+00
    0.13726E-01         0.67240E-02         0.00000E+00
    0.13428E-01         0.65231E-02         0.00000E+00
    0.13124E-01         0.63225E-02         0.00000E+00
    0.12815E-01         0.61222E-02         0.00000E+00
    0.12499E-01         0.59223E-02         0.00000E+00
    0.12177E-01         0.57228E-02         0.00000E+00
    0.11849E-01         0.55236E-02         0.00000E+00
    0.11516E-01         0.53248E-02         0.00000E+00
    0.11176E-01         0.51264E-02         0.00000E+00
    0.10831E-01         0.49285E-02         0.00000E+00
    0.10481E-01         0.47310E-02         0.00000E+00
    0.10124E-01         0.45340E-02         0.00000E+00
    0.97620E-02         0.43375E-02         0.00000E+00
    0.93944E-02         0.41415E-02         0.00000E+00
    0.90212E-02         0.39460E-02         0.00000E+00
    0.86426E-02         0.37510E-02         0.00000E+00
    0.82586E-02         0.35567E-02         0.00000E+00
    0.78692E-02         0.33629E-02         0.00000E+00
    0.74745E-02         0.31697E-02         0.00000E+00
    0.70746E-02         0.29772E-02         0.00000E+00
    0.66695E-02         0.27853E-02         0.00000E+00
    0.62591E-02         0.25941E-02         0.00000E+00
    0.58437E-02         0.24036E-02         0.00000E+00
    0.54232E-02         0.22138E-02         0.00000E+00
    0.49977E-02         0.20247E-02         0.00000E+00
    0.45673E-02         0.18364E-02         0.00000E+00
    0.41319E-02         0.16489E-02         0.00000E+00
    0.36916E-02         0.14621E-02         0.00000E+00
    0.32465E-02         0.12762E-02         0.00000E+00
    0.27967E-02         0.10912E-02         0.00000E+00
    0.23421E-02         0.90697E-03         0.00000E+00
    0.18829E-02         0.72368E-03         0.00000E+00
    0.14190E-02         0.54132E-03         0.00000E+00
    0.95049E-03         0.35990E-03         0.00000E+00
    0.47749E-03         0.17945E-03         0.00000E+00
    0.00000E+00         0.00000E+00         0.00000E+00
    0.17016E-01         0.87985E-02         0.00000E+00
    0.16823E-01         0.86151E-02         0.00000E+00
    0.16623E-01         0.84318E-02         0.00000E+00
    0.16417E-01         0.82485E-02         0.00000E+00
    0.16203E-01         0.80653E-02         0.00000E+00
    0.15983E-01         0.78822E-02         0.00000E+00
    0.15757E-01         0.76991E-02         0.00000E+00
    0.15524E-01         0.75161E-02         0.00000E+00
    0.15284E-01         0.73333E-02         0.00000E+00
    0.15038E-01         0.71506E-02         0.00000E+00
    0.14785E-01         0.69681E-02         0.00000E+00
    0.14526E-01         0.67858E-02         0.00000E+00
    0.14261E-01         0.66036E-02         0.00000E+00
    0.13989E-01         0.64217E-02         0.00000E+00
    0.13711E-01         0.62400E-02         0.00000E+00
    0.13427E-01         0.60585E-02         0.00000E+00
    0.13137E-01         0.58773E-02         0.00000E+00
    0.12841E-01         0.56964E-02         0.00000E+00
    0.12539E-01         0.55158E-02         0.00000E+00
    0.12231E-01         0.53355E-02         0.00000E+00
    0.11917E-01         0.51555E-02         0.00000E+00
    0.11597E-01         0.49759E-02         0.00000E+00
    0.11271E-01         0.47967E-02         0.00000E+00
    0.10939E-01         0.46178E-02         0.00000E+00
    0.10602E-01         0.44393E-02         0.00000E+00
    0.10259E-01         0.42613E-02         0.00000E+00
    0.99110E-02         0.40837E-02         0.00000E+00
    0.95571E-02         0.39065E-02         0.00000E+00
    0.91976E-02         0.37298E-02         0.00000E+00
    0.88326E-02         0.35536E-02         0.00000E+00
    0.84623E-02         0.33779E-02         0.00000E+00
    0.80867E-02         0.32028E-02         0.00000E+00
    0.77057E-02         0.30281E-02         0.00000E+00
    0.73195E-02         0.28541E-02         0.00000E+00
    0.69281E-02         0.26806E-02         0.00000E+00
    0.65315E-02         0.25077E-02         0.00000E+00
    0.61299E-02         0.23354E-02         0.00000E+00
    0.57232E-02         0.21638E-02         0.00000E+00
    0.53115E-02         0.19928E-02         0.00000E+00
    0.48949E-02         0.18225E-02         0.00000E+00
    0.44733E-02         0.16529E-02         0.00000E+00
    0.40470E-02         0.14840E-02         0.00000E+00
    0.36158E-02         0.13159E-02         0.00000E+00
    0.31799E-02         0.11485E-02         0.00000E+00
    0.27393E-02         0.98192E-03         0.00000E+00
    0.22941E-02         0.81613E-03         0.00000E+00
    0.18442E-02         0.65116E-03         0.00000E+00
    0.13899E-02         0.48704E-03         0.00000E+00
    0.93100E-03         0.32379E-03         0.00000E+00
    0.46770E-03         0.16144E-03         0.00000E+00
    0.00000E+00         0.00000E+00         0.00000E+00
    0.16651E-01         0.78658E-02         0.00000E+00
    0.16463E-01         0.77018E-02         0.00000E+00
    0.16270E-01         0.75378E-02         0.00000E+00
    0.16069E-01         0.73739E-02         0.00000E+00
    0.15862E-01         0.72100E-02         0.00000E+00
    0.15648E-01         0.70461E-02         0.00000E+00
    0.15427E-01         0.68824E-02         0.00000E+00
    0.15200E-01         0.67187E-02         0.00000E+00
    0.14967E-01         0.65552E-02         0.00000E+00
    0.14727E-01         0.63917E-02         0.00000E+00
    0.14481E-01         0.62285E-02         0.00000E+00
    0.14228E-01         0.60654E-02         0.00000E+00
    0.13969E-01         0.59024E-02         0.00000E+00
    0.13704E-01         0.57397E-02         0.00000E+00
    0.13433E-01         0.55772E-02         0.00000E+00
    0.13156E-01         0.54149E-02         0.00000E+00
    0.12872E-01         0.52528E-02         0.00000E+00
    0.12583E-01         0.50910E-02         0.00000E+00
    0.12288E-01         0.49294E-02         0.00000E+00
    0.11987E-01         0.47682E-02         0.00000E+00
    0.11679E-01         0.46072E-02         0.00000E+00
    0.11367E-01         0.44466E-02         0.00000E+00
    0.11048E-01         0.42863E-02         0.00000E+00
    0.10724E-01         0.41263E-02         0.00000E+00
    0.10394E-01         0.39668E-02         0.00000E+00
    0.10058E-01         0.38075E-02         0.00000E+00
    0.97169E-02         0.36487E-02         0.00000E+00
    0.93702E-02         0.34903E-02         0.00000E+00
    0.90182E-02         0.33324E-02         0.00000E+00
    0.86607E-02         0.31748E-02         0.00000E+00
    0.82979E-02         0.30178E-02         0.00000E+00
    0.79298E-02         0.28612E-02         0.00000E+00
    0.75565E-02         0.27051E-02         0.00000E+00
    0.71780E-02         0.25495E-02         0.00000E+00
    0.67944E-02         0.23944E-02         0.00000E+00
    0.64056E-02         0.22399E-02         0.00000E+00
    0.60119E-02         0.20859E-02         0.00000E+00
    0.56132E-02         0.19326E-02         0.00000E+00
    0.52095E-02         0.17798E-02         0.00000E+00
    0.48010E-02         0.16276E-02         0.00000E+00
    0.43876E-02         0.14761E-02         0.00000E+00
    0.39695E-02         0.13252E-02         0.00000E+00
    0.35466E-02         0.11750E-02         0.00000E+00
    0.31191E-02         0.10255E-02         0.00000E+00
    0.26869E-02         0.87674E-03         0.00000E+00
    0.22502E-02         0.72867E-03         0.00000E+00
    0.18090E-02         0.58135E-03         0.00000E+00
    0.13633E-02         0.43481E-03         0.00000E+00
    0.91320E-03         0.28905E-03         0.00000E+00
    0.45875E-03         0.14411E-03         0.00000E+00
    0.00000E+00         0.00000E+00         0.00000E+00
    0.16323E-01         0.69604E-02         0.00000E+00
    0.16141E-01         0.68152E-02         0.00000E+00
    0.15952E-01         0.66700E-02         0.00000E+00
    0.15757E-01         0.65249E-02         0.00000E+00
    0.15555E-01         0.63798E-02         0.00000E+00
    0.15347E-01         0.62347E-02         0.00000E+00
    0.15132E-01         0.60898E-02         0.00000E+00
    0.14910E-01         0.59449E-02         0.00000E+00
    0.14682E-01         0.58001E-02         0.00000E+00
    0.14448E-01         0.56554E-02         0.00000E+00
    0.14208E-01         0.55109E-02         0.00000E+00
    0.13961E-01         0.53665E-02         0.00000E+00
    0.13708E-01         0.52223E-02         0.00000E+00
    0.13449E-01         0.50782E-02         0.00000E+00
    0.13183E-01         0.49344E-02         0.00000E+00
    0.12912E-01         0.47907E-02         0.00000E+00
    0.12635E-01         0.46472E-02         0.00000E+00
    0.12351E-01         0.45040E-02         0.00000E+00
    0.12062E-01         0.43610E-02         0.00000E+00
    0.11767E-01         0.42183E-02         0.00000E+00
    0.11466E-01         0.40758E-02         0.00000E+00
    0.11160E-01         0.39337E-02         0.00000E+00
    0.10847E-01         0.37918E-02         0.00000E+00
    0.10529E-01         0.36502E-02         0.00000E+00
    0.10206E-01         0.35090E-02         0.00000E+00
    0.98767E-02         0.33681E-02         0.00000E+00
    0.95422E-02         0.32275E-02         0.00000E+00
    0.92021E-02         0.30873E-02         0.00000E+00
    0.88567E-02         0.29475E-02         0.00000E+00
    0.85060E-02         0.28081E-02         0.00000E+00
    0.81499E-02         0.26691E-02         0.00000E+00
    0.77887E-02         0.25306E-02         0.00000E+00
    0.74222E-02         0.23925E-02         0.00000E+00
    0.70506E-02         0.22548E-02         0.00000E+00
    0.66740E-02         0.21176E-02         0.00000E+00
    0.62923E-02         0.19809E-02         0.00000E+00
    0.59056E-02         0.18447E-02         0.00000E+00
    0.55141E-02         0.17090E-02         0.00000E+00
    0.51176E-02         0.15739E-02         0.00000E+00
    0.47164E-02         0.14393E-02         0.00000E+00
    0.43103E-02         0.13052E-02         0.00000E+00
    0.38996E-02         0.11718E-02         0.00000E+00
    0.34842E-02         0.10390E-02         0.00000E+00
    0.30642E-02         0.90674E-03         0.00000E+00
    0.26397E-02         0.77516E-03         0.00000E+00
    0.22107E-02         0.64422E-03         0.00000E+00
    0.17772E-02         0.51396E-03         0.00000E+00
    0.13394E-02         0.38439E-03         0.00000E+00
    0.89716E-03         0.25553E-03         0.00000E+00
    0.45069E-03         0.12739E-03         0.00000E+00
    0.00000E+00         0.00000E+00         0.00000E+00
    0.16033E-01         0.60790E-02         0.00000E+00
    0.15856E-01         0.59522E-02         0.00000E+00
    0.15672E-01         0.58254E-02         0.00000E+00
    0.15481E-01         0.56986E-02         0.00000E+00
    0.15284E-01         0.55719E-02         0.00000E+00
    0.15080E-01         0.54452E-02         0.00000E+00
    0.14870E-01         0.53185E-02         0.00000E+00
    0.14654E-01         0.51920E-02         0.00000E+00
    0.14431E-01         0.50655E-02         0.00000E+00
    0.14201E-01         0.49392E-02         0.00000E+00
    0.13966E-01         0.48129E-02         0.00000E+00
    0.13724E-01         0.46868E-02         0.00000E+00
    0.13476E-01         0.45608E-02         0.00000E+00
    0.13222E-01         0.44350E-02         0.00000E+00
    0.12962E-01         0.43093E-02         0.00000E+00
    0.12696E-01         0.41838E-02         0.00000E+00
    0.12424E-01         0.40585E-02         0.00000E+00
    0.12146E-01         0.39334E-02         0.00000E+00
    0.11862E-01         0.38085E-02         0.00000E+00
    0.11573E-01         0.36839E-02         0.00000E+00
    0.11277E-01         0.35594E-02         0.00000E+00
    0.10976E-01         0.34352E-02         0.00000E+00
    0.10670E-01         0.33113E-02         0.00000E+00
    0.10357E-01         0.31877E-02         0.00000E+00
    0.10040E-01         0.30643E-02         0.00000E+00
    0.97162E-02         0.29412E-02         0.00000E+00
    0.93874E-02         0.28185E-02         0.00000E+00
    0.90533E-02         0.26960E-02         0.00000E+00
    0.87137E-02         0.25739E-02         0.00000E+00
    0.83689E-02         0.24522E-02         0.00000E+00
    0.80189E-02         0.23308E-02         0.00000E+00
    0.76636E-02         0.22097E-02         0.00000E+00
    0.73032E-02         0.20891E-02         0.00000E+00
    0.69378E-02         0.19689E-02         0.00000E+00
    0.65673E-02         0.18491E-02         0.00000E+00
    0.61919E-02         0.17297E-02         0.00000E+00
    0.58115E-02         0.16107E-02         0.00000E+00
    0.54263E-02         0.14922E-02         0.00000E+00
    0.50362E-02         0.13742E-02         0.00000E+00
    0.46414E-02         0.12567E-02         0.00000E+00
    0.42419E-02         0.11396E-02         0.00000E+00
    0.38377E-02         0.10231E-02         0.00000E+00
    0.34290E-02         0.90712E-03         0.00000E+00
    0.30157E-02         0.79167E-03         0.00000E+00
    0.25979E-02         0.67677E-03         0.00000E+00
    0.21757E-02         0.56245E-03         0.00000E+00
    0.17491E-02         0.44872E-03         0.00000E+00
    0.13181E-02         0.33559E-03         0.00000E+00
    0.88295E-03         0.22308E-03         0.00000E+00
    0.44355E-03         0.11121E-03         0.00000E+00
    0.00000E+00         0.00000E+00         0.00000E+00
    0.15782E-01         0.52187E-02         0.00000E+00
    0.15609E-01         0.51099E-02         0.00000E+00
    0.15429E-01         0.50010E-02         0.00000E+00
    0.15242E-01         0.48922E-02         0.00000E+00
    0.15049E-01         0.47834E-02         0.00000E+00
    0.14849E-01         0.46747E-02         0.00000E+00
    0.14643E-01         0.45660E-02         0.00000E+00
    0.14431E-01         0.44574E-02         0.00000E+00
    0.14212E-01         0.43489E-02         0.00000E+00
    0.13987E-01         0.42404E-02         0.00000E+00
    0.13756E-01         0.41321E-02         0.00000E+00
    0.13519E-01         0.40238E-02         0.00000E+00
    0.13275E-01         0.39157E-02         0.00000E+00
    0.13026E-01         0.38077E-02         0.00000E+00
    0.12770E-01         0.36998E-02         0.00000E+00
    0.12509E-01         0.35921E-02         0.00000E+00
    0.12241E-01         0.34845E-02         0.00000E+00
    0.11968E-01         0.33772E-02         0.00000E+00
    0.11689E-01         0.32700E-02         0.00000E+00
    0.11404E-01         0.31629E-02         0.00000E+00
    0.11114E-01         0.30561E-02         0.00000E+00
    0.10817E-01         0.29495E-02         0.00000E+00
    0.10516E-01         0.28431E-02         0.00000E+00
    0.10208E-01         0.27370E-02         0.00000E+00
    0.98953E-02         0.26311E-02         0.00000E+00
    0.95769E-02         0.25254E-02         0.00000E+00
    0.92532E-02         0.24200E-02         0.00000E+00
    0.89240E-02         0.23149E-02         0.00000E+00
    0.85896E-02         0.22101E-02         0.00000E+00
    0.82499E-02         0.21056E-02         0.00000E+00
    0.79051E-02         0.20014E-02         0.00000E+00
    0.75551E-02         0.18975E-02         0.00000E+00
    0.72000E-02         0.17939E-02         0.00000E+00
    0.68398E-02         0.16907E-02         0.00000E+00
    0.64747E-02         0.15878E-02         0.00000E+00
    0.61047E-02         0.14853E-02         0.00000E+00
    0.57298E-02         0.13831E-02         0.00000E+00
    0.53500E-02         0.12814E-02         0.00000E+00
    0.49655E-02         0.11801E-02         0.00000E+00
    0.45763E-02         0.10791E-02         0.00000E+00
    0.41824E-02         0.97864E-03         0.00000E+00
    0.37840E-02         0.87859E-03         0.00000E+00
    0.33810E-02         0.77898E-03         0.00000E+00
    0.29735E-02         0.67984E-03         0.00000E+00
    0.25615E-02         0.58118E-03         0.00000E+00
    0.21452E-02         0.48300E-03         0.00000E+00
    0.17246E-02         0.38534E-03         0.00000E+00
    0.12997E-02         0.28819E-03         0.00000E+00
    0.87060E-03         0.19158E-03         0.00000E+00
    0.43735E-03         0.95507E-04         0.00000E+00
    0.00000E+00         0.00000E+00         0.00000E+00
    0.15569E-01         0.43765E-02         0.00000E+00
    0.15399E-01         0.42853E-02         0.00000E+00
    0.15223E-01         0.41941E-02         0.00000E+00
    0.15039E-01         0.41029E-02         0.00000E+00
    0.14850E-01         0.40118E-02         0.00000E+00
    0.14654E-01         0.39207E-02         0.00000E+00
    0.14451E-01         0.38296E-02         0.00000E+00
    0.14242E-01         0.37386E-02         0.00000E+00
    0.14027E-01         0.36476E-02         0.00000E+00
    0.13806E-01         0.35568E-02         0.00000E+00
    0.13579E-01         0.34659E-02         0.00000E+00
    0.13345E-01         0.33752E-02         0.00000E+00
    0.13105E-01         0.32846E-02         0.00000E+00
    0.12860E-01         0.31941E-02         0.00000E+00
    0.12608E-01         0.31037E-02         0.00000E+00
    0.12351E-01         0.30134E-02         0.00000E+00
    0.12087E-01         0.29233E-02         0.00000E+00
    0.11818E-01         0.28332E-02         0.00000E+00
    0.11543E-01         0.27434E-02         0.00000E+00
    0.11262E-01         0.26537E-02         0.00000E+00
    0.10975E-01         0.25641E-02         0.00000E+00
    0.10683E-01         0.24748E-02         0.00000E+00
    0.10385E-01         0.23856E-02         0.00000E+00
    0.10082E-01         0.22966E-02         0.00000E+00
    0.97733E-02         0.22078E-02         0.00000E+00
    0.94592E-02         0.21192E-02         0.00000E+00
    0.91396E-02         0.20308E-02         0.00000E+00
    0.88148E-02         0.19427E-02         0.00000E+00
    0.84847E-02         0.18547E-02         0.00000E+00
    0.81494E-02         0.17671E-02         0.00000E+00
    0.78089E-02         0.16797E-02         0.00000E+00
    0.74633E-02         0.15925E-02         0.00000E+00
    0.71127E-02         0.15056E-02         0.00000E+00
    0.67570E-02         0.14190E-02         0.00000E+00
    0.63964E-02         0.13327E-02         0.00000E+00
    0.60310E-02         0.12467E-02         0.00000E+00
    0.56607E-02         0.11610E-02         0.00000E+00
    0.52856E-02         0.10757E-02         0.00000E+00
    0.49058E-02         0.99064E-03         0.00000E+00
    0.45213E-02         0.90595E-03         0.00000E+00
    0.41322E-02         0.82161E-03         0.00000E+00
    0.37386E-02         0.73763E-03         0.00000E+00
    0.33404E-02         0.65403E-03         0.00000E+00
    0.29378E-02         0.57081E-03         0.00000E+00
    0.25308E-02         0.48798E-03         0.00000E+00
    0.21195E-02         0.40557E-03         0.00000E+00
    0.17039E-02         0.32357E-03         0.00000E+00
    0.12841E-02         0.24200E-03         0.00000E+00
    0.86017E-03         0.16088E-03         0.00000E+00
    0.43211E-03         0.80206E-04         0.00000E+00
    0.00000E+00         0.00000E+00         0.00000E+00
    0.15395E-01         0.35496E-02         0.00000E+00
    0.15228E-01         0.34757E-02         0.00000E+00
    0.15054E-01         0.34019E-02         0.00000E+00
    0.14874E-01         0.33281E-02         0.00000E+00
    0.14687E-01         0.32543E-02         0.00000E+00
    0.14494E-01         0.31805E-02         0.00000E+00
    0.14294E-01         0.31067E-02         0.00000E+00
    0.14089E-01         0.30330E-02         0.00000E+00
    0.13877E-01         0.29594E-02         0.00000E+00
    0.13658E-01         0.28858E-02         0.00000E+00
    0.13434E-01         0.28122E-02         0.00000E+00
    0.13203E-01         0.27388E-02         0.00000E+00
    0.12967E-01         0.26654E-02         0.00000E+00
    0.12724E-01         0.25921E-02         0.00000E+00
    0.12476E-01         0.25188E-02         0.00000E+00
    0.12221E-01         0.24457E-02         0.00000E+00
    0.11961E-01         0.23727E-02         0.00000E+00
    0.11695E-01         0.22997E-02         0.00000E+00
    0.11423E-01         0.22269E-02         0.00000E+00
    0.11146E-01         0.21542E-02         0.00000E+00
    0.10862E-01         0.20816E-02         0.00000E+00
    0.10574E-01         0.20092E-02         0.00000E+00
    0.10279E-01         0.19369E-02         0.00000E+00
    0.99793E-02         0.18648E-02         0.00000E+00
    0.96740E-02         0.17928E-02         0.00000E+00
    0.93633E-02         0.17210E-02         0.00000E+00
    0.90472E-02         0.16493E-02         0.00000E+00
    0.87259E-02         0.15778E-02         0.00000E+00
    0.83993E-02         0.15065E-02         0.00000E+00
    0.80675E-02         0.14354E-02         0.00000E+00
    0.77306E-02         0.13645E-02         0.00000E+00
    0.73886E-02         0.12938E-02         0.00000E+00
    0.70416E-02         0.12233E-02         0.00000E+00
    0.66896E-02         0.11530E-02         0.00000E+00
    0.63327E-02         0.10830E-02         0.00000E+00
    0.59710E-02         0.10132E-02         0.00000E+00
    0.56045E-02         0.94359E-03         0.00000E+00
    0.52332E-02         0.87427E-03         0.00000E+00
    0.48572E-02         0.80522E-03         0.00000E+00
    0.44765E-02         0.73643E-03         0.00000E+00
    0.40913E-02         0.66792E-03         0.00000E+00
    0.37016E-02         0.59969E-03         0.00000E+00
    0.33074E-02         0.53176E-03         0.00000E+00
    0.29088E-02         0.46414E-03         0.00000E+00
    0.25059E-02         0.39682E-03         0.00000E+00
    0.20986E-02         0.32983E-03         0.00000E+00
    0.16871E-02         0.26316E-03         0.00000E+00
    0.12715E-02         0.19684E-03         0.00000E+00
    0.85168E-03         0.13086E-03         0.00000E+00
    0.42784E-03         0.65247E-04         0.00000E+00
    0.00000E+00         0.00000E+00         0.00000E+00
    0.15261E-01         0.27351E-02         0.00000E+00
    0.15096E-01         0.26783E-02         0.00000E+00
    0.14924E-01         0.26216E-02         0.00000E+00
    0.14746E-01         0.25649E-02         0.00000E+00
    0.14561E-01         0.25082E-02         0.00000E+00
    0.14370E-01         0.24516E-02         0.00000E+00
    0.14173E-01         0.23949E-02         0.00000E+00
    0.13970E-01         0.23383E-02         0.00000E+00
    0.13760E-01         0.22817E-02         0.00000E+00
    0.13544E-01         0.22252E-02         0.00000E+00
    0.13322E-01         0.21687E-02         0.00000E+00
    0.13094E-01         0.21122E-02         0.00000E+00
    0.12860E-01         0.20558E-02         0.00000E+00
    0.12620E-01         0.19994E-02         0.00000E+00
    0.12374E-01         0.19432E-02         0.00000E+00
    0.12122E-01         0.18869E-02         0.00000E+00
    0.11864E-01         0.18308E-02         0.00000E+00
    0.11601E-01         0.17747E-02         0.00000E+00
    0.11331E-01         0.17187E-02         0.00000E+00
    0.11056E-01         0.16628E-02         0.00000E+00
    0.10776E-01         0.16070E-02         0.00000E+00
    0.10489E-01         0.15512E-02         0.00000E+00
    0.10198E-01         0.14956E-02         0.00000E+00
    0.99003E-02         0.14401E-02         0.00000E+00
    0.95976E-02         0.13846E-02         0.00000E+00
    0.92895E-02         0.13293E-02         0.00000E+00
    0.89762E-02         0.12741E-02         0.00000E+00
    0.86575E-02         0.12191E-02         0.00000E+00
    0.83336E-02         0.11641E-02         0.00000E+00
    0.80046E-02         0.11093E-02         0.00000E+00
    0.76705E-02         0.10547E-02         0.00000E+00
    0.73313E-02         0.10001E-02         0.00000E+00
    0.69870E-02         0.94577E-03         0.00000E+00
    0.66379E-02         0.89156E-03         0.00000E+00
    0.62838E-02         0.83751E-03         0.00000E+00
    0.59250E-02         0.78363E-03         0.00000E+00
    0.55613E-02         0.72993E-03         0.00000E+00
    0.51929E-02         0.67640E-03         0.00000E+00
    0.48199E-02         0.62306E-03         0.00000E+00
    0.44422E-02         0.56992E-03         0.00000E+00
    0.40600E-02         0.51697E-03         0.00000E+00
    0.36733E-02         0.46423E-03         0.00000E+00
    0.32821E-02         0.41171E-03         0.00000E+00
    0.28866E-02         0.35940E-03         0.00000E+00
    0.24867E-02         0.30732E-03         0.00000E+00
    0.20826E-02         0.25547E-03         0.00000E+00
    0.16742E-02         0.20387E-03         0.00000E+00
    0.12617E-02         0.15251E-03         0.00000E+00
    0.84517E-03         0.10141E-03         0.00000E+00
    0.42457E-03         0.50568E-04         0.00000E+00
    0.00000E+00         0.00000E+00         0.00000E+00
    0.15165E-01         0.19302E-02         0.00000E+00
    0.15002E-01         0.18904E-02         0.00000E+00
    0.14832E-01         0.18506E-02         0.00000E+00
    0.14655E-01         0.18109E-02         0.00000E+00
    0.14472E-01         0.17711E-02         0.00000E+00
    0.14283E-01         0.17314E-02         0.00000E+00
    0.14088E-01         0.16917E-02         0.00000E+00
    0.13886E-01         0.16520E-02         0.00000E+00
    0.13678E-01         0.16123E-02         0.00000E+00
    0.13464E-01         0.15726E-02         0.00000E+00
    0.13244E-01         0.15330E-02         0.00000E+00
    0.13017E-01         0.14933E-02         0.00000E+00
    0.12785E-01         0.14537E-02         0.00000E+00
    0.12547E-01         0.14142E-02         0.00000E+00
    0.12302E-01         0.13747E-02         0.00000E+00
    0.12052E-01         0.13352E-02         0.00000E+00
    0.11796E-01         0.12957E-02         0.00000E+00
    0.11534E-01         0.12563E-02         0.00000E+00
    0.11267E-01         0.12169E-02         0.00000E+00
    0.10994E-01         0.11776E-02         0.00000E+00
    0.10715E-01         0.11383E-02         0.00000E+00
    0.10431E-01         0.10991E-02         0.00000E+00
    0.10141E-01         0.10599E-02         0.00000E+00
    0.98452E-02         0.10208E-02         0.00000E+00
    0.95444E-02         0.98179E-03         0.00000E+00
    0.92382E-02         0.94281E-03         0.00000E+00
    0.89267E-02         0.90390E-03         0.00000E+00
    0.86100E-02         0.86506E-03         0.00000E+00
    0.82880E-02         0.82629E-03         0.00000E+00
    0.79609E-02         0.78760E-03         0.00000E+00
    0.76287E-02         0.74899E-03         0.00000E+00
    0.72914E-02         0.71046E-03         0.00000E+00
    0.69492E-02         0.67203E-03         0.00000E+00
    0.66020E-02         0.63368E-03         0.00000E+00
    0.62499E-02         0.59543E-03         0.00000E+00
    0.58930E-02         0.55728E-03         0.00000E+00
    0.55314E-02         0.51924E-03         0.00000E+00
    0.51650E-02         0.48130E-03         0.00000E+00
    0.47940E-02         0.44347E-03         0.00000E+00
    0.44184E-02         0.40577E-03         0.00000E+00
    0.40382E-02         0.36818E-03         0.00000E+00
    0.36536E-02         0.33072E-03         0.00000E+00
    0.32646E-02         0.29338E-03         0.00000E+00
    0.28711E-02         0.25618E-03         0.00000E+00
    0.24734E-02         0.21913E-03         0.00000E+00
    0.20714E-02         0.18221E-03         0.00000E+00
    0.16653E-02         0.14545E-03         0.00000E+00
    0.12550E-02         0.10884E-03         0.00000E+00
    0.84066E-03         0.72394E-04         0.00000E+00
    0.42230E-03         0.36111E-04         0.00000E+00
    0.00000E+00         0.00000E+00         0.00000E+00
    0.15109E-01         0.11321E-02         0.00000E+00
    0.14947E-01         0.11092E-02         0.00000E+00
    0.14778E-01         0.10863E-02         0.00000E+00
    0.14602E-01         0.10633E-02         0.00000E+00
    0.14421E-01         0.10404E-02         0.00000E+00
    0.14233E-01         0.10175E-02         0.00000E+00
    0.14038E-01         0.99457E-03         0.00000E+00
    0.13838E-01         0.97164E-03         0.00000E+00
    0.13631E-01         0.94873E-03         0.00000E+00
    0.13418E-01         0.92581E-03         0.00000E+00
    0.13199E-01         0.90290E-03         0.00000E+00
    0.12973E-01         0.87999E-03         0.00000E+00
    0.12742E-01         0.85709E-03         0.00000E+00
    0.12505E-01         0.83419E-03         0.00000E+00
    0.12262E-01         0.81130E-03         0.00000E+00
    0.12013E-01         0.78841E-03         0.00000E+00
    0.11758E-01         0.76553E-03         0.00000E+00
    0.11497E-01         0.74265E-03         0.00000E+00
    0.11231E-01         0.71979E-03         0.00000E+00
    0.10958E-01         0.69693E-03         0.00000E+00
    0.10681E-01         0.67408E-03         0.00000E+00
    0.10397E-01         0.65125E-03         0.00000E+00
    0.10109E-01         0.62842E-03         0.00000E+00
    0.98143E-02         0.60561E-03         0.00000E+00
    0.95146E-02         0.58281E-03         0.00000E+00
    0.92095E-02         0.56002E-03         0.00000E+00
    0.88991E-02         0.53725E-03         0.00000E+00
    0.85834E-02         0.51450E-03         0.00000E+00
    0.82626E-02         0.49176E-03         0.00000E+00
    0.79365E-02         0.46904E-03         0.00000E+00
    0.76054E-02         0.44635E-03         0.00000E+00
    0.72693E-02         0.42368E-03         0.00000E+00
    0.69281E-02         0.40103E-03         0.00000E+00
    0.65821E-02         0.37841E-03         0.00000E+00
    0.62311E-02         0.35581E-03         0.00000E+00
    0.58753E-02         0.33325E-03         0.00000E+00
    0.55148E-02         0.31072E-03         0.00000E+00
    0.51496E-02         0.28822E-03         0.00000E+00
    0.47797E-02         0.26576E-03         0.00000E+00
    0.44052E-02         0.24334E-03         0.00000E+00
    0.40262E-02         0.22095E-03         0.00000E+00
    0.36428E-02         0.19862E-03         0.00000E+00
    0.32549E-02         0.17632E-03         0.00000E+00
    0.28626E-02         0.15408E-03         0.00000E+00
    0.24661E-02         0.13189E-03         0.00000E+00
    0.20653E-02         0.10975E-03         0.00000E+00
    0.16604E-02         0.87675E-04         0.00000E+00
    0.12513E-02         0.65657E-04         0.00000E+00
    0.83817E-03         0.43703E-04         0.00000E+00
    0.42105E-03         0.21816E-04         0.00000E+00
    0.00000E+00         0.00000E+00         0.00000E+00
    0.15093E-01         0.33823E-03         0.00000E+00
    0.14931E-01         0.33206E-03         0.00000E+00
    0.14763E-01         0.32590E-03         0.00000E+00
    0.14588E-01         0.31973E-03         0.00000E+00
    0.14407E-01         0.31356E-03         0.00000E+00
    0.14219E-01         0.30737E-03         0.00000E+00
    0.14025E-01         0.30118E-03         0.00000E+00
    0.13825E-01         0.29498E-03         0.00000E+00
    0.13619E-01         0.28876E-03         0.00000E+00
    0.13406E-01         0.28253E-03         0.00000E+00
    0.13187E-01         0.27628E-03         0.00000E+00
    0.12962E-01         0.27002E-03         0.00000E+00
    0.12732E-01         0.26373E-03         0.00000E+00
    0.12495E-01         0.25742E-03         0.00000E+00
    0.12252E-01         0.25109E-03         0.00000E+00
    0.12003E-01         0.24474E-03         0.00000E+00
    0.11749E-01         0.23836E-03         0.00000E+00
    0.11488E-01         0.23195E-03         0.00000E+00
    0.11222E-01         0.22551E-03         0.00000E+00
    0.10951E-01         0.21904E-03         0.00000E+00
    0.10673E-01         0.21254E-03         0.00000E+00
    0.10390E-01         0.20601E-03         0.00000E+00
    0.10102E-01         0.19945E-03         0.00000E+00
    0.98078E-02         0.19285E-03         0.00000E+00
    0.95084E-02         0.18621E-03         0.00000E+00
    0.92036E-02         0.17954E-03         0.00000E+00
    0.88935E-02         0.17283E-03         0.00000E+00
    0.85781E-02         0.16608E-03         0.00000E+00
    0.82575E-02         0.15930E-03         0.00000E+00
    0.79318E-02         0.15247E-03         0.00000E+00
    0.76009E-02         0.14561E-03         0.00000E+00
    0.72650E-02         0.13870E-03         0.00000E+00
    0.69241E-02         0.13176E-03         0.00000E+00
    0.65783E-02         0.12477E-03         0.00000E+00
    0.62276E-02         0.11774E-03         0.00000E+00
    0.58720E-02         0.11068E-03         0.00000E+00
    0.55117E-02         0.10357E-03         0.00000E+00
    0.51467E-02         0.96419E-04         0.00000E+00
    0.47771E-02         0.89229E-04         0.00000E+00
    0.44028E-02         0.81999E-04         0.00000E+00
    0.40241E-02         0.74730E-04         0.00000E+00
    0.36408E-02         0.67421E-04         0.00000E+00
    0.32531E-02         0.60073E-04         0.00000E+00
    0.28611E-02         0.52688E-04         0.00000E+00
    0.24648E-02         0.45265E-04         0.00000E+00
    0.20642E-02         0.37805E-04         0.00000E+00
    0.16595E-02         0.30311E-04         0.00000E+00
    0.12506E-02         0.22782E-04         0.00000E+00
    0.83772E-03         0.15219E-04         0.00000E+00
    0.42083E-03         0.76249E-05         0.00000E+00
    0.00000E+00         0.00000E+00         0.00000E+00
    0.15116E-01        -0.45425E-03         0.00000E+00
    0.14955E-01        -0.44366E-03         0.00000E+00
    0.14786E-01        -0.43308E-03         0.00000E+00
    0.14611E-01        -0.42251E-03         0.00000E+00
    0.14430E-01        -0.41195E-03         0.00000E+00
    0.14242E-01        -0.40141E-03         0.00000E+00
    0.14048E-01        -0.39088E-03         0.00000E+00
    0.13848E-01        -0.38039E-03         0.00000E+00
    0.13642E-01        -0.36992E-03         0.00000E+00
    0.13429E-01        -0.35948E-03         0.00000E+00
    0.13210E-01        -0.34909E-03         0.00000E+00
    0.12985E-01        -0.33873E-03         0.00000E+00
    0.12754E-01        -0.32842E-03         0.00000E+00
    0.12517E-01        -0.31815E-03         0.00000E+00
    0.12274E-01        -0.30794E-03         0.00000E+00
    0.12025E-01        -0.29779E-03         0.00000E+00
    0.11770E-01        -0.28769E-03         0.00000E+00
    0.11509E-01        -0.27765E-03         0.00000E+00
    0.11243E-01        -0.26769E-03         0.00000E+00
    0.10971E-01        -0.25779E-03         0.00000E+00
    0.10693E-01        -0.24796E-03         0.00000E+00
    0.10409E-01        -0.23821E-03         0.00000E+00
    0.10120E-01        -0.22854E-03         0.00000E+00
    0.98259E-02        -0.21895E-03         0.00000E+00
    0.95260E-02        -0.20945E-03         0.00000E+00
    0.92207E-02        -0.20003E-03         0.00000E+00
    0.89101E-02        -0.19071E-03         0.00000E+00
    0.85942E-02        -0.18147E-03         0.00000E+00
    0.82730E-02        -0.17234E-03         0.00000E+00
    0.79467E-02        -0.16330E-03         0.00000E+00
    0.76153E-02        -0.15437E-03         0.00000E+00
    0.72788E-02        -0.14553E-03         0.00000E+00
    0.69373E-02        -0.13681E-03         0.00000E+00
    0.65908E-02        -0.12819E-03         0.00000E+00
    0.62394E-02        -0.11968E-03         0.00000E+00
    0.58833E-02        -0.11129E-03         0.00000E+00
    0.55223E-02        -0.10301E-03         0.00000E+00
    0.51566E-02        -0.94843E-04         0.00000E+00
    0.47862E-02        -0.86797E-04         0.00000E+00
    0.44113E-02        -0.78871E-04         0.00000E+00
    0.40318E-02        -0.71066E-04         0.00000E+00
    0.36478E-02        -0.63385E-04         0.00000E+00
    0.32594E-02        -0.55828E-04         0.00000E+00
    0.28666E-02        -0.48397E-04         0.00000E+00
    0.24695E-02        -0.41093E-04         0.00000E+00
    0.20682E-02        -0.33918E-04         0.00000E+00
    0.16627E-02        -0.26872E-04         0.00000E+00
    0.12530E-02        -0.19956E-04         0.00000E+00
    0.83933E-03        -0.13172E-04         0.00000E+00
    0.42164E-03        -0.65194E-05         0.00000E+00
    0.00000E+00         0.00000E+00         0.00000E+00
    0.15180E-01        -0.12480E-02         0.00000E+00
    0.15018E-01        -0.12206E-02         0.00000E+00
    0.14849E-01        -0.11933E-02         0.00000E+00
    0.14674E-01        -0.11659E-02         0.00000E+00
    0.14492E-01        -0.11386E-02         0.00000E+00
    0.14303E-01        -0.11113E-02         0.00000E+00
    0.14109E-01        -0.10840E-02         0.00000E+00
    0.13908E-01        -0.10568E-02         0.00000E+00
    0.13700E-01        -0.10296E-02         0.00000E+00
    0.13487E-01        -0.10025E-02         0.00000E+00
    0.13267E-01        -0.97540E-03         0.00000E+00
    0.13041E-01        -0.94839E-03         0.00000E+00
    0.12809E-01        -0.92145E-03         0.00000E+00
    0.12571E-01        -0.89458E-03         0.00000E+00
    0.12327E-01        -0.86779E-03         0.00000E+00
    0.12077E-01        -0.84109E-03         0.00000E+00
    0.11821E-01        -0.81448E-03         0.00000E+00
    0.11559E-01        -0.78797E-03         0.00000E+00
    0.11292E-01        -0.76157E-03         0.00000E+00
    0.11018E-01        -0.73527E-03         0.00000E+00
    0.10739E-01        -0.70909E-03         0.00000E+00
    0.10455E-01        -0.68303E-03         0.00000E+00
    0.10165E-01        -0.65709E-03         0.00000E+00
    0.98688E-02        -0.63128E-03         0.00000E+00
    0.95677E-02        -0.60561E-03         0.00000E+00
    0.92611E-02        -0.58008E-03         0.00000E+00
    0.89491E-02        -0.55469E-03         0.00000E+00
    0.86318E-02        -0.52946E-03         0.00000E+00
    0.83093E-02        -0.50437E-03         0.00000E+00
    0.79815E-02        -0.47945E-03         0.00000E+00
    0.76487E-02        -0.45469E-03         0.00000E+00
    0.73107E-02        -0.43010E-03         0.00000E+00
    0.69677E-02        -0.40567E-03         0.00000E+00
    0.66197E-02        -0.38143E-03         0.00000E+00
    0.62668E-02        -0.35737E-03         0.00000E+00
    0.59091E-02        -0.33349E-03         0.00000E+00
    0.55465E-02        -0.30980E-03         0.00000E+00
    0.51793E-02        -0.28630E-03         0.00000E+00
    0.48073E-02        -0.26300E-03         0.00000E+00
    0.44307E-02        -0.23990E-03         0.00000E+00
    0.40495E-02        -0.21700E-03         0.00000E+00
    0.36638E-02        -0.19431E-03         0.00000E+00
    0.32737E-02        -0.17184E-03         0.00000E+00
    0.28792E-02        -0.14957E-03         0.00000E+00
    0.24804E-02        -0.12753E-03         0.00000E+00
    0.20773E-02        -0.10570E-03         0.00000E+00
    0.16700E-02        -0.84101E-04         0.00000E+00
    0.12585E-02        -0.62728E-04         0.00000E+00
    0.84302E-03        -0.41584E-04         0.00000E+00
    0.42349E-03        -0.20674E-04         0.00000E+00
    0.00000E+00         0.00000E+00         0.00000E+00
    0.15285E-01        -0.20458E-02         0.00000E+00
    0.15121E-01        -0.20016E-02         0.00000E+00
    0.14951E-01        -0.19573E-02         0.00000E+00
    0.14775E-01        -0.19131E-02         0.00000E+00
    0.14591E-01        -0.18689E-02         0.00000E+00
    0.14402E-01        -0.18248E-02         0.00000E+00
    0.14206E-01        -0.17807E-02         0.00000E+00
    0.14003E-01        -0.17366E-02         0.00000E+00
    0.13794E-01        -0.16926E-02         0.00000E+00
    0.13579E-01        -0.16487E-02         0.00000E+00
    0.13358E-01        -0.16049E-02         0.00000E+00
    0.13131E-01        -0.15611E-02         0.00000E+00
    0.12897E-01        -0.15174E-02         0.00000E+00
    0.12657E-01        -0.14739E-02         0.00000E+00
    0.12412E-01        -0.14304E-02         0.00000E+00
    0.12160E-01        -0.13871E-02         0.00000E+00
    0.11902E-01        -0.13439E-02         0.00000E+00
    0.11639E-01        -0.13008E-02         0.00000E+00
    0.11369E-01        -0.12579E-02         0.00000E+00
    0.11094E-01        -0.12151E-02         0.00000E+00
    0.10813E-01        -0.11725E-02         0.00000E+00
    0.10527E-01        -0.11301E-02         0.00000E+00
    0.10234E-01        -0.10878E-02         0.00000E+00
    0.99367E-02        -0.10457E-02         0.00000E+00
    0.96335E-02        -0.10037E-02         0.00000E+00
    0.93248E-02        -0.96201E-03         0.00000E+00
    0.90106E-02        -0.92048E-03         0.00000E+00
    0.86912E-02        -0.87916E-03         0.00000E+00
    0.83664E-02        -0.83805E-03         0.00000E+00
    0.80364E-02        -0.79716E-03         0.00000E+00
    0.77012E-02        -0.75649E-03         0.00000E+00
    0.73609E-02        -0.71606E-03         0.00000E+00
    0.70156E-02        -0.67586E-03         0.00000E+00
    0.66652E-02        -0.63591E-03         0.00000E+00
    0.63099E-02        -0.59622E-03         0.00000E+00
    0.59497E-02        -0.55678E-03         0.00000E+00
    0.55846E-02        -0.51760E-03         0.00000E+00
    0.52148E-02        -0.47869E-03         0.00000E+00
    0.48403E-02        -0.44006E-03         0.00000E+00
    0.44611E-02        -0.40171E-03         0.00000E+00
    0.40773E-02        -0.36365E-03         0.00000E+00
    0.36890E-02        -0.32588E-03         0.00000E+00
    0.32962E-02        -0.28841E-03         0.00000E+00
    0.28990E-02        -0.25124E-03         0.00000E+00
    0.24974E-02        -0.21438E-03         0.00000E+00
    0.20915E-02        -0.17783E-03         0.00000E+00
    0.16814E-02        -0.14161E-03         0.00000E+00
    0.12672E-02        -0.10570E-03         0.00000E+00
    0.84880E-03        -0.70134E-04         0.00000E+00
    0.42639E-03        -0.34897E-04         0.00000E+00
    0.00000E+00         0.00000E+00         0.00000E+00
    0.15430E-01        -0.28504E-02         0.00000E+00
    0.15265E-01        -0.27891E-02         0.00000E+00
    0.15093E-01        -0.27279E-02         0.00000E+00
    0.14915E-01        -0.26666E-02         0.00000E+00
    0.14730E-01        -0.26055E-02         0.00000E+00
    0.14538E-01        -0.25443E-02         0.00000E+00
    0.14340E-01        -0.24832E-02         0.00000E+00
    0.14136E-01        -0.24222E-02         0.00000E+00
    0.13925E-01        -0.23613E-02         0.00000E+00
    0.13708E-01        -0.23004E-02         0.00000E+00
    0.13484E-01        -0.22397E-02         0.00000E+00
    0.13255E-01        -0.21791E-02         0.00000E+00
    0.13019E-01        -0.21185E-02         0.00000E+00
    0.12777E-01        -0.20582E-02         0.00000E+00
    0.12528E-01        -0.19979E-02         0.00000E+00
    0.12274E-01        -0.19378E-02         0.00000E+00
    0.12014E-01        -0.18779E-02         0.00000E+00
    0.11748E-01        -0.18181E-02         0.00000E+00
    0.11476E-01        -0.17585E-02         0.00000E+00
    0.11198E-01        -0.16991E-02         0.00000E+00
    0.10915E-01        -0.16399E-02         0.00000E+00
    0.10625E-01        -0.15809E-02         0.00000E+00
    0.10330E-01        -0.15222E-02         0.00000E+00
    0.10030E-01        -0.14636E-02         0.00000E+00
    0.97236E-02        -0.14053E-02         0.00000E+00
    0.94120E-02        -0.13472E-02         0.00000E+00
    0.90949E-02        -0.12894E-02         0.00000E+00
    0.87724E-02        -0.12319E-02         0.00000E+00
    0.84446E-02        -0.11746E-02         0.00000E+00
    0.81114E-02        -0.11176E-02         0.00000E+00
    0.77731E-02        -0.10609E-02         0.00000E+00
    0.74296E-02        -0.10045E-02         0.00000E+00
    0.70810E-02        -0.94840E-03         0.00000E+00
    0.67273E-02        -0.89261E-03         0.00000E+00
    0.63687E-02        -0.83715E-03         0.00000E+00
    0.60051E-02        -0.78201E-03         0.00000E+00
    0.56366E-02        -0.72722E-03         0.00000E+00
    0.52633E-02        -0.67277E-03         0.00000E+00
    0.48853E-02        -0.61867E-03         0.00000E+00
    0.45026E-02        -0.56494E-03         0.00000E+00
    0.41152E-02        -0.51158E-03         0.00000E+00
    0.37233E-02        -0.45860E-03         0.00000E+00
    0.33268E-02        -0.40600E-03         0.00000E+00
    0.29259E-02        -0.35380E-03         0.00000E+00
    0.25206E-02        -0.30199E-03         0.00000E+00
    0.21109E-02        -0.25060E-03         0.00000E+00
    0.16970E-02        -0.19962E-03         0.00000E+00
    0.12789E-02        -0.14906E-03         0.00000E+00
    0.85668E-03        -0.98935E-04         0.00000E+00
    0.43035E-03        -0.49246E-04         0.00000E+00
    0.00000E+00         0.00000E+00         0.00000E+00
    0.15617E-01        -0.36644E-02         0.00000E+00
    0.15449E-01        -0.35860E-02         0.00000E+00
    0.15275E-01        -0.35075E-02         0.00000E+00
    0.15094E-01        -0.34291E-02         0.00000E+00
    0.14907E-01        -0.33508E-02         0.00000E+00
    0.14713E-01        -0.32724E-02         0.00000E+00
    0.14512E-01        -0.31942E-02         0.00000E+00
    0.14305E-01        -0.31160E-02         0.00000E+00
    0.14092E-01        -0.30380E-02         0.00000E+00
    0.13872E-01        -0.29600E-02         0.00000E+00
    0.13645E-01        -0.28821E-02         0.00000E+00
    0.13413E-01        -0.28044E-02         0.00000E+00
    0.13174E-01        -0.27269E-02         0.00000E+00
    0.12929E-01        -0.26495E-02         0.00000E+00
    0.12677E-01        -0.25722E-02         0.00000E+00
    0.12420E-01        -0.24952E-02         0.00000E+00
    0.12157E-01        -0.24183E-02         0.00000E+00
    0.11887E-01        -0.23416E-02         0.00000E+00
    0.11612E-01        -0.22652E-02         0.00000E+00
    0.11331E-01        -0.21890E-02         0.00000E+00
    0.11044E-01        -0.21130E-02         0.00000E+00
    0.10751E-01        -0.20373E-02         0.00000E+00
    0.10452E-01        -0.19619E-02         0.00000E+00
    0.10148E-01        -0.18867E-02         0.00000E+00
    0.98383E-02        -0.18118E-02         0.00000E+00
    0.95229E-02        -0.17372E-02         0.00000E+00
    0.92020E-02        -0.16629E-02         0.00000E+00
    0.88756E-02        -0.15890E-02         0.00000E+00
    0.85439E-02        -0.15153E-02         0.00000E+00
    0.82068E-02        -0.14420E-02         0.00000E+00
    0.78644E-02        -0.13691E-02         0.00000E+00
    0.75168E-02        -0.12965E-02         0.00000E+00
    0.71641E-02        -0.12243E-02         0.00000E+00
    0.68062E-02        -0.11525E-02         0.00000E+00
    0.64433E-02        -0.10811E-02         0.00000E+00
    0.60754E-02        -0.10101E-02         0.00000E+00
    0.57026E-02        -0.93946E-03         0.00000E+00
    0.53250E-02        -0.86928E-03         0.00000E+00
    0.49425E-02        -0.79953E-03         0.00000E+00
    0.45552E-02        -0.73023E-03         0.00000E+00
    0.41633E-02        -0.66138E-03         0.00000E+00
    0.37668E-02        -0.59300E-03         0.00000E+00
    0.33657E-02        -0.52509E-03         0.00000E+00
    0.29601E-02        -0.45766E-03         0.00000E+00
    0.25500E-02        -0.39073E-03         0.00000E+00
    0.21356E-02        -0.32429E-03         0.00000E+00
    0.17169E-02        -0.25837E-03         0.00000E+00
    0.12939E-02        -0.19298E-03         0.00000E+00
    0.86668E-03        -0.12811E-03         0.00000E+00
    0.43537E-03        -0.63779E-04         0.00000E+00
    0.00000E+00         0.00000E+00         0.00000E+00
    0.15845E-01        -0.44909E-02         0.00000E+00
    0.15674E-01        -0.43950E-02         0.00000E+00
    0.15497E-01        -0.42991E-02         0.00000E+00
    0.15314E-01        -0.42033E-02         0.00000E+00
    0.15123E-01        -0.41075E-02         0.00000E+00
    0.14926E-01        -0.40117E-02         0.00000E+00
    0.14722E-01        -0.39160E-02         0.00000E+00
    0.14512E-01        -0.38205E-02         0.00000E+00
    0.14295E-01        -0.37250E-02         0.00000E+00
    0.14072E-01        -0.36297E-02         0.00000E+00
    0.13842E-01        -0.35345E-02         0.00000E+00
    0.13605E-01        -0.34395E-02         0.00000E+00
    0.13363E-01        -0.33446E-02         0.00000E+00
    0.13114E-01        -0.32499E-02         0.00000E+00
    0.12859E-01        -0.31554E-02         0.00000E+00
    0.12598E-01        -0.30612E-02         0.00000E+00
    0.12330E-01        -0.29671E-02         0.00000E+00
    0.12057E-01        -0.28733E-02         0.00000E+00
    0.11778E-01        -0.27798E-02         0.00000E+00
    0.11492E-01        -0.26865E-02         0.00000E+00
    0.11201E-01        -0.25936E-02         0.00000E+00
    0.10904E-01        -0.25009E-02         0.00000E+00
    0.10601E-01        -0.24085E-02         0.00000E+00
    0.10292E-01        -0.23164E-02         0.00000E+00
    0.99776E-02        -0.22247E-02         0.00000E+00
    0.96577E-02        -0.21334E-02         0.00000E+00
    0.93321E-02        -0.20424E-02         0.00000E+00
    0.90010E-02        -0.19517E-02         0.00000E+00
    0.86645E-02        -0.18615E-02         0.00000E+00
    0.83225E-02        -0.17717E-02         0.00000E+00
    0.79752E-02        -0.16823E-02         0.00000E+00
    0.76227E-02        -0.15933E-02         0.00000E+00
    0.72649E-02        -0.15047E-02         0.00000E+00
    0.69020E-02        -0.14166E-02         0.00000E+00
    0.65339E-02        -0.13290E-02         0.00000E+00
    0.61608E-02        -0.12418E-02         0.00000E+00
    0.57827E-02        -0.11552E-02         0.00000E+00
    0.53997E-02        -0.10690E-02         0.00000E+00
    0.50118E-02        -0.98336E-03         0.00000E+00
    0.46191E-02        -0.89823E-03         0.00000E+00
    0.42217E-02        -0.81365E-03         0.00000E+00
    0.38196E-02        -0.72962E-03         0.00000E+00
    0.34128E-02        -0.64615E-03         0.00000E+00
    0.30015E-02        -0.56325E-03         0.00000E+00
    0.25857E-02        -0.48093E-03         0.00000E+00
    0.21655E-02        -0.39922E-03         0.00000E+00
    0.17409E-02        -0.31811E-03         0.00000E+00
    0.13120E-02        -0.23762E-03         0.00000E+00
    0.87881E-03        -0.15777E-03         0.00000E+00
    0.44146E-03        -0.78558E-04         0.00000E+00
    0.00000E+00         0.00000E+00         0.00000E+00
    0.16115E-01        -0.53326E-02         0.00000E+00
    0.15941E-01        -0.52190E-02         0.00000E+00
    0.15761E-01        -0.51053E-02         0.00000E+00
    0.15573E-01        -0.49917E-02         0.00000E+00
    0.15379E-01        -0.48782E-02         0.00000E+00
    0.15178E-01        -0.47647E-02         0.00000E+00
    0.14971E-01        -0.46513E-02         0.00000E+00
    0.14756E-01        -0.45381E-02         0.00000E+00
    0.14535E-01        -0.44249E-02         0.00000E+00
    0.14308E-01        -0.43119E-02         0.00000E+00
    0.14074E-01        -0.41991E-02         0.00000E+00
    0.13833E-01        -0.40864E-02         0.00000E+00
    0.13586E-01        -0.39740E-02         0.00000E+00
    0.13333E-01        -0.38617E-02         0.00000E+00
    0.13073E-01        -0.37497E-02         0.00000E+00
    0.12807E-01        -0.36379E-02         0.00000E+00
    0.12535E-01        -0.35264E-02         0.00000E+00
    0.12257E-01        -0.34152E-02         0.00000E+00
    0.11973E-01        -0.33042E-02         0.00000E+00
    0.11682E-01        -0.31936E-02         0.00000E+00
    0.11386E-01        -0.30833E-02         0.00000E+00
    0.11084E-01        -0.29733E-02         0.00000E+00
    0.10775E-01        -0.28637E-02         0.00000E+00
    0.10462E-01        -0.27545E-02         0.00000E+00
    0.10142E-01        -0.26456E-02         0.00000E+00
    0.98164E-02        -0.25372E-02         0.00000E+00
    0.94853E-02        -0.24292E-02         0.00000E+00
    0.91486E-02        -0.23216E-02         0.00000E+00
    0.88065E-02        -0.22144E-02         0.00000E+00
    0.84588E-02        -0.21078E-02         0.00000E+00
    0.81057E-02        -0.20016E-02         0.00000E+00
    0.77473E-02        -0.18958E-02         0.00000E+00
    0.73836E-02        -0.17906E-02         0.00000E+00
    0.70146E-02        -0.16860E-02         0.00000E+00
    0.66405E-02        -0.15818E-02         0.00000E+00
    0.62612E-02        -0.14782E-02         0.00000E+00
    0.58769E-02        -0.13752E-02         0.00000E+00
    0.54876E-02        -0.12727E-02         0.00000E+00
    0.50934E-02        -0.11709E-02         0.00000E+00
    0.46943E-02        -0.10696E-02         0.00000E+00
    0.42903E-02        -0.96900E-03         0.00000E+00
    0.38817E-02        -0.86901E-03         0.00000E+00
    0.34683E-02        -0.76966E-03         0.00000E+00
    0.30503E-02        -0.67099E-03         0.00000E+00
    0.26277E-02        -0.57299E-03         0.00000E+00
    0.22007E-02        -0.47568E-03         0.00000E+00
    0.17691E-02        -0.37908E-03         0.00000E+00
    0.13333E-02        -0.28320E-03         0.00000E+00
    0.89307E-03        -0.18805E-03         0.00000E+00
    0.44863E-03        -0.93643E-04         0.00000E+00
    0.00000E+00         0.00000E+00         0.00000E+00
    0.16427E-01        -0.61926E-02         0.00000E+00
    0.16249E-01        -0.60608E-02         0.00000E+00
    0.16065E-01        -0.59291E-02         0.00000E+00
    0.15873E-01        -0.57974E-02         0.00000E+00
    0.15675E-01        -0.56657E-02         0.00000E+00
    0.15469E-01        -0.55342E-02         0.00000E+00
    0.15257E-01        -0.54027E-02         0.00000E+00
    0.15038E-01        -0.52714E-02         0.00000E+00
    0.14813E-01        -0.51402E-02         0.00000E+00
    0.14580E-01        -0.50092E-02         0.00000E+00
    0.14341E-01        -0.48783E-02         0.00000E+00
    0.14096E-01        -0.47477E-02         0.00000E+00
    0.13844E-01        -0.46173E-02         0.00000E+00
    0.13585E-01        -0.44871E-02         0.00000E+00
    0.13320E-01        -0.43572E-02         0.00000E+00
    0.13049E-01        -0.42275E-02         0.00000E+00
    0.12771E-01        -0.40982E-02         0.00000E+00
    0.12488E-01        -0.39691E-02         0.00000E+00
    0.12198E-01        -0.38404E-02         0.00000E+00
    0.11901E-01        -0.37121E-02         0.00000E+00
    0.11599E-01        -0.35841E-02         0.00000E+00
    0.11291E-01        -0.34565E-02         0.00000E+00
    0.10977E-01        -0.33293E-02         0.00000E+00
    0.10657E-01        -0.32025E-02         0.00000E+00
    0.10331E-01        -0.30762E-02         0.00000E+00
    0.99992E-02        -0.29503E-02         0.00000E+00
    0.96618E-02        -0.28249E-02         0.00000E+00
    0.93187E-02        -0.26999E-02         0.00000E+00
    0.89700E-02        -0.25755E-02         0.00000E+00
    0.86157E-02        -0.24516E-02         0.00000E+00
    0.82559E-02        -0.23283E-02         0.00000E+00
    0.78908E-02        -0.22055E-02         0.00000E+00
    0.75202E-02        -0.20832E-02         0.00000E+00
    0.71443E-02        -0.19616E-02         0.00000E+00
    0.67632E-02        -0.18406E-02         0.00000E+00
    0.63768E-02        -0.17202E-02         0.00000E+00
    0.59854E-02        -0.16004E-02         0.00000E+00
    0.55888E-02        -0.14813E-02         0.00000E+00
    0.51873E-02        -0.13628E-02         0.00000E+00
    0.47807E-02        -0.12451E-02         0.00000E+00
    0.43693E-02        -0.11281E-02         0.00000E+00
    0.39531E-02        -0.10117E-02         0.00000E+00
    0.35321E-02        -0.89615E-03         0.00000E+00
    0.31064E-02        -0.78132E-03         0.00000E+00
    0.26760E-02        -0.66727E-03         0.00000E+00
    0.22411E-02        -0.55400E-03         0.00000E+00
    0.18017E-02        -0.44153E-03         0.00000E+00
    0.13578E-02        -0.32988E-03         0.00000E+00
    0.90948E-03        -0.21906E-03         0.00000E+00
    0.45687E-03        -0.10910E-03         0.00000E+00
    0.00000E+00         0.00000E+00         0.00000E+00
    0.16782E-01        -0.70738E-02         0.00000E+00
    0.16600E-01        -0.69235E-02         0.00000E+00
    0.16411E-01        -0.67733E-02         0.00000E+00
    0.16214E-01        -0.66230E-02         0.00000E+00
    0.16011E-01        -0.64729E-02         0.00000E+00
    0.15800E-01        -0.63228E-02         0.00000E+00
    0.15583E-01        -0.61729E-02         0.00000E+00
    0.15359E-01        -0.60231E-02         0.00000E+00
    0.15127E-01        -0.58734E-02         0.00000E+00
    0.14890E-01        -0.57240E-02         0.00000E+00
    0.14645E-01        -0.55747E-02         0.00000E+00
    0.14394E-01        -0.54257E-02         0.00000E+00
    0.14136E-01        -0.52769E-02         0.00000E+00
    0.13871E-01        -0.51283E-02         0.00000E+00
    0.13600E-01        -0.49801E-02         0.00000E+00
    0.13323E-01        -0.48322E-02         0.00000E+00
    0.13039E-01        -0.46846E-02         0.00000E+00
    0.12749E-01        -0.45373E-02         0.00000E+00
    0.12452E-01        -0.43904E-02         0.00000E+00
    0.12150E-01        -0.42439E-02         0.00000E+00
    0.11841E-01        -0.40978E-02         0.00000E+00
    0.11526E-01        -0.39522E-02         0.00000E+00
    0.11205E-01        -0.38069E-02         0.00000E+00
    0.10878E-01        -0.36622E-02         0.00000E+00
    0.10545E-01        -0.35179E-02         0.00000E+00
    0.10206E-01        -0.33742E-02         0.00000E+00
    0.98615E-02        -0.32309E-02         0.00000E+00
    0.95111E-02        -0.30882E-02         0.00000E+00
    0.91550E-02        -0.29461E-02         0.00000E+00
    0.87933E-02        -0.28046E-02         0.00000E+00
    0.84259E-02        -0.26636E-02         0.00000E+00
    0.80531E-02        -0.25233E-02         0.00000E+00
    0.76748E-02        -0.23836E-02         0.00000E+00
    0.72910E-02        -0.22446E-02         0.00000E+00
    0.69020E-02        -0.21063E-02         0.00000E+00
    0.65076E-02        -0.19686E-02         0.00000E+00
    0.61080E-02        -0.18317E-02         0.00000E+00
    0.57033E-02        -0.16955E-02         0.00000E+00
    0.52934E-02        -0.15600E-02         0.00000E+00
    0.48786E-02        -0.14254E-02         0.00000E+00
    0.44587E-02        -0.12915E-02         0.00000E+00
    0.40339E-02        -0.11584E-02         0.00000E+00
    0.36043E-02        -0.10261E-02         0.00000E+00
    0.31698E-02        -0.89471E-03         0.00000E+00
    0.27307E-02        -0.76416E-03         0.00000E+00
    0.22869E-02        -0.63449E-03         0.00000E+00
    0.18384E-02        -0.50572E-03         0.00000E+00
    0.13855E-02        -0.37787E-03         0.00000E+00
    0.92804E-03        -0.25095E-03         0.00000E+00
    0.46619E-03        -0.12499E-03         0.00000E+00
    0.00000E+00         0.00000E+00         0.00000E+00
    0.17180E-01        -0.79795E-02         0.00000E+00
    0.16993E-01        -0.78102E-02         0.00000E+00
    0.16798E-01        -0.76409E-02         0.00000E+00
    0.16596E-01        -0.74717E-02         0.00000E+00
    0.16387E-01        -0.73026E-02         0.00000E+00
    0.16171E-01        -0.71335E-02         0.00000E+00
    0.15948E-01        -0.69646E-02         0.00000E+00
    0.15717E-01        -0.67959E-02         0.00000E+00
    0.15480E-01        -0.66273E-02         0.00000E+00
    0.15236E-01        -0.64589E-02         0.00000E+00
    0.14985E-01        -0.62908E-02         0.00000E+00
    0.14727E-01        -0.61229E-02         0.00000E+00
    0.14463E-01        -0.59552E-02         0.00000E+00
    0.14191E-01        -0.57879E-02         0.00000E+00
    0.13914E-01        -0.56208E-02         0.00000E+00
    0.13629E-01        -0.54541E-02         0.00000E+00
    0.13338E-01        -0.52878E-02         0.00000E+00
    0.13041E-01        -0.51218E-02         0.00000E+00
    0.12737E-01        -0.49563E-02         0.00000E+00
    0.12427E-01        -0.47911E-02         0.00000E+00
    0.12111E-01        -0.46264E-02         0.00000E+00
    0.11788E-01        -0.44622E-02         0.00000E+00
    0.11460E-01        -0.42985E-02         0.00000E+00
    0.11125E-01        -0.41353E-02         0.00000E+00
    0.10784E-01        -0.39726E-02         0.00000E+00
    0.10437E-01        -0.38105E-02         0.00000E+00
    0.10085E-01        -0.36490E-02         0.00000E+00
    0.97261E-02        -0.34880E-02         0.00000E+00
    0.93617E-02        -0.33277E-02         0.00000E+00
    0.89916E-02        -0.31680E-02         0.00000E+00
    0.86158E-02        -0.30090E-02         0.00000E+00
    0.82343E-02        -0.28507E-02         0.00000E+00
    0.78473E-02        -0.26931E-02         0.00000E+00
    0.74548E-02        -0.25362E-02         0.00000E+00
    0.70569E-02        -0.23800E-02         0.00000E+00
    0.66536E-02        -0.22246E-02         0.00000E+00
    0.62449E-02        -0.20700E-02         0.00000E+00
    0.58310E-02        -0.19162E-02         0.00000E+00
    0.54119E-02        -0.17633E-02         0.00000E+00
    0.49877E-02        -0.16112E-02         0.00000E+00
    0.45584E-02        -0.14599E-02         0.00000E+00
    0.41241E-02        -0.13096E-02         0.00000E+00
    0.36848E-02        -0.11601E-02         0.00000E+00
    0.32407E-02        -0.10116E-02         0.00000E+00
    0.27917E-02        -0.86409E-03         0.00000E+00
    0.23379E-02        -0.71752E-03         0.00000E+00
    0.18795E-02        -0.57194E-03         0.00000E+00
    0.14164E-02        -0.42738E-03         0.00000E+00
    0.94875E-03        -0.28385E-03         0.00000E+00
    0.47660E-03        -0.14139E-03         0.00000E+00
    0.00000E+00         0.00000E+00         0.00000E+00
    0.17622E-01        -0.89128E-02         0.00000E+00
    0.17429E-01        -0.87240E-02         0.00000E+00
    0.17228E-01        -0.85352E-02         0.00000E+00
    0.17020E-01        -0.83465E-02         0.00000E+00
    0.16804E-01        -0.81578E-02         0.00000E+00
    0.16582E-01        -0.79693E-02         0.00000E+00
    0.16352E-01        -0.77809E-02         0.00000E+00
    0.16115E-01        -0.75926E-02         0.00000E+00
    0.15871E-01        -0.74046E-02         0.00000E+00
    0.15619E-01        -0.72168E-02         0.00000E+00
    0.15361E-01        -0.70292E-02         0.00000E+00
    0.15096E-01        -0.68418E-02         0.00000E+00
    0.14824E-01        -0.66548E-02         0.00000E+00
    0.14546E-01        -0.64681E-02         0.00000E+00
    0.14260E-01        -0.62817E-02         0.00000E+00
    0.13968E-01        -0.60957E-02         0.00000E+00
    0.13669E-01        -0.59101E-02         0.00000E+00
    0.13364E-01        -0.57249E-02         0.00000E+00
    0.13052E-01        -0.55401E-02         0.00000E+00
    0.12734E-01        -0.53558E-02         0.00000E+00
    0.12410E-01        -0.51720E-02         0.00000E+00
    0.12079E-01        -0.49887E-02         0.00000E+00
    0.11741E-01        -0.48059E-02         0.00000E+00
    0.11398E-01        -0.46237E-02         0.00000E+00
    0.11048E-01        -0.44421E-02         0.00000E+00
    0.10693E-01        -0.42611E-02         0.00000E+00
    0.10331E-01        -0.40807E-02         0.00000E+00
    0.99635E-02        -0.39009E-02         0.00000E+00
    0.95900E-02        -0.37219E-02         0.00000E+00
    0.92106E-02        -0.35435E-02         0.00000E+00
    0.88254E-02        -0.33658E-02         0.00000E+00
    0.84345E-02        -0.31889E-02         0.00000E+00
    0.80379E-02        -0.30128E-02         0.00000E+00
    0.76357E-02        -0.28375E-02         0.00000E+00
    0.72280E-02        -0.26629E-02         0.00000E+00
    0.68147E-02        -0.24892E-02         0.00000E+00
    0.63961E-02        -0.23164E-02         0.00000E+00
    0.59721E-02        -0.21445E-02         0.00000E+00
    0.55428E-02        -0.19734E-02         0.00000E+00
    0.51082E-02        -0.18033E-02         0.00000E+00
    0.46685E-02        -0.16341E-02         0.00000E+00
    0.42236E-02        -0.14660E-02         0.00000E+00
    0.37737E-02        -0.12988E-02         0.00000E+00
    0.33188E-02        -0.11326E-02         0.00000E+00
    0.28590E-02        -0.96748E-03         0.00000E+00
    0.23943E-02        -0.80343E-03         0.00000E+00
    0.19248E-02        -0.64047E-03         0.00000E+00
    0.14505E-02        -0.47862E-03         0.00000E+00
    0.97161E-03        -0.31791E-03         0.00000E+00
    0.48808E-03        -0.15836E-03         0.00000E+00
    0.00000E+00         0.00000E+00         0.00000E+00
    0.18108E-01        -0.98772E-02         0.00000E+00
    0.17908E-01        -0.96683E-02         0.00000E+00
    0.17700E-01        -0.94594E-02         0.00000E+00
    0.17485E-01        -0.92505E-02         0.00000E+00
    0.17263E-01        -0.90418E-02         0.00000E+00
    0.17033E-01        -0.88331E-02         0.00000E+00
    0.16795E-01        -0.86246E-02         0.00000E+00
    0.16551E-01        -0.84163E-02         0.00000E+00
    0.16299E-01        -0.82082E-02         0.00000E+00
    0.16040E-01        -0.80003E-02         0.00000E+00
    0.15774E-01        -0.77927E-02         0.00000E+00
    0.15501E-01        -0.75854E-02         0.00000E+00
    0.15221E-01        -0.73783E-02         0.00000E+00
    0.14934E-01        -0.71716E-02         0.00000E+00
    0.14640E-01        -0.69653E-02         0.00000E+00
    0.14340E-01        -0.67594E-02         0.00000E+00
    0.14032E-01        -0.65539E-02         0.00000E+00
    0.13718E-01        -0.63488E-02         0.00000E+00
    0.13398E-01        -0.61443E-02         0.00000E+00
    0.13070E-01        -0.59402E-02         0.00000E+00
    0.12737E-01        -0.57366E-02         0.00000E+00
    0.12396E-01        -0.55336E-02         0.00000E+00
    0.12050E-01        -0.53312E-02         0.00000E+00
    0.11697E-01        -0.51293E-02         0.00000E+00
    0.11338E-01        -0.49281E-02         0.00000E+00
    0.10973E-01        -0.47276E-02         0.00000E+00
    0.10601E-01        -0.45277E-02         0.00000E+00
    0.10223E-01        -0.43285E-02         0.00000E+00
    0.98398E-02        -0.41301E-02         0.00000E+00
    0.94503E-02        -0.39324E-02         0.00000E+00
    0.90548E-02        -0.37355E-02         0.00000E+00
    0.86535E-02        -0.35394E-02         0.00000E+00
    0.82464E-02        -0.33441E-02         0.00000E+00
    0.78336E-02        -0.31497E-02         0.00000E+00
    0.74151E-02        -0.29562E-02         0.00000E+00
    0.69910E-02        -0.27635E-02         0.00000E+00
    0.65614E-02        -0.25718E-02         0.00000E+00
    0.61264E-02        -0.23811E-02         0.00000E+00
    0.56859E-02        -0.21913E-02         0.00000E+00
    0.52400E-02        -0.20026E-02         0.00000E+00
    0.47889E-02        -0.18149E-02         0.00000E+00
    0.43325E-02        -0.16282E-02         0.00000E+00
    0.38709E-02        -0.14426E-02         0.00000E+00
    0.34043E-02        -0.12581E-02         0.00000E+00
    0.29326E-02        -0.10748E-02         0.00000E+00
    0.24559E-02        -0.89260E-03         0.00000E+00
    0.19743E-02        -0.71161E-03         0.00000E+00
    0.14879E-02        -0.53182E-03         0.00000E+00
    0.99661E-03        -0.35328E-03         0.00000E+00
    0.50064E-03        -0.17599E-03         0.00000E+00
    0.00000E+00         0.00000E+00         0.00000E+00
    0.18638E-01        -0.10876E-01         0.00000E+00
    0.18430E-01        -0.10647E-01         0.00000E+00
    0.18215E-01        -0.10417E-01         0.00000E+00
    0.17993E-01        -0.10187E-01         0.00000E+00
    0.17762E-01        -0.99577E-02         0.00000E+00
    0.17524E-01        -0.97283E-02         0.00000E+00
    0.17279E-01        -0.94991E-02         0.00000E+00
    0.17026E-01        -0.92700E-02         0.00000E+00
    0.16766E-01        -0.90411E-02         0.00000E+00
    0.16498E-01        -0.88125E-02         0.00000E+00
    0.16224E-01        -0.85842E-02         0.00000E+00
    0.15942E-01        -0.83562E-02         0.00000E+00
    0.15653E-01        -0.81285E-02         0.00000E+00
    0.15357E-01        -0.79012E-02         0.00000E+00
    0.15054E-01        -0.76743E-02         0.00000E+00
    0.14744E-01        -0.74478E-02         0.00000E+00
    0.14427E-01        -0.72217E-02         0.00000E+00
    0.14103E-01        -0.69961E-02         0.00000E+00
    0.13773E-01        -0.67710E-02         0.00000E+00
    0.13436E-01        -0.65465E-02         0.00000E+00
    0.13092E-01        -0.63225E-02         0.00000E+00
    0.12742E-01        -0.60991E-02         0.00000E+00
    0.12385E-01        -0.58763E-02         0.00000E+00
    0.12022E-01        -0.56542E-02         0.00000E+00
    0.11652E-01        -0.54327E-02         0.00000E+00
    0.11276E-01        -0.52120E-02         0.00000E+00
    0.10894E-01        -0.49919E-02         0.00000E+00
    0.10506E-01        -0.47726E-02         0.00000E+00
    0.10111E-01        -0.45541E-02         0.00000E+00
    0.97105E-02        -0.43364E-02         0.00000E+00
    0.93039E-02        -0.41196E-02         0.00000E+00
    0.88912E-02        -0.39036E-02         0.00000E+00
    0.84727E-02        -0.36884E-02         0.00000E+00
    0.80484E-02        -0.34743E-02         0.00000E+00
    0.76182E-02        -0.32610E-02         0.00000E+00
    0.71824E-02        -0.30487E-02         0.00000E+00
    0.67409E-02        -0.28374E-02         0.00000E+00
    0.62938E-02        -0.26272E-02         0.00000E+00
    0.58411E-02        -0.24180E-02         0.00000E+00
    0.53830E-02        -0.22099E-02         0.00000E+00
    0.49195E-02        -0.20029E-02         0.00000E+00
    0.44506E-02        -0.17970E-02         0.00000E+00
    0.39764E-02        -0.15923E-02         0.00000E+00
    0.34970E-02        -0.13888E-02         0.00000E+00
    0.30124E-02        -0.11865E-02         0.00000E+00
    0.25228E-02        -0.98544E-03         0.00000E+00
    0.20280E-02        -0.78568E-03         0.00000E+00
    0.15283E-02        -0.58723E-03         0.00000E+00
    0.10237E-02        -0.39011E-03         0.00000E+00
    0.51426E-03        -0.19436E-03         0.00000E+00
    0.00000E+00         0.00000E+00         0.00000E+00
    0.19212E-01        -0.11914E-01         0.00000E+00
    0.18997E-01        -0.11662E-01         0.00000E+00
    0.18773E-01        -0.11411E-01         0.00000E+00
    0.18542E-01        -0.11160E-01         0.00000E+00
    0.18303E-01        -0.10909E-01         0.00000E+00
    0.18056E-01        -0.10658E-01         0.00000E+00
    0.17802E-01        -0.10407E-01         0.00000E+00
    0.17540E-01        -0.10157E-01         0.00000E+00
    0.17271E-01        -0.99066E-02         0.00000E+00
    0.16994E-01        -0.96565E-02         0.00000E+00
    0.16710E-01        -0.94068E-02         0.00000E+00
    0.16418E-01        -0.91574E-02         0.00000E+00
    0.16119E-01        -0.89083E-02         0.00000E+00
    0.15814E-01        -0.86596E-02         0.00000E+00
    0.15500E-01        -0.84113E-02         0.00000E+00
    0.15180E-01        -0.81635E-02         0.00000E+00
    0.14853E-01        -0.79161E-02         0.00000E+00
    0.14519E-01        -0.76693E-02         0.00000E+00
    0.14178E-01        -0.74229E-02         0.00000E+00
    0.13830E-01        -0.71772E-02         0.00000E+00
    0.13476E-01        -0.69320E-02         0.00000E+00
    0.13115E-01        -0.66875E-02         0.00000E+00
    0.12747E-01        -0.64436E-02         0.00000E+00
    0.12372E-01        -0.62004E-02         0.00000E+00
    0.11991E-01        -0.59579E-02         0.00000E+00
    0.11604E-01        -0.57162E-02         0.00000E+00
    0.11210E-01        -0.54752E-02         0.00000E+00
    0.10810E-01        -0.52350E-02         0.00000E+00
    0.10404E-01        -0.49957E-02         0.00000E+00
    0.99911E-02        -0.47572E-02         0.00000E+00
    0.95724E-02        -0.45196E-02         0.00000E+00
    0.91476E-02        -0.42829E-02         0.00000E+00
    0.87167E-02        -0.40472E-02         0.00000E+00
    0.82799E-02        -0.38124E-02         0.00000E+00
    0.78372E-02        -0.35787E-02         0.00000E+00
    0.73886E-02        -0.33460E-02         0.00000E+00
    0.69343E-02        -0.31143E-02         0.00000E+00
    0.64742E-02        -0.28838E-02         0.00000E+00
    0.60084E-02        -0.26543E-02         0.00000E+00
    0.55371E-02        -0.24260E-02         0.00000E+00
    0.50602E-02        -0.21990E-02         0.00000E+00
    0.45779E-02        -0.19731E-02         0.00000E+00
    0.40901E-02        -0.17485E-02         0.00000E+00
    0.35969E-02        -0.15251E-02         0.00000E+00
    0.30985E-02        -0.13031E-02         0.00000E+00
    0.25948E-02        -0.10824E-02         0.00000E+00
    0.20860E-02        -0.86302E-03         0.00000E+00
    0.15720E-02        -0.64508E-03         0.00000E+00
    0.10530E-02        -0.42858E-03         0.00000E+00
    0.52894E-03        -0.21354E-03         0.00000E+00
    0.00000E+00         0.00000E+00         0.00000E+00
    0.19831E-01        -0.12993E-01         0.00000E+00
    0.19606E-01        -0.12720E-01         0.00000E+00
    0.19374E-01        -0.12446E-01         0.00000E+00
    0.19133E-01        -0.12173E-01         0.00000E+00
    0.18885E-01        -0.11899E-01         0.00000E+00
    0.18629E-01        -0.11626E-01         0.00000E+00
    0.18365E-01        -0.11353E-01         0.00000E+00
    0.18093E-01        -0.11080E-01         0.00000E+00
    0.17814E-01        -0.10808E-01         0.00000E+00
    0.17527E-01        -0.10536E-01         0.00000E+00
    0.17232E-01        -0.10264E-01         0.00000E+00
    0.16930E-01        -0.99919E-02         0.00000E+00
    0.16621E-01        -0.97206E-02         0.00000E+00
    0.16304E-01        -0.94497E-02         0.00000E+00
    0.15980E-01        -0.91793E-02         0.00000E+00
    0.15649E-01        -0.89093E-02         0.00000E+00
    0.15311E-01        -0.86399E-02         0.00000E+00
    0.14965E-01        -0.83709E-02         0.00000E+00
    0.14613E-01        -0.81025E-02         0.00000E+00
    0.14254E-01        -0.78348E-02         0.00000E+00
    0.13888E-01        -0.75676E-02         0.00000E+00
    0.13515E-01        -0.73011E-02         0.00000E+00
    0.13135E-01        -0.70353E-02         0.00000E+00
    0.12748E-01        -0.67702E-02         0.00000E+00
    0.12355E-01        -0.65059E-02         0.00000E+00
    0.11955E-01        -0.62423E-02         0.00000E+00
    0.11549E-01        -0.59796E-02         0.00000E+00
    0.11136E-01        -0.57177E-02         0.00000E+00
    0.10717E-01        -0.54566E-02         0.00000E+00
    0.10292E-01        -0.51965E-02         0.00000E+00
    0.98601E-02        -0.49373E-02         0.00000E+00
    0.94222E-02        -0.46791E-02         0.00000E+00
    0.89781E-02        -0.44219E-02         0.00000E+00
    0.85279E-02        -0.41657E-02         0.00000E+00
    0.80717E-02        -0.39106E-02         0.00000E+00
    0.76095E-02        -0.36566E-02         0.00000E+00
    0.71414E-02        -0.34037E-02         0.00000E+00
    0.66674E-02        -0.31519E-02         0.00000E+00
    0.61876E-02        -0.29014E-02         0.00000E+00
    0.57021E-02        -0.26521E-02         0.00000E+00
    0.52109E-02        -0.24040E-02         0.00000E+00
    0.47141E-02        -0.21573E-02         0.00000E+00
    0.42118E-02        -0.19118E-02         0.00000E+00
    0.37039E-02        -0.16677E-02         0.00000E+00
    0.31906E-02        -0.14251E-02         0.00000E+00
    0.26719E-02        -0.11838E-02         0.00000E+00
    0.21480E-02        -0.94398E-03         0.00000E+00
    0.16187E-02        -0.70566E-03         0.00000E+00
    0.10842E-02        -0.46887E-03         0.00000E+00
    0.54466E-03        -0.23363E-03         0.00000E+00
    0.00000E+00         0.00000E+00         0.00000E+00
    0.20494E-01        -0.14119E-01         0.00000E+00
    0.20260E-01        -0.13822E-01         0.00000E+00
    0.20018E-01        -0.13526E-01         0.00000E+00
    0.19767E-01        -0.13229E-01         0.00000E+00
    0.19508E-01        -0.12933E-01         0.00000E+00
    0.19242E-01        -0.12636E-01         0.00000E+00
    0.18967E-01        -0.12340E-01         0.00000E+00
    0.18685E-01        -0.12044E-01         0.00000E+00
    0.18394E-01        -0.11748E-01         0.00000E+00
    0.18096E-01        -0.11453E-01         0.00000E+00
    0.17791E-01        -0.11158E-01         0.00000E+00
    0.17478E-01        -0.10863E-01         0.00000E+00
    0.17157E-01        -0.10569E-01         0.00000E+00
    0.16829E-01        -0.10275E-01         0.00000E+00
    0.16493E-01        -0.99813E-02         0.00000E+00
    0.16150E-01        -0.96883E-02         0.00000E+00
    0.15800E-01        -0.93958E-02         0.00000E+00
    0.15442E-01        -0.91039E-02         0.00000E+00
    0.15077E-01        -0.88126E-02         0.00000E+00
    0.14706E-01        -0.85219E-02         0.00000E+00
    0.14327E-01        -0.82318E-02         0.00000E+00
    0.13941E-01        -0.79424E-02         0.00000E+00
    0.13549E-01        -0.76538E-02         0.00000E+00
    0.13149E-01        -0.73659E-02         0.00000E+00
    0.12743E-01        -0.70788E-02         0.00000E+00
    0.12330E-01        -0.67925E-02         0.00000E+00
    0.11910E-01        -0.65071E-02         0.00000E+00
    0.11484E-01        -0.62225E-02         0.00000E+00
    0.11051E-01        -0.59389E-02         0.00000E+00
    0.10612E-01        -0.56562E-02         0.00000E+00
    0.10167E-01        -0.53745E-02         0.00000E+00
    0.97148E-02        -0.50938E-02         0.00000E+00
    0.92565E-02        -0.48142E-02         0.00000E+00
    0.87921E-02        -0.45356E-02         0.00000E+00
    0.83215E-02        -0.42582E-02         0.00000E+00
    0.78447E-02        -0.39819E-02         0.00000E+00
    0.73619E-02        -0.37068E-02         0.00000E+00
    0.68732E-02        -0.34329E-02         0.00000E+00
    0.63784E-02        -0.31603E-02         0.00000E+00
    0.58778E-02        -0.28890E-02         0.00000E+00
    0.53714E-02        -0.26190E-02         0.00000E+00
    0.48592E-02        -0.23504E-02         0.00000E+00
    0.43413E-02        -0.20832E-02         0.00000E+00
    0.38178E-02        -0.18174E-02         0.00000E+00
    0.32887E-02        -0.15530E-02         0.00000E+00
    0.27541E-02        -0.12902E-02         0.00000E+00
    0.22140E-02        -0.10289E-02         0.00000E+00
    0.16684E-02        -0.76924E-03         0.00000E+00
    0.11176E-02        -0.51116E-03         0.00000E+00
    0.56140E-03        -0.25473E-03         0.00000E+00
    0.00000E+00         0.00000E+00         0.00000E+00
    0.21202E-01        -0.15296E-01         0.00000E+00
    0.20957E-01        -0.14975E-01         0.00000E+00
    0.20704E-01        -0.14654E-01         0.00000E+00
    0.20442E-01        -0.14333E-01         0.00000E+00
    0.20173E-01        -0.14013E-01         0.00000E+00
    0.19895E-01        -0.13692E-01         0.00000E+00
    0.19609E-01        -0.13372E-01         0.00000E+00
    0.19315E-01        -0.13052E-01         0.00000E+00
    0.19013E-01        -0.12732E-01         0.00000E+00
    0.18703E-01        -0.12412E-01         0.00000E+00
    0.18385E-01        -0.12093E-01         0.00000E+00
    0.18060E-01        -0.11774E-01         0.00000E+00
    0.17727E-01        -0.11456E-01         0.00000E+00
    0.17386E-01        -0.11138E-01         0.00000E+00
    0.17038E-01        -0.10820E-01         0.00000E+00
    0.16682E-01        -0.10504E-01         0.00000E+00
    0.16319E-01        -0.10187E-01         0.00000E+00
    0.15948E-01        -0.98712E-02         0.00000E+00
    0.15570E-01        -0.95559E-02         0.00000E+00
    0.15185E-01        -0.92413E-02         0.00000E+00
    0.14793E-01        -0.89274E-02         0.00000E+00
    0.14394E-01        -0.86141E-02         0.00000E+00
    0.13988E-01        -0.83017E-02         0.00000E+00
    0.13574E-01        -0.79900E-02         0.00000E+00
    0.13154E-01        -0.76791E-02         0.00000E+00
    0.12727E-01        -0.73691E-02         0.00000E+00
    0.12293E-01        -0.70600E-02         0.00000E+00
    0.11853E-01        -0.67517E-02         0.00000E+00
    0.11406E-01        -0.64445E-02         0.00000E+00
    0.10952E-01        -0.61382E-02         0.00000E+00
    0.10492E-01        -0.58330E-02         0.00000E+00
    0.10025E-01        -0.55288E-02         0.00000E+00
    0.95516E-02        -0.52257E-02         0.00000E+00
    0.90720E-02        -0.49238E-02         0.00000E+00
    0.85861E-02        -0.46230E-02         0.00000E+00
    0.80939E-02        -0.43234E-02         0.00000E+00
    0.75956E-02        -0.40251E-02         0.00000E+00
    0.70911E-02        -0.37280E-02         0.00000E+00
    0.65805E-02        -0.34323E-02         0.00000E+00
    0.60639E-02        -0.31379E-02         0.00000E+00
    0.55413E-02        -0.28449E-02         0.00000E+00
    0.50129E-02        -0.25533E-02         0.00000E+00
    0.44785E-02        -0.22632E-02         0.00000E+00
    0.39384E-02        -0.19746E-02         0.00000E+00
    0.33926E-02        -0.16876E-02         0.00000E+00
    0.28410E-02        -0.14021E-02         0.00000E+00
    0.22838E-02        -0.11183E-02         0.00000E+00
    0.17211E-02        -0.83612E-03         0.00000E+00
    0.11528E-02        -0.55566E-03         0.00000E+00
    0.57912E-03        -0.27693E-03         0.00000E+00
    0.00000E+00         0.00000E+00         0.00000E+00
    0.21954E-01        -0.16527E-01         0.00000E+00
    0.21697E-01        -0.16181E-01         0.00000E+00
    0.21432E-01        -0.15835E-01         0.00000E+00
    0.21159E-01        -0.15489E-01         0.00000E+00
    0.20877E-01        -0.15143E-01         0.00000E+00
    0.20587E-01        -0.14798E-01         0.00000E+00
    0.20289E-01        -0.14452E-01         0.00000E+00
    0.19982E-01        -0.14107E-01         0.00000E+00
    0.19668E-01        -0.13762E-01         0.00000E+00
    0.19345E-01        -0.13417E-01         0.00000E+00
    0.19014E-01        -0.13073E-01         0.00000E+00
    0.18676E-01        -0.12729E-01         0.00000E+00
    0.18330E-01        -0.12386E-01         0.00000E+00
    0.17976E-01        -0.12043E-01         0.00000E+00
    0.17614E-01        -0.11700E-01         0.00000E+00
    0.17244E-01        -0.11358E-01         0.00000E+00
    0.16868E-01        -0.11017E-01         0.00000E+00
    0.16483E-01        -0.10676E-01         0.00000E+00
    0.16091E-01        -0.10336E-01         0.00000E+00
    0.15692E-01        -0.99960E-02         0.00000E+00
    0.15286E-01        -0.96571E-02         0.00000E+00
    0.14872E-01        -0.93190E-02         0.00000E+00
    0.14451E-01        -0.89816E-02         0.00000E+00
    0.14023E-01        -0.86450E-02         0.00000E+00
    0.13588E-01        -0.83093E-02         0.00000E+00
    0.13146E-01        -0.79745E-02         0.00000E+00
    0.12698E-01        -0.76406E-02         0.00000E+00
    0.12242E-01        -0.73076E-02         0.00000E+00
    0.11779E-01        -0.69756E-02         0.00000E+00
    0.11310E-01        -0.66447E-02         0.00000E+00
    0.10834E-01        -0.63148E-02         0.00000E+00
    0.10352E-01        -0.59860E-02         0.00000E+00
    0.98626E-02        -0.56583E-02         0.00000E+00
    0.93670E-02        -0.53318E-02         0.00000E+00
    0.88650E-02        -0.50066E-02         0.00000E+00
    0.83565E-02        -0.46826E-02         0.00000E+00
    0.78418E-02        -0.43599E-02         0.00000E+00
    0.73207E-02        -0.40385E-02         0.00000E+00
    0.67934E-02        -0.37184E-02         0.00000E+00
    0.62599E-02        -0.33998E-02         0.00000E+00
    0.57204E-02        -0.30827E-02         0.00000E+00
    0.51747E-02        -0.27670E-02         0.00000E+00
    0.46231E-02        -0.24529E-02         0.00000E+00
    0.40655E-02        -0.21403E-02         0.00000E+00
    0.35020E-02        -0.18294E-02         0.00000E+00
    0.29326E-02        -0.15201E-02         0.00000E+00
    0.23574E-02        -0.12125E-02         0.00000E+00
    0.17766E-02        -0.90664E-03         0.00000E+00
    0.11900E-02        -0.60258E-03         0.00000E+00
    0.59778E-03        -0.30035E-03         0.00000E+00
    0.00000E+00         0.00000E+00         0.00000E+00
    0.22749E-01        -0.17818E-01         0.00000E+00
    0.22480E-01        -0.17446E-01         0.00000E+00
    0.22203E-01        -0.17073E-01         0.00000E+00
    0.21916E-01        -0.16701E-01         0.00000E+00
    0.21622E-01        -0.16329E-01         0.00000E+00
    0.21318E-01        -0.15957E-01         0.00000E+00
    0.21007E-01        -0.15586E-01         0.00000E+00
    0.20687E-01        -0.15214E-01         0.00000E+00
    0.20359E-01        -0.14843E-01         0.00000E+00
    0.20022E-01        -0.14472E-01         0.00000E+00
    0.19678E-01        -0.14102E-01         0.00000E+00
    0.19325E-01        -0.13732E-01         0.00000E+00
    0.18965E-01        -0.13362E-01         0.00000E+00
    0.18597E-01        -0.12993E-01         0.00000E+00
    0.18221E-01        -0.12624E-01         0.00000E+00
    0.17837E-01        -0.12256E-01         0.00000E+00
    0.17445E-01        -0.11888E-01         0.00000E+00
    0.17046E-01        -0.11521E-01         0.00000E+00
    0.16639E-01        -0.11155E-01         0.00000E+00
    0.16225E-01        -0.10789E-01         0.00000E+00
    0.15804E-01        -0.10424E-01         0.00000E+00
    0.15375E-01        -0.10060E-01         0.00000E+00
    0.14938E-01        -0.96964E-02         0.00000E+00
    0.14495E-01        -0.93338E-02         0.00000E+00
    0.14044E-01        -0.89721E-02         0.00000E+00
    0.13587E-01        -0.86112E-02         0.00000E+00
    0.13122E-01        -0.82514E-02         0.00000E+00
    0.12650E-01        -0.78924E-02         0.00000E+00
    0.12172E-01        -0.75345E-02         0.00000E+00
    0.11686E-01        -0.71777E-02         0.00000E+00
    0.11194E-01        -0.68220E-02         0.00000E+00
    0.10695E-01        -0.64673E-02         0.00000E+00
    0.10189E-01        -0.61139E-02         0.00000E+00
    0.96765E-02        -0.57617E-02         0.00000E+00
    0.91575E-02        -0.54107E-02         0.00000E+00
    0.86319E-02        -0.50610E-02         0.00000E+00
    0.80999E-02        -0.47127E-02         0.00000E+00
    0.75614E-02        -0.43657E-02         0.00000E+00
    0.70166E-02        -0.40202E-02         0.00000E+00
    0.64654E-02        -0.36761E-02         0.00000E+00
    0.59080E-02        -0.33335E-02         0.00000E+00
    0.53444E-02        -0.29924E-02         0.00000E+00
    0.47745E-02        -0.26530E-02         0.00000E+00
    0.41986E-02        -0.23152E-02         0.00000E+00
    0.36166E-02        -0.19790E-02         0.00000E+00
    0.30286E-02        -0.16446E-02         0.00000E+00
    0.24346E-02        -0.13119E-02         0.00000E+00
    0.18347E-02        -0.98112E-03         0.00000E+00
    0.12289E-02        -0.65215E-03         0.00000E+00
    0.61734E-03        -0.32510E-03         0.00000E+00
    0.00000E+00         0.00000E+00         0.00000E+00
    0.23587E-01        -0.19174E-01         0.00000E+00
    0.23305E-01        -0.18774E-01         0.00000E+00
    0.23013E-01        -0.18374E-01         0.00000E+00
    0.22713E-01        -0.17975E-01         0.00000E+00
    0.22405E-01        -0.17575E-01         0.00000E+00
    0.22087E-01        -0.17176E-01         0.00000E+00
    0.21761E-01        -0.16777E-01         0.00000E+00
    0.21427E-01        -0.16378E-01         0.00000E+00
    0.21085E-01        -0.15979E-01         0.00000E+00
    0.20734E-01        -0.15581E-01         0.00000E+00
    0.20374E-01        -0.15183E-01         0.00000E+00
    0.20007E-01        -0.14785E-01         0.00000E+00
    0.19632E-01        -0.14388E-01         0.00000E+00
    0.19248E-01        -0.13992E-01         0.00000E+00
    0.18857E-01        -0.13596E-01         0.00000E+00
    0.18457E-01        -0.13200E-01         0.00000E+00
    0.18050E-01        -0.12805E-01         0.00000E+00
    0.17636E-01        -0.12411E-01         0.00000E+00
    0.17213E-01        -0.12017E-01         0.00000E+00
    0.16783E-01        -0.11624E-01         0.00000E+00
    0.16346E-01        -0.11231E-01         0.00000E+00
    0.15901E-01        -0.10840E-01         0.00000E+00
    0.15448E-01        -0.10449E-01         0.00000E+00
    0.14988E-01        -0.10059E-01         0.00000E+00
    0.14521E-01        -0.96702E-02         0.00000E+00
    0.14047E-01        -0.92821E-02         0.00000E+00
    0.13566E-01        -0.88949E-02         0.00000E+00
    0.13077E-01        -0.85088E-02         0.00000E+00
    0.12581E-01        -0.81237E-02         0.00000E+00
    0.12079E-01        -0.77397E-02         0.00000E+00
    0.11569E-01        -0.73568E-02         0.00000E+00
    0.11053E-01        -0.69750E-02         0.00000E+00
    0.10530E-01        -0.65945E-02         0.00000E+00
    0.99995E-02        -0.62152E-02         0.00000E+00
    0.94627E-02        -0.58372E-02         0.00000E+00
    0.89193E-02        -0.54605E-02         0.00000E+00
    0.83692E-02        -0.50852E-02         0.00000E+00
    0.78126E-02        -0.47113E-02         0.00000E+00
    0.72494E-02        -0.43388E-02         0.00000E+00
    0.66798E-02        -0.39679E-02         0.00000E+00
    0.61037E-02        -0.35985E-02         0.00000E+00
    0.55213E-02        -0.32307E-02         0.00000E+00
    0.49325E-02        -0.28645E-02         0.00000E+00
    0.43374E-02        -0.25000E-02         0.00000E+00
    0.37361E-02        -0.21373E-02         0.00000E+00
    0.31287E-02        -0.17763E-02         0.00000E+00
    0.25150E-02        -0.14172E-02         0.00000E+00
    0.18953E-02        -0.10599E-02         0.00000E+00
    0.12695E-02        -0.70462E-03         0.00000E+00
    0.63774E-03        -0.35129E-03         0.00000E+00
    0.00000E+00         0.00000E+00         0.00000E+00
    0.24466E-01        -0.20599E-01         0.00000E+00
    0.24170E-01        -0.20170E-01         0.00000E+00
    0.23864E-01        -0.19742E-01         0.00000E+00
    0.23549E-01        -0.19314E-01         0.00000E+00
    0.23225E-01        -0.18885E-01         0.00000E+00
    0.22893E-01        -0.18457E-01         0.00000E+00
    0.22552E-01        -0.18030E-01         0.00000E+00
    0.22202E-01        -0.17602E-01         0.00000E+00
    0.21844E-01        -0.17175E-01         0.00000E+00
    0.21477E-01        -0.16748E-01         0.00000E+00
    0.21102E-01        -0.16321E-01         0.00000E+00
    0.20719E-01        -0.15895E-01         0.00000E+00
    0.20328E-01        -0.15469E-01         0.00000E+00
    0.19928E-01        -0.15044E-01         0.00000E+00
    0.19521E-01        -0.14619E-01         0.00000E+00
    0.19105E-01        -0.14194E-01         0.00000E+00
    0.18682E-01        -0.13771E-01         0.00000E+00
    0.18250E-01        -0.13348E-01         0.00000E+00
    0.17811E-01        -0.12925E-01         0.00000E+00
    0.17365E-01        -0.12503E-01         0.00000E+00
    0.16910E-01        -0.12082E-01         0.00000E+00
    0.16448E-01        -0.11662E-01         0.00000E+00
    0.15979E-01        -0.11243E-01         0.00000E+00
    0.15502E-01        -0.10824E-01         0.00000E+00
    0.15017E-01        -0.10407E-01         0.00000E+00
    0.14526E-01        -0.99898E-02         0.00000E+00
    0.14027E-01        -0.95741E-02         0.00000E+00
    0.13521E-01        -0.91593E-02         0.00000E+00
    0.13007E-01        -0.87456E-02         0.00000E+00
    0.12487E-01        -0.83330E-02         0.00000E+00
    0.11959E-01        -0.79216E-02         0.00000E+00
    0.11425E-01        -0.75113E-02         0.00000E+00
    0.10883E-01        -0.71022E-02         0.00000E+00
    0.10335E-01        -0.66944E-02         0.00000E+00
    0.97797E-02        -0.62879E-02         0.00000E+00
    0.92176E-02        -0.58827E-02         0.00000E+00
    0.86488E-02        -0.54790E-02         0.00000E+00
    0.80732E-02        -0.50767E-02         0.00000E+00
    0.74910E-02        -0.46759E-02         0.00000E+00
    0.69022E-02        -0.42766E-02         0.00000E+00
    0.63068E-02        -0.38789E-02         0.00000E+00
    0.57048E-02        -0.34828E-02         0.00000E+00
    0.50964E-02        -0.30884E-02         0.00000E+00
    0.44815E-02        -0.26958E-02         0.00000E+00
    0.38601E-02        -0.23049E-02         0.00000E+00
    0.32325E-02        -0.19158E-02         0.00000E+00
    0.25985E-02        -0.15287E-02         0.00000E+00
    0.19582E-02        -0.11435E-02         0.00000E+00
    0.13116E-02        -0.76024E-03         0.00000E+00
    0.65890E-03        -0.37907E-03         0.00000E+00
    0.00000E+00         0.00000E+00         0.00000E+00
    0.25386E-01        -0.22099E-01         0.00000E+00
    0.25073E-01        -0.21641E-01         0.00000E+00
    0.24752E-01        -0.21182E-01         0.00000E+00
    0.24421E-01        -0.20724E-01         0.00000E+00
    0.24081E-01        -0.20266E-01         0.00000E+00
    0.23733E-01        -0.19807E-01         0.00000E+00
    0.23375E-01        -0.19349E-01         0.00000E+00
    0.23009E-01        -0.18892E-01         0.00000E+00
    0.22635E-01        -0.18434E-01         0.00000E+00
    0.22251E-01        -0.17977E-01         0.00000E+00
    0.21860E-01        -0.17520E-01         0.00000E+00
    0.21460E-01        -0.17064E-01         0.00000E+00
    0.21052E-01        -0.16608E-01         0.00000E+00
    0.20635E-01        -0.16153E-01         0.00000E+00
    0.20210E-01        -0.15698E-01         0.00000E+00
    0.19778E-01        -0.15243E-01         0.00000E+00
    0.19337E-01        -0.14789E-01         0.00000E+00
    0.18888E-01        -0.14336E-01         0.00000E+00
    0.18432E-01        -0.13884E-01         0.00000E+00
    0.17968E-01        -0.13432E-01         0.00000E+00
    0.17496E-01        -0.12981E-01         0.00000E+00
    0.17016E-01        -0.12530E-01         0.00000E+00
    0.16528E-01        -0.12081E-01         0.00000E+00
    0.16034E-01        -0.11632E-01         0.00000E+00
    0.15531E-01        -0.11184E-01         0.00000E+00
    0.15021E-01        -0.10738E-01         0.00000E+00
    0.14504E-01        -0.10292E-01         0.00000E+00
    0.13980E-01        -0.98468E-02         0.00000E+00
    0.13448E-01        -0.94031E-02         0.00000E+00
    0.12909E-01        -0.89604E-02         0.00000E+00
    0.12363E-01        -0.85188E-02         0.00000E+00
    0.11809E-01        -0.80784E-02         0.00000E+00
    0.11249E-01        -0.76393E-02         0.00000E+00
    0.10681E-01        -0.72014E-02         0.00000E+00
    0.10107E-01        -0.67649E-02         0.00000E+00
    0.95257E-02        -0.63297E-02         0.00000E+00
    0.89374E-02        -0.58960E-02         0.00000E+00
    0.83423E-02        -0.54637E-02         0.00000E+00
    0.77404E-02        -0.50329E-02         0.00000E+00
    0.71317E-02        -0.46036E-02         0.00000E+00
    0.65163E-02        -0.41760E-02         0.00000E+00
    0.58942E-02        -0.37501E-02         0.00000E+00
    0.52654E-02        -0.33258E-02         0.00000E+00
    0.46300E-02        -0.29033E-02         0.00000E+00
    0.39881E-02        -0.24827E-02         0.00000E+00
    0.33396E-02        -0.20639E-02         0.00000E+00
    0.26845E-02        -0.16470E-02         0.00000E+00
    0.20230E-02        -0.12321E-02         0.00000E+00
    0.13551E-02        -0.81930E-03         0.00000E+00
    0.68072E-03        -0.40857E-03         0.00000E+00
    0.00000E+00         0.00000E+00         0.00000E+00
    0.26344E-01        -0.23681E-01         0.00000E+00
    0.26014E-01        -0.23190E-01         0.00000E+00
    0.25676E-01        -0.22700E-01         0.00000E+00
    0.25328E-01        -0.22210E-01         0.00000E+00
    0.24971E-01        -0.21721E-01         0.00000E+00
    0.24605E-01        -0.21231E-01         0.00000E+00
    0.24231E-01        -0.20741E-01         0.00000E+00
    0.23847E-01        -0.20252E-01         0.00000E+00
    0.23455E-01        -0.19763E-01         0.00000E+00
    0.23054E-01        -0.19274E-01         0.00000E+00
    0.22645E-01        -0.18786E-01         0.00000E+00
    0.22227E-01        -0.18298E-01         0.00000E+00
    0.21801E-01        -0.17810E-01         0.00000E+00
    0.21367E-01        -0.17323E-01         0.00000E+00
    0.20924E-01        -0.16837E-01         0.00000E+00
    0.20473E-01        -0.16351E-01         0.00000E+00
    0.20014E-01        -0.15865E-01         0.00000E+00
    0.19547E-01        -0.15380E-01         0.00000E+00
    0.19073E-01        -0.14896E-01         0.00000E+00
    0.18590E-01        -0.14413E-01         0.00000E+00
    0.18099E-01        -0.13930E-01         0.00000E+00
    0.17601E-01        -0.13448E-01         0.00000E+00
    0.17095E-01        -0.12967E-01         0.00000E+00
    0.16582E-01        -0.12486E-01         0.00000E+00
    0.16060E-01        -0.12007E-01         0.00000E+00
    0.15532E-01        -0.11528E-01         0.00000E+00
    0.14996E-01        -0.11051E-01         0.00000E+00
    0.14452E-01        -0.10574E-01         0.00000E+00
    0.13901E-01        -0.10099E-01         0.00000E+00
    0.13343E-01        -0.96244E-02         0.00000E+00
    0.12777E-01        -0.91511E-02         0.00000E+00
    0.12205E-01        -0.86791E-02         0.00000E+00
    0.11625E-01        -0.82082E-02         0.00000E+00
    0.11037E-01        -0.77386E-02         0.00000E+00
    0.10443E-01        -0.72704E-02         0.00000E+00
    0.98421E-02        -0.68035E-02         0.00000E+00
    0.92338E-02        -0.63380E-02         0.00000E+00
    0.86186E-02        -0.58740E-02         0.00000E+00
    0.79964E-02        -0.54115E-02         0.00000E+00
    0.73673E-02        -0.49506E-02         0.00000E+00
    0.67313E-02        -0.44913E-02         0.00000E+00
    0.60885E-02        -0.40337E-02         0.00000E+00
    0.54389E-02        -0.35778E-02         0.00000E+00
    0.47825E-02        -0.31237E-02         0.00000E+00
    0.41193E-02        -0.26715E-02         0.00000E+00
    0.34494E-02        -0.22211E-02         0.00000E+00
    0.27728E-02        -0.17728E-02         0.00000E+00
    0.20895E-02        -0.13264E-02         0.00000E+00
    0.13996E-02        -0.88209E-03         0.00000E+00
    0.70311E-03        -0.43994E-03         0.00000E+00
    0.00000E+00         0.00000E+00         0.00000E+00
    0.27337E-01        -0.25349E-01         0.00000E+00
    0.26990E-01        -0.24825E-01         0.00000E+00
    0.26633E-01        -0.24302E-01         0.00000E+00
    0.26267E-01        -0.23779E-01         0.00000E+00
    0.25892E-01        -0.23256E-01         0.00000E+00
    0.25508E-01        -0.22733E-01         0.00000E+00
    0.25115E-01        -0.22211E-01         0.00000E+00
    0.24713E-01        -0.21688E-01         0.00000E+00
    0.24302E-01        -0.21166E-01         0.00000E+00
    0.23883E-01        -0.20644E-01         0.00000E+00
    0.23455E-01        -0.20123E-01         0.00000E+00
    0.23018E-01        -0.19601E-01         0.00000E+00
    0.22573E-01        -0.19081E-01         0.00000E+00
    0.22120E-01        -0.18560E-01         0.00000E+00
    0.21658E-01        -0.18041E-01         0.00000E+00
    0.21189E-01        -0.17521E-01         0.00000E+00
    0.20711E-01        -0.17003E-01         0.00000E+00
    0.20225E-01        -0.16485E-01         0.00000E+00
    0.19731E-01        -0.15967E-01         0.00000E+00
    0.19229E-01        -0.15450E-01         0.00000E+00
    0.18719E-01        -0.14934E-01         0.00000E+00
    0.18202E-01        -0.14419E-01         0.00000E+00
    0.17676E-01        -0.13904E-01         0.00000E+00
    0.17143E-01        -0.13391E-01         0.00000E+00
    0.16603E-01        -0.12878E-01         0.00000E+00
    0.16054E-01        -0.12366E-01         0.00000E+00
    0.15499E-01        -0.11855E-01         0.00000E+00
    0.14935E-01        -0.11345E-01         0.00000E+00
    0.14365E-01        -0.10836E-01         0.00000E+00
    0.13787E-01        -0.10328E-01         0.00000E+00
    0.13201E-01        -0.98214E-02         0.00000E+00
    0.12608E-01        -0.93158E-02         0.00000E+00
    0.12008E-01        -0.88115E-02         0.00000E+00
    0.11401E-01        -0.83084E-02         0.00000E+00
    0.10787E-01        -0.78066E-02         0.00000E+00
    0.10165E-01        -0.73062E-02         0.00000E+00
    0.95363E-02        -0.68072E-02         0.00000E+00
    0.89005E-02        -0.63097E-02         0.00000E+00
    0.82576E-02        -0.58136E-02         0.00000E+00
    0.76076E-02        -0.53192E-02         0.00000E+00
    0.69506E-02        -0.48263E-02         0.00000E+00
    0.62867E-02        -0.43352E-02         0.00000E+00
    0.56157E-02        -0.38457E-02         0.00000E+00
    0.49378E-02        -0.33581E-02         0.00000E+00
    0.42530E-02        -0.28723E-02         0.00000E+00
    0.35613E-02        -0.23884E-02         0.00000E+00
    0.28628E-02        -0.19065E-02         0.00000E+00
    0.21573E-02        -0.14267E-02         0.00000E+00
    0.14450E-02        -0.94892E-03         0.00000E+00
    0.72592E-03        -0.47334E-03         0.00000E+00
    0.00000E+00         0.00000E+00         0.00000E+00
    0.28364E-01        -0.27110E-01         0.00000E+00
    0.27997E-01        -0.26552E-01         0.00000E+00
    0.27621E-01        -0.25994E-01         0.00000E+00
    0.27236E-01        -0.25436E-01         0.00000E+00
    0.26841E-01        -0.24878E-01         0.00000E+00
    0.26437E-01        -0.24320E-01         0.00000E+00
    0.26025E-01        -0.23763E-01         0.00000E+00
    0.25603E-01        -0.23206E-01         0.00000E+00
    0.25173E-01        -0.22649E-01         0.00000E+00
    0.24734E-01        -0.22092E-01         0.00000E+00
    0.24286E-01        -0.21536E-01         0.00000E+00
    0.23830E-01        -0.20980E-01         0.00000E+00
    0.23365E-01        -0.20424E-01         0.00000E+00
    0.22892E-01        -0.19869E-01         0.00000E+00
    0.22410E-01        -0.19314E-01         0.00000E+00
    0.21921E-01        -0.18760E-01         0.00000E+00
    0.21423E-01        -0.18206E-01         0.00000E+00
    0.20917E-01        -0.17653E-01         0.00000E+00
    0.20403E-01        -0.17101E-01         0.00000E+00
    0.19881E-01        -0.16549E-01         0.00000E+00
    0.19352E-01        -0.15998E-01         0.00000E+00
    0.18814E-01        -0.15447E-01         0.00000E+00
    0.18269E-01        -0.14898E-01         0.00000E+00
    0.17716E-01        -0.14349E-01         0.00000E+00
    0.17155E-01        -0.13801E-01         0.00000E+00
    0.16586E-01        -0.13254E-01         0.00000E+00
    0.16011E-01        -0.12707E-01         0.00000E+00
    0.15427E-01        -0.12162E-01         0.00000E+00
    0.14836E-01        -0.11618E-01         0.00000E+00
    0.14238E-01        -0.11075E-01         0.00000E+00
    0.13632E-01        -0.10533E-01         0.00000E+00
    0.13019E-01        -0.99916E-02         0.00000E+00
    0.12398E-01        -0.94519E-02         0.00000E+00
    0.11770E-01        -0.89134E-02         0.00000E+00
    0.11135E-01        -0.83761E-02         0.00000E+00
    0.10493E-01        -0.78402E-02         0.00000E+00
    0.98430E-02        -0.73057E-02         0.00000E+00
    0.91862E-02        -0.67726E-02         0.00000E+00
    0.85222E-02        -0.62410E-02         0.00000E+00
    0.78510E-02        -0.57110E-02         0.00000E+00
    0.71727E-02        -0.51826E-02         0.00000E+00
    0.64873E-02        -0.46558E-02         0.00000E+00
    0.57948E-02        -0.41308E-02         0.00000E+00
    0.50951E-02        -0.36075E-02         0.00000E+00
    0.43884E-02        -0.30861E-02         0.00000E+00
    0.36746E-02        -0.25666E-02         0.00000E+00
    0.29538E-02        -0.20490E-02         0.00000E+00
    0.22259E-02        -0.15335E-02         0.00000E+00
    0.14910E-02        -0.10201E-02         0.00000E+00
    0.74900E-03        -0.50895E-03         0.00000E+00
    0.00000E+00         0.00000E+00         0.00000E+00
    0.29420E-01        -0.28971E-01         0.00000E+00
    0.29033E-01        -0.28376E-01         0.00000E+00
    0.28636E-01        -0.27782E-01         0.00000E+00
    0.28230E-01        -0.27187E-01         0.00000E+00
    0.27814E-01        -0.26593E-01         0.00000E+00
    0.27390E-01        -0.25998E-01         0.00000E+00
    0.26956E-01        -0.25404E-01         0.00000E+00
    0.26514E-01        -0.24811E-01         0.00000E+00
    0.26063E-01        -0.24217E-01         0.00000E+00
    0.25603E-01        -0.23624E-01         0.00000E+00
    0.25135E-01        -0.23031E-01         0.00000E+00
    0.24658E-01        -0.22438E-01         0.00000E+00
    0.24172E-01        -0.21846E-01         0.00000E+00
    0.23678E-01        -0.21254E-01         0.00000E+00
    0.23176E-01        -0.20662E-01         0.00000E+00
    0.22666E-01        -0.20071E-01         0.00000E+00
    0.22147E-01        -0.19481E-01         0.00000E+00
    0.21621E-01        -0.18891E-01         0.00000E+00
    0.21086E-01        -0.18301E-01         0.00000E+00
    0.20544E-01        -0.17713E-01         0.00000E+00
    0.19993E-01        -0.17125E-01         0.00000E+00
    0.19435E-01        -0.16537E-01         0.00000E+00
    0.18869E-01        -0.15951E-01         0.00000E+00
    0.18295E-01        -0.15365E-01         0.00000E+00
    0.17714E-01        -0.14780E-01         0.00000E+00
    0.17125E-01        -0.14195E-01         0.00000E+00
    0.16528E-01        -0.13612E-01         0.00000E+00
    0.15924E-01        -0.13029E-01         0.00000E+00
    0.15312E-01        -0.12448E-01         0.00000E+00
    0.14693E-01        -0.11867E-01         0.00000E+00
    0.14066E-01        -0.11288E-01         0.00000E+00
    0.13432E-01        -0.10710E-01         0.00000E+00
    0.12791E-01        -0.10132E-01         0.00000E+00
    0.12142E-01        -0.95563E-02         0.00000E+00
    0.11486E-01        -0.89815E-02         0.00000E+00
    0.10822E-01        -0.84080E-02         0.00000E+00
    0.10152E-01        -0.78359E-02         0.00000E+00
    0.94736E-02        -0.72651E-02         0.00000E+00
    0.87883E-02        -0.66958E-02         0.00000E+00
    0.80958E-02        -0.61280E-02         0.00000E+00
    0.73960E-02        -0.55618E-02         0.00000E+00
    0.66889E-02        -0.49972E-02         0.00000E+00
    0.59747E-02        -0.44343E-02         0.00000E+00
    0.52531E-02        -0.38732E-02         0.00000E+00
    0.45244E-02        -0.33139E-02         0.00000E+00
    0.37884E-02        -0.27564E-02         0.00000E+00
    0.30452E-02        -0.22010E-02         0.00000E+00
    0.22948E-02        -0.16475E-02         0.00000E+00
    0.15371E-02        -0.10961E-02         0.00000E+00
    0.77217E-03        -0.54694E-03         0.00000E+00
    0.00000E+00         0.00000E+00         0.00000E+00
    0.30502E-01        -0.30938E-01         0.00000E+00
    0.30092E-01        -0.30305E-01         0.00000E+00
    0.29673E-01        -0.29672E-01         0.00000E+00
    0.29245E-01        -0.29039E-01         0.00000E+00
    0.28808E-01        -0.28407E-01         0.00000E+00
    0.28361E-01        -0.27774E-01         0.00000E+00
    0.27906E-01        -0.27141E-01         0.00000E+00
    0.27442E-01        -0.26509E-01         0.00000E+00
    0.26969E-01        -0.25877E-01         0.00000E+00
    0.26487E-01        -0.25245E-01         0.00000E+00
    0.25996E-01        -0.24614E-01         0.00000E+00
    0.25498E-01        -0.23982E-01         0.00000E+00
    0.24990E-01        -0.23351E-01         0.00000E+00
    0.24475E-01        -0.22721E-01         0.00000E+00
    0.23951E-01        -0.22091E-01         0.00000E+00
    0.23419E-01        -0.21461E-01         0.00000E+00
    0.22879E-01        -0.20832E-01         0.00000E+00
    0.22331E-01        -0.20203E-01         0.00000E+00
    0.21775E-01        -0.19575E-01         0.00000E+00
    0.21211E-01        -0.18947E-01         0.00000E+00
    0.20639E-01        -0.18320E-01         0.00000E+00
    0.20060E-01        -0.17694E-01         0.00000E+00
    0.19473E-01        -0.17068E-01         0.00000E+00
    0.18878E-01        -0.16443E-01         0.00000E+00
    0.18275E-01        -0.15819E-01         0.00000E+00
    0.17665E-01        -0.15195E-01         0.00000E+00
    0.17047E-01        -0.14572E-01         0.00000E+00
    0.16422E-01        -0.13951E-01         0.00000E+00
    0.15789E-01        -0.13330E-01         0.00000E+00
    0.15149E-01        -0.12710E-01         0.00000E+00
    0.14501E-01        -0.12091E-01         0.00000E+00
    0.13846E-01        -0.11473E-01         0.00000E+00
    0.13183E-01        -0.10856E-01         0.00000E+00
    0.12513E-01        -0.10240E-01         0.00000E+00
    0.11836E-01        -0.96256E-02         0.00000E+00
    0.11152E-01        -0.90123E-02         0.00000E+00
    0.10460E-01        -0.84002E-02         0.00000E+00
    0.97603E-02        -0.77895E-02         0.00000E+00
    0.90537E-02        -0.71802E-02         0.00000E+00
    0.83397E-02        -0.65723E-02         0.00000E+00
    0.76184E-02        -0.59659E-02         0.00000E+00
    0.68898E-02        -0.53612E-02         0.00000E+00
    0.61538E-02        -0.47580E-02         0.00000E+00
    0.54104E-02        -0.41566E-02         0.00000E+00
    0.46597E-02        -0.35569E-02         0.00000E+00
    0.39016E-02        -0.29590E-02         0.00000E+00
    0.31362E-02        -0.23631E-02         0.00000E+00
    0.23633E-02        -0.17692E-02         0.00000E+00
    0.15830E-02        -0.11773E-02         0.00000E+00
    0.79521E-03        -0.58753E-03         0.00000E+00
    0.00000E+00         0.00000E+00         0.00000E+00
    0.31604E-01        -0.33020E-01         0.00000E+00
    0.31171E-01        -0.32347E-01         0.00000E+00
    0.30728E-01        -0.31673E-01         0.00000E+00
    0.30277E-01        -0.31000E-01         0.00000E+00
    0.29816E-01        -0.30327E-01         0.00000E+00
    0.29346E-01        -0.29654E-01         0.00000E+00
    0.28868E-01        -0.28981E-01         0.00000E+00
    0.28380E-01        -0.28308E-01         0.00000E+00
    0.27884E-01        -0.27635E-01         0.00000E+00
    0.27379E-01        -0.26963E-01         0.00000E+00
    0.26866E-01        -0.26291E-01         0.00000E+00
    0.26344E-01        -0.25619E-01         0.00000E+00
    0.25815E-01        -0.24947E-01         0.00000E+00
    0.25276E-01        -0.24276E-01         0.00000E+00
    0.24730E-01        -0.23605E-01         0.00000E+00
    0.24176E-01        -0.22935E-01         0.00000E+00
    0.23613E-01        -0.22265E-01         0.00000E+00
    0.23043E-01        -0.21595E-01         0.00000E+00
    0.22465E-01        -0.20926E-01         0.00000E+00
    0.21879E-01        -0.20257E-01         0.00000E+00
    0.21285E-01        -0.19589E-01         0.00000E+00
    0.20684E-01        -0.18922E-01         0.00000E+00
    0.20075E-01        -0.18255E-01         0.00000E+00
    0.19458E-01        -0.17588E-01         0.00000E+00
    0.18834E-01        -0.16923E-01         0.00000E+00
    0.18203E-01        -0.16258E-01         0.00000E+00
    0.17563E-01        -0.15593E-01         0.00000E+00
    0.16917E-01        -0.14930E-01         0.00000E+00
    0.16263E-01        -0.14267E-01         0.00000E+00
    0.15601E-01        -0.13606E-01         0.00000E+00
    0.14932E-01        -0.12945E-01         0.00000E+00
    0.14256E-01        -0.12285E-01         0.00000E+00
    0.13572E-01        -0.11626E-01         0.00000E+00
    0.12881E-01        -0.10968E-01         0.00000E+00
    0.12183E-01        -0.10311E-01         0.00000E+00
    0.11477E-01        -0.96559E-02         0.00000E+00
    0.10764E-01        -0.90015E-02         0.00000E+00
    0.10043E-01        -0.83483E-02         0.00000E+00
    0.93156E-02        -0.76965E-02         0.00000E+00
    0.85804E-02        -0.70460E-02         0.00000E+00
    0.78378E-02        -0.63969E-02         0.00000E+00
    0.70878E-02        -0.57494E-02         0.00000E+00
    0.63303E-02        -0.51034E-02         0.00000E+00
    0.55654E-02        -0.44590E-02         0.00000E+00
    0.47930E-02        -0.38163E-02         0.00000E+00
    0.40131E-02        -0.31754E-02         0.00000E+00
    0.32257E-02        -0.25363E-02         0.00000E+00
    0.24307E-02        -0.18992E-02         0.00000E+00
    0.16281E-02        -0.12640E-02         0.00000E+00
    0.81789E-03        -0.63092E-03         0.00000E+00
    0.00000E+00         0.00000E+00         0.00000E+00
    0.32721E-01        -0.35224E-01         0.00000E+00
    0.32263E-01        -0.34508E-01         0.00000E+00
    0.31796E-01        -0.33792E-01         0.00000E+00
    0.31319E-01        -0.33076E-01         0.00000E+00
    0.30833E-01        -0.32361E-01         0.00000E+00
    0.30339E-01        -0.31645E-01         0.00000E+00
    0.29836E-01        -0.30929E-01         0.00000E+00
    0.29324E-01        -0.30214E-01         0.00000E+00
    0.28803E-01        -0.29499E-01         0.00000E+00
    0.28274E-01        -0.28784E-01         0.00000E+00
    0.27737E-01        -0.28069E-01         0.00000E+00
    0.27192E-01        -0.27354E-01         0.00000E+00
    0.26638E-01        -0.26640E-01         0.00000E+00
    0.26077E-01        -0.25926E-01         0.00000E+00
    0.25507E-01        -0.25212E-01         0.00000E+00
    0.24929E-01        -0.24499E-01         0.00000E+00
    0.24344E-01        -0.23786E-01         0.00000E+00
    0.23751E-01        -0.23073E-01         0.00000E+00
    0.23150E-01        -0.22361E-01         0.00000E+00
    0.22541E-01        -0.21649E-01         0.00000E+00
    0.21925E-01        -0.20937E-01         0.00000E+00
    0.21302E-01        -0.20226E-01         0.00000E+00
    0.20671E-01        -0.19516E-01         0.00000E+00
    0.20032E-01        -0.18806E-01         0.00000E+00
    0.19386E-01        -0.18096E-01         0.00000E+00
    0.18733E-01        -0.17388E-01         0.00000E+00
    0.18072E-01        -0.16680E-01         0.00000E+00
    0.17404E-01        -0.15972E-01         0.00000E+00
    0.16728E-01        -0.15265E-01         0.00000E+00
    0.16045E-01        -0.14559E-01         0.00000E+00
    0.15355E-01        -0.13854E-01         0.00000E+00
    0.14658E-01        -0.13150E-01         0.00000E+00
    0.13953E-01        -0.12447E-01         0.00000E+00
    0.13241E-01        -0.11744E-01         0.00000E+00
    0.12522E-01        -0.11042E-01         0.00000E+00
    0.11795E-01        -0.10342E-01         0.00000E+00
    0.11061E-01        -0.96426E-02         0.00000E+00
    0.10320E-01        -0.89443E-02         0.00000E+00
    0.95711E-02        -0.82473E-02         0.00000E+00
    0.88151E-02        -0.75515E-02         0.00000E+00
    0.80516E-02        -0.68570E-02         0.00000E+00
    0.72806E-02        -0.61639E-02         0.00000E+00
    0.65021E-02        -0.54722E-02         0.00000E+00
    0.57162E-02        -0.47821E-02         0.00000E+00
    0.49226E-02        -0.40935E-02         0.00000E+00
    0.41215E-02        -0.34066E-02         0.00000E+00
    0.33127E-02        -0.27215E-02         0.00000E+00
    0.24962E-02        -0.20382E-02         0.00000E+00
    0.16720E-02        -0.13568E-02         0.00000E+00
    0.83991E-03        -0.67735E-03         0.00000E+00
    0.00000E+00         0.00000E+00         0.00000E+00
    0.33847E-01        -0.37558E-01         0.00000E+00
    0.33362E-01        -0.36798E-01         0.00000E+00
    0.32868E-01        -0.36037E-01         0.00000E+00
    0.32365E-01        -0.35277E-01         0.00000E+00
    0.31853E-01        -0.34516E-01         0.00000E+00
    0.31332E-01        -0.33756E-01         0.00000E+00
    0.30803E-01        -0.32996E-01         0.00000E+00
    0.30265E-01        -0.32235E-01         0.00000E+00
    0.29719E-01        -0.31475E-01         0.00000E+00
    0.29165E-01        -0.30716E-01         0.00000E+00
    0.28603E-01        -0.29956E-01         0.00000E+00
    0.28033E-01        -0.29196E-01         0.00000E+00
    0.27454E-01        -0.28437E-01         0.00000E+00
    0.26868E-01        -0.27678E-01         0.00000E+00
    0.26274E-01        -0.26919E-01         0.00000E+00
    0.25673E-01        -0.26160E-01         0.00000E+00
    0.25064E-01        -0.25402E-01         0.00000E+00
    0.24447E-01        -0.24643E-01         0.00000E+00
    0.23823E-01        -0.23885E-01         0.00000E+00
    0.23192E-01        -0.23128E-01         0.00000E+00
    0.22553E-01        -0.22371E-01         0.00000E+00
    0.21906E-01        -0.21614E-01         0.00000E+00
    0.21253E-01        -0.20857E-01         0.00000E+00
    0.20592E-01        -0.20101E-01         0.00000E+00
    0.19924E-01        -0.19346E-01         0.00000E+00
    0.19249E-01        -0.18591E-01         0.00000E+00
    0.18566E-01        -0.17836E-01         0.00000E+00
    0.17877E-01        -0.17082E-01         0.00000E+00
    0.17180E-01        -0.16328E-01         0.00000E+00
    0.16476E-01        -0.15576E-01         0.00000E+00
    0.15765E-01        -0.14823E-01         0.00000E+00
    0.15047E-01        -0.14072E-01         0.00000E+00
    0.14321E-01        -0.13321E-01         0.00000E+00
    0.13589E-01        -0.12571E-01         0.00000E+00
    0.12849E-01        -0.11822E-01         0.00000E+00
    0.12102E-01        -0.11074E-01         0.00000E+00
    0.11347E-01        -0.10327E-01         0.00000E+00
    0.10586E-01        -0.95806E-02         0.00000E+00
    0.98168E-02        -0.88354E-02         0.00000E+00
    0.90404E-02        -0.80913E-02         0.00000E+00
    0.82567E-02        -0.73484E-02         0.00000E+00
    0.74655E-02        -0.66068E-02         0.00000E+00
    0.66669E-02        -0.58664E-02         0.00000E+00
    0.58606E-02        -0.51275E-02         0.00000E+00
    0.50468E-02        -0.43900E-02         0.00000E+00
    0.42252E-02        -0.36540E-02         0.00000E+00
    0.33960E-02        -0.29197E-02         0.00000E+00
    0.25589E-02        -0.21870E-02         0.00000E+00
    0.17139E-02        -0.14561E-02         0.00000E+00
    0.86096E-03        -0.72707E-03         0.00000E+00
    0.00000E+00         0.00000E+00         0.00000E+00
    0.34974E-01        -0.40032E-01         0.00000E+00
    0.34460E-01        -0.39225E-01         0.00000E+00
    0.33938E-01        -0.38417E-01         0.00000E+00
    0.33406E-01        -0.37610E-01         0.00000E+00
    0.32866E-01        -0.36802E-01         0.00000E+00
    0.32318E-01        -0.35995E-01         0.00000E+00
    0.31761E-01        -0.35188E-01         0.00000E+00
    0.31197E-01        -0.34380E-01         0.00000E+00
    0.30624E-01        -0.33573E-01         0.00000E+00
    0.30043E-01        -0.32766E-01         0.00000E+00
    0.29455E-01        -0.31959E-01         0.00000E+00
    0.28859E-01        -0.31152E-01         0.00000E+00
    0.28255E-01        -0.30345E-01         0.00000E+00
    0.27643E-01        -0.29539E-01         0.00000E+00
    0.27025E-01        -0.28732E-01         0.00000E+00
    0.26399E-01        -0.27926E-01         0.00000E+00
    0.25765E-01        -0.27119E-01         0.00000E+00
    0.25125E-01        -0.26313E-01         0.00000E+00
    0.24477E-01        -0.25507E-01         0.00000E+00
    0.23822E-01        -0.24701E-01         0.00000E+00
    0.23160E-01        -0.23896E-01         0.00000E+00
    0.22491E-01        -0.23090E-01         0.00000E+00
    0.21815E-01        -0.22285E-01         0.00000E+00
    0.21132E-01        -0.21481E-01         0.00000E+00
    0.20442E-01        -0.20676E-01         0.00000E+00
    0.19745E-01        -0.19872E-01         0.00000E+00
    0.19041E-01        -0.19068E-01         0.00000E+00
    0.18330E-01        -0.18265E-01         0.00000E+00
    0.17612E-01        -0.17462E-01         0.00000E+00
    0.16887E-01        -0.16659E-01         0.00000E+00
    0.16156E-01        -0.15857E-01         0.00000E+00
    0.15417E-01        -0.15056E-01         0.00000E+00
    0.14671E-01        -0.14255E-01         0.00000E+00
    0.13919E-01        -0.13454E-01         0.00000E+00
    0.13159E-01        -0.12655E-01         0.00000E+00
    0.12392E-01        -0.11856E-01         0.00000E+00
    0.11618E-01        -0.11058E-01         0.00000E+00
    0.10837E-01        -0.10260E-01         0.00000E+00
    0.10049E-01        -0.94639E-02         0.00000E+00
    0.92530E-02        -0.86684E-02         0.00000E+00
    0.84500E-02        -0.78739E-02         0.00000E+00
    0.76396E-02        -0.70805E-02         0.00000E+00
    0.68218E-02        -0.62882E-02         0.00000E+00
    0.59963E-02        -0.54971E-02         0.00000E+00
    0.51633E-02        -0.47073E-02         0.00000E+00
    0.43226E-02        -0.39189E-02         0.00000E+00
    0.34740E-02        -0.31319E-02         0.00000E+00
    0.26176E-02        -0.23464E-02         0.00000E+00
    0.17532E-02        -0.15625E-02         0.00000E+00
    0.88067E-03        -0.78036E-03         0.00000E+00
    0.00000E+00         0.00000E+00         0.00000E+00
    0.36093E-01        -0.42655E-01         0.00000E+00
    0.35549E-01        -0.41799E-01         0.00000E+00
    0.34996E-01        -0.40942E-01         0.00000E+00
    0.34434E-01        -0.40085E-01         0.00000E+00
    0.33865E-01        -0.39228E-01         0.00000E+00
    0.33287E-01        -0.38372E-01         0.00000E+00
    0.32701E-01        -0.37515E-01         0.00000E+00
    0.32108E-01        -0.36658E-01         0.00000E+00
    0.31507E-01        -0.35801E-01         0.00000E+00
    0.30899E-01        -0.34945E-01         0.00000E+00
    0.30283E-01        -0.34088E-01         0.00000E+00
    0.29660E-01        -0.33231E-01         0.00000E+00
    0.29030E-01        -0.32374E-01         0.00000E+00
    0.28393E-01        -0.31518E-01         0.00000E+00
    0.27748E-01        -0.30661E-01         0.00000E+00
    0.27097E-01        -0.29804E-01         0.00000E+00
    0.26439E-01        -0.28947E-01         0.00000E+00
    0.25774E-01        -0.28090E-01         0.00000E+00
    0.25102E-01        -0.27234E-01         0.00000E+00
    0.24424E-01        -0.26377E-01         0.00000E+00
    0.23738E-01        -0.25520E-01         0.00000E+00
    0.23046E-01        -0.24664E-01         0.00000E+00
    0.22348E-01        -0.23807E-01         0.00000E+00
    0.21643E-01        -0.22951E-01         0.00000E+00
    0.20931E-01        -0.22094E-01         0.00000E+00
    0.20212E-01        -0.21238E-01         0.00000E+00
    0.19487E-01        -0.20382E-01         0.00000E+00
    0.18756E-01        -0.19526E-01         0.00000E+00
    0.18017E-01        -0.18671E-01         0.00000E+00
    0.17272E-01        -0.17816E-01         0.00000E+00
    0.16521E-01        -0.16961E-01         0.00000E+00
    0.15762E-01        -0.16106E-01         0.00000E+00
    0.14997E-01        -0.15252E-01         0.00000E+00
    0.14225E-01        -0.14398E-01         0.00000E+00
    0.13447E-01        -0.13544E-01         0.00000E+00
    0.12661E-01        -0.12691E-01         0.00000E+00
    0.11868E-01        -0.11839E-01         0.00000E+00
    0.11069E-01        -0.10987E-01         0.00000E+00
    0.10262E-01        -0.10136E-01         0.00000E+00
    0.94486E-02        -0.92858E-02         0.00000E+00
    0.86277E-02        -0.84363E-02         0.00000E+00
    0.77994E-02        -0.75876E-02         0.00000E+00
    0.69638E-02        -0.67398E-02         0.00000E+00
    0.61206E-02        -0.58930E-02         0.00000E+00
    0.52699E-02        -0.50473E-02         0.00000E+00
    0.44115E-02        -0.42027E-02         0.00000E+00
    0.35453E-02        -0.33593E-02         0.00000E+00
    0.26711E-02        -0.25173E-02         0.00000E+00
    0.17890E-02        -0.16767E-02         0.00000E+00
    0.89862E-03        -0.83754E-03         0.00000E+00
    0.00000E+00         0.00000E+00         0.00000E+00
    0.37194E-01        -0.45439E-01         0.00000E+00
    0.36617E-01        -0.44531E-01         0.00000E+00
    0.36031E-01        -0.43622E-01         0.00000E+00
    0.35438E-01        -0.42713E-01         0.00000E+00
    0.34837E-01        -0.41805E-01         0.00000E+00
    0.34228E-01        -0.40896E-01         0.00000E+00
    0.33612E-01        -0.39987E-01         0.00000E+00
    0.32989E-01        -0.39079E-01         0.00000E+00
    0.32359E-01        -0.38170E-01         0.00000E+00
    0.31722E-01        -0.37261E-01         0.00000E+00
    0.31078E-01        -0.36352E-01         0.00000E+00
    0.30427E-01        -0.35442E-01         0.00000E+00
    0.29769E-01        -0.34533E-01         0.00000E+00
    0.29105E-01        -0.33623E-01         0.00000E+00
    0.28435E-01        -0.32714E-01         0.00000E+00
    0.27758E-01        -0.31804E-01         0.00000E+00
    0.27075E-01        -0.30894E-01         0.00000E+00
    0.26385E-01        -0.29983E-01         0.00000E+00
    0.25689E-01        -0.29073E-01         0.00000E+00
    0.24987E-01        -0.28163E-01         0.00000E+00
    0.24278E-01        -0.27252E-01         0.00000E+00
    0.23564E-01        -0.26341E-01         0.00000E+00
    0.22843E-01        -0.25430E-01         0.00000E+00
    0.22116E-01        -0.24519E-01         0.00000E+00
    0.21383E-01        -0.23608E-01         0.00000E+00
    0.20643E-01        -0.22696E-01         0.00000E+00
    0.19898E-01        -0.21785E-01         0.00000E+00
    0.19146E-01        -0.20874E-01         0.00000E+00
    0.18388E-01        -0.19962E-01         0.00000E+00
    0.17624E-01        -0.19051E-01         0.00000E+00
    0.16853E-01        -0.18140E-01         0.00000E+00
    0.16076E-01        -0.17228E-01         0.00000E+00
    0.15292E-01        -0.16317E-01         0.00000E+00
    0.14502E-01        -0.15406E-01         0.00000E+00
    0.13706E-01        -0.14496E-01         0.00000E+00
    0.12903E-01        -0.13585E-01         0.00000E+00
    0.12093E-01        -0.12675E-01         0.00000E+00
    0.11277E-01        -0.11765E-01         0.00000E+00
    0.10453E-01        -0.10856E-01         0.00000E+00
    0.96230E-02        -0.99471E-02         0.00000E+00
    0.87856E-02        -0.90387E-02         0.00000E+00
    0.79412E-02        -0.81309E-02         0.00000E+00
    0.70895E-02        -0.72238E-02         0.00000E+00
    0.62305E-02        -0.63174E-02         0.00000E+00
    0.53640E-02        -0.54118E-02         0.00000E+00
    0.44898E-02        -0.45071E-02         0.00000E+00
    0.36079E-02        -0.36034E-02         0.00000E+00
    0.27182E-02        -0.27007E-02         0.00000E+00
    0.18204E-02        -0.17992E-02         0.00000E+00
    0.91435E-03        -0.89893E-03         0.00000E+00
    0.00000E+00         0.00000E+00         0.00000E+00
    0.38264E-01        -0.48395E-01         0.00000E+00
    0.37651E-01        -0.47432E-01         0.00000E+00
    0.37031E-01        -0.46469E-01         0.00000E+00
    0.36404E-01        -0.45506E-01         0.00000E+00
    0.35769E-01        -0.44543E-01         0.00000E+00
    0.35128E-01        -0.43580E-01         0.00000E+00
    0.34481E-01        -0.42616E-01         0.00000E+00
    0.33826E-01        -0.41653E-01         0.00000E+00
    0.33165E-01        -0.40689E-01         0.00000E+00
    0.32498E-01        -0.39725E-01         0.00000E+00
    0.31825E-01        -0.38761E-01         0.00000E+00
    0.31146E-01        -0.37797E-01         0.00000E+00
    0.30461E-01        -0.36832E-01         0.00000E+00
    0.29769E-01        -0.35867E-01         0.00000E+00
    0.29072E-01        -0.34901E-01         0.00000E+00
    0.28370E-01        -0.33935E-01         0.00000E+00
    0.27661E-01        -0.32969E-01         0.00000E+00
    0.26947E-01        -0.32002E-01         0.00000E+00
    0.26227E-01        -0.31035E-01         0.00000E+00
    0.25501E-01        -0.30068E-01         0.00000E+00
    0.24770E-01        -0.29100E-01         0.00000E+00
    0.24033E-01        -0.28131E-01         0.00000E+00
    0.23290E-01        -0.27163E-01         0.00000E+00
    0.22542E-01        -0.26194E-01         0.00000E+00
    0.21788E-01        -0.25224E-01         0.00000E+00
    0.21029E-01        -0.24255E-01         0.00000E+00
    0.20263E-01        -0.23285E-01         0.00000E+00
    0.19492E-01        -0.22314E-01         0.00000E+00
    0.18716E-01        -0.21343E-01         0.00000E+00
    0.17933E-01        -0.20372E-01         0.00000E+00
    0.17144E-01        -0.19401E-01         0.00000E+00
    0.16350E-01        -0.18430E-01         0.00000E+00
    0.15549E-01        -0.17458E-01         0.00000E+00
    0.14743E-01        -0.16486E-01         0.00000E+00
    0.13930E-01        -0.15515E-01         0.00000E+00
    0.13111E-01        -0.14543E-01         0.00000E+00
    0.12286E-01        -0.13571E-01         0.00000E+00
    0.11454E-01        -0.12599E-01         0.00000E+00
    0.10616E-01        -0.11628E-01         0.00000E+00
    0.97709E-02        -0.10656E-01         0.00000E+00
    0.89193E-02        -0.96847E-02         0.00000E+00
    0.80608E-02        -0.87137E-02         0.00000E+00
    0.71952E-02        -0.77431E-02         0.00000E+00
    0.63225E-02        -0.67729E-02         0.00000E+00
    0.54425E-02        -0.58032E-02         0.00000E+00
    0.45551E-02        -0.48340E-02         0.00000E+00
    0.36600E-02        -0.38655E-02         0.00000E+00
    0.27571E-02        -0.28978E-02         0.00000E+00
    0.18463E-02        -0.19309E-02         0.00000E+00
    0.92733E-03        -0.96494E-03         0.00000E+00
    0.00000E+00         0.00000E+00         0.00000E+00
    0.39289E-01        -0.51535E-01         0.00000E+00
    0.38639E-01        -0.50515E-01         0.00000E+00
    0.37981E-01        -0.49495E-01         0.00000E+00
    0.37318E-01        -0.48475E-01         0.00000E+00
    0.36648E-01        -0.47455E-01         0.00000E+00
    0.35973E-01        -0.46435E-01         0.00000E+00
    0.35292E-01        -0.45414E-01         0.00000E+00
    0.34605E-01        -0.44393E-01         0.00000E+00
    0.33913E-01        -0.43372E-01         0.00000E+00
    0.33215E-01        -0.42350E-01         0.00000E+00
    0.32512E-01        -0.41328E-01         0.00000E+00
    0.31803E-01        -0.40305E-01         0.00000E+00
    0.31090E-01        -0.39282E-01         0.00000E+00
    0.30371E-01        -0.38258E-01         0.00000E+00
    0.29647E-01        -0.37234E-01         0.00000E+00
    0.28919E-01        -0.36209E-01         0.00000E+00
    0.28185E-01        -0.35183E-01         0.00000E+00
    0.27446E-01        -0.34157E-01         0.00000E+00
    0.26703E-01        -0.33130E-01         0.00000E+00
    0.25954E-01        -0.32102E-01         0.00000E+00
    0.25200E-01        -0.31074E-01         0.00000E+00
    0.24442E-01        -0.30045E-01         0.00000E+00
    0.23679E-01        -0.29015E-01         0.00000E+00
    0.22910E-01        -0.27985E-01         0.00000E+00
    0.22136E-01        -0.26954E-01         0.00000E+00
    0.21358E-01        -0.25922E-01         0.00000E+00
    0.20574E-01        -0.24889E-01         0.00000E+00
    0.19785E-01        -0.23856E-01         0.00000E+00
    0.18991E-01        -0.22822E-01         0.00000E+00
    0.18191E-01        -0.21788E-01         0.00000E+00
    0.17387E-01        -0.20753E-01         0.00000E+00
    0.16576E-01        -0.19717E-01         0.00000E+00
    0.15761E-01        -0.18681E-01         0.00000E+00
    0.14939E-01        -0.17644E-01         0.00000E+00
    0.14112E-01        -0.16607E-01         0.00000E+00
    0.13279E-01        -0.15570E-01         0.00000E+00
    0.12440E-01        -0.14532E-01         0.00000E+00
    0.11595E-01        -0.13494E-01         0.00000E+00
    0.10744E-01        -0.12456E-01         0.00000E+00
    0.98872E-02        -0.11417E-01         0.00000E+00
    0.90236E-02        -0.10378E-01         0.00000E+00
    0.81534E-02        -0.93398E-02         0.00000E+00
    0.72766E-02        -0.83011E-02         0.00000E+00
    0.63929E-02        -0.72624E-02         0.00000E+00
    0.55023E-02        -0.62239E-02         0.00000E+00
    0.46044E-02        -0.51855E-02         0.00000E+00
    0.36991E-02        -0.41475E-02         0.00000E+00
    0.27863E-02        -0.31098E-02         0.00000E+00
    0.18656E-02        -0.20726E-02         0.00000E+00
    0.93693E-03        -0.10360E-02         0.00000E+00
    0.00000E+00         0.00000E+00         0.00000E+00
    0.40251E-01        -0.54873E-01         0.00000E+00
    0.39560E-01        -0.53793E-01         0.00000E+00
    0.38864E-01        -0.52714E-01         0.00000E+00
    0.38162E-01        -0.51634E-01         0.00000E+00
    0.37456E-01        -0.50554E-01         0.00000E+00
    0.36745E-01        -0.49474E-01         0.00000E+00
    0.36029E-01        -0.48393E-01         0.00000E+00
    0.35308E-01        -0.47312E-01         0.00000E+00
    0.34583E-01        -0.46230E-01         0.00000E+00
    0.33854E-01        -0.45148E-01         0.00000E+00
    0.33120E-01        -0.44065E-01         0.00000E+00
    0.32382E-01        -0.42981E-01         0.00000E+00
    0.31641E-01        -0.41896E-01         0.00000E+00
    0.30894E-01        -0.40811E-01         0.00000E+00
    0.30144E-01        -0.39725E-01         0.00000E+00
    0.29390E-01        -0.38637E-01         0.00000E+00
    0.28632E-01        -0.37549E-01         0.00000E+00
    0.27869E-01        -0.36460E-01         0.00000E+00
    0.27103E-01        -0.35370E-01         0.00000E+00
    0.26332E-01        -0.34279E-01         0.00000E+00
    0.25557E-01        -0.33186E-01         0.00000E+00
    0.24779E-01        -0.32093E-01         0.00000E+00
    0.23995E-01        -0.30998E-01         0.00000E+00
    0.23208E-01        -0.29903E-01         0.00000E+00
    0.22416E-01        -0.28806E-01         0.00000E+00
    0.21620E-01        -0.27708E-01         0.00000E+00
    0.20819E-01        -0.26609E-01         0.00000E+00
    0.20014E-01        -0.25509E-01         0.00000E+00
    0.19204E-01        -0.24408E-01         0.00000E+00
    0.18390E-01        -0.23306E-01         0.00000E+00
    0.17571E-01        -0.22203E-01         0.00000E+00
    0.16747E-01        -0.21099E-01         0.00000E+00
    0.15917E-01        -0.19994E-01         0.00000E+00
    0.15083E-01        -0.18888E-01         0.00000E+00
    0.14244E-01        -0.17781E-01         0.00000E+00
    0.13399E-01        -0.16673E-01         0.00000E+00
    0.12549E-01        -0.15565E-01         0.00000E+00
    0.11694E-01        -0.14456E-01         0.00000E+00
    0.10833E-01        -0.13346E-01         0.00000E+00
    0.99658E-02        -0.12236E-01         0.00000E+00
    0.90930E-02        -0.11125E-01         0.00000E+00
    0.82141E-02        -0.10014E-01         0.00000E+00
    0.73290E-02        -0.89018E-02         0.00000E+00
    0.64375E-02        -0.77896E-02         0.00000E+00
    0.55394E-02        -0.66771E-02         0.00000E+00
    0.46345E-02        -0.55644E-02         0.00000E+00
    0.37226E-02        -0.44515E-02         0.00000E+00
    0.28034E-02        -0.33385E-02         0.00000E+00
    0.18768E-02        -0.22255E-02         0.00000E+00
    0.94245E-03        -0.11127E-02         0.00000E+00
    0.00000E+00         0.00000E+00         0.00000E+00
    0.41130E-01        -0.58422E-01         0.00000E+00
    0.40395E-01        -0.57280E-01         0.00000E+00
    0.39658E-01        -0.56138E-01         0.00000E+00
    0.38916E-01        -0.54996E-01         0.00000E+00
    0.38171E-01        -0.53853E-01         0.00000E+00
    0.37422E-01        -0.52710E-01         0.00000E+00
    0.36670E-01        -0.51567E-01         0.00000E+00
    0.35916E-01        -0.50422E-01         0.00000E+00
    0.35157E-01        -0.49277E-01         0.00000E+00
    0.34396E-01        -0.48131E-01         0.00000E+00
    0.33632E-01        -0.46985E-01         0.00000E+00
    0.32865E-01        -0.45837E-01         0.00000E+00
    0.32095E-01        -0.44688E-01         0.00000E+00
    0.31322E-01        -0.43537E-01         0.00000E+00
    0.30546E-01        -0.42386E-01         0.00000E+00
    0.29767E-01        -0.41233E-01         0.00000E+00
    0.28985E-01        -0.40079E-01         0.00000E+00
    0.28200E-01        -0.38924E-01         0.00000E+00
    0.27412E-01        -0.37767E-01         0.00000E+00
    0.26621E-01        -0.36608E-01         0.00000E+00
    0.25826E-01        -0.35448E-01         0.00000E+00
    0.25029E-01        -0.34287E-01         0.00000E+00
    0.24227E-01        -0.33124E-01         0.00000E+00
    0.23423E-01        -0.31959E-01         0.00000E+00
    0.22615E-01        -0.30793E-01         0.00000E+00
    0.21803E-01        -0.29625E-01         0.00000E+00
    0.20988E-01        -0.28456E-01         0.00000E+00
    0.20169E-01        -0.27285E-01         0.00000E+00
    0.19345E-01        -0.26112E-01         0.00000E+00
    0.18518E-01        -0.24938E-01         0.00000E+00
    0.17687E-01        -0.23763E-01         0.00000E+00
    0.16851E-01        -0.22586E-01         0.00000E+00
    0.16012E-01        -0.21407E-01         0.00000E+00
    0.15167E-01        -0.20227E-01         0.00000E+00
    0.14318E-01        -0.19046E-01         0.00000E+00
    0.13465E-01        -0.17863E-01         0.00000E+00
    0.12606E-01        -0.16679E-01         0.00000E+00
    0.11743E-01        -0.15494E-01         0.00000E+00
    0.10874E-01        -0.14307E-01         0.00000E+00
    0.10001E-01        -0.13120E-01         0.00000E+00
    0.91217E-02        -0.11931E-01         0.00000E+00
    0.82372E-02        -0.10741E-01         0.00000E+00
    0.73471E-02        -0.95509E-02         0.00000E+00
    0.64513E-02        -0.83594E-02         0.00000E+00
    0.55495E-02        -0.71672E-02         0.00000E+00
    0.46415E-02        -0.59741E-02         0.00000E+00
    0.37272E-02        -0.47804E-02         0.00000E+00
    0.28061E-02        -0.35861E-02         0.00000E+00
    0.18781E-02        -0.23911E-02         0.00000E+00
    0.94276E-03        -0.11957E-02         0.00000E+00
    0.00000E+00         0.00000E+00         0.00000E+00
    0.41898E-01        -0.62197E-01         0.00000E+00
    0.41119E-01        -0.60990E-01         0.00000E+00
    0.40337E-01        -0.59783E-01         0.00000E+00
    0.39554E-01        -0.58575E-01         0.00000E+00
    0.38769E-01        -0.57367E-01         0.00000E+00
    0.37982E-01        -0.56159E-01         0.00000E+00
    0.37194E-01        -0.54949E-01         0.00000E+00
    0.36404E-01        -0.53739E-01         0.00000E+00
    0.35612E-01        -0.52527E-01         0.00000E+00
    0.34820E-01        -0.51315E-01         0.00000E+00
    0.34025E-01        -0.50101E-01         0.00000E+00
    0.33230E-01        -0.48886E-01         0.00000E+00
    0.32432E-01        -0.47669E-01         0.00000E+00
    0.31633E-01        -0.46451E-01         0.00000E+00
    0.30833E-01        -0.45231E-01         0.00000E+00
    0.30031E-01        -0.44010E-01         0.00000E+00
    0.29227E-01        -0.42786E-01         0.00000E+00
    0.28421E-01        -0.41561E-01         0.00000E+00
    0.27613E-01        -0.40334E-01         0.00000E+00
    0.26803E-01        -0.39105E-01         0.00000E+00
    0.25991E-01        -0.37874E-01         0.00000E+00
    0.25177E-01        -0.36641E-01         0.00000E+00
    0.24360E-01        -0.35406E-01         0.00000E+00
    0.23541E-01        -0.34168E-01         0.00000E+00
    0.22719E-01        -0.32929E-01         0.00000E+00
    0.21895E-01        -0.31687E-01         0.00000E+00
    0.21067E-01        -0.30443E-01         0.00000E+00
    0.20237E-01        -0.29197E-01         0.00000E+00
    0.19403E-01        -0.27949E-01         0.00000E+00
    0.18566E-01        -0.26699E-01         0.00000E+00
    0.17725E-01        -0.25446E-01         0.00000E+00
    0.16881E-01        -0.24191E-01         0.00000E+00
    0.16034E-01        -0.22935E-01         0.00000E+00
    0.15182E-01        -0.21676E-01         0.00000E+00
    0.14327E-01        -0.20415E-01         0.00000E+00
    0.13467E-01        -0.19152E-01         0.00000E+00
    0.12603E-01        -0.17887E-01         0.00000E+00
    0.11735E-01        -0.16620E-01         0.00000E+00
    0.10863E-01        -0.15351E-01         0.00000E+00
    0.99854E-02        -0.14080E-01         0.00000E+00
    0.91036E-02        -0.12808E-01         0.00000E+00
    0.82171E-02        -0.11534E-01         0.00000E+00
    0.73256E-02        -0.10258E-01         0.00000E+00
    0.64291E-02        -0.89801E-02         0.00000E+00
    0.55274E-02        -0.77011E-02         0.00000E+00
    0.46204E-02        -0.64207E-02         0.00000E+00
    0.37080E-02        -0.51391E-02         0.00000E+00
    0.27902E-02        -0.38563E-02         0.00000E+00
    0.18668E-02        -0.25721E-02         0.00000E+00
    0.93728E-03        -0.12867E-02         0.00000E+00
    0.00000E+00         0.00000E+00         0.00000E+00
    0.42527E-01        -0.66210E-01         0.00000E+00
    0.41700E-01        -0.64935E-01         0.00000E+00
    0.40873E-01        -0.63660E-01         0.00000E+00
    0.40047E-01        -0.62384E-01         0.00000E+00
    0.39221E-01        -0.61107E-01         0.00000E+00
    0.38395E-01        -0.59830E-01         0.00000E+00
    0.37571E-01        -0.58552E-01         0.00000E+00
    0.36746E-01        -0.57273E-01         0.00000E+00
    0.35922E-01        -0.55992E-01         0.00000E+00
    0.35098E-01        -0.54710E-01         0.00000E+00
    0.34275E-01        -0.53426E-01         0.00000E+00
    0.33452E-01        -0.52141E-01         0.00000E+00
    0.32629E-01        -0.50854E-01         0.00000E+00
    0.31806E-01        -0.49564E-01         0.00000E+00
    0.30983E-01        -0.48273E-01         0.00000E+00
    0.30159E-01        -0.46980E-01         0.00000E+00
    0.29336E-01        -0.45684E-01         0.00000E+00
    0.28512E-01        -0.44386E-01         0.00000E+00
    0.27687E-01        -0.43085E-01         0.00000E+00
    0.26861E-01        -0.41782E-01         0.00000E+00
    0.26034E-01        -0.40477E-01         0.00000E+00
    0.25206E-01        -0.39168E-01         0.00000E+00
    0.24377E-01        -0.37858E-01         0.00000E+00
    0.23546E-01        -0.36544E-01         0.00000E+00
    0.22714E-01        -0.35228E-01         0.00000E+00
    0.21880E-01        -0.33908E-01         0.00000E+00
    0.21044E-01        -0.32586E-01         0.00000E+00
    0.20205E-01        -0.31261E-01         0.00000E+00
    0.19364E-01        -0.29934E-01         0.00000E+00
    0.18521E-01        -0.28603E-01         0.00000E+00
    0.17675E-01        -0.27270E-01         0.00000E+00
    0.16826E-01        -0.25933E-01         0.00000E+00
    0.15974E-01        -0.24594E-01         0.00000E+00
    0.15118E-01        -0.23252E-01         0.00000E+00
    0.14260E-01        -0.21907E-01         0.00000E+00
    0.13398E-01        -0.20559E-01         0.00000E+00
    0.12533E-01        -0.19208E-01         0.00000E+00
    0.11663E-01        -0.17854E-01         0.00000E+00
    0.10790E-01        -0.16497E-01         0.00000E+00
    0.99134E-02        -0.15138E-01         0.00000E+00
    0.90325E-02        -0.13776E-01         0.00000E+00
    0.81475E-02        -0.12411E-01         0.00000E+00
    0.72584E-02        -0.11043E-01         0.00000E+00
    0.63653E-02        -0.96718E-02         0.00000E+00
    0.54682E-02        -0.82980E-02         0.00000E+00
    0.45672E-02        -0.69212E-02         0.00000E+00
    0.36617E-02        -0.55412E-02         0.00000E+00
    0.27515E-02        -0.41583E-02         0.00000E+00
    0.18365E-02        -0.27738E-02         0.00000E+00
    0.91804E-03        -0.13878E-02         0.00000E+00
    0.00000E+00         0.00000E+00         0.00000E+00
    0.42978E-01        -0.70470E-01         0.00000E+00
    0.42102E-01        -0.69124E-01         0.00000E+00
    0.41230E-01        -0.67778E-01         0.00000E+00
    0.40360E-01        -0.66431E-01         0.00000E+00
    0.39494E-01        -0.65084E-01         0.00000E+00
    0.38630E-01        -0.63735E-01         0.00000E+00
    0.37769E-01        -0.62385E-01         0.00000E+00
    0.36911E-01        -0.61034E-01         0.00000E+00
    0.36056E-01        -0.59681E-01         0.00000E+00
    0.35203E-01        -0.58327E-01         0.00000E+00
    0.34353E-01        -0.56970E-01         0.00000E+00
    0.33505E-01        -0.55612E-01         0.00000E+00
    0.32659E-01        -0.54251E-01         0.00000E+00
    0.31814E-01        -0.52888E-01         0.00000E+00
    0.30971E-01        -0.51522E-01         0.00000E+00
    0.30130E-01        -0.50154E-01         0.00000E+00
    0.29290E-01        -0.48783E-01         0.00000E+00
    0.28450E-01        -0.47409E-01         0.00000E+00
    0.27612E-01        -0.46032E-01         0.00000E+00
    0.26774E-01        -0.44652E-01         0.00000E+00
    0.25936E-01        -0.43269E-01         0.00000E+00
    0.25098E-01        -0.41882E-01         0.00000E+00
    0.24260E-01        -0.40493E-01         0.00000E+00
    0.23422E-01        -0.39100E-01         0.00000E+00
    0.22582E-01        -0.37704E-01         0.00000E+00
    0.21742E-01        -0.36304E-01         0.00000E+00
    0.20901E-01        -0.34901E-01         0.00000E+00
    0.20059E-01        -0.33494E-01         0.00000E+00
    0.19215E-01        -0.32084E-01         0.00000E+00
    0.18369E-01        -0.30670E-01         0.00000E+00
    0.17521E-01        -0.29252E-01         0.00000E+00
    0.16671E-01        -0.27831E-01         0.00000E+00
    0.15819E-01        -0.26406E-01         0.00000E+00
    0.14964E-01        -0.24978E-01         0.00000E+00
    0.14106E-01        -0.23545E-01         0.00000E+00
    0.13246E-01        -0.22109E-01         0.00000E+00
    0.12383E-01        -0.20669E-01         0.00000E+00
    0.11516E-01        -0.19226E-01         0.00000E+00
    0.10647E-01        -0.17778E-01         0.00000E+00
    0.97738E-02        -0.16326E-01         0.00000E+00
    0.88979E-02        -0.14871E-01         0.00000E+00
    0.80189E-02        -0.13411E-01         0.00000E+00
    0.71363E-02        -0.11947E-01         0.00000E+00
    0.62497E-02        -0.10478E-01         0.00000E+00
    0.53591E-02        -0.90060E-02         0.00000E+00
    0.44650E-02        -0.75307E-02         0.00000E+00
    0.35699E-02        -0.60518E-02         0.00000E+00
    0.26755E-02        -0.45664E-02         0.00000E+00
    0.17830E-02        -0.30681E-02         0.00000E+00
    0.89005E-03        -0.15466E-02         0.00000E+00
    0.00000E+00         0.00000E+00         0.00000E+00
    0.43210E-01        -0.74983E-01         0.00000E+00
    0.42285E-01        -0.73563E-01         0.00000E+00
    0.41367E-01        -0.72143E-01         0.00000E+00
    0.40455E-01        -0.70722E-01         0.00000E+00
    0.39549E-01        -0.69300E-01         0.00000E+00
    0.38649E-01        -0.67878E-01         0.00000E+00
    0.37754E-01        -0.66454E-01         0.00000E+00
    0.36865E-01        -0.65028E-01         0.00000E+00
    0.35981E-01        -0.63600E-01         0.00000E+00
    0.35102E-01        -0.62171E-01         0.00000E+00
    0.34228E-01        -0.60739E-01         0.00000E+00
    0.33358E-01        -0.59304E-01         0.00000E+00
    0.32492E-01        -0.57867E-01         0.00000E+00
    0.31630E-01        -0.56427E-01         0.00000E+00
    0.30771E-01        -0.54985E-01         0.00000E+00
    0.29915E-01        -0.53539E-01         0.00000E+00
    0.29063E-01        -0.52090E-01         0.00000E+00
    0.28212E-01        -0.50637E-01         0.00000E+00
    0.27364E-01        -0.49181E-01         0.00000E+00
    0.26518E-01        -0.47722E-01         0.00000E+00
    0.25674E-01        -0.46259E-01         0.00000E+00
    0.24831E-01        -0.44792E-01         0.00000E+00
    0.23988E-01        -0.43322E-01         0.00000E+00
    0.23147E-01        -0.41847E-01         0.00000E+00
    0.22305E-01        -0.40369E-01         0.00000E+00
    0.21464E-01        -0.38886E-01         0.00000E+00
    0.20622E-01        -0.37400E-01         0.00000E+00
    0.19780E-01        -0.35909E-01         0.00000E+00
    0.18938E-01        -0.34414E-01         0.00000E+00
    0.18094E-01        -0.32915E-01         0.00000E+00
    0.17248E-01        -0.31412E-01         0.00000E+00
    0.16402E-01        -0.29904E-01         0.00000E+00
    0.15553E-01        -0.28392E-01         0.00000E+00
    0.14702E-01        -0.26876E-01         0.00000E+00
    0.13850E-01        -0.25355E-01         0.00000E+00
    0.12995E-01        -0.23830E-01         0.00000E+00
    0.12138E-01        -0.22300E-01         0.00000E+00
    0.11278E-01        -0.20765E-01         0.00000E+00
    0.10415E-01        -0.19225E-01         0.00000E+00
    0.95490E-02        -0.17681E-01         0.00000E+00
    0.86792E-02        -0.16134E-01         0.00000E+00
    0.78062E-02        -0.14582E-01         0.00000E+00
    0.69322E-02        -0.13027E-01         0.00000E+00
    0.60584E-02        -0.11465E-01         0.00000E+00
    0.51857E-02        -0.98926E-02         0.00000E+00
    0.43135E-02        -0.83003E-02         0.00000E+00
    0.34435E-02        -0.66859E-02         0.00000E+00
    0.25782E-02        -0.50485E-02         0.00000E+00
    0.17168E-02        -0.33872E-02         0.00000E+00
    0.85868E-03        -0.17041E-02         0.00000E+00
    0.00000E+00         0.00000E+00         0.00000E+00
    0.43172E-01        -0.79744E-01         0.00000E+00
    0.42201E-01        -0.78248E-01         0.00000E+00
    0.41239E-01        -0.76752E-01         0.00000E+00
    0.40287E-01        -0.75254E-01         0.00000E+00
    0.39344E-01        -0.73756E-01         0.00000E+00
    0.38411E-01        -0.72257E-01         0.00000E+00
    0.37486E-01        -0.70755E-01         0.00000E+00
    0.36569E-01        -0.69252E-01         0.00000E+00
    0.35660E-01        -0.67747E-01         0.00000E+00
    0.34759E-01        -0.66240E-01         0.00000E+00
    0.33865E-01        -0.64730E-01         0.00000E+00
    0.32978E-01        -0.63217E-01         0.00000E+00
    0.32097E-01        -0.61701E-01         0.00000E+00
    0.31222E-01        -0.60182E-01         0.00000E+00
    0.30352E-01        -0.58660E-01         0.00000E+00
    0.29487E-01        -0.57135E-01         0.00000E+00
    0.28627E-01        -0.55606E-01         0.00000E+00
    0.27771E-01        -0.54073E-01         0.00000E+00
    0.26919E-01        -0.52536E-01         0.00000E+00
    0.26070E-01        -0.50995E-01         0.00000E+00
    0.25224E-01        -0.49450E-01         0.00000E+00
    0.24381E-01        -0.47901E-01         0.00000E+00
    0.23540E-01        -0.46348E-01         0.00000E+00
    0.22700E-01        -0.44790E-01         0.00000E+00
    0.21862E-01        -0.43228E-01         0.00000E+00
    0.21024E-01        -0.41662E-01         0.00000E+00
    0.20187E-01        -0.40091E-01         0.00000E+00
    0.19351E-01        -0.38515E-01         0.00000E+00
    0.18514E-01        -0.36935E-01         0.00000E+00
    0.17676E-01        -0.35350E-01         0.00000E+00
    0.16838E-01        -0.33760E-01         0.00000E+00
    0.15999E-01        -0.32165E-01         0.00000E+00
    0.15159E-01        -0.30566E-01         0.00000E+00
    0.14317E-01        -0.28961E-01         0.00000E+00
    0.13472E-01        -0.27352E-01         0.00000E+00
    0.12625E-01        -0.25738E-01         0.00000E+00
    0.11775E-01        -0.24120E-01         0.00000E+00
    0.10923E-01        -0.22498E-01         0.00000E+00
    0.10071E-01        -0.20872E-01         0.00000E+00
    0.92179E-02        -0.19238E-01         0.00000E+00
    0.83671E-02        -0.17592E-01         0.00000E+00
    0.75174E-02        -0.15927E-01         0.00000E+00
    0.66708E-02        -0.14241E-01         0.00000E+00
    0.58296E-02        -0.12535E-01         0.00000E+00
    0.49935E-02        -0.10805E-01         0.00000E+00
    0.41616E-02        -0.90539E-02         0.00000E+00
    0.33319E-02        -0.72817E-02         0.00000E+00
    0.25022E-02        -0.54891E-02         0.00000E+00
    0.16711E-02        -0.36775E-02         0.00000E+00
    0.83722E-03        -0.18474E-02         0.00000E+00
    0.00000E+00         0.00000E+00         0.00000E+00
    0.42811E-01        -0.84744E-01         0.00000E+00
    0.41796E-01        -0.83169E-01         0.00000E+00
    0.40795E-01        -0.81593E-01         0.00000E+00
    0.39807E-01        -0.80017E-01         0.00000E+00
    0.38832E-01        -0.78439E-01         0.00000E+00
    0.37870E-01        -0.76860E-01         0.00000E+00
    0.36920E-01        -0.75280E-01         0.00000E+00
    0.35981E-01        -0.73697E-01         0.00000E+00
    0.35053E-01        -0.72112E-01         0.00000E+00
    0.34136E-01        -0.70524E-01         0.00000E+00
    0.33228E-01        -0.68934E-01         0.00000E+00
    0.32329E-01        -0.67340E-01         0.00000E+00
    0.31439E-01        -0.65744E-01         0.00000E+00
    0.30557E-01        -0.64144E-01         0.00000E+00
    0.29683E-01        -0.62540E-01         0.00000E+00
    0.28816E-01        -0.60933E-01         0.00000E+00
    0.27955E-01        -0.59322E-01         0.00000E+00
    0.27099E-01        -0.57707E-01         0.00000E+00
    0.26249E-01        -0.56088E-01         0.00000E+00
    0.25404E-01        -0.54464E-01         0.00000E+00
    0.24563E-01        -0.52836E-01         0.00000E+00
    0.23726E-01        -0.51204E-01         0.00000E+00
    0.22891E-01        -0.49567E-01         0.00000E+00
    0.22060E-01        -0.47925E-01         0.00000E+00
    0.21230E-01        -0.46279E-01         0.00000E+00
    0.20402E-01        -0.44628E-01         0.00000E+00
    0.19576E-01        -0.42972E-01         0.00000E+00
    0.18750E-01        -0.41311E-01         0.00000E+00
    0.17925E-01        -0.39645E-01         0.00000E+00
    0.17099E-01        -0.37973E-01         0.00000E+00
    0.16272E-01        -0.36298E-01         0.00000E+00
    0.15443E-01        -0.34618E-01         0.00000E+00
    0.14613E-01        -0.32933E-01         0.00000E+00
    0.13784E-01        -0.31244E-01         0.00000E+00
    0.12954E-01        -0.29550E-01         0.00000E+00
    0.12126E-01        -0.27845E-01         0.00000E+00
    0.11300E-01        -0.26124E-01         0.00000E+00
    0.10477E-01        -0.24386E-01         0.00000E+00
    0.96585E-02        -0.22628E-01         0.00000E+00
    0.88462E-02        -0.20850E-01         0.00000E+00
    0.80392E-02        -0.19050E-01         0.00000E+00
    0.72373E-02        -0.17230E-01         0.00000E+00
    0.64384E-02        -0.15389E-01         0.00000E+00
    0.56410E-02        -0.13528E-01         0.00000E+00
    0.48439E-02        -0.11648E-01         0.00000E+00
    0.40457E-02        -0.97488E-02         0.00000E+00
    0.32456E-02        -0.78322E-02         0.00000E+00
    0.24426E-02        -0.58986E-02         0.00000E+00
    0.16352E-02        -0.39483E-02         0.00000E+00
    0.82145E-03        -0.19819E-02         0.00000E+00
    0.00000E+00         0.00000E+00         0.00000E+00
    0.42067E-01        -0.89959E-01         0.00000E+00
    0.41015E-01        -0.88302E-01         0.00000E+00
    0.39980E-01        -0.86644E-01         0.00000E+00
    0.38963E-01        -0.84986E-01         0.00000E+00
    0.37963E-01        -0.83327E-01         0.00000E+00
    0.36980E-01        -0.81666E-01         0.00000E+00
    0.36011E-01        -0.80003E-01         0.00000E+00
    0.35058E-01        -0.78338E-01         0.00000E+00
    0.34118E-01        -0.76671E-01         0.00000E+00
    0.33192E-01        -0.75001E-01         0.00000E+00
    0.32278E-01        -0.73328E-01         0.00000E+00
    0.31375E-01        -0.71653E-01         0.00000E+00
    0.30484E-01        -0.69973E-01         0.00000E+00
    0.29603E-01        -0.68291E-01         0.00000E+00
    0.28732E-01        -0.66604E-01         0.00000E+00
    0.27869E-01        -0.64914E-01         0.00000E+00
    0.27015E-01        -0.63220E-01         0.00000E+00
    0.26168E-01        -0.61521E-01         0.00000E+00
    0.25327E-01        -0.59818E-01         0.00000E+00
    0.24493E-01        -0.58111E-01         0.00000E+00
    0.23665E-01        -0.56400E-01         0.00000E+00
    0.22841E-01        -0.54683E-01         0.00000E+00
    0.22021E-01        -0.52962E-01         0.00000E+00
    0.21204E-01        -0.51236E-01         0.00000E+00
    0.20390E-01        -0.49505E-01         0.00000E+00
    0.19578E-01        -0.47770E-01         0.00000E+00
    0.18766E-01        -0.46030E-01         0.00000E+00
    0.17956E-01        -0.44285E-01         0.00000E+00
    0.17148E-01        -0.42537E-01         0.00000E+00
    0.16342E-01        -0.40782E-01         0.00000E+00
    0.15538E-01        -0.39019E-01         0.00000E+00
    0.14738E-01        -0.37241E-01         0.00000E+00
    0.13941E-01        -0.35448E-01         0.00000E+00
    0.13150E-01        -0.33637E-01         0.00000E+00
    0.12365E-01        -0.31808E-01         0.00000E+00
    0.11586E-01        -0.29959E-01         0.00000E+00
    0.10814E-01        -0.28090E-01         0.00000E+00
    0.10047E-01        -0.26201E-01         0.00000E+00
    0.92830E-02        -0.24292E-01         0.00000E+00
    0.85220E-02        -0.22363E-01         0.00000E+00
    0.77624E-02        -0.20415E-01         0.00000E+00
    0.70032E-02        -0.18449E-01         0.00000E+00
    0.62435E-02        -0.16465E-01         0.00000E+00
    0.54822E-02        -0.14463E-01         0.00000E+00
    0.47181E-02        -0.12444E-01         0.00000E+00
    0.39497E-02        -0.10409E-01         0.00000E+00
    0.31759E-02        -0.83570E-02         0.00000E+00
    0.23952E-02        -0.62897E-02         0.00000E+00
    0.16064E-02        -0.42073E-02         0.00000E+00
    0.80819E-03        -0.21105E-02         0.00000E+00
    0.00000E+00         0.00000E+00         0.00000E+00
    0.40878E-01        -0.95351E-01         0.00000E+00
    0.39796E-01        -0.93609E-01         0.00000E+00
    0.38738E-01        -0.91868E-01         0.00000E+00
    0.37701E-01        -0.90125E-01         0.00000E+00
    0.36686E-01        -0.88382E-01         0.00000E+00
    0.35690E-01        -0.86637E-01         0.00000E+00
    0.34713E-01        -0.84890E-01         0.00000E+00
    0.33754E-01        -0.83141E-01         0.00000E+00
    0.32812E-01        -0.81389E-01         0.00000E+00
    0.31886E-01        -0.79635E-01         0.00000E+00
    0.30975E-01        -0.77878E-01         0.00000E+00
    0.30078E-01        -0.76118E-01         0.00000E+00
    0.29195E-01        -0.74355E-01         0.00000E+00
    0.28324E-01        -0.72588E-01         0.00000E+00
    0.27465E-01        -0.70817E-01         0.00000E+00
    0.26617E-01        -0.69043E-01         0.00000E+00
    0.25779E-01        -0.67265E-01         0.00000E+00
    0.24949E-01        -0.65482E-01         0.00000E+00
    0.24128E-01        -0.63695E-01         0.00000E+00
    0.23313E-01        -0.61904E-01         0.00000E+00
    0.22504E-01        -0.60108E-01         0.00000E+00
    0.21700E-01        -0.58308E-01         0.00000E+00
    0.20902E-01        -0.56504E-01         0.00000E+00
    0.20110E-01        -0.54696E-01         0.00000E+00
    0.19322E-01        -0.52883E-01         0.00000E+00
    0.18540E-01        -0.51061E-01         0.00000E+00
    0.17763E-01        -0.49226E-01         0.00000E+00
    0.16992E-01        -0.47377E-01         0.00000E+00
    0.16229E-01        -0.45512E-01         0.00000E+00
    0.15473E-01        -0.43632E-01         0.00000E+00
    0.14726E-01        -0.41733E-01         0.00000E+00
    0.13986E-01        -0.39817E-01         0.00000E+00
    0.13252E-01        -0.37881E-01         0.00000E+00
    0.12525E-01        -0.35927E-01         0.00000E+00
    0.11802E-01        -0.33953E-01         0.00000E+00
    0.11083E-01        -0.31960E-01         0.00000E+00
    0.10366E-01        -0.29948E-01         0.00000E+00
    0.96517E-02        -0.27917E-01         0.00000E+00
    0.89380E-02        -0.25869E-01         0.00000E+00
    0.82240E-02        -0.23802E-01         0.00000E+00
    0.75084E-02        -0.21718E-01         0.00000E+00
    0.67902E-02        -0.19616E-01         0.00000E+00
    0.60680E-02        -0.17497E-01         0.00000E+00
    0.53404E-02        -0.15362E-01         0.00000E+00
    0.46063E-02        -0.13211E-01         0.00000E+00
    0.38644E-02        -0.11044E-01         0.00000E+00
    0.31139E-02        -0.88622E-02         0.00000E+00
    0.23539E-02        -0.66664E-02         0.00000E+00
    0.15828E-02        -0.44571E-02         0.00000E+00
    0.79877E-03        -0.22347E-02         0.00000E+00
    0.00000E+00         0.00000E+00         0.00000E+00
    0.39179E-01        -0.10087E+00         0.00000E+00
    0.38081E-01        -0.99039E-01         0.00000E+00
    0.37011E-01        -0.97211E-01         0.00000E+00
    0.35967E-01        -0.95383E-01         0.00000E+00
    0.34947E-01        -0.93553E-01         0.00000E+00
    0.33950E-01        -0.91721E-01         0.00000E+00
    0.32976E-01        -0.89888E-01         0.00000E+00
    0.32024E-01        -0.88053E-01         0.00000E+00
    0.31091E-01        -0.86216E-01         0.00000E+00
    0.30177E-01        -0.84376E-01         0.00000E+00
    0.29281E-01        -0.82533E-01         0.00000E+00
    0.28402E-01        -0.80687E-01         0.00000E+00
    0.27539E-01        -0.78838E-01         0.00000E+00
    0.26689E-01        -0.76986E-01         0.00000E+00
    0.25853E-01        -0.75129E-01         0.00000E+00
    0.25028E-01        -0.73270E-01         0.00000E+00
    0.24215E-01        -0.71406E-01         0.00000E+00
    0.23414E-01        -0.69540E-01         0.00000E+00
    0.22622E-01        -0.67670E-01         0.00000E+00
    0.21841E-01        -0.65795E-01         0.00000E+00
    0.21070E-01        -0.63912E-01         0.00000E+00
    0.20308E-01        -0.62017E-01         0.00000E+00
    0.19556E-01        -0.60111E-01         0.00000E+00
    0.18815E-01        -0.58191E-01         0.00000E+00
    0.18084E-01        -0.56258E-01         0.00000E+00
    0.17365E-01        -0.54309E-01         0.00000E+00
    0.16655E-01        -0.52345E-01         0.00000E+00
    0.15955E-01        -0.50364E-01         0.00000E+00
    0.15263E-01        -0.48366E-01         0.00000E+00
    0.14579E-01        -0.46349E-01         0.00000E+00
    0.13902E-01        -0.44315E-01         0.00000E+00
    0.13230E-01        -0.42263E-01         0.00000E+00
    0.12563E-01        -0.40192E-01         0.00000E+00
    0.11899E-01        -0.38103E-01         0.00000E+00
    0.11238E-01        -0.35995E-01         0.00000E+00
    0.10579E-01        -0.33870E-01         0.00000E+00
    0.99198E-02        -0.31726E-01         0.00000E+00
    0.92595E-02        -0.29564E-01         0.00000E+00
    0.85969E-02        -0.27384E-01         0.00000E+00
    0.79307E-02        -0.25187E-01         0.00000E+00
    0.72594E-02        -0.22973E-01         0.00000E+00
    0.65821E-02        -0.20741E-01         0.00000E+00
    0.58976E-02        -0.18494E-01         0.00000E+00
    0.52048E-02        -0.16231E-01         0.00000E+00
    0.45024E-02        -0.13953E-01         0.00000E+00
    0.37886E-02        -0.11661E-01         0.00000E+00
    0.30618E-02        -0.93541E-02         0.00000E+00
    0.23208E-02        -0.70339E-02         0.00000E+00
    0.15645E-02        -0.47011E-02         0.00000E+00
    0.79137E-03        -0.23563E-02         0.00000E+00
    0.00000E+00         0.00000E+00         0.00000E+00
    0.36908E-01        -0.10644E+00         0.00000E+00
    0.35809E-01        -0.10452E+00         0.00000E+00
    0.34742E-01        -0.10261E+00         0.00000E+00
    0.33705E-01        -0.10069E+00         0.00000E+00
    0.32696E-01        -0.98772E-01         0.00000E+00
    0.31714E-01        -0.96853E-01         0.00000E+00
    0.30758E-01        -0.94932E-01         0.00000E+00
    0.29826E-01        -0.93008E-01         0.00000E+00
    0.28916E-01        -0.91083E-01         0.00000E+00
    0.28027E-01        -0.89154E-01         0.00000E+00
    0.27159E-01        -0.87224E-01         0.00000E+00
    0.26310E-01        -0.85290E-01         0.00000E+00
    0.25480E-01        -0.83355E-01         0.00000E+00
    0.24667E-01        -0.81417E-01         0.00000E+00
    0.23871E-01        -0.79475E-01         0.00000E+00
    0.23091E-01        -0.77523E-01         0.00000E+00
    0.22327E-01        -0.75562E-01         0.00000E+00
    0.21578E-01        -0.73592E-01         0.00000E+00
    0.20844E-01        -0.71612E-01         0.00000E+00
    0.20126E-01        -0.69620E-01         0.00000E+00
    0.19422E-01        -0.67616E-01         0.00000E+00
    0.18733E-01        -0.65600E-01         0.00000E+00
    0.18058E-01        -0.63569E-01         0.00000E+00
    0.17394E-01        -0.61524E-01         0.00000E+00
    0.16742E-01        -0.59464E-01         0.00000E+00
    0.16101E-01        -0.57388E-01         0.00000E+00
    0.15469E-01        -0.55296E-01         0.00000E+00
    0.14846E-01        -0.53188E-01         0.00000E+00
    0.14231E-01        -0.51063E-01         0.00000E+00
    0.13623E-01        -0.48921E-01         0.00000E+00
    0.13020E-01        -0.46761E-01         0.00000E+00
    0.12421E-01        -0.44584E-01         0.00000E+00
    0.11825E-01        -0.42388E-01         0.00000E+00
    0.11231E-01        -0.40175E-01         0.00000E+00
    0.10637E-01        -0.37944E-01         0.00000E+00
    0.10042E-01        -0.35694E-01         0.00000E+00
    0.94446E-02        -0.33427E-01         0.00000E+00
    0.88429E-02        -0.31141E-01         0.00000E+00
    0.82359E-02        -0.28838E-01         0.00000E+00
    0.76223E-02        -0.26518E-01         0.00000E+00
    0.70006E-02        -0.24181E-01         0.00000E+00
    0.63691E-02        -0.21828E-01         0.00000E+00
    0.57261E-02        -0.19458E-01         0.00000E+00
    0.50703E-02        -0.17072E-01         0.00000E+00
    0.44003E-02        -0.14672E-01         0.00000E+00
    0.37146E-02        -0.12258E-01         0.00000E+00
    0.30117E-02        -0.98299E-02         0.00000E+00
    0.22896E-02        -0.73896E-02         0.00000E+00
    0.15477E-02        -0.49373E-02         0.00000E+00
    0.78483E-03        -0.24739E-02         0.00000E+00
    0.00000E+00         0.00000E+00         0.00000E+00
    0.34005E-01        -0.11199E+00         0.00000E+00
    0.32924E-01        -0.10998E+00         0.00000E+00
    0.31877E-01        -0.10797E+00         0.00000E+00
    0.30864E-01        -0.10596E+00         0.00000E+00
    0.29883E-01        -0.10396E+00         0.00000E+00
    0.28933E-01        -0.10195E+00         0.00000E+00
    0.28013E-01        -0.99935E-01         0.00000E+00
    0.27120E-01        -0.97922E-01         0.00000E+00
    0.26254E-01        -0.95908E-01         0.00000E+00
    0.25413E-01        -0.93887E-01         0.00000E+00
    0.24597E-01        -0.91859E-01         0.00000E+00
    0.23804E-01        -0.89824E-01         0.00000E+00
    0.23033E-01        -0.87782E-01         0.00000E+00
    0.22284E-01        -0.85731E-01         0.00000E+00
    0.21557E-01        -0.83672E-01         0.00000E+00
    0.20851E-01        -0.81603E-01         0.00000E+00
    0.20164E-01        -0.79524E-01         0.00000E+00
    0.19496E-01        -0.77435E-01         0.00000E+00
    0.18845E-01        -0.75334E-01         0.00000E+00
    0.18210E-01        -0.73220E-01         0.00000E+00
    0.17591E-01        -0.71095E-01         0.00000E+00
    0.16987E-01        -0.68956E-01         0.00000E+00
    0.16396E-01        -0.66804E-01         0.00000E+00
    0.15818E-01        -0.64638E-01         0.00000E+00
    0.15252E-01        -0.62457E-01         0.00000E+00
    0.14696E-01        -0.60262E-01         0.00000E+00
    0.14149E-01        -0.58052E-01         0.00000E+00
    0.13611E-01        -0.55826E-01         0.00000E+00
    0.13079E-01        -0.53583E-01         0.00000E+00
    0.12553E-01        -0.51325E-01         0.00000E+00
    0.12031E-01        -0.49049E-01         0.00000E+00
    0.11512E-01        -0.46757E-01         0.00000E+00
    0.10994E-01        -0.44448E-01         0.00000E+00
    0.10476E-01        -0.42120E-01         0.00000E+00
    0.99567E-02        -0.39776E-01         0.00000E+00
    0.94338E-02        -0.37413E-01         0.00000E+00
    0.89060E-02        -0.35033E-01         0.00000E+00
    0.83716E-02        -0.32635E-01         0.00000E+00
    0.78288E-02        -0.30218E-01         0.00000E+00
    0.72757E-02        -0.27784E-01         0.00000E+00
    0.67104E-02        -0.25333E-01         0.00000E+00
    0.61313E-02        -0.22865E-01         0.00000E+00
    0.55360E-02        -0.20380E-01         0.00000E+00
    0.49226E-02        -0.17879E-01         0.00000E+00
    0.42894E-02        -0.15363E-01         0.00000E+00
    0.36348E-02        -0.12832E-01         0.00000E+00
    0.29574E-02        -0.10289E-01         0.00000E+00
    0.22562E-02        -0.77322E-02         0.00000E+00
    0.15304E-02        -0.51646E-02         0.00000E+00
    0.77850E-03        -0.25868E-02         0.00000E+00
    0.00000E+00         0.00000E+00         0.00000E+00
    0.30411E-01        -0.11740E+00         0.00000E+00
    0.29367E-01        -0.11531E+00         0.00000E+00
    0.28366E-01        -0.11321E+00         0.00000E+00
    0.27404E-01        -0.11111E+00         0.00000E+00
    0.26480E-01        -0.10900E+00         0.00000E+00
    0.25591E-01        -0.10689E+00         0.00000E+00
    0.24735E-01        -0.10477E+00         0.00000E+00
    0.23912E-01        -0.10265E+00         0.00000E+00
    0.23120E-01        -0.10052E+00         0.00000E+00
    0.22358E-01        -0.98379E-01         0.00000E+00
    0.21623E-01        -0.96235E-01         0.00000E+00
    0.20916E-01        -0.94082E-01         0.00000E+00
    0.20233E-01        -0.91921E-01         0.00000E+00
    0.19574E-01        -0.89751E-01         0.00000E+00
    0.18937E-01        -0.87572E-01         0.00000E+00
    0.18322E-01        -0.85383E-01         0.00000E+00
    0.17727E-01        -0.83184E-01         0.00000E+00
    0.17151E-01        -0.80974E-01         0.00000E+00
    0.16593E-01        -0.78754E-01         0.00000E+00
    0.16052E-01        -0.76523E-01         0.00000E+00
    0.15526E-01        -0.74280E-01         0.00000E+00
    0.15016E-01        -0.72026E-01         0.00000E+00
    0.14518E-01        -0.69759E-01         0.00000E+00
    0.14033E-01        -0.67479E-01         0.00000E+00
    0.13559E-01        -0.65186E-01         0.00000E+00
    0.13095E-01        -0.62880E-01         0.00000E+00
    0.12640E-01        -0.60559E-01         0.00000E+00
    0.12191E-01        -0.58225E-01         0.00000E+00
    0.11749E-01        -0.55876E-01         0.00000E+00
    0.11312E-01        -0.53512E-01         0.00000E+00
    0.10878E-01        -0.51132E-01         0.00000E+00
    0.10445E-01        -0.48737E-01         0.00000E+00
    0.10013E-01        -0.46325E-01         0.00000E+00
    0.95795E-02        -0.43897E-01         0.00000E+00
    0.91428E-02        -0.41452E-01         0.00000E+00
    0.87012E-02        -0.38990E-01         0.00000E+00
    0.82526E-02        -0.36510E-01         0.00000E+00
    0.77952E-02        -0.34012E-01         0.00000E+00
    0.73268E-02        -0.31496E-01         0.00000E+00
    0.68448E-02        -0.28962E-01         0.00000E+00
    0.63469E-02        -0.26410E-01         0.00000E+00
    0.58307E-02        -0.23840E-01         0.00000E+00
    0.52940E-02        -0.21252E-01         0.00000E+00
    0.47344E-02        -0.18647E-01         0.00000E+00
    0.41501E-02        -0.16026E-01         0.00000E+00
    0.35392E-02        -0.13389E-01         0.00000E+00
    0.28995E-02        -0.10736E-01         0.00000E+00
    0.22277E-02        -0.80694E-02         0.00000E+00
    0.15218E-02        -0.53902E-02         0.00000E+00
    0.77993E-03        -0.26998E-02         0.00000E+00
    0.00000E+00         0.00000E+00         0.00000E+00
    0.26074E-01        -0.12257E+00         0.00000E+00
    0.25109E-01        -0.12036E+00         0.00000E+00
    0.24192E-01        -0.11814E+00         0.00000E+00
    0.23319E-01        -0.11592E+00         0.00000E+00
    0.22488E-01        -0.11370E+00         0.00000E+00
    0.21696E-01        -0.11147E+00         0.00000E+00
    0.20941E-01        -0.10923E+00         0.00000E+00
    0.20219E-01        -0.10698E+00         0.00000E+00
    0.19530E-01        -0.10473E+00         0.00000E+00
    0.18871E-01        -0.10248E+00         0.00000E+00
    0.18241E-01        -0.10021E+00         0.00000E+00
    0.17637E-01        -0.97938E-01         0.00000E+00
    0.17059E-01        -0.95658E-01         0.00000E+00
    0.16505E-01        -0.93369E-01         0.00000E+00
    0.15973E-01        -0.91072E-01         0.00000E+00
    0.15463E-01        -0.88766E-01         0.00000E+00
    0.14972E-01        -0.86451E-01         0.00000E+00
    0.14500E-01        -0.84126E-01         0.00000E+00
    0.14045E-01        -0.81793E-01         0.00000E+00
    0.13606E-01        -0.79449E-01         0.00000E+00
    0.13182E-01        -0.77096E-01         0.00000E+00
    0.12771E-01        -0.74732E-01         0.00000E+00
    0.12373E-01        -0.72357E-01         0.00000E+00
    0.11986E-01        -0.69972E-01         0.00000E+00
    0.11609E-01        -0.67576E-01         0.00000E+00
    0.11242E-01        -0.65168E-01         0.00000E+00
    0.10882E-01        -0.62749E-01         0.00000E+00
    0.10528E-01        -0.60317E-01         0.00000E+00
    0.10180E-01        -0.57873E-01         0.00000E+00
    0.98349E-02        -0.55416E-01         0.00000E+00
    0.94928E-02        -0.52945E-01         0.00000E+00
    0.91519E-02        -0.50460E-01         0.00000E+00
    0.88106E-02        -0.47961E-01         0.00000E+00
    0.84673E-02        -0.45447E-01         0.00000E+00
    0.81201E-02        -0.42917E-01         0.00000E+00
    0.77672E-02        -0.40371E-01         0.00000E+00
    0.74066E-02        -0.37809E-01         0.00000E+00
    0.70359E-02        -0.35229E-01         0.00000E+00
    0.66527E-02        -0.32631E-01         0.00000E+00
    0.62546E-02        -0.30015E-01         0.00000E+00
    0.58391E-02        -0.27380E-01         0.00000E+00
    0.54034E-02        -0.24725E-01         0.00000E+00
    0.49447E-02        -0.22051E-01         0.00000E+00
    0.44604E-02        -0.19357E-01         0.00000E+00
    0.39462E-02        -0.16643E-01         0.00000E+00
    0.33977E-02        -0.13909E-01         0.00000E+00
    0.28107E-02        -0.11156E-01         0.00000E+00
    0.21800E-02        -0.83870E-02         0.00000E+00
    0.15026E-02        -0.56029E-02         0.00000E+00
    0.77714E-03        -0.28062E-02         0.00000E+00
    0.00000E+00         0.00000E+00         0.00000E+00
    0.20971E-01        -0.12721E+00         0.00000E+00
    0.20135E-01        -0.12488E+00         0.00000E+00
    0.19348E-01        -0.12254E+00         0.00000E+00
    0.18606E-01        -0.12020E+00         0.00000E+00
    0.17904E-01        -0.11785E+00         0.00000E+00
    0.17241E-01        -0.11550E+00         0.00000E+00
    0.16613E-01        -0.11314E+00         0.00000E+00
    0.16019E-01        -0.11078E+00         0.00000E+00
    0.15456E-01        -0.10841E+00         0.00000E+00
    0.14922E-01        -0.10604E+00         0.00000E+00
    0.14416E-01        -0.10366E+00         0.00000E+00
    0.13935E-01        -0.10127E+00         0.00000E+00
    0.13479E-01        -0.98872E-01         0.00000E+00
    0.13045E-01        -0.96470E-01         0.00000E+00
    0.12632E-01        -0.94060E-01         0.00000E+00
    0.12238E-01        -0.91643E-01         0.00000E+00
    0.11862E-01        -0.89219E-01         0.00000E+00
    0.11502E-01        -0.86787E-01         0.00000E+00
    0.11158E-01        -0.84348E-01         0.00000E+00
    0.10828E-01        -0.81901E-01         0.00000E+00
    0.10510E-01        -0.79446E-01         0.00000E+00
    0.10204E-01        -0.76983E-01         0.00000E+00
    0.99090E-02        -0.74512E-01         0.00000E+00
    0.96230E-02        -0.72032E-01         0.00000E+00
    0.93454E-02        -0.69544E-01         0.00000E+00
    0.90752E-02        -0.67048E-01         0.00000E+00
    0.88113E-02        -0.64541E-01         0.00000E+00
    0.85527E-02        -0.62026E-01         0.00000E+00
    0.82983E-02        -0.59500E-01         0.00000E+00
    0.80470E-02        -0.56964E-01         0.00000E+00
    0.77977E-02        -0.54417E-01         0.00000E+00
    0.75490E-02        -0.51859E-01         0.00000E+00
    0.72997E-02        -0.49288E-01         0.00000E+00
    0.70484E-02        -0.46705E-01         0.00000E+00
    0.67936E-02        -0.44108E-01         0.00000E+00
    0.65335E-02        -0.41497E-01         0.00000E+00
    0.62663E-02        -0.38871E-01         0.00000E+00
    0.59900E-02        -0.36228E-01         0.00000E+00
    0.57024E-02        -0.33568E-01         0.00000E+00
    0.54010E-02        -0.30890E-01         0.00000E+00
    0.50832E-02        -0.28193E-01         0.00000E+00
    0.47465E-02        -0.25474E-01         0.00000E+00
    0.43880E-02        -0.22734E-01         0.00000E+00
    0.40036E-02        -0.19971E-01         0.00000E+00
    0.35863E-02        -0.17184E-01         0.00000E+00
    0.31294E-02        -0.14374E-01         0.00000E+00
    0.26253E-02        -0.11539E-01         0.00000E+00
    0.20682E-02        -0.86823E-02         0.00000E+00
    0.14524E-02        -0.58042E-02         0.00000E+00
    0.76458E-03        -0.29089E-02         0.00000E+00
    0.00000E+00         0.00000E+00         0.00000E+00
    0.15071E-01        -0.13108E+00         0.00000E+00
    0.14424E-01        -0.12863E+00         0.00000E+00
    0.13812E-01        -0.12618E+00         0.00000E+00
    0.13237E-01        -0.12373E+00         0.00000E+00
    0.12697E-01        -0.12127E+00         0.00000E+00
    0.12192E-01        -0.11881E+00         0.00000E+00
    0.11719E-01        -0.11634E+00         0.00000E+00
    0.11278E-01        -0.11387E+00         0.00000E+00
    0.10865E-01        -0.11139E+00         0.00000E+00
    0.10479E-01        -0.10891E+00         0.00000E+00
    0.10118E-01        -0.10642E+00         0.00000E+00
    0.97790E-02        -0.10392E+00         0.00000E+00
    0.94607E-02        -0.10142E+00         0.00000E+00
    0.91613E-02        -0.98916E-01         0.00000E+00
    0.88790E-02        -0.96404E-01         0.00000E+00
    0.86121E-02        -0.93887E-01         0.00000E+00
    0.83593E-02        -0.91365E-01         0.00000E+00
    0.81192E-02        -0.88839E-01         0.00000E+00
    0.78906E-02        -0.86307E-01         0.00000E+00
    0.76723E-02        -0.83770E-01         0.00000E+00
    0.74635E-02        -0.81229E-01         0.00000E+00
    0.72631E-02        -0.78682E-01         0.00000E+00
    0.70702E-02        -0.76130E-01         0.00000E+00
    0.68842E-02        -0.73573E-01         0.00000E+00
    0.67041E-02        -0.71010E-01         0.00000E+00
    0.65292E-02        -0.68440E-01         0.00000E+00
    0.63587E-02        -0.65865E-01         0.00000E+00
    0.61919E-02        -0.63282E-01         0.00000E+00
    0.60281E-02        -0.60693E-01         0.00000E+00
    0.58664E-02        -0.58095E-01         0.00000E+00
    0.57060E-02        -0.55490E-01         0.00000E+00
    0.55462E-02        -0.52875E-01         0.00000E+00
    0.53859E-02        -0.50251E-01         0.00000E+00
    0.52243E-02        -0.47616E-01         0.00000E+00
    0.50602E-02        -0.44971E-01         0.00000E+00
    0.48925E-02        -0.42313E-01         0.00000E+00
    0.47198E-02        -0.39641E-01         0.00000E+00
    0.45406E-02        -0.36956E-01         0.00000E+00
    0.43531E-02        -0.34254E-01         0.00000E+00
    0.41554E-02        -0.31536E-01         0.00000E+00
    0.39452E-02        -0.28798E-01         0.00000E+00
    0.37201E-02        -0.26040E-01         0.00000E+00
    0.34773E-02        -0.23259E-01         0.00000E+00
    0.32130E-02        -0.20454E-01         0.00000E+00
    0.29222E-02        -0.17623E-01         0.00000E+00
    0.25961E-02        -0.14763E-01         0.00000E+00
    0.22249E-02        -0.11873E-01         0.00000E+00
    0.17973E-02        -0.89494E-02         0.00000E+00
    0.12972E-02        -0.59937E-02         0.00000E+00
    0.69930E-03        -0.30083E-02         0.00000E+00
    0.00000E+00         0.00000E+00         0.00000E+00
    0.83590E-02        -0.13387E+00         0.00000E+00
    0.79075E-02        -0.13135E+00         0.00000E+00
    0.75048E-02        -0.12883E+00         0.00000E+00
    0.71414E-02        -0.12629E+00         0.00000E+00
    0.68091E-02        -0.12375E+00         0.00000E+00
    0.65022E-02        -0.12120E+00         0.00000E+00
    0.62208E-02        -0.11863E+00         0.00000E+00
    0.59643E-02        -0.11606E+00         0.00000E+00
    0.57303E-02        -0.11348E+00         0.00000E+00
    0.55168E-02        -0.11090E+00         0.00000E+00
    0.53222E-02        -0.10831E+00         0.00000E+00
    0.51441E-02        -0.10572E+00         0.00000E+00
    0.49799E-02        -0.10313E+00         0.00000E+00
    0.48274E-02        -0.10054E+00         0.00000E+00
    0.46849E-02        -0.97942E-01         0.00000E+00
    0.45512E-02        -0.95346E-01         0.00000E+00
    0.44254E-02        -0.92749E-01         0.00000E+00
    0.43064E-02        -0.90150E-01         0.00000E+00
    0.41936E-02        -0.87550E-01         0.00000E+00
    0.40864E-02        -0.84948E-01         0.00000E+00
    0.39841E-02        -0.82345E-01         0.00000E+00
    0.38862E-02        -0.79739E-01         0.00000E+00
    0.37922E-02        -0.77131E-01         0.00000E+00
    0.37017E-02        -0.74520E-01         0.00000E+00
    0.36143E-02        -0.71906E-01         0.00000E+00
    0.35296E-02        -0.69288E-01         0.00000E+00
    0.34472E-02        -0.66666E-01         0.00000E+00
    0.33667E-02        -0.64040E-01         0.00000E+00
    0.32877E-02        -0.61408E-01         0.00000E+00
    0.32099E-02        -0.58771E-01         0.00000E+00
    0.31328E-02        -0.56127E-01         0.00000E+00
    0.30561E-02        -0.53477E-01         0.00000E+00
    0.29792E-02        -0.50818E-01         0.00000E+00
    0.29018E-02        -0.48152E-01         0.00000E+00
    0.28232E-02        -0.45476E-01         0.00000E+00
    0.27429E-02        -0.42789E-01         0.00000E+00
    0.26603E-02        -0.40091E-01         0.00000E+00
    0.25746E-02        -0.37381E-01         0.00000E+00
    0.24848E-02        -0.34656E-01         0.00000E+00
    0.23898E-02        -0.31917E-01         0.00000E+00
    0.22883E-02        -0.29160E-01         0.00000E+00
    0.21787E-02        -0.26384E-01         0.00000E+00
    0.20591E-02        -0.23586E-01         0.00000E+00
    0.19271E-02        -0.20765E-01         0.00000E+00
    0.17800E-02        -0.17916E-01         0.00000E+00
    0.16134E-02        -0.15036E-01         0.00000E+00
    0.14204E-02        -0.12122E-01         0.00000E+00
    0.11889E-02        -0.91668E-02         0.00000E+00
    0.90152E-03        -0.61655E-02         0.00000E+00
    0.52712E-03        -0.31113E-02         0.00000E+00
    0.00000E+00         0.00000E+00         0.00000E+00
    0.00000E+00        -0.13532E+00         0.00000E+00
    0.00000E+00        -0.13268E+00         0.00000E+00
    0.00000E+00        -0.13004E+00         0.00000E+00
    0.00000E+00        -0.12741E+00         0.00000E+00
    0.00000E+00        -0.12481E+00         0.00000E+00
    0.00000E+00        -0.12220E+00         0.00000E+00
    0.00000E+00        -0.11958E+00         0.00000E+00
    0.00000E+00        -0.11695E+00         0.00000E+00
    0.00000E+00        -0.11431E+00         0.00000E+00
    0.00000E+00        -0.11167E+00         0.00000E+00
    0.00000E+00        -0.10903E+00         0.00000E+00
    0.00000E+00        -0.10639E+00         0.00000E+00
    0.00000E+00        -0.10375E+00         0.00000E+00
    0.00000E+00        -0.10112E+00         0.00000E+00
    0.00000E+00        -0.98488E-01         0.00000E+00
    0.00000E+00        -0.95859E-01         0.00000E+00
    0.00000E+00        -0.93230E-01         0.00000E+00
    0.00000E+00        -0.90603E-01         0.00000E+00
    0.00000E+00        -0.87977E-01         0.00000E+00
    0.00000E+00        -0.85350E-01         0.00000E+00
    0.00000E+00        -0.82724E-01         0.00000E+00
    0.00000E+00        -0.80096E-01         0.00000E+00
    0.00000E+00        -0.77467E-01         0.00000E+00
    0.00000E+00        -0.74837E-01         0.00000E+00
    0.00000E+00        -0.72205E-01         0.00000E+00
    0.00000E+00        -0.69569E-01         0.00000E+00
    0.00000E+00        -0.66931E-01         0.00000E+00
    0.00000E+00        -0.64289E-01         0.00000E+00
    0.00000E+00        -0.61643E-01         0.00000E+00
    0.00000E+00        -0.58992E-01         0.00000E+00
    0.00000E+00        -0.56335E-01         0.00000E+00
    0.00000E+00        -0.53672E-01         0.00000E+00
    0.00000E+00        -0.51002E-01         0.00000E+00
    0.00000E+00        -0.48325E-01         0.00000E+00
    0.00000E+00        -0.45638E-01         0.00000E+00
    0.00000E+00        -0.42943E-01         0.00000E+00
    0.00000E+00        -0.40236E-01         0.00000E+00
    0.00000E+00        -0.37518E-01         0.00000E+00
    0.00000E+00        -0.34787E-01         0.00000E+00
    0.00000E+00        -0.32041E-01         0.00000E+00
    0.00000E+00        -0.29280E-01         0.00000E+00
    0.00000E+00        -0.26500E-01         0.00000E+00
    0.00000E+00        -0.23700E-01         0.00000E+00
    0.00000E+00        -0.20877E-01         0.00000E+00
    0.00000E+00        -0.18027E-01         0.00000E+00
    0.00000E+00        -0.15147E-01         0.00000E+00
    0.00000E+00        -0.12232E-01         0.00000E+00
    0.00000E+00        -0.92738E-02         0.00000E+00
    0.00000E+00        -0.62622E-02         0.00000E+00
    0.00000E+00        -0.31803E-02         0.00000E+00
    0.00000E+00         0.00000E+00         0.00000E+00
CELL_DATA       5000
VECTORS vDarcy double 
    0.82640E-07        -0.44111E-10         0.00000E+00
    0.82674E-07        -0.12509E-09         0.00000E+00
    0.82739E-07        -0.19860E-09         0.00000E+00
    0.82831E-07        -0.26202E-09         0.00000E+00
    0.82946E-07        -0.31231E-09         0.00000E+00
    0.83079E-07        -0.35345E-09         0.00000E+00
    0.83227E-07        -0.38836E-09         0.00000E+00
    0.83388E-07        -0.41733E-09         0.00000E+00
    0.83560E-07        -0.44072E-09         0.00000E+00
    0.83740E-07        -0.45896E-09         0.00000E+00
    0.83926E-07        -0.47248E-09         0.00000E+00
    0.84117E-07        -0.48171E-09         0.00000E+00
    0.84311E-07        -0.48694E-09         0.00000E+00
    0.84506E-07        -0.48828E-09         0.00000E+00
    0.84701E-07        -0.48607E-09         0.00000E+00
    0.84894E-07        -0.48067E-09         0.00000E+00
    0.85085E-07        -0.47211E-09         0.00000E+00
    0.85271E-07        -0.46051E-09         0.00000E+00
    0.85452E-07        -0.44606E-09         0.00000E+00
    0.85627E-07        -0.42892E-09         0.00000E+00
    0.85795E-07        -0.40938E-09         0.00000E+00
    0.85954E-07        -0.38749E-09         0.00000E+00
    0.86105E-07        -0.36317E-09         0.00000E+00
    0.86245E-07        -0.33674E-09         0.00000E+00
    0.86374E-07        -0.30864E-09         0.00000E+00
    0.86491E-07        -0.27923E-09         0.00000E+00
    0.86597E-07        -0.24876E-09         0.00000E+00
    0.86690E-07        -0.21753E-09         0.00000E+00
    0.86771E-07        -0.18600E-09         0.00000E+00
    0.86839E-07        -0.15453E-09         0.00000E+00
    0.86895E-07        -0.12346E-09         0.00000E+00
    0.86938E-07        -0.93018E-10         0.00000E+00
    0.86969E-07        -0.63393E-10         0.00000E+00
    0.86989E-07        -0.34725E-10         0.00000E+00
    0.86997E-07        -0.70883E-11         0.00000E+00
    0.86995E-07         0.19387E-10         0.00000E+00
    0.86982E-07         0.44555E-10         0.00000E+00
    0.86959E-07         0.68331E-10         0.00000E+00
    0.86928E-07         0.90475E-10         0.00000E+00
    0.86887E-07         0.11073E-09         0.00000E+00
    0.86839E-07         0.12886E-09         0.00000E+00
    0.86785E-07         0.14445E-09         0.00000E+00
    0.86724E-07         0.15693E-09         0.00000E+00
    0.86660E-07         0.16548E-09         0.00000E+00
    0.86593E-07         0.16898E-09         0.00000E+00
    0.86526E-07         0.16590E-09         0.00000E+00
    0.86462E-07         0.15427E-09         0.00000E+00
    0.86405E-07         0.13116E-09         0.00000E+00
    0.86360E-07         0.92411E-10         0.00000E+00
    0.86335E-07         0.34003E-10         0.00000E+00
    0.82552E-07        -0.84977E-10         0.00000E+00
    0.82551E-07        -0.24612E-09         0.00000E+00
    0.82550E-07        -0.39513E-09         0.00000E+00
    0.82550E-07        -0.52882E-09         0.00000E+00
    0.82555E-07        -0.64406E-09         0.00000E+00
    0.82566E-07        -0.74420E-09         0.00000E+00
    0.82585E-07        -0.83195E-09         0.00000E+00
    0.82611E-07        -0.90789E-09         0.00000E+00
    0.82643E-07        -0.97259E-09         0.00000E+00
    0.82683E-07        -0.10266E-08         0.00000E+00
    0.82730E-07        -0.10705E-08         0.00000E+00
    0.82784E-07        -0.11051E-08         0.00000E+00
    0.82843E-07        -0.11306E-08         0.00000E+00
    0.82909E-07        -0.11473E-08         0.00000E+00
    0.82980E-07        -0.11557E-08         0.00000E+00
    0.83055E-07        -0.11562E-08         0.00000E+00
    0.83135E-07        -0.11489E-08         0.00000E+00
    0.83219E-07        -0.11339E-08         0.00000E+00
    0.83305E-07        -0.11114E-08         0.00000E+00
    0.83394E-07        -0.10815E-08         0.00000E+00
    0.83484E-07        -0.10444E-08         0.00000E+00
    0.83574E-07        -0.10003E-08         0.00000E+00
    0.83663E-07        -0.94917E-09         0.00000E+00
    0.83752E-07        -0.89154E-09         0.00000E+00
    0.83837E-07        -0.82808E-09         0.00000E+00
    0.83920E-07        -0.75957E-09         0.00000E+00
    0.83998E-07        -0.68680E-09         0.00000E+00
    0.84071E-07        -0.61072E-09         0.00000E+00
    0.84138E-07        -0.53245E-09         0.00000E+00
    0.84199E-07        -0.45303E-09         0.00000E+00
    0.84253E-07        -0.37346E-09         0.00000E+00
    0.84300E-07        -0.29457E-09         0.00000E+00
    0.84340E-07        -0.21711E-09         0.00000E+00
    0.84372E-07        -0.14173E-09         0.00000E+00
    0.84398E-07        -0.68936E-10         0.00000E+00
    0.84416E-07         0.75498E-12         0.00000E+00
    0.84428E-07         0.66828E-10         0.00000E+00
    0.84434E-07         0.12879E-09         0.00000E+00
    0.84435E-07         0.18602E-09         0.00000E+00
    0.84431E-07         0.23776E-09         0.00000E+00
    0.84422E-07         0.28315E-09         0.00000E+00
    0.84411E-07         0.32102E-09         0.00000E+00
    0.84397E-07         0.34988E-09         0.00000E+00
    0.84383E-07         0.36778E-09         0.00000E+00
    0.84368E-07         0.37226E-09         0.00000E+00
    0.84356E-07         0.36022E-09         0.00000E+00
    0.84346E-07         0.32799E-09         0.00000E+00
    0.84341E-07         0.27097E-09         0.00000E+00
    0.84339E-07         0.18404E-09         0.00000E+00
    0.84340E-07         0.65931E-10         0.00000E+00
    0.81333E-07        -0.67192E-10         0.00000E+00
    0.81322E-07        -0.19989E-09         0.00000E+00
    0.81300E-07        -0.32685E-09         0.00000E+00
    0.81270E-07        -0.44850E-09         0.00000E+00
    0.81233E-07        -0.56558E-09         0.00000E+00
    0.81193E-07        -0.67765E-09         0.00000E+00
    0.81151E-07        -0.78401E-09         0.00000E+00
    0.81111E-07        -0.88399E-09         0.00000E+00
    0.81075E-07        -0.97678E-09         0.00000E+00
    0.81042E-07        -0.10617E-08         0.00000E+00
    0.81016E-07        -0.11381E-08         0.00000E+00
    0.80996E-07        -0.12058E-08         0.00000E+00
    0.80984E-07        -0.12643E-08         0.00000E+00
    0.80978E-07        -0.13136E-08         0.00000E+00
    0.80980E-07        -0.13533E-08         0.00000E+00
    0.80989E-07        -0.13834E-08         0.00000E+00
    0.81006E-07        -0.14037E-08         0.00000E+00
    0.81029E-07        -0.14141E-08         0.00000E+00
    0.81059E-07        -0.14142E-08         0.00000E+00
    0.81096E-07        -0.14039E-08         0.00000E+00
    0.81138E-07        -0.13827E-08         0.00000E+00
    0.81186E-07        -0.13505E-08         0.00000E+00
    0.81238E-07        -0.13072E-08         0.00000E+00
    0.81293E-07        -0.12528E-08         0.00000E+00
    0.81352E-07        -0.11877E-08         0.00000E+00
    0.81412E-07        -0.11126E-08         0.00000E+00
    0.81473E-07        -0.10285E-08         0.00000E+00
    0.81533E-07        -0.93659E-09         0.00000E+00
    0.81593E-07        -0.83845E-09         0.00000E+00
    0.81649E-07        -0.73568E-09         0.00000E+00
    0.81703E-07        -0.62999E-09         0.00000E+00
    0.81753E-07        -0.52307E-09         0.00000E+00
    0.81799E-07        -0.41650E-09         0.00000E+00
    0.81840E-07        -0.31172E-09         0.00000E+00
    0.81877E-07        -0.20998E-09         0.00000E+00
    0.81909E-07        -0.11239E-09         0.00000E+00
    0.81937E-07        -0.19995E-10         0.00000E+00
    0.81961E-07         0.66171E-10         0.00000E+00
    0.81981E-07         0.14506E-09         0.00000E+00
    0.81998E-07         0.21553E-09         0.00000E+00
    0.82012E-07         0.27619E-09         0.00000E+00
    0.82024E-07         0.32546E-09         0.00000E+00
    0.82035E-07         0.36149E-09         0.00000E+00
    0.82044E-07         0.38221E-09         0.00000E+00
    0.82053E-07         0.38525E-09         0.00000E+00
    0.82061E-07         0.36807E-09         0.00000E+00
    0.82069E-07         0.32807E-09         0.00000E+00
    0.82077E-07         0.26280E-09         0.00000E+00
    0.82082E-07         0.17154E-09         0.00000E+00
    0.82085E-07         0.59670E-10         0.00000E+00
    0.79248E-07        -0.26452E-10         0.00000E+00
    0.79229E-07        -0.87644E-10         0.00000E+00
    0.79195E-07        -0.15856E-09         0.00000E+00
    0.79150E-07        -0.24207E-09         0.00000E+00
    0.79100E-07        -0.33723E-09         0.00000E+00
    0.79047E-07        -0.44112E-09         0.00000E+00
    0.78994E-07        -0.55023E-09         0.00000E+00
    0.78943E-07        -0.66146E-09         0.00000E+00
    0.78895E-07        -0.77219E-09         0.00000E+00
    0.78849E-07        -0.88009E-09         0.00000E+00
    0.78809E-07        -0.98343E-09         0.00000E+00
    0.78772E-07        -0.10807E-08         0.00000E+00
    0.78741E-07        -0.11707E-08         0.00000E+00
    0.78716E-07        -0.12525E-08         0.00000E+00
    0.78696E-07        -0.13255E-08         0.00000E+00
    0.78683E-07        -0.13893E-08         0.00000E+00
    0.78675E-07        -0.14435E-08         0.00000E+00
    0.78674E-07        -0.14874E-08         0.00000E+00
    0.78680E-07        -0.15205E-08         0.00000E+00
    0.78692E-07        -0.15419E-08         0.00000E+00
    0.78711E-07        -0.15510E-08         0.00000E+00
    0.78737E-07        -0.15469E-08         0.00000E+00
    0.78768E-07        -0.15290E-08         0.00000E+00
    0.78806E-07        -0.14970E-08         0.00000E+00
    0.78849E-07        -0.14505E-08         0.00000E+00
    0.78897E-07        -0.13896E-08         0.00000E+00
    0.78949E-07        -0.13148E-08         0.00000E+00
    0.79003E-07        -0.12269E-08         0.00000E+00
    0.79060E-07        -0.11275E-08         0.00000E+00
    0.79118E-07        -0.10185E-08         0.00000E+00
    0.79175E-07        -0.90198E-09         0.00000E+00
    0.79231E-07        -0.78052E-09         0.00000E+00
    0.79284E-07        -0.65658E-09         0.00000E+00
    0.79335E-07        -0.53255E-09         0.00000E+00
    0.79383E-07        -0.41067E-09         0.00000E+00
    0.79427E-07        -0.29296E-09         0.00000E+00
    0.79467E-07        -0.18118E-09         0.00000E+00
    0.79504E-07        -0.76883E-10         0.00000E+00
    0.79538E-07         0.18436E-10         0.00000E+00
    0.79569E-07         0.10329E-09         0.00000E+00
    0.79597E-07         0.17617E-09         0.00000E+00
    0.79623E-07         0.23555E-09         0.00000E+00
    0.79647E-07         0.27980E-09         0.00000E+00
    0.79669E-07         0.30727E-09         0.00000E+00
    0.79689E-07         0.31640E-09         0.00000E+00
    0.79707E-07         0.30571E-09         0.00000E+00
    0.79722E-07         0.27391E-09         0.00000E+00
    0.79734E-07         0.21999E-09         0.00000E+00
    0.79743E-07         0.14383E-09         0.00000E+00
    0.79747E-07         0.50080E-10         0.00000E+00
    0.76434E-07         0.24110E-10         0.00000E+00
    0.76419E-07         0.32512E-10         0.00000E+00
    0.76399E-07        -0.79735E-11         0.00000E+00
    0.76381E-07        -0.80334E-10         0.00000E+00
    0.76366E-07        -0.17187E-09         0.00000E+00
    0.76353E-07        -0.27527E-09         0.00000E+00
    0.76339E-07        -0.38673E-09         0.00000E+00
    0.76326E-07        -0.50250E-09         0.00000E+00
    0.76312E-07        -0.61959E-09         0.00000E+00
    0.76298E-07        -0.73626E-09         0.00000E+00
    0.76284E-07        -0.85030E-09         0.00000E+00
    0.76269E-07        -0.95995E-09         0.00000E+00
    0.76255E-07        -0.10648E-08         0.00000E+00
    0.76241E-07        -0.11644E-08         0.00000E+00
    0.76230E-07        -0.12579E-08         0.00000E+00
    0.76221E-07        -0.13443E-08         0.00000E+00
    0.76215E-07        -0.14226E-08         0.00000E+00
    0.76213E-07        -0.14921E-08         0.00000E+00
    0.76214E-07        -0.15516E-08         0.00000E+00
    0.76220E-07        -0.16002E-08         0.00000E+00
    0.76230E-07        -0.16375E-08         0.00000E+00
    0.76245E-07        -0.16627E-08         0.00000E+00
    0.76266E-07        -0.16749E-08         0.00000E+00
    0.76293E-07        -0.16729E-08         0.00000E+00
    0.76326E-07        -0.16553E-08         0.00000E+00
    0.76365E-07        -0.16212E-08         0.00000E+00
    0.76411E-07        -0.15699E-08         0.00000E+00
    0.76462E-07        -0.15016E-08         0.00000E+00
    0.76518E-07        -0.14169E-08         0.00000E+00
    0.76578E-07        -0.13170E-08         0.00000E+00
    0.76641E-07        -0.12035E-08         0.00000E+00
    0.76705E-07        -0.10789E-08         0.00000E+00
    0.76769E-07        -0.94639E-09         0.00000E+00
    0.76831E-07        -0.80939E-09         0.00000E+00
    0.76891E-07        -0.67150E-09         0.00000E+00
    0.76948E-07        -0.53603E-09         0.00000E+00
    0.77001E-07        -0.40597E-09         0.00000E+00
    0.77051E-07        -0.28392E-09         0.00000E+00
    0.77096E-07        -0.17201E-09         0.00000E+00
    0.77139E-07        -0.71916E-10         0.00000E+00
    0.77178E-07         0.14929E-10         0.00000E+00
    0.77214E-07         0.87282E-10         0.00000E+00
    0.77246E-07         0.14404E-09         0.00000E+00
    0.77276E-07         0.18419E-09         0.00000E+00
    0.77303E-07         0.20683E-09         0.00000E+00
    0.77326E-07         0.21124E-09         0.00000E+00
    0.77345E-07         0.19681E-09         0.00000E+00
    0.77359E-07         0.16303E-09         0.00000E+00
    0.77369E-07         0.10941E-09         0.00000E+00
    0.77374E-07         0.38789E-10         0.00000E+00
    0.73307E-07        -0.42992E-11         0.00000E+00
    0.73342E-07        -0.40231E-10         0.00000E+00
    0.73396E-07        -0.10676E-09         0.00000E+00
    0.73454E-07        -0.18606E-09         0.00000E+00
    0.73510E-07        -0.26913E-09         0.00000E+00
    0.73559E-07        -0.35619E-09         0.00000E+00
    0.73602E-07        -0.45114E-09         0.00000E+00
    0.73638E-07        -0.55237E-09         0.00000E+00
    0.73668E-07        -0.65416E-09         0.00000E+00
    0.73692E-07        -0.75108E-09         0.00000E+00
    0.73709E-07        -0.84653E-09         0.00000E+00
    0.73720E-07        -0.94572E-09         0.00000E+00
    0.73728E-07        -0.10470E-08         0.00000E+00
    0.73734E-07        -0.11474E-08         0.00000E+00
    0.73740E-07        -0.12445E-08         0.00000E+00
    0.73744E-07        -0.13357E-08         0.00000E+00
    0.73748E-07        -0.14195E-08         0.00000E+00
    0.73750E-07        -0.14955E-08         0.00000E+00
    0.73752E-07        -0.15646E-08         0.00000E+00
    0.73755E-07        -0.16277E-08         0.00000E+00
    0.73759E-07        -0.16835E-08         0.00000E+00
    0.73767E-07        -0.17309E-08         0.00000E+00
    0.73779E-07        -0.17685E-08         0.00000E+00
    0.73795E-07        -0.17950E-08         0.00000E+00
    0.73817E-07        -0.18083E-08         0.00000E+00
    0.73845E-07        -0.18072E-08         0.00000E+00
    0.73881E-07        -0.17899E-08         0.00000E+00
    0.73924E-07        -0.17547E-08         0.00000E+00
    0.73975E-07        -0.17001E-08         0.00000E+00
    0.74034E-07        -0.16253E-08         0.00000E+00
    0.74098E-07        -0.15307E-08         0.00000E+00
    0.74167E-07        -0.14179E-08         0.00000E+00
    0.74240E-07        -0.12894E-08         0.00000E+00
    0.74314E-07        -0.11487E-08         0.00000E+00
    0.74387E-07        -0.10002E-08         0.00000E+00
    0.74459E-07        -0.84883E-09         0.00000E+00
    0.74527E-07        -0.69942E-09         0.00000E+00
    0.74591E-07        -0.55635E-09         0.00000E+00
    0.74650E-07        -0.42310E-09         0.00000E+00
    0.74704E-07        -0.30232E-09         0.00000E+00
    0.74753E-07        -0.19574E-09         0.00000E+00
    0.74797E-07        -0.10434E-09         0.00000E+00
    0.74837E-07        -0.28723E-10         0.00000E+00
    0.74873E-07         0.30639E-10         0.00000E+00
    0.74904E-07         0.73286E-10         0.00000E+00
    0.74930E-07         0.98794E-10         0.00000E+00
    0.74951E-07         0.10685E-09         0.00000E+00
    0.74968E-07         0.97269E-10         0.00000E+00
    0.74979E-07         0.70005E-10         0.00000E+00
    0.74985E-07         0.26008E-10         0.00000E+00
    0.71028E-07        -0.70344E-10         0.00000E+00
    0.71037E-07        -0.19664E-09         0.00000E+00
    0.71054E-07        -0.30324E-09         0.00000E+00
    0.71076E-07        -0.39423E-09         0.00000E+00
    0.71103E-07        -0.47454E-09         0.00000E+00
    0.71134E-07        -0.55085E-09         0.00000E+00
    0.71166E-07        -0.62973E-09         0.00000E+00
    0.71198E-07        -0.71355E-09         0.00000E+00
    0.71228E-07        -0.79575E-09         0.00000E+00
    0.71256E-07        -0.86993E-09         0.00000E+00
    0.71282E-07        -0.94429E-09         0.00000E+00
    0.71307E-07        -0.10281E-08         0.00000E+00
    0.71330E-07        -0.11187E-08         0.00000E+00
    0.71350E-07        -0.12062E-08         0.00000E+00
    0.71365E-07        -0.12866E-08         0.00000E+00
    0.71374E-07        -0.13613E-08         0.00000E+00
    0.71378E-07        -0.14309E-08         0.00000E+00
    0.71378E-07        -0.14962E-08         0.00000E+00
    0.71376E-07        -0.15621E-08         0.00000E+00
    0.71373E-07        -0.16298E-08         0.00000E+00
    0.71371E-07        -0.16948E-08         0.00000E+00
    0.71370E-07        -0.17540E-08         0.00000E+00
    0.71370E-07        -0.18041E-08         0.00000E+00
    0.71371E-07        -0.18471E-08         0.00000E+00
    0.71376E-07        -0.18870E-08         0.00000E+00
    0.71386E-07        -0.19212E-08         0.00000E+00
    0.71404E-07        -0.19440E-08         0.00000E+00
    0.71430E-07        -0.19504E-08         0.00000E+00
    0.71465E-07        -0.19360E-08         0.00000E+00
    0.71509E-07        -0.18993E-08         0.00000E+00
    0.71562E-07        -0.18409E-08         0.00000E+00
    0.71623E-07        -0.17604E-08         0.00000E+00
    0.71693E-07        -0.16581E-08         0.00000E+00
    0.71770E-07        -0.15343E-08         0.00000E+00
    0.71852E-07        -0.13919E-08         0.00000E+00
    0.71936E-07        -0.12367E-08         0.00000E+00
    0.72020E-07        -0.10741E-08         0.00000E+00
    0.72102E-07        -0.90956E-09         0.00000E+00
    0.72179E-07        -0.74897E-09         0.00000E+00
    0.72249E-07        -0.59772E-09         0.00000E+00
    0.72312E-07        -0.45981E-09         0.00000E+00
    0.72367E-07        -0.33784E-09         0.00000E+00
    0.72415E-07        -0.23350E-09         0.00000E+00
    0.72456E-07        -0.14721E-09         0.00000E+00
    0.72491E-07        -0.78630E-10         0.00000E+00
    0.72520E-07        -0.27232E-10         0.00000E+00
    0.72544E-07         0.74105E-11         0.00000E+00
    0.72561E-07         0.25479E-10         0.00000E+00
    0.72573E-07         0.26925E-10         0.00000E+00
    0.72579E-07         0.11795E-10         0.00000E+00
    0.69065E-07        -0.79612E-10         0.00000E+00
    0.69063E-07        -0.22404E-09         0.00000E+00
    0.69061E-07        -0.34954E-09         0.00000E+00
    0.69061E-07        -0.45962E-09         0.00000E+00
    0.69064E-07        -0.55800E-09         0.00000E+00
    0.69070E-07        -0.64778E-09         0.00000E+00
    0.69077E-07        -0.73162E-09         0.00000E+00
    0.69085E-07        -0.81223E-09         0.00000E+00
    0.69094E-07        -0.88855E-09         0.00000E+00
    0.69102E-07        -0.96029E-09         0.00000E+00
    0.69111E-07        -0.10310E-08         0.00000E+00
    0.69118E-07        -0.11038E-08         0.00000E+00
    0.69122E-07        -0.11777E-08         0.00000E+00
    0.69122E-07        -0.12461E-08         0.00000E+00
    0.69120E-07        -0.13071E-08         0.00000E+00
    0.69115E-07        -0.13642E-08         0.00000E+00
    0.69110E-07        -0.14198E-08         0.00000E+00
    0.69104E-07        -0.14759E-08         0.00000E+00
    0.69097E-07        -0.15368E-08         0.00000E+00
    0.69089E-07        -0.16007E-08         0.00000E+00
    0.69078E-07        -0.16620E-08         0.00000E+00
    0.69066E-07        -0.17205E-08         0.00000E+00
    0.69054E-07        -0.17769E-08         0.00000E+00
    0.69045E-07        -0.18351E-08         0.00000E+00
    0.69039E-07        -0.18934E-08         0.00000E+00
    0.69035E-07        -0.19458E-08         0.00000E+00
    0.69032E-07        -0.19915E-08         0.00000E+00
    0.69030E-07        -0.20287E-08         0.00000E+00
    0.69034E-07        -0.20536E-08         0.00000E+00
    0.69047E-07        -0.20629E-08         0.00000E+00
    0.69070E-07        -0.20556E-08         0.00000E+00
    0.69105E-07        -0.20257E-08         0.00000E+00
    0.69150E-07        -0.19691E-08         0.00000E+00
    0.69207E-07        -0.18918E-08         0.00000E+00
    0.69277E-07        -0.17940E-08         0.00000E+00
    0.69359E-07        -0.16685E-08         0.00000E+00
    0.69450E-07        -0.15181E-08         0.00000E+00
    0.69545E-07        -0.13505E-08         0.00000E+00
    0.69641E-07        -0.11722E-08         0.00000E+00
    0.69734E-07        -0.98865E-09         0.00000E+00
    0.69819E-07        -0.80833E-09         0.00000E+00
    0.69894E-07        -0.64057E-09         0.00000E+00
    0.69959E-07        -0.49055E-09         0.00000E+00
    0.70012E-07        -0.36137E-09         0.00000E+00
    0.70055E-07        -0.25407E-09         0.00000E+00
    0.70088E-07        -0.16747E-09         0.00000E+00
    0.70114E-07        -0.99926E-10         0.00000E+00
    0.70133E-07        -0.50401E-10         0.00000E+00
    0.70146E-07        -0.18208E-10         0.00000E+00
    0.70152E-07        -0.31314E-11         0.00000E+00
    0.67090E-07        -0.70507E-10         0.00000E+00
    0.67087E-07        -0.20446E-09         0.00000E+00
    0.67080E-07        -0.32783E-09         0.00000E+00
    0.67072E-07        -0.44113E-09         0.00000E+00
    0.67063E-07        -0.54517E-09         0.00000E+00
    0.67054E-07        -0.64097E-09         0.00000E+00
    0.67045E-07        -0.72959E-09         0.00000E+00
    0.67036E-07        -0.81174E-09         0.00000E+00
    0.67027E-07        -0.88877E-09         0.00000E+00
    0.67019E-07        -0.96180E-09         0.00000E+00
    0.67011E-07        -0.10311E-08         0.00000E+00
    0.67002E-07        -0.10969E-08         0.00000E+00
    0.66993E-07        -0.11592E-08         0.00000E+00
    0.66984E-07        -0.12181E-08         0.00000E+00
    0.66974E-07        -0.12742E-08         0.00000E+00
    0.66965E-07        -0.13280E-08         0.00000E+00
    0.66955E-07        -0.13809E-08         0.00000E+00
    0.66945E-07        -0.14340E-08         0.00000E+00
    0.66934E-07        -0.14883E-08         0.00000E+00
    0.66921E-07        -0.15422E-08         0.00000E+00
    0.66906E-07        -0.15944E-08         0.00000E+00
    0.66890E-07        -0.16464E-08         0.00000E+00
    0.66872E-07        -0.17011E-08         0.00000E+00
    0.66851E-07        -0.17594E-08         0.00000E+00
    0.66825E-07        -0.18144E-08         0.00000E+00
    0.66797E-07        -0.18628E-08         0.00000E+00
    0.66767E-07        -0.19085E-08         0.00000E+00
    0.66737E-07        -0.19544E-08         0.00000E+00
    0.66708E-07        -0.20018E-08         0.00000E+00
    0.66681E-07        -0.20449E-08         0.00000E+00
    0.66660E-07        -0.20801E-08         0.00000E+00
    0.66646E-07        -0.21085E-08         0.00000E+00
    0.66648E-07        -0.21199E-08         0.00000E+00
    0.66665E-07        -0.21113E-08         0.00000E+00
    0.66697E-07        -0.20850E-08         0.00000E+00
    0.66745E-07        -0.20291E-08         0.00000E+00
    0.66811E-07        -0.19405E-08         0.00000E+00
    0.66894E-07        -0.18187E-08         0.00000E+00
    0.66989E-07        -0.16603E-08         0.00000E+00
    0.67092E-07        -0.14791E-08         0.00000E+00
    0.67200E-07        -0.12833E-08         0.00000E+00
    0.67307E-07        -0.10749E-08         0.00000E+00
    0.67405E-07        -0.86761E-09         0.00000E+00
    0.67489E-07        -0.67218E-09         0.00000E+00
    0.67557E-07        -0.49565E-09         0.00000E+00
    0.67607E-07        -0.34594E-09         0.00000E+00
    0.67642E-07        -0.22655E-09         0.00000E+00
    0.67665E-07        -0.13494E-09         0.00000E+00
    0.67680E-07        -0.67196E-10         0.00000E+00
    0.67687E-07        -0.19286E-10         0.00000E+00
    0.65045E-07        -0.60810E-10         0.00000E+00
    0.65042E-07        -0.17817E-09         0.00000E+00
    0.65035E-07        -0.28913E-09         0.00000E+00
    0.65026E-07        -0.39369E-09         0.00000E+00
    0.65015E-07        -0.49199E-09         0.00000E+00
    0.65002E-07        -0.58425E-09         0.00000E+00
    0.64988E-07        -0.67079E-09         0.00000E+00
    0.64973E-07        -0.75208E-09         0.00000E+00
    0.64958E-07        -0.82847E-09         0.00000E+00
    0.64942E-07        -0.90029E-09         0.00000E+00
    0.64925E-07        -0.96801E-09         0.00000E+00
    0.64908E-07        -0.10320E-08         0.00000E+00
    0.64891E-07        -0.10928E-08         0.00000E+00
    0.64874E-07        -0.11506E-08         0.00000E+00
    0.64856E-07        -0.12059E-08         0.00000E+00
    0.64838E-07        -0.12590E-08         0.00000E+00
    0.64820E-07        -0.13103E-08         0.00000E+00
    0.64801E-07        -0.13599E-08         0.00000E+00
    0.64781E-07        -0.14081E-08         0.00000E+00
    0.64761E-07        -0.14552E-08         0.00000E+00
    0.64740E-07        -0.15018E-08         0.00000E+00
    0.64718E-07        -0.15479E-08         0.00000E+00
    0.64694E-07        -0.15931E-08         0.00000E+00
    0.64669E-07        -0.16371E-08         0.00000E+00
    0.64643E-07        -0.16799E-08         0.00000E+00
    0.64617E-07        -0.17218E-08         0.00000E+00
    0.64589E-07        -0.17633E-08         0.00000E+00
    0.64560E-07        -0.18056E-08         0.00000E+00
    0.64530E-07        -0.18503E-08         0.00000E+00
    0.64496E-07        -0.18951E-08         0.00000E+00
    0.64459E-07        -0.19384E-08         0.00000E+00
    0.64420E-07        -0.19852E-08         0.00000E+00
    0.64375E-07        -0.20285E-08         0.00000E+00
    0.64329E-07        -0.20594E-08         0.00000E+00
    0.64286E-07        -0.20823E-08         0.00000E+00
    0.64251E-07        -0.20966E-08         0.00000E+00
    0.64230E-07        -0.20952E-08         0.00000E+00
    0.64229E-07        -0.20748E-08         0.00000E+00
    0.64258E-07        -0.20219E-08         0.00000E+00
    0.64317E-07        -0.19319E-08         0.00000E+00
    0.64405E-07        -0.18062E-08         0.00000E+00
    0.64515E-07        -0.16353E-08         0.00000E+00
    0.64639E-07        -0.14203E-08         0.00000E+00
    0.64765E-07        -0.11724E-08         0.00000E+00
    0.64882E-07        -0.91689E-09         0.00000E+00
    0.64981E-07        -0.67076E-09         0.00000E+00
    0.65056E-07        -0.44962E-09         0.00000E+00
    0.65104E-07        -0.27000E-09         0.00000E+00
    0.65130E-07        -0.13383E-09         0.00000E+00
    0.65140E-07        -0.38186E-10         0.00000E+00
    0.62946E-07        -0.52054E-10         0.00000E+00
    0.62943E-07        -0.15337E-09         0.00000E+00
    0.62937E-07        -0.25043E-09         0.00000E+00
    0.62928E-07        -0.34315E-09         0.00000E+00
    0.62917E-07        -0.43153E-09         0.00000E+00
    0.62904E-07        -0.51560E-09         0.00000E+00
    0.62889E-07        -0.59547E-09         0.00000E+00
    0.62873E-07        -0.67123E-09         0.00000E+00
    0.62855E-07        -0.74307E-09         0.00000E+00
    0.62836E-07        -0.81119E-09         0.00000E+00
    0.62817E-07        -0.87581E-09         0.00000E+00
    0.62796E-07        -0.93716E-09         0.00000E+00
    0.62775E-07        -0.99546E-09         0.00000E+00
    0.62753E-07        -0.10510E-08         0.00000E+00
    0.62730E-07        -0.11040E-08         0.00000E+00
    0.62707E-07        -0.11546E-08         0.00000E+00
    0.62683E-07        -0.12032E-08         0.00000E+00
    0.62659E-07        -0.12498E-08         0.00000E+00
    0.62633E-07        -0.12948E-08         0.00000E+00
    0.62608E-07        -0.13382E-08         0.00000E+00
    0.62581E-07        -0.13802E-08         0.00000E+00
    0.62553E-07        -0.14210E-08         0.00000E+00
    0.62525E-07        -0.14605E-08         0.00000E+00
    0.62496E-07        -0.14991E-08         0.00000E+00
    0.62465E-07        -0.15368E-08         0.00000E+00
    0.62434E-07        -0.15735E-08         0.00000E+00
    0.62401E-07        -0.16096E-08         0.00000E+00
    0.62367E-07        -0.16448E-08         0.00000E+00
    0.62331E-07        -0.16789E-08         0.00000E+00
    0.62294E-07        -0.17123E-08         0.00000E+00
    0.62255E-07        -0.17454E-08         0.00000E+00
    0.62215E-07        -0.17771E-08         0.00000E+00
    0.62173E-07        -0.18072E-08         0.00000E+00
    0.62131E-07        -0.18365E-08         0.00000E+00
    0.62086E-07        -0.18664E-08         0.00000E+00
    0.62038E-07        -0.18976E-08         0.00000E+00
    0.61986E-07        -0.19271E-08         0.00000E+00
    0.61929E-07        -0.19569E-08         0.00000E+00
    0.61869E-07        -0.19790E-08         0.00000E+00
    0.61810E-07        -0.19796E-08         0.00000E+00
    0.61763E-07        -0.19610E-08         0.00000E+00
    0.61740E-07        -0.19134E-08         0.00000E+00
    0.61752E-07        -0.18266E-08         0.00000E+00
    0.61810E-07        -0.16867E-08         0.00000E+00
    0.61911E-07        -0.14890E-08         0.00000E+00
    0.62039E-07        -0.12350E-08         0.00000E+00
    0.62174E-07        -0.93124E-09         0.00000E+00
    0.62289E-07        -0.60875E-09         0.00000E+00
    0.62367E-07        -0.31508E-09         0.00000E+00
    0.62404E-07        -0.91995E-10         0.00000E+00
    0.60811E-07        -0.44227E-10         0.00000E+00
    0.60808E-07        -0.13075E-09         0.00000E+00
    0.60802E-07        -0.21430E-09         0.00000E+00
    0.60794E-07        -0.29478E-09         0.00000E+00
    0.60784E-07        -0.37212E-09         0.00000E+00
    0.60771E-07        -0.44631E-09         0.00000E+00
    0.60756E-07        -0.51737E-09         0.00000E+00
    0.60740E-07        -0.58533E-09         0.00000E+00
    0.60722E-07        -0.65026E-09         0.00000E+00
    0.60702E-07        -0.71224E-09         0.00000E+00
    0.60681E-07        -0.77137E-09         0.00000E+00
    0.60659E-07        -0.82778E-09         0.00000E+00
    0.60636E-07        -0.88159E-09         0.00000E+00
    0.60611E-07        -0.93293E-09         0.00000E+00
    0.60586E-07        -0.98194E-09         0.00000E+00
    0.60560E-07        -0.10288E-08         0.00000E+00
    0.60532E-07        -0.10735E-08         0.00000E+00
    0.60504E-07        -0.11163E-08         0.00000E+00
    0.60475E-07        -0.11573E-08         0.00000E+00
    0.60445E-07        -0.11966E-08         0.00000E+00
    0.60414E-07        -0.12343E-08         0.00000E+00
    0.60383E-07        -0.12705E-08         0.00000E+00
    0.60350E-07        -0.13053E-08         0.00000E+00
    0.60316E-07        -0.13387E-08         0.00000E+00
    0.60281E-07        -0.13707E-08         0.00000E+00
    0.60245E-07        -0.14016E-08         0.00000E+00
    0.60208E-07        -0.14311E-08         0.00000E+00
    0.60169E-07        -0.14595E-08         0.00000E+00
    0.60129E-07        -0.14867E-08         0.00000E+00
    0.60088E-07        -0.15126E-08         0.00000E+00
    0.60045E-07        -0.15372E-08         0.00000E+00
    0.60001E-07        -0.15606E-08         0.00000E+00
    0.59954E-07        -0.15827E-08         0.00000E+00
    0.59905E-07        -0.16032E-08         0.00000E+00
    0.59854E-07        -0.16217E-08         0.00000E+00
    0.59802E-07        -0.16378E-08         0.00000E+00
    0.59747E-07        -0.16521E-08         0.00000E+00
    0.59689E-07        -0.16639E-08         0.00000E+00
    0.59630E-07        -0.16730E-08         0.00000E+00
    0.59568E-07        -0.16807E-08         0.00000E+00
    0.59501E-07        -0.16895E-08         0.00000E+00
    0.59426E-07        -0.16944E-08         0.00000E+00
    0.59344E-07        -0.16942E-08         0.00000E+00
    0.59256E-07        -0.16720E-08         0.00000E+00
    0.59176E-07        -0.16071E-08         0.00000E+00
    0.59122E-07        -0.14883E-08         0.00000E+00
    0.59113E-07        -0.13039E-08         0.00000E+00
    0.59156E-07        -0.10320E-08         0.00000E+00
    0.59234E-07        -0.67303E-09         0.00000E+00
    0.59299E-07        -0.23955E-09         0.00000E+00
    0.58658E-07        -0.37193E-10         0.00000E+00
    0.58655E-07        -0.11012E-09         0.00000E+00
    0.58650E-07        -0.18082E-09         0.00000E+00
    0.58642E-07        -0.24922E-09         0.00000E+00
    0.58632E-07        -0.31529E-09         0.00000E+00
    0.58620E-07        -0.37899E-09         0.00000E+00
    0.58606E-07        -0.44031E-09         0.00000E+00
    0.58590E-07        -0.49926E-09         0.00000E+00
    0.58572E-07        -0.55585E-09         0.00000E+00
    0.58552E-07        -0.61011E-09         0.00000E+00
    0.58531E-07        -0.66209E-09         0.00000E+00
    0.58508E-07        -0.71184E-09         0.00000E+00
    0.58484E-07        -0.75941E-09         0.00000E+00
    0.58458E-07        -0.80487E-09         0.00000E+00
    0.58431E-07        -0.84828E-09         0.00000E+00
    0.58403E-07        -0.88972E-09         0.00000E+00
    0.58373E-07        -0.92924E-09         0.00000E+00
    0.58343E-07        -0.96692E-09         0.00000E+00
    0.58311E-07        -0.10028E-08         0.00000E+00
    0.58278E-07        -0.10370E-08         0.00000E+00
    0.58244E-07        -0.10695E-08         0.00000E+00
    0.58209E-07        -0.11004E-08         0.00000E+00
    0.58173E-07        -0.11297E-08         0.00000E+00
    0.58135E-07        -0.11574E-08         0.00000E+00
    0.58097E-07        -0.11836E-08         0.00000E+00
    0.58057E-07        -0.12082E-08         0.00000E+00
    0.58015E-07        -0.12313E-08         0.00000E+00
    0.57972E-07        -0.12528E-08         0.00000E+00
    0.57928E-07        -0.12726E-08         0.00000E+00
    0.57882E-07        -0.12907E-08         0.00000E+00
    0.57835E-07        -0.13070E-08         0.00000E+00
    0.57785E-07        -0.13213E-08         0.00000E+00
    0.57734E-07        -0.13334E-08         0.00000E+00
    0.57681E-07        -0.13434E-08         0.00000E+00
    0.57626E-07        -0.13509E-08         0.00000E+00
    0.57568E-07        -0.13558E-08         0.00000E+00
    0.57507E-07        -0.13576E-08         0.00000E+00
    0.57444E-07        -0.13561E-08         0.00000E+00
    0.57377E-07        -0.13507E-08         0.00000E+00
    0.57307E-07        -0.13403E-08         0.00000E+00
    0.57233E-07        -0.13233E-08         0.00000E+00
    0.57155E-07        -0.12995E-08         0.00000E+00
    0.57074E-07        -0.12681E-08         0.00000E+00
    0.56987E-07        -0.12278E-08         0.00000E+00
    0.56892E-07        -0.11792E-08         0.00000E+00
    0.56786E-07        -0.11163E-08         0.00000E+00
    0.56667E-07        -0.10302E-08         0.00000E+00
    0.56539E-07        -0.88459E-09         0.00000E+00
    0.56424E-07        -0.63665E-09         0.00000E+00
    0.56353E-07        -0.24286E-09         0.00000E+00
    0.56505E-07        -0.30635E-10         0.00000E+00
    0.56502E-07        -0.90772E-10         0.00000E+00
    0.56497E-07        -0.14918E-09         0.00000E+00
    0.56490E-07        -0.20583E-09         0.00000E+00
    0.56480E-07        -0.26069E-09         0.00000E+00
    0.56469E-07        -0.31374E-09         0.00000E+00
    0.56455E-07        -0.36496E-09         0.00000E+00
    0.56439E-07        -0.41433E-09         0.00000E+00
    0.56421E-07        -0.46186E-09         0.00000E+00
    0.56402E-07        -0.50755E-09         0.00000E+00
    0.56380E-07        -0.55139E-09         0.00000E+00
    0.56357E-07        -0.59341E-09         0.00000E+00
    0.56333E-07        -0.63362E-09         0.00000E+00
    0.56307E-07        -0.67204E-09         0.00000E+00
    0.56279E-07        -0.70869E-09         0.00000E+00
    0.56250E-07        -0.74358E-09         0.00000E+00
    0.56220E-07        -0.77674E-09         0.00000E+00
    0.56188E-07        -0.80819E-09         0.00000E+00
    0.56155E-07        -0.83795E-09         0.00000E+00
    0.56121E-07        -0.86602E-09         0.00000E+00
    0.56085E-07        -0.89241E-09         0.00000E+00
    0.56048E-07        -0.91714E-09         0.00000E+00
    0.56010E-07        -0.94017E-09         0.00000E+00
    0.55970E-07        -0.96150E-09         0.00000E+00
    0.55930E-07        -0.98110E-09         0.00000E+00
    0.55887E-07        -0.99893E-09         0.00000E+00
    0.55843E-07        -0.10149E-08         0.00000E+00
    0.55798E-07        -0.10290E-08         0.00000E+00
    0.55752E-07        -0.10411E-08         0.00000E+00
    0.55703E-07        -0.10511E-08         0.00000E+00
    0.55653E-07        -0.10588E-08         0.00000E+00
    0.55602E-07        -0.10642E-08         0.00000E+00
    0.55548E-07        -0.10669E-08         0.00000E+00
    0.55493E-07        -0.10667E-08         0.00000E+00
    0.55435E-07        -0.10634E-08         0.00000E+00
    0.55375E-07        -0.10566E-08         0.00000E+00
    0.55314E-07        -0.10458E-08         0.00000E+00
    0.55249E-07        -0.10305E-08         0.00000E+00
    0.55183E-07        -0.10102E-08         0.00000E+00
    0.55114E-07        -0.98418E-09         0.00000E+00
    0.55043E-07        -0.95183E-09         0.00000E+00
    0.54968E-07        -0.91191E-09         0.00000E+00
    0.54891E-07        -0.86310E-09         0.00000E+00
    0.54812E-07        -0.80350E-09         0.00000E+00
    0.54732E-07        -0.73008E-09         0.00000E+00
    0.54653E-07        -0.64083E-09         0.00000E+00
    0.54579E-07        -0.53394E-09         0.00000E+00
    0.54512E-07        -0.40820E-09         0.00000E+00
    0.54457E-07        -0.26386E-09         0.00000E+00
    0.54423E-07        -0.92809E-10         0.00000E+00
    0.54366E-07        -0.24369E-10         0.00000E+00
    0.54364E-07        -0.72254E-10         0.00000E+00
    0.54359E-07        -0.11884E-09         0.00000E+00
    0.54352E-07        -0.16410E-09         0.00000E+00
    0.54343E-07        -0.20802E-09         0.00000E+00
    0.54331E-07        -0.25056E-09         0.00000E+00
    0.54318E-07        -0.29170E-09         0.00000E+00
    0.54302E-07        -0.33142E-09         0.00000E+00
    0.54285E-07        -0.36971E-09         0.00000E+00
    0.54266E-07        -0.40653E-09         0.00000E+00
    0.54245E-07        -0.44189E-09         0.00000E+00
    0.54223E-07        -0.47575E-09         0.00000E+00
    0.54199E-07        -0.50812E-09         0.00000E+00
    0.54173E-07        -0.53898E-09         0.00000E+00
    0.54146E-07        -0.56831E-09         0.00000E+00
    0.54117E-07        -0.59611E-09         0.00000E+00
    0.54087E-07        -0.62237E-09         0.00000E+00
    0.54056E-07        -0.64706E-09         0.00000E+00
    0.54023E-07        -0.67017E-09         0.00000E+00
    0.53989E-07        -0.69169E-09         0.00000E+00
    0.53954E-07        -0.71158E-09         0.00000E+00
    0.53917E-07        -0.72981E-09         0.00000E+00
    0.53879E-07        -0.74635E-09         0.00000E+00
    0.53840E-07        -0.76115E-09         0.00000E+00
    0.53799E-07        -0.77415E-09         0.00000E+00
    0.53757E-07        -0.78529E-09         0.00000E+00
    0.53714E-07        -0.79448E-09         0.00000E+00
    0.53670E-07        -0.80163E-09         0.00000E+00
    0.53624E-07        -0.80664E-09         0.00000E+00
    0.53577E-07        -0.80938E-09         0.00000E+00
    0.53529E-07        -0.80969E-09         0.00000E+00
    0.53480E-07        -0.80742E-09         0.00000E+00
    0.53429E-07        -0.80236E-09         0.00000E+00
    0.53377E-07        -0.79429E-09         0.00000E+00
    0.53324E-07        -0.78297E-09         0.00000E+00
    0.53270E-07        -0.76812E-09         0.00000E+00
    0.53215E-07        -0.74942E-09         0.00000E+00
    0.53159E-07        -0.72653E-09         0.00000E+00
    0.53102E-07        -0.69908E-09         0.00000E+00
    0.53045E-07        -0.66662E-09         0.00000E+00
    0.52989E-07        -0.62866E-09         0.00000E+00
    0.52933E-07        -0.58480E-09         0.00000E+00
    0.52879E-07        -0.53464E-09         0.00000E+00
    0.52827E-07        -0.47797E-09         0.00000E+00
    0.52779E-07        -0.41501E-09         0.00000E+00
    0.52736E-07        -0.34599E-09         0.00000E+00
    0.52699E-07        -0.27158E-09         0.00000E+00
    0.52670E-07        -0.19286E-09         0.00000E+00
    0.52652E-07        -0.11178E-09         0.00000E+00
    0.52643E-07        -0.34854E-10         0.00000E+00
    0.52253E-07        -0.18369E-10         0.00000E+00
    0.52251E-07        -0.54541E-10         0.00000E+00
    0.52247E-07        -0.89837E-10         0.00000E+00
    0.52240E-07        -0.12422E-09         0.00000E+00
    0.52231E-07        -0.15766E-09         0.00000E+00
    0.52220E-07        -0.19013E-09         0.00000E+00
    0.52208E-07        -0.22157E-09         0.00000E+00
    0.52193E-07        -0.25197E-09         0.00000E+00
    0.52177E-07        -0.28128E-09         0.00000E+00
    0.52159E-07        -0.30947E-09         0.00000E+00
    0.52139E-07        -0.33651E-09         0.00000E+00
    0.52118E-07        -0.36237E-09         0.00000E+00
    0.52095E-07        -0.38702E-09         0.00000E+00
    0.52071E-07        -0.41042E-09         0.00000E+00
    0.52045E-07        -0.43255E-09         0.00000E+00
    0.52018E-07        -0.45337E-09         0.00000E+00
    0.51989E-07        -0.47285E-09         0.00000E+00
    0.51960E-07        -0.49095E-09         0.00000E+00
    0.51929E-07        -0.50765E-09         0.00000E+00
    0.51897E-07        -0.52290E-09         0.00000E+00
    0.51863E-07        -0.53667E-09         0.00000E+00
    0.51829E-07        -0.54890E-09         0.00000E+00
    0.51793E-07        -0.55955E-09         0.00000E+00
    0.51757E-07        -0.56856E-09         0.00000E+00
    0.51719E-07        -0.57587E-09         0.00000E+00
    0.51680E-07        -0.58142E-09         0.00000E+00
    0.51641E-07        -0.58514E-09         0.00000E+00
    0.51600E-07        -0.58694E-09         0.00000E+00
    0.51559E-07        -0.58674E-09         0.00000E+00
    0.51517E-07        -0.58444E-09         0.00000E+00
    0.51474E-07        -0.57994E-09         0.00000E+00
    0.51431E-07        -0.57313E-09         0.00000E+00
    0.51387E-07        -0.56390E-09         0.00000E+00
    0.51343E-07        -0.55212E-09         0.00000E+00
    0.51299E-07        -0.53768E-09         0.00000E+00
    0.51254E-07        -0.52045E-09         0.00000E+00
    0.51210E-07        -0.50032E-09         0.00000E+00
    0.51166E-07        -0.47719E-09         0.00000E+00
    0.51123E-07        -0.45099E-09         0.00000E+00
    0.51081E-07        -0.42169E-09         0.00000E+00
    0.51041E-07        -0.38932E-09         0.00000E+00
    0.51003E-07        -0.35399E-09         0.00000E+00
    0.50967E-07        -0.31590E-09         0.00000E+00
    0.50935E-07        -0.27539E-09         0.00000E+00
    0.50906E-07        -0.23286E-09         0.00000E+00
    0.50881E-07        -0.18898E-09         0.00000E+00
    0.50861E-07        -0.14461E-09         0.00000E+00
    0.50846E-07        -0.10087E-09         0.00000E+00
    0.50836E-07        -0.59012E-10         0.00000E+00
    0.50830E-07        -0.19091E-10         0.00000E+00
    0.50177E-07        -0.12739E-10         0.00000E+00
    0.50174E-07        -0.37945E-10         0.00000E+00
    0.50170E-07        -0.62704E-10         0.00000E+00
    0.50164E-07        -0.86961E-10         0.00000E+00
    0.50156E-07        -0.11066E-09         0.00000E+00
    0.50146E-07        -0.13376E-09         0.00000E+00
    0.50134E-07        -0.15620E-09         0.00000E+00
    0.50121E-07        -0.17794E-09         0.00000E+00
    0.50106E-07        -0.19893E-09         0.00000E+00
    0.50090E-07        -0.21912E-09         0.00000E+00
    0.50072E-07        -0.23846E-09         0.00000E+00
    0.50052E-07        -0.25692E-09         0.00000E+00
    0.50031E-07        -0.27445E-09         0.00000E+00
    0.50009E-07        -0.29100E-09         0.00000E+00
    0.49986E-07        -0.30654E-09         0.00000E+00
    0.49961E-07        -0.32103E-09         0.00000E+00
    0.49936E-07        -0.33442E-09         0.00000E+00
    0.49909E-07        -0.34668E-09         0.00000E+00
    0.49881E-07        -0.35775E-09         0.00000E+00
    0.49852E-07        -0.36761E-09         0.00000E+00
    0.49822E-07        -0.37621E-09         0.00000E+00
    0.49792E-07        -0.38351E-09         0.00000E+00
    0.49760E-07        -0.38946E-09         0.00000E+00
    0.49728E-07        -0.39401E-09         0.00000E+00
    0.49695E-07        -0.39713E-09         0.00000E+00
    0.49661E-07        -0.39877E-09         0.00000E+00
    0.49627E-07        -0.39888E-09         0.00000E+00
    0.49592E-07        -0.39741E-09         0.00000E+00
    0.49557E-07        -0.39432E-09         0.00000E+00
    0.49522E-07        -0.38957E-09         0.00000E+00
    0.49486E-07        -0.38311E-09         0.00000E+00
    0.49450E-07        -0.37490E-09         0.00000E+00
    0.49415E-07        -0.36492E-09         0.00000E+00
    0.49379E-07        -0.35315E-09         0.00000E+00
    0.49344E-07        -0.33957E-09         0.00000E+00
    0.49310E-07        -0.32421E-09         0.00000E+00
    0.49276E-07        -0.30708E-09         0.00000E+00
    0.49243E-07        -0.28825E-09         0.00000E+00
    0.49212E-07        -0.26781E-09         0.00000E+00
    0.49182E-07        -0.24589E-09         0.00000E+00
    0.49154E-07        -0.22265E-09         0.00000E+00
    0.49127E-07        -0.19832E-09         0.00000E+00
    0.49103E-07        -0.17317E-09         0.00000E+00
    0.49082E-07        -0.14755E-09         0.00000E+00
    0.49063E-07        -0.12185E-09         0.00000E+00
    0.49047E-07        -0.96523E-10         0.00000E+00
    0.49034E-07        -0.72023E-10         0.00000E+00
    0.49024E-07        -0.48794E-10         0.00000E+00
    0.49018E-07        -0.27267E-10         0.00000E+00
    0.49015E-07        -0.82058E-11         0.00000E+00
    0.48143E-07        -0.76372E-11         0.00000E+00
    0.48141E-07        -0.22924E-10         0.00000E+00
    0.48137E-07        -0.38173E-10         0.00000E+00
    0.48132E-07        -0.53310E-10         0.00000E+00
    0.48125E-07        -0.68264E-10         0.00000E+00
    0.48116E-07        -0.82969E-10         0.00000E+00
    0.48106E-07        -0.97361E-10         0.00000E+00
    0.48094E-07        -0.11138E-09         0.00000E+00
    0.48081E-07        -0.12496E-09         0.00000E+00
    0.48066E-07        -0.13805E-09         0.00000E+00
    0.48051E-07        -0.15060E-09         0.00000E+00
    0.48034E-07        -0.16256E-09         0.00000E+00
    0.48015E-07        -0.17387E-09         0.00000E+00
    0.47996E-07        -0.18449E-09         0.00000E+00
    0.47976E-07        -0.19438E-09         0.00000E+00
    0.47954E-07        -0.20349E-09         0.00000E+00
    0.47932E-07        -0.21177E-09         0.00000E+00
    0.47909E-07        -0.21920E-09         0.00000E+00
    0.47885E-07        -0.22572E-09         0.00000E+00
    0.47860E-07        -0.23132E-09         0.00000E+00
    0.47835E-07        -0.23594E-09         0.00000E+00
    0.47808E-07        -0.23956E-09         0.00000E+00
    0.47782E-07        -0.24215E-09         0.00000E+00
    0.47754E-07        -0.24368E-09         0.00000E+00
    0.47727E-07        -0.24412E-09         0.00000E+00
    0.47699E-07        -0.24345E-09         0.00000E+00
    0.47671E-07        -0.24166E-09         0.00000E+00
    0.47642E-07        -0.23872E-09         0.00000E+00
    0.47613E-07        -0.23464E-09         0.00000E+00
    0.47585E-07        -0.22940E-09         0.00000E+00
    0.47556E-07        -0.22302E-09         0.00000E+00
    0.47528E-07        -0.21551E-09         0.00000E+00
    0.47500E-07        -0.20688E-09         0.00000E+00
    0.47473E-07        -0.19719E-09         0.00000E+00
    0.47446E-07        -0.18648E-09         0.00000E+00
    0.47420E-07        -0.17481E-09         0.00000E+00
    0.47395E-07        -0.16229E-09         0.00000E+00
    0.47371E-07        -0.14900E-09         0.00000E+00
    0.47348E-07        -0.13509E-09         0.00000E+00
    0.47326E-07        -0.12070E-09         0.00000E+00
    0.47306E-07        -0.10602E-09         0.00000E+00
    0.47288E-07        -0.91246E-10         0.00000E+00
    0.47271E-07        -0.76611E-10         0.00000E+00
    0.47256E-07        -0.62367E-10         0.00000E+00
    0.47244E-07        -0.48783E-10         0.00000E+00
    0.47233E-07        -0.36153E-10         0.00000E+00
    0.47224E-07        -0.24787E-10         0.00000E+00
    0.47218E-07        -0.15026E-10         0.00000E+00
    0.47213E-07        -0.72391E-11         0.00000E+00
    0.47211E-07        -0.17144E-11         0.00000E+00
    0.46160E-07        -0.32106E-11         0.00000E+00
    0.46158E-07        -0.98943E-11         0.00000E+00
    0.46155E-07        -0.16902E-10         0.00000E+00
    0.46150E-07        -0.24146E-10         0.00000E+00
    0.46144E-07        -0.31541E-10         0.00000E+00
    0.46137E-07        -0.39008E-10         0.00000E+00
    0.46128E-07        -0.46474E-10         0.00000E+00
    0.46118E-07        -0.53869E-10         0.00000E+00
    0.46107E-07        -0.61127E-10         0.00000E+00
    0.46095E-07        -0.68186E-10         0.00000E+00
    0.46081E-07        -0.74988E-10         0.00000E+00
    0.46067E-07        -0.81478E-10         0.00000E+00
    0.46052E-07        -0.87605E-10         0.00000E+00
    0.46036E-07        -0.93321E-10         0.00000E+00
    0.46019E-07        -0.98581E-10         0.00000E+00
    0.46001E-07        -0.10334E-09         0.00000E+00
    0.45982E-07        -0.10757E-09         0.00000E+00
    0.45963E-07        -0.11123E-09         0.00000E+00
    0.45943E-07        -0.11428E-09         0.00000E+00
    0.45923E-07        -0.11670E-09         0.00000E+00
    0.45902E-07        -0.11846E-09         0.00000E+00
    0.45880E-07        -0.11954E-09         0.00000E+00
    0.45859E-07        -0.11993E-09         0.00000E+00
    0.45837E-07        -0.11961E-09         0.00000E+00
    0.45814E-07        -0.11857E-09         0.00000E+00
    0.45792E-07        -0.11680E-09         0.00000E+00
    0.45769E-07        -0.11432E-09         0.00000E+00
    0.45747E-07        -0.11112E-09         0.00000E+00
    0.45725E-07        -0.10722E-09         0.00000E+00
    0.45702E-07        -0.10264E-09         0.00000E+00
    0.45680E-07        -0.97420E-10         0.00000E+00
    0.45659E-07        -0.91587E-10         0.00000E+00
    0.45637E-07        -0.85194E-10         0.00000E+00
    0.45617E-07        -0.78299E-10         0.00000E+00
    0.45596E-07        -0.70973E-10         0.00000E+00
    0.45577E-07        -0.63300E-10         0.00000E+00
    0.45559E-07        -0.55374E-10         0.00000E+00
    0.45541E-07        -0.47306E-10         0.00000E+00
    0.45524E-07        -0.39219E-10         0.00000E+00
    0.45509E-07        -0.31250E-10         0.00000E+00
    0.45495E-07        -0.23549E-10         0.00000E+00
    0.45482E-07        -0.16283E-10         0.00000E+00
    0.45470E-07        -0.96268E-11         0.00000E+00
    0.45460E-07        -0.37719E-11         0.00000E+00
    0.45451E-07         0.10795E-11         0.00000E+00
    0.45443E-07         0.47164E-11         0.00000E+00
    0.45437E-07         0.69189E-11         0.00000E+00
    0.45433E-07         0.74658E-11         0.00000E+00
    0.45430E-07         0.61383E-11         0.00000E+00
    0.45429E-07         0.26945E-11         0.00000E+00
    0.44232E-07         0.44644E-12         0.00000E+00
    0.44230E-07         0.87808E-12         0.00000E+00
    0.44228E-07         0.69334E-12         0.00000E+00
    0.44224E-07        -0.11046E-13         0.00000E+00
    0.44219E-07        -0.11447E-11         0.00000E+00
    0.44213E-07        -0.26234E-11         0.00000E+00
    0.44206E-07        -0.43681E-11         0.00000E+00
    0.44198E-07        -0.63056E-11         0.00000E+00
    0.44189E-07        -0.83672E-11         0.00000E+00
    0.44179E-07        -0.10489E-10         0.00000E+00
    0.44169E-07        -0.12613E-10         0.00000E+00
    0.44157E-07        -0.14682E-10         0.00000E+00
    0.44145E-07        -0.16648E-10         0.00000E+00
    0.44132E-07        -0.18463E-10         0.00000E+00
    0.44118E-07        -0.20086E-10         0.00000E+00
    0.44104E-07        -0.21477E-10         0.00000E+00
    0.44089E-07        -0.22603E-10         0.00000E+00
    0.44074E-07        -0.23433E-10         0.00000E+00
    0.44058E-07        -0.23942E-10         0.00000E+00
    0.44042E-07        -0.24108E-10         0.00000E+00
    0.44025E-07        -0.23912E-10         0.00000E+00
    0.44009E-07        -0.23343E-10         0.00000E+00
    0.43992E-07        -0.22390E-10         0.00000E+00
    0.43974E-07        -0.21052E-10         0.00000E+00
    0.43957E-07        -0.19328E-10         0.00000E+00
    0.43940E-07        -0.17227E-10         0.00000E+00
    0.43923E-07        -0.14760E-10         0.00000E+00
    0.43905E-07        -0.11946E-10         0.00000E+00
    0.43888E-07        -0.88097E-11         0.00000E+00
    0.43871E-07        -0.53832E-11         0.00000E+00
    0.43855E-07        -0.17050E-11         0.00000E+00
    0.43839E-07         0.21789E-11         0.00000E+00
    0.43823E-07         0.62143E-11         0.00000E+00
    0.43808E-07         0.10339E-10         0.00000E+00
    0.43793E-07         0.14484E-10         0.00000E+00
    0.43779E-07         0.18568E-10         0.00000E+00
    0.43765E-07         0.22505E-10         0.00000E+00
    0.43753E-07         0.26198E-10         0.00000E+00
    0.43741E-07         0.29542E-10         0.00000E+00
    0.43730E-07         0.32422E-10         0.00000E+00
    0.43720E-07         0.34718E-10         0.00000E+00
    0.43711E-07         0.36300E-10         0.00000E+00
    0.43702E-07         0.37030E-10         0.00000E+00
    0.43695E-07         0.36764E-10         0.00000E+00
    0.43689E-07         0.35353E-10         0.00000E+00
    0.43684E-07         0.32644E-10         0.00000E+00
    0.43680E-07         0.28478E-10         0.00000E+00
    0.43677E-07         0.22695E-10         0.00000E+00
    0.43675E-07         0.15129E-10         0.00000E+00
    0.43674E-07         0.56219E-11         0.00000E+00
    0.42364E-07         0.33048E-11         0.00000E+00
    0.42363E-07         0.93134E-11         0.00000E+00
    0.42361E-07         0.14496E-10         0.00000E+00
    0.42358E-07         0.18949E-10         0.00000E+00
    0.42355E-07         0.22762E-10         0.00000E+00
    0.42350E-07         0.26019E-10         0.00000E+00
    0.42345E-07         0.28798E-10         0.00000E+00
    0.42339E-07         0.31172E-10         0.00000E+00
    0.42332E-07         0.33207E-10         0.00000E+00
    0.42324E-07         0.34967E-10         0.00000E+00
    0.42316E-07         0.36507E-10         0.00000E+00
    0.42307E-07         0.37880E-10         0.00000E+00
    0.42298E-07         0.39134E-10         0.00000E+00
    0.42288E-07         0.40313E-10         0.00000E+00
    0.42278E-07         0.41455E-10         0.00000E+00
    0.42267E-07         0.42594E-10         0.00000E+00
    0.42255E-07         0.43760E-10         0.00000E+00
    0.42244E-07         0.44980E-10         0.00000E+00
    0.42232E-07         0.46274E-10         0.00000E+00
    0.42220E-07         0.47659E-10         0.00000E+00
    0.42207E-07         0.49148E-10         0.00000E+00
    0.42194E-07         0.50747E-10         0.00000E+00
    0.42182E-07         0.52462E-10         0.00000E+00
    0.42169E-07         0.54289E-10         0.00000E+00
    0.42156E-07         0.56222E-10         0.00000E+00
    0.42143E-07         0.58249E-10         0.00000E+00
    0.42130E-07         0.60355E-10         0.00000E+00
    0.42118E-07         0.62516E-10         0.00000E+00
    0.42105E-07         0.64705E-10         0.00000E+00
    0.42093E-07         0.66889E-10         0.00000E+00
    0.42081E-07         0.69029E-10         0.00000E+00
    0.42069E-07         0.71081E-10         0.00000E+00
    0.42058E-07         0.72992E-10         0.00000E+00
    0.42047E-07         0.74708E-10         0.00000E+00
    0.42036E-07         0.76165E-10         0.00000E+00
    0.42026E-07         0.77294E-10         0.00000E+00
    0.42017E-07         0.78020E-10         0.00000E+00
    0.42008E-07         0.78263E-10         0.00000E+00
    0.42000E-07         0.77938E-10         0.00000E+00
    0.41992E-07         0.76951E-10         0.00000E+00
    0.41985E-07         0.75207E-10         0.00000E+00
    0.41979E-07         0.72605E-10         0.00000E+00
    0.41973E-07         0.69038E-10         0.00000E+00
    0.41969E-07         0.64397E-10         0.00000E+00
    0.41965E-07         0.58569E-10         0.00000E+00
    0.41961E-07         0.51439E-10         0.00000E+00
    0.41959E-07         0.42890E-10         0.00000E+00
    0.41957E-07         0.32804E-10         0.00000E+00
    0.41955E-07         0.21061E-10         0.00000E+00
    0.41955E-07         0.75433E-11         0.00000E+00
    0.40562E-07         0.53942E-11         0.00000E+00
    0.40561E-07         0.15500E-10         0.00000E+00
    0.40560E-07         0.24652E-10         0.00000E+00
    0.40558E-07         0.32940E-10         0.00000E+00
    0.40555E-07         0.40448E-10         0.00000E+00
    0.40552E-07         0.47254E-10         0.00000E+00
    0.40548E-07         0.53432E-10         0.00000E+00
    0.40544E-07         0.59049E-10         0.00000E+00
    0.40539E-07         0.64166E-10         0.00000E+00
    0.40533E-07         0.68842E-10         0.00000E+00
    0.40527E-07         0.73130E-10         0.00000E+00
    0.40521E-07         0.77076E-10         0.00000E+00
    0.40514E-07         0.80726E-10         0.00000E+00
    0.40507E-07         0.84118E-10         0.00000E+00
    0.40500E-07         0.87286E-10         0.00000E+00
    0.40492E-07         0.90262E-10         0.00000E+00
    0.40484E-07         0.93070E-10         0.00000E+00
    0.40475E-07         0.95733E-10         0.00000E+00
    0.40467E-07         0.98269E-10         0.00000E+00
    0.40458E-07         0.10069E-09         0.00000E+00
    0.40449E-07         0.10301E-09         0.00000E+00
    0.40440E-07         0.10522E-09         0.00000E+00
    0.40431E-07         0.10734E-09         0.00000E+00
    0.40422E-07         0.10935E-09         0.00000E+00
    0.40413E-07         0.11124E-09         0.00000E+00
    0.40403E-07         0.11302E-09         0.00000E+00
    0.40394E-07         0.11465E-09         0.00000E+00
    0.40386E-07         0.11612E-09         0.00000E+00
    0.40377E-07         0.11740E-09         0.00000E+00
    0.40368E-07         0.11845E-09         0.00000E+00
    0.40360E-07         0.11925E-09         0.00000E+00
    0.40352E-07         0.11976E-09         0.00000E+00
    0.40344E-07         0.11993E-09         0.00000E+00
    0.40337E-07         0.11971E-09         0.00000E+00
    0.40330E-07         0.11904E-09         0.00000E+00
    0.40323E-07         0.11788E-09         0.00000E+00
    0.40317E-07         0.11616E-09         0.00000E+00
    0.40311E-07         0.11381E-09         0.00000E+00
    0.40305E-07         0.11077E-09         0.00000E+00
    0.40300E-07         0.10696E-09         0.00000E+00
    0.40296E-07         0.10231E-09         0.00000E+00
    0.40292E-07         0.96731E-10         0.00000E+00
    0.40288E-07         0.90150E-10         0.00000E+00
    0.40285E-07         0.82481E-10         0.00000E+00
    0.40283E-07         0.73637E-10         0.00000E+00
    0.40281E-07         0.63532E-10         0.00000E+00
    0.40279E-07         0.52077E-10         0.00000E+00
    0.40278E-07         0.39183E-10         0.00000E+00
    0.40277E-07         0.24762E-10         0.00000E+00
    0.40277E-07         0.87246E-11         0.00000E+00
    0.38828E-07         0.67872E-11         0.00000E+00
    0.38827E-07         0.19648E-10         0.00000E+00
    0.38827E-07         0.31502E-10         0.00000E+00
    0.38825E-07         0.42427E-10         0.00000E+00
    0.38824E-07         0.52498E-10         0.00000E+00
    0.38822E-07         0.61783E-10         0.00000E+00
    0.38819E-07         0.70349E-10         0.00000E+00
    0.38816E-07         0.78253E-10         0.00000E+00
    0.38813E-07         0.85553E-10         0.00000E+00
    0.38809E-07         0.92298E-10         0.00000E+00
    0.38806E-07         0.98535E-10         0.00000E+00
    0.38801E-07         0.10431E-09         0.00000E+00
    0.38797E-07         0.10965E-09         0.00000E+00
    0.38792E-07         0.11460E-09         0.00000E+00
    0.38787E-07         0.11919E-09         0.00000E+00
    0.38782E-07         0.12344E-09         0.00000E+00
    0.38777E-07         0.12738E-09         0.00000E+00
    0.38771E-07         0.13102E-09         0.00000E+00
    0.38765E-07         0.13438E-09         0.00000E+00
    0.38760E-07         0.13747E-09         0.00000E+00
    0.38754E-07         0.14030E-09         0.00000E+00
    0.38748E-07         0.14286E-09         0.00000E+00
    0.38742E-07         0.14516E-09         0.00000E+00
    0.38736E-07         0.14720E-09         0.00000E+00
    0.38730E-07         0.14896E-09         0.00000E+00
    0.38724E-07         0.15043E-09         0.00000E+00
    0.38718E-07         0.15161E-09         0.00000E+00
    0.38712E-07         0.15246E-09         0.00000E+00
    0.38707E-07         0.15297E-09         0.00000E+00
    0.38701E-07         0.15311E-09         0.00000E+00
    0.38696E-07         0.15284E-09         0.00000E+00
    0.38691E-07         0.15215E-09         0.00000E+00
    0.38686E-07         0.15098E-09         0.00000E+00
    0.38681E-07         0.14930E-09         0.00000E+00
    0.38677E-07         0.14706E-09         0.00000E+00
    0.38672E-07         0.14423E-09         0.00000E+00
    0.38669E-07         0.14074E-09         0.00000E+00
    0.38665E-07         0.13654E-09         0.00000E+00
    0.38662E-07         0.13159E-09         0.00000E+00
    0.38659E-07         0.12582E-09         0.00000E+00
    0.38656E-07         0.11918E-09         0.00000E+00
    0.38654E-07         0.11159E-09         0.00000E+00
    0.38652E-07         0.10301E-09         0.00000E+00
    0.38650E-07         0.93359E-10         0.00000E+00
    0.38649E-07         0.82578E-10         0.00000E+00
    0.38648E-07         0.70598E-10         0.00000E+00
    0.38647E-07         0.57353E-10         0.00000E+00
    0.38646E-07         0.42776E-10         0.00000E+00
    0.38646E-07         0.26799E-10         0.00000E+00
    0.38646E-07         0.93567E-11         0.00000E+00
    0.37166E-07         0.75810E-11         0.00000E+00
    0.37166E-07         0.22041E-10         0.00000E+00
    0.37165E-07         0.35501E-10         0.00000E+00
    0.37165E-07         0.48026E-10         0.00000E+00
    0.37164E-07         0.59680E-10         0.00000E+00
    0.37163E-07         0.70519E-10         0.00000E+00
    0.37161E-07         0.80600E-10         0.00000E+00
    0.37160E-07         0.89972E-10         0.00000E+00
    0.37158E-07         0.98682E-10         0.00000E+00
    0.37156E-07         0.10677E-09         0.00000E+00
    0.37154E-07         0.11429E-09         0.00000E+00
    0.37152E-07         0.12125E-09         0.00000E+00
    0.37149E-07         0.12771E-09         0.00000E+00
    0.37146E-07         0.13369E-09         0.00000E+00
    0.37144E-07         0.13921E-09         0.00000E+00
    0.37141E-07         0.14429E-09         0.00000E+00
    0.37137E-07         0.14896E-09         0.00000E+00
    0.37134E-07         0.15322E-09         0.00000E+00
    0.37131E-07         0.15710E-09         0.00000E+00
    0.37128E-07         0.16059E-09         0.00000E+00
    0.37124E-07         0.16371E-09         0.00000E+00
    0.37121E-07         0.16645E-09         0.00000E+00
    0.37117E-07         0.16882E-09         0.00000E+00
    0.37114E-07         0.17081E-09         0.00000E+00
    0.37110E-07         0.17241E-09         0.00000E+00
    0.37107E-07         0.17362E-09         0.00000E+00
    0.37104E-07         0.17441E-09         0.00000E+00
    0.37100E-07         0.17478E-09         0.00000E+00
    0.37097E-07         0.17470E-09         0.00000E+00
    0.37094E-07         0.17415E-09         0.00000E+00
    0.37091E-07         0.17310E-09         0.00000E+00
    0.37089E-07         0.17154E-09         0.00000E+00
    0.37086E-07         0.16942E-09         0.00000E+00
    0.37083E-07         0.16672E-09         0.00000E+00
    0.37081E-07         0.16340E-09         0.00000E+00
    0.37079E-07         0.15941E-09         0.00000E+00
    0.37077E-07         0.15474E-09         0.00000E+00
    0.37075E-07         0.14932E-09         0.00000E+00
    0.37074E-07         0.14312E-09         0.00000E+00
    0.37072E-07         0.13609E-09         0.00000E+00
    0.37071E-07         0.12819E-09         0.00000E+00
    0.37070E-07         0.11937E-09         0.00000E+00
    0.37069E-07         0.10958E-09         0.00000E+00
    0.37068E-07         0.98759E-10         0.00000E+00
    0.37068E-07         0.86872E-10         0.00000E+00
    0.37067E-07         0.73862E-10         0.00000E+00
    0.37067E-07         0.59678E-10         0.00000E+00
    0.37067E-07         0.44270E-10         0.00000E+00
    0.37067E-07         0.27586E-10         0.00000E+00
    0.37067E-07         0.95759E-11         0.00000E+00
    0.35579E-07         0.78833E-11         0.00000E+00
    0.35579E-07         0.22991E-10         0.00000E+00
    0.35579E-07         0.37152E-10         0.00000E+00
    0.35579E-07         0.50418E-10         0.00000E+00
    0.35578E-07         0.62840E-10         0.00000E+00
    0.35578E-07         0.74465E-10         0.00000E+00
    0.35578E-07         0.85335E-10         0.00000E+00
    0.35577E-07         0.95492E-10         0.00000E+00
    0.35577E-07         0.10497E-09         0.00000E+00
    0.35576E-07         0.11381E-09         0.00000E+00
    0.35575E-07         0.12205E-09         0.00000E+00
    0.35574E-07         0.12970E-09         0.00000E+00
    0.35573E-07         0.13679E-09         0.00000E+00
    0.35572E-07         0.14336E-09         0.00000E+00
    0.35571E-07         0.14942E-09         0.00000E+00
    0.35570E-07         0.15498E-09         0.00000E+00
    0.35569E-07         0.16007E-09         0.00000E+00
    0.35567E-07         0.16469E-09         0.00000E+00
    0.35566E-07         0.16885E-09         0.00000E+00
    0.35565E-07         0.17256E-09         0.00000E+00
    0.35563E-07         0.17582E-09         0.00000E+00
    0.35562E-07         0.17864E-09         0.00000E+00
    0.35560E-07         0.18100E-09         0.00000E+00
    0.35559E-07         0.18292E-09         0.00000E+00
    0.35558E-07         0.18438E-09         0.00000E+00
    0.35556E-07         0.18537E-09         0.00000E+00
    0.35555E-07         0.18589E-09         0.00000E+00
    0.35554E-07         0.18591E-09         0.00000E+00
    0.35552E-07         0.18542E-09         0.00000E+00
    0.35551E-07         0.18440E-09         0.00000E+00
    0.35550E-07         0.18284E-09         0.00000E+00
    0.35549E-07         0.18070E-09         0.00000E+00
    0.35548E-07         0.17798E-09         0.00000E+00
    0.35548E-07         0.17463E-09         0.00000E+00
    0.35547E-07         0.17063E-09         0.00000E+00
    0.35546E-07         0.16595E-09         0.00000E+00
    0.35546E-07         0.16056E-09         0.00000E+00
    0.35545E-07         0.15442E-09         0.00000E+00
    0.35545E-07         0.14751E-09         0.00000E+00
    0.35545E-07         0.13979E-09         0.00000E+00
    0.35545E-07         0.13121E-09         0.00000E+00
    0.35545E-07         0.12175E-09         0.00000E+00
    0.35545E-07         0.11136E-09         0.00000E+00
    0.35545E-07         0.10001E-09         0.00000E+00
    0.35545E-07         0.87656E-10         0.00000E+00
    0.35545E-07         0.74261E-10         0.00000E+00
    0.35545E-07         0.59785E-10         0.00000E+00
    0.35545E-07         0.44189E-10         0.00000E+00
    0.35545E-07         0.27436E-10         0.00000E+00
    0.35546E-07         0.94868E-11         0.00000E+00
    0.34069E-07         0.78008E-11         0.00000E+00
    0.34069E-07         0.22808E-10         0.00000E+00
    0.34069E-07         0.36955E-10         0.00000E+00
    0.34069E-07         0.50280E-10         0.00000E+00
    0.34069E-07         0.62822E-10         0.00000E+00
    0.34070E-07         0.74616E-10         0.00000E+00
    0.34070E-07         0.85695E-10         0.00000E+00
    0.34070E-07         0.96089E-10         0.00000E+00
    0.34071E-07         0.10583E-09         0.00000E+00
    0.34071E-07         0.11494E-09         0.00000E+00
    0.34071E-07         0.12345E-09         0.00000E+00
    0.34071E-07         0.13137E-09         0.00000E+00
    0.34072E-07         0.13873E-09         0.00000E+00
    0.34072E-07         0.14555E-09         0.00000E+00
    0.34072E-07         0.15183E-09         0.00000E+00
    0.34072E-07         0.15760E-09         0.00000E+00
    0.34072E-07         0.16287E-09         0.00000E+00
    0.34073E-07         0.16763E-09         0.00000E+00
    0.34073E-07         0.17191E-09         0.00000E+00
    0.34073E-07         0.17570E-09         0.00000E+00
    0.34073E-07         0.17900E-09         0.00000E+00
    0.34073E-07         0.18182E-09         0.00000E+00
    0.34073E-07         0.18416E-09         0.00000E+00
    0.34074E-07         0.18600E-09         0.00000E+00
    0.34074E-07         0.18735E-09         0.00000E+00
    0.34074E-07         0.18819E-09         0.00000E+00
    0.34074E-07         0.18852E-09         0.00000E+00
    0.34074E-07         0.18832E-09         0.00000E+00
    0.34075E-07         0.18759E-09         0.00000E+00
    0.34075E-07         0.18630E-09         0.00000E+00
    0.34075E-07         0.18444E-09         0.00000E+00
    0.34076E-07         0.18199E-09         0.00000E+00
    0.34076E-07         0.17893E-09         0.00000E+00
    0.34077E-07         0.17524E-09         0.00000E+00
    0.34077E-07         0.17090E-09         0.00000E+00
    0.34078E-07         0.16588E-09         0.00000E+00
    0.34078E-07         0.16016E-09         0.00000E+00
    0.34079E-07         0.15371E-09         0.00000E+00
    0.34080E-07         0.14650E-09         0.00000E+00
    0.34080E-07         0.13851E-09         0.00000E+00
    0.34081E-07         0.12972E-09         0.00000E+00
    0.34082E-07         0.12008E-09         0.00000E+00
    0.34082E-07         0.10957E-09         0.00000E+00
    0.34083E-07         0.98162E-10         0.00000E+00
    0.34084E-07         0.85826E-10         0.00000E+00
    0.34084E-07         0.72531E-10         0.00000E+00
    0.34085E-07         0.58248E-10         0.00000E+00
    0.34085E-07         0.42946E-10         0.00000E+00
    0.34085E-07         0.26597E-10         0.00000E+00
    0.34086E-07         0.91715E-11         0.00000E+00
    0.32637E-07         0.74324E-11         0.00000E+00
    0.32637E-07         0.21781E-10         0.00000E+00
    0.32637E-07         0.35375E-10         0.00000E+00
    0.32638E-07         0.48243E-10         0.00000E+00
    0.32638E-07         0.60411E-10         0.00000E+00
    0.32639E-07         0.71904E-10         0.00000E+00
    0.32640E-07         0.82745E-10         0.00000E+00
    0.32641E-07         0.92956E-10         0.00000E+00
    0.32642E-07         0.10256E-09         0.00000E+00
    0.32643E-07         0.11157E-09         0.00000E+00
    0.32644E-07         0.12000E-09         0.00000E+00
    0.32645E-07         0.12788E-09         0.00000E+00
    0.32646E-07         0.13521E-09         0.00000E+00
    0.32647E-07         0.14201E-09         0.00000E+00
    0.32648E-07         0.14829E-09         0.00000E+00
    0.32650E-07         0.15406E-09         0.00000E+00
    0.32651E-07         0.15932E-09         0.00000E+00
    0.32652E-07         0.16408E-09         0.00000E+00
    0.32653E-07         0.16834E-09         0.00000E+00
    0.32655E-07         0.17210E-09         0.00000E+00
    0.32656E-07         0.17538E-09         0.00000E+00
    0.32657E-07         0.17815E-09         0.00000E+00
    0.32659E-07         0.18043E-09         0.00000E+00
    0.32660E-07         0.18221E-09         0.00000E+00
    0.32661E-07         0.18348E-09         0.00000E+00
    0.32663E-07         0.18423E-09         0.00000E+00
    0.32664E-07         0.18446E-09         0.00000E+00
    0.32665E-07         0.18416E-09         0.00000E+00
    0.32667E-07         0.18331E-09         0.00000E+00
    0.32668E-07         0.18191E-09         0.00000E+00
    0.32670E-07         0.17993E-09         0.00000E+00
    0.32671E-07         0.17737E-09         0.00000E+00
    0.32673E-07         0.17420E-09         0.00000E+00
    0.32674E-07         0.17041E-09         0.00000E+00
    0.32675E-07         0.16599E-09         0.00000E+00
    0.32677E-07         0.16091E-09         0.00000E+00
    0.32678E-07         0.15515E-09         0.00000E+00
    0.32680E-07         0.14869E-09         0.00000E+00
    0.32681E-07         0.14151E-09         0.00000E+00
    0.32682E-07         0.13359E-09         0.00000E+00
    0.32683E-07         0.12491E-09         0.00000E+00
    0.32685E-07         0.11545E-09         0.00000E+00
    0.32686E-07         0.10517E-09         0.00000E+00
    0.32687E-07         0.94067E-10         0.00000E+00
    0.32688E-07         0.82106E-10         0.00000E+00
    0.32689E-07         0.69269E-10         0.00000E+00
    0.32689E-07         0.55531E-10         0.00000E+00
    0.32690E-07         0.40871E-10         0.00000E+00
    0.32690E-07         0.25266E-10         0.00000E+00
    0.32691E-07         0.86957E-11         0.00000E+00
    0.31284E-07         0.68658E-11         0.00000E+00
    0.31284E-07         0.20164E-10         0.00000E+00
    0.31284E-07         0.32826E-10         0.00000E+00
    0.31285E-07         0.44869E-10         0.00000E+00
    0.31286E-07         0.56307E-10         0.00000E+00
    0.31287E-07         0.67158E-10         0.00000E+00
    0.31288E-07         0.77436E-10         0.00000E+00
    0.31289E-07         0.87153E-10         0.00000E+00
    0.31291E-07         0.96323E-10         0.00000E+00
    0.31292E-07         0.10496E-09         0.00000E+00
    0.31294E-07         0.11307E-09         0.00000E+00
    0.31296E-07         0.12066E-09         0.00000E+00
    0.31298E-07         0.12775E-09         0.00000E+00
    0.31299E-07         0.13434E-09         0.00000E+00
    0.31301E-07         0.14043E-09         0.00000E+00
    0.31303E-07         0.14603E-09         0.00000E+00
    0.31305E-07         0.15115E-09         0.00000E+00
    0.31307E-07         0.15578E-09         0.00000E+00
    0.31309E-07         0.15994E-09         0.00000E+00
    0.31311E-07         0.16361E-09         0.00000E+00
    0.31314E-07         0.16680E-09         0.00000E+00
    0.31316E-07         0.16950E-09         0.00000E+00
    0.31318E-07         0.17171E-09         0.00000E+00
    0.31320E-07         0.17343E-09         0.00000E+00
    0.31322E-07         0.17465E-09         0.00000E+00
    0.31324E-07         0.17536E-09         0.00000E+00
    0.31326E-07         0.17556E-09         0.00000E+00
    0.31329E-07         0.17524E-09         0.00000E+00
    0.31331E-07         0.17438E-09         0.00000E+00
    0.31333E-07         0.17298E-09         0.00000E+00
    0.31335E-07         0.17103E-09         0.00000E+00
    0.31337E-07         0.16850E-09         0.00000E+00
    0.31339E-07         0.16540E-09         0.00000E+00
    0.31341E-07         0.16169E-09         0.00000E+00
    0.31344E-07         0.15738E-09         0.00000E+00
    0.31346E-07         0.15245E-09         0.00000E+00
    0.31347E-07         0.14687E-09         0.00000E+00
    0.31349E-07         0.14063E-09         0.00000E+00
    0.31351E-07         0.13372E-09         0.00000E+00
    0.31353E-07         0.12611E-09         0.00000E+00
    0.31355E-07         0.11780E-09         0.00000E+00
    0.31356E-07         0.10875E-09         0.00000E+00
    0.31358E-07         0.98966E-10         0.00000E+00
    0.31359E-07         0.88416E-10         0.00000E+00
    0.31360E-07         0.77085E-10         0.00000E+00
    0.31361E-07         0.64955E-10         0.00000E+00
    0.31362E-07         0.52010E-10         0.00000E+00
    0.31363E-07         0.38233E-10         0.00000E+00
    0.31363E-07         0.23606E-10         0.00000E+00
    0.31363E-07         0.81129E-11         0.00000E+00
    0.30010E-07         0.61754E-11         0.00000E+00
    0.30011E-07         0.18177E-10         0.00000E+00
    0.30011E-07         0.29662E-10         0.00000E+00
    0.30012E-07         0.40637E-10         0.00000E+00
    0.30013E-07         0.51111E-10         0.00000E+00
    0.30014E-07         0.61091E-10         0.00000E+00
    0.30016E-07         0.70583E-10         0.00000E+00
    0.30017E-07         0.79595E-10         0.00000E+00
    0.30019E-07         0.88132E-10         0.00000E+00
    0.30021E-07         0.96200E-10         0.00000E+00
    0.30023E-07         0.10380E-09         0.00000E+00
    0.30025E-07         0.11095E-09         0.00000E+00
    0.30027E-07         0.11763E-09         0.00000E+00
    0.30029E-07         0.12387E-09         0.00000E+00
    0.30032E-07         0.12965E-09         0.00000E+00
    0.30034E-07         0.13497E-09         0.00000E+00
    0.30036E-07         0.13985E-09         0.00000E+00
    0.30039E-07         0.14428E-09         0.00000E+00
    0.30042E-07         0.14826E-09         0.00000E+00
    0.30044E-07         0.15178E-09         0.00000E+00
    0.30047E-07         0.15484E-09         0.00000E+00
    0.30049E-07         0.15744E-09         0.00000E+00
    0.30052E-07         0.15958E-09         0.00000E+00
    0.30055E-07         0.16125E-09         0.00000E+00
    0.30058E-07         0.16244E-09         0.00000E+00
    0.30060E-07         0.16315E-09         0.00000E+00
    0.30063E-07         0.16337E-09         0.00000E+00
    0.30066E-07         0.16308E-09         0.00000E+00
    0.30068E-07         0.16229E-09         0.00000E+00
    0.30071E-07         0.16099E-09         0.00000E+00
    0.30074E-07         0.15915E-09         0.00000E+00
    0.30076E-07         0.15678E-09         0.00000E+00
    0.30079E-07         0.15385E-09         0.00000E+00
    0.30081E-07         0.15037E-09         0.00000E+00
    0.30084E-07         0.14631E-09         0.00000E+00
    0.30086E-07         0.14166E-09         0.00000E+00
    0.30088E-07         0.13642E-09         0.00000E+00
    0.30091E-07         0.13056E-09         0.00000E+00
    0.30093E-07         0.12408E-09         0.00000E+00
    0.30095E-07         0.11695E-09         0.00000E+00
    0.30097E-07         0.10917E-09         0.00000E+00
    0.30098E-07         0.10073E-09         0.00000E+00
    0.30100E-07         0.91598E-10         0.00000E+00
    0.30101E-07         0.81774E-10         0.00000E+00
    0.30103E-07         0.71241E-10         0.00000E+00
    0.30104E-07         0.59984E-10         0.00000E+00
    0.30105E-07         0.47991E-10         0.00000E+00
    0.30106E-07         0.35249E-10         0.00000E+00
    0.30106E-07         0.21745E-10         0.00000E+00
    0.30106E-07         0.74662E-11         0.00000E+00
    0.28816E-07         0.54222E-11         0.00000E+00
    0.28817E-07         0.15998E-10         0.00000E+00
    0.28817E-07         0.26173E-10         0.00000E+00
    0.28818E-07         0.35947E-10         0.00000E+00
    0.28819E-07         0.45320E-10         0.00000E+00
    0.28821E-07         0.54293E-10         0.00000E+00
    0.28822E-07         0.62868E-10         0.00000E+00
    0.28824E-07         0.71044E-10         0.00000E+00
    0.28826E-07         0.78821E-10         0.00000E+00
    0.28828E-07         0.86202E-10         0.00000E+00
    0.28830E-07         0.93184E-10         0.00000E+00
    0.28832E-07         0.99767E-10         0.00000E+00
    0.28834E-07         0.10595E-09         0.00000E+00
    0.28837E-07         0.11174E-09         0.00000E+00
    0.28840E-07         0.11712E-09         0.00000E+00
    0.28842E-07         0.12210E-09         0.00000E+00
    0.28845E-07         0.12667E-09         0.00000E+00
    0.28848E-07         0.13083E-09         0.00000E+00
    0.28851E-07         0.13459E-09         0.00000E+00
    0.28853E-07         0.13792E-09         0.00000E+00
    0.28856E-07         0.14083E-09         0.00000E+00
    0.28859E-07         0.14332E-09         0.00000E+00
    0.28862E-07         0.14538E-09         0.00000E+00
    0.28865E-07         0.14700E-09         0.00000E+00
    0.28868E-07         0.14817E-09         0.00000E+00
    0.28871E-07         0.14890E-09         0.00000E+00
    0.28874E-07         0.14916E-09         0.00000E+00
    0.28877E-07         0.14896E-09         0.00000E+00
    0.28880E-07         0.14829E-09         0.00000E+00
    0.28883E-07         0.14713E-09         0.00000E+00
    0.28886E-07         0.14549E-09         0.00000E+00
    0.28889E-07         0.14334E-09         0.00000E+00
    0.28892E-07         0.14067E-09         0.00000E+00
    0.28894E-07         0.13749E-09         0.00000E+00
    0.28897E-07         0.13377E-09         0.00000E+00
    0.28900E-07         0.12952E-09         0.00000E+00
    0.28902E-07         0.12471E-09         0.00000E+00
    0.28904E-07         0.11933E-09         0.00000E+00
    0.28907E-07         0.11338E-09         0.00000E+00
    0.28909E-07         0.10684E-09         0.00000E+00
    0.28911E-07         0.99705E-10         0.00000E+00
    0.28913E-07         0.91961E-10         0.00000E+00
    0.28914E-07         0.83596E-10         0.00000E+00
    0.28916E-07         0.74600E-10         0.00000E+00
    0.28917E-07         0.64963E-10         0.00000E+00
    0.28919E-07         0.54673E-10         0.00000E+00
    0.28920E-07         0.43721E-10         0.00000E+00
    0.28920E-07         0.32096E-10         0.00000E+00
    0.28921E-07         0.19789E-10         0.00000E+00
    0.28921E-07         0.67907E-11         0.00000E+00
    0.27702E-07         0.46549E-11         0.00000E+00
    0.27702E-07         0.13771E-10         0.00000E+00
    0.27703E-07         0.22593E-10         0.00000E+00
    0.27703E-07         0.31116E-10         0.00000E+00
    0.27704E-07         0.39333E-10         0.00000E+00
    0.27706E-07         0.47242E-10         0.00000E+00
    0.27707E-07         0.54837E-10         0.00000E+00
    0.27709E-07         0.62115E-10         0.00000E+00
    0.27711E-07         0.69070E-10         0.00000E+00
    0.27713E-07         0.75699E-10         0.00000E+00
    0.27715E-07         0.81998E-10         0.00000E+00
    0.27717E-07         0.87963E-10         0.00000E+00
    0.27720E-07         0.93589E-10         0.00000E+00
    0.27722E-07         0.98873E-10         0.00000E+00
    0.27725E-07         0.10381E-09         0.00000E+00
    0.27728E-07         0.10839E-09         0.00000E+00
    0.27731E-07         0.11262E-09         0.00000E+00
    0.27734E-07         0.11648E-09         0.00000E+00
    0.27736E-07         0.11998E-09         0.00000E+00
    0.27739E-07         0.12311E-09         0.00000E+00
    0.27742E-07         0.12585E-09         0.00000E+00
    0.27746E-07         0.12821E-09         0.00000E+00
    0.27749E-07         0.13018E-09         0.00000E+00
    0.27752E-07         0.13175E-09         0.00000E+00
    0.27755E-07         0.13292E-09         0.00000E+00
    0.27758E-07         0.13367E-09         0.00000E+00
    0.27761E-07         0.13401E-09         0.00000E+00
    0.27764E-07         0.13391E-09         0.00000E+00
    0.27767E-07         0.13338E-09         0.00000E+00
    0.27770E-07         0.13241E-09         0.00000E+00
    0.27773E-07         0.13099E-09         0.00000E+00
    0.27776E-07         0.12910E-09         0.00000E+00
    0.27779E-07         0.12675E-09         0.00000E+00
    0.27782E-07         0.12392E-09         0.00000E+00
    0.27784E-07         0.12060E-09         0.00000E+00
    0.27787E-07         0.11678E-09         0.00000E+00
    0.27789E-07         0.11246E-09         0.00000E+00
    0.27792E-07         0.10762E-09         0.00000E+00
    0.27794E-07         0.10226E-09         0.00000E+00
    0.27796E-07         0.96361E-10         0.00000E+00
    0.27798E-07         0.89923E-10         0.00000E+00
    0.27800E-07         0.82933E-10         0.00000E+00
    0.27802E-07         0.75382E-10         0.00000E+00
    0.27804E-07         0.67262E-10         0.00000E+00
    0.27805E-07         0.58563E-10         0.00000E+00
    0.27806E-07         0.49278E-10         0.00000E+00
    0.27807E-07         0.39398E-10         0.00000E+00
    0.27808E-07         0.28915E-10         0.00000E+00
    0.27808E-07         0.17823E-10         0.00000E+00
    0.27809E-07         0.61140E-11         0.00000E+00
    0.26665E-07         0.39110E-11         0.00000E+00
    0.26665E-07         0.11606E-10         0.00000E+00
    0.26666E-07         0.19103E-10         0.00000E+00
    0.26667E-07         0.26392E-10         0.00000E+00
    0.26668E-07         0.33464E-10         0.00000E+00
    0.26669E-07         0.40310E-10         0.00000E+00
    0.26671E-07         0.46921E-10         0.00000E+00
    0.26672E-07         0.53291E-10         0.00000E+00
    0.26674E-07         0.59411E-10         0.00000E+00
    0.26676E-07         0.65273E-10         0.00000E+00
    0.26678E-07         0.70871E-10         0.00000E+00
    0.26680E-07         0.76197E-10         0.00000E+00
    0.26683E-07         0.81244E-10         0.00000E+00
    0.26685E-07         0.86005E-10         0.00000E+00
    0.26688E-07         0.90473E-10         0.00000E+00
    0.26691E-07         0.94642E-10         0.00000E+00
    0.26693E-07         0.98504E-10         0.00000E+00
    0.26696E-07         0.10205E-09         0.00000E+00
    0.26699E-07         0.10528E-09         0.00000E+00
    0.26702E-07         0.10818E-09         0.00000E+00
    0.26705E-07         0.11075E-09         0.00000E+00
    0.26708E-07         0.11298E-09         0.00000E+00
    0.26711E-07         0.11485E-09         0.00000E+00
    0.26714E-07         0.11638E-09         0.00000E+00
    0.26717E-07         0.11753E-09         0.00000E+00
    0.26720E-07         0.11832E-09         0.00000E+00
    0.26723E-07         0.11873E-09         0.00000E+00
    0.26726E-07         0.11875E-09         0.00000E+00
    0.26729E-07         0.11838E-09         0.00000E+00
    0.26732E-07         0.11760E-09         0.00000E+00
    0.26735E-07         0.11642E-09         0.00000E+00
    0.26738E-07         0.11481E-09         0.00000E+00
    0.26741E-07         0.11279E-09         0.00000E+00
    0.26743E-07         0.11032E-09         0.00000E+00
    0.26746E-07         0.10742E-09         0.00000E+00
    0.26749E-07         0.10406E-09         0.00000E+00
    0.26751E-07         0.10025E-09         0.00000E+00
    0.26753E-07         0.95966E-10         0.00000E+00
    0.26756E-07         0.91210E-10         0.00000E+00
    0.26758E-07         0.85973E-10         0.00000E+00
    0.26760E-07         0.80245E-10         0.00000E+00
    0.26762E-07         0.74020E-10         0.00000E+00
    0.26763E-07         0.67289E-10         0.00000E+00
    0.26765E-07         0.60047E-10         0.00000E+00
    0.26766E-07         0.52284E-10         0.00000E+00
    0.26767E-07         0.43996E-10         0.00000E+00
    0.26768E-07         0.35176E-10         0.00000E+00
    0.26769E-07         0.25816E-10         0.00000E+00
    0.26769E-07         0.15912E-10         0.00000E+00
    0.26770E-07         0.54581E-11         0.00000E+00
    0.25706E-07         0.32181E-11         0.00000E+00
    0.25706E-07         0.95843E-11         0.00000E+00
    0.25707E-07         0.15836E-10         0.00000E+00
    0.25707E-07         0.21960E-10         0.00000E+00
    0.25708E-07         0.27943E-10         0.00000E+00
    0.25709E-07         0.33775E-10         0.00000E+00
    0.25711E-07         0.39443E-10         0.00000E+00
    0.25712E-07         0.44938E-10         0.00000E+00
    0.25714E-07         0.50248E-10         0.00000E+00
    0.25716E-07         0.55364E-10         0.00000E+00
    0.25718E-07         0.60275E-10         0.00000E+00
    0.25720E-07         0.64973E-10         0.00000E+00
    0.25722E-07         0.69449E-10         0.00000E+00
    0.25725E-07         0.73692E-10         0.00000E+00
    0.25727E-07         0.77696E-10         0.00000E+00
    0.25729E-07         0.81450E-10         0.00000E+00
    0.25732E-07         0.84947E-10         0.00000E+00
    0.25735E-07         0.88178E-10         0.00000E+00
    0.25737E-07         0.91135E-10         0.00000E+00
    0.25740E-07         0.93811E-10         0.00000E+00
    0.25743E-07         0.96196E-10         0.00000E+00
    0.25746E-07         0.98283E-10         0.00000E+00
    0.25749E-07         0.10006E-09         0.00000E+00
    0.25752E-07         0.10153E-09         0.00000E+00
    0.25754E-07         0.10268E-09         0.00000E+00
    0.25757E-07         0.10349E-09         0.00000E+00
    0.25760E-07         0.10397E-09         0.00000E+00
    0.25763E-07         0.10411E-09         0.00000E+00
    0.25766E-07         0.10389E-09         0.00000E+00
    0.25769E-07         0.10331E-09         0.00000E+00
    0.25771E-07         0.10236E-09         0.00000E+00
    0.25774E-07         0.10104E-09         0.00000E+00
    0.25777E-07         0.99331E-10         0.00000E+00
    0.25779E-07         0.97234E-10         0.00000E+00
    0.25782E-07         0.94738E-10         0.00000E+00
    0.25784E-07         0.91836E-10         0.00000E+00
    0.25787E-07         0.88522E-10         0.00000E+00
    0.25789E-07         0.84787E-10         0.00000E+00
    0.25791E-07         0.80625E-10         0.00000E+00
    0.25793E-07         0.76030E-10         0.00000E+00
    0.25795E-07         0.70993E-10         0.00000E+00
    0.25797E-07         0.65510E-10         0.00000E+00
    0.25798E-07         0.59573E-10         0.00000E+00
    0.25800E-07         0.53177E-10         0.00000E+00
    0.25801E-07         0.46315E-10         0.00000E+00
    0.25802E-07         0.38982E-10         0.00000E+00
    0.25803E-07         0.31173E-10         0.00000E+00
    0.25803E-07         0.22883E-10         0.00000E+00
    0.25804E-07         0.14106E-10         0.00000E+00
    0.25804E-07         0.48394E-11         0.00000E+00
    0.24822E-07         0.25954E-11         0.00000E+00
    0.24823E-07         0.77639E-11         0.00000E+00
    0.24823E-07         0.12887E-10         0.00000E+00
    0.24824E-07         0.17950E-10         0.00000E+00
    0.24825E-07         0.22939E-10         0.00000E+00
    0.24826E-07         0.27838E-10         0.00000E+00
    0.24827E-07         0.32636E-10         0.00000E+00
    0.24828E-07         0.37319E-10         0.00000E+00
    0.24830E-07         0.41874E-10         0.00000E+00
    0.24831E-07         0.46291E-10         0.00000E+00
    0.24833E-07         0.50558E-10         0.00000E+00
    0.24835E-07         0.54663E-10         0.00000E+00
    0.24837E-07         0.58596E-10         0.00000E+00
    0.24839E-07         0.62346E-10         0.00000E+00
    0.24841E-07         0.65905E-10         0.00000E+00
    0.24844E-07         0.69260E-10         0.00000E+00
    0.24846E-07         0.72404E-10         0.00000E+00
    0.24848E-07         0.75327E-10         0.00000E+00
    0.24851E-07         0.78019E-10         0.00000E+00
    0.24853E-07         0.80472E-10         0.00000E+00
    0.24856E-07         0.82677E-10         0.00000E+00
    0.24859E-07         0.84626E-10         0.00000E+00
    0.24861E-07         0.86309E-10         0.00000E+00
    0.24864E-07         0.87719E-10         0.00000E+00
    0.24866E-07         0.88847E-10         0.00000E+00
    0.24869E-07         0.89686E-10         0.00000E+00
    0.24872E-07         0.90227E-10         0.00000E+00
    0.24874E-07         0.90463E-10         0.00000E+00
    0.24877E-07         0.90385E-10         0.00000E+00
    0.24879E-07         0.89987E-10         0.00000E+00
    0.24882E-07         0.89261E-10         0.00000E+00
    0.24885E-07         0.88199E-10         0.00000E+00
    0.24887E-07         0.86795E-10         0.00000E+00
    0.24889E-07         0.85041E-10         0.00000E+00
    0.24892E-07         0.82931E-10         0.00000E+00
    0.24894E-07         0.80456E-10         0.00000E+00
    0.24896E-07         0.77612E-10         0.00000E+00
    0.24898E-07         0.74391E-10         0.00000E+00
    0.24900E-07         0.70787E-10         0.00000E+00
    0.24902E-07         0.66794E-10         0.00000E+00
    0.24903E-07         0.62406E-10         0.00000E+00
    0.24905E-07         0.57618E-10         0.00000E+00
    0.24906E-07         0.52423E-10         0.00000E+00
    0.24908E-07         0.46816E-10         0.00000E+00
    0.24909E-07         0.40793E-10         0.00000E+00
    0.24910E-07         0.34348E-10         0.00000E+00
    0.24911E-07         0.27478E-10         0.00000E+00
    0.24911E-07         0.20177E-10         0.00000E+00
    0.24912E-07         0.12442E-10         0.00000E+00
    0.24912E-07         0.42698E-11         0.00000E+00
    0.24013E-07         0.20555E-11         0.00000E+00
    0.24014E-07         0.61819E-11         0.00000E+00
    0.24014E-07         0.10319E-10         0.00000E+00
    0.24015E-07         0.14450E-10         0.00000E+00
    0.24015E-07         0.18560E-10         0.00000E+00
    0.24016E-07         0.22633E-10         0.00000E+00
    0.24017E-07         0.26655E-10         0.00000E+00
    0.24018E-07         0.30611E-10         0.00000E+00
    0.24020E-07         0.34488E-10         0.00000E+00
    0.24021E-07         0.38274E-10         0.00000E+00
    0.24023E-07         0.41955E-10         0.00000E+00
    0.24024E-07         0.45519E-10         0.00000E+00
    0.24026E-07         0.48956E-10         0.00000E+00
    0.24028E-07         0.52252E-10         0.00000E+00
    0.24030E-07         0.55399E-10         0.00000E+00
    0.24032E-07         0.58384E-10         0.00000E+00
    0.24034E-07         0.61198E-10         0.00000E+00
    0.24036E-07         0.63830E-10         0.00000E+00
    0.24038E-07         0.66271E-10         0.00000E+00
    0.24040E-07         0.68512E-10         0.00000E+00
    0.24043E-07         0.70543E-10         0.00000E+00
    0.24045E-07         0.72355E-10         0.00000E+00
    0.24047E-07         0.73939E-10         0.00000E+00
    0.24050E-07         0.75287E-10         0.00000E+00
    0.24052E-07         0.76390E-10         0.00000E+00
    0.24054E-07         0.77241E-10         0.00000E+00
    0.24057E-07         0.77830E-10         0.00000E+00
    0.24059E-07         0.78151E-10         0.00000E+00
    0.24061E-07         0.78196E-10         0.00000E+00
    0.24064E-07         0.77957E-10         0.00000E+00
    0.24066E-07         0.77428E-10         0.00000E+00
    0.24068E-07         0.76600E-10         0.00000E+00
    0.24070E-07         0.75467E-10         0.00000E+00
    0.24072E-07         0.74022E-10         0.00000E+00
    0.24074E-07         0.72259E-10         0.00000E+00
    0.24076E-07         0.70172E-10         0.00000E+00
    0.24078E-07         0.67753E-10         0.00000E+00
    0.24080E-07         0.64997E-10         0.00000E+00
    0.24082E-07         0.61899E-10         0.00000E+00
    0.24083E-07         0.58452E-10         0.00000E+00
    0.24085E-07         0.54652E-10         0.00000E+00
    0.24086E-07         0.50493E-10         0.00000E+00
    0.24088E-07         0.45970E-10         0.00000E+00
    0.24089E-07         0.41078E-10         0.00000E+00
    0.24090E-07         0.35814E-10         0.00000E+00
    0.24091E-07         0.30172E-10         0.00000E+00
    0.24091E-07         0.24149E-10         0.00000E+00
    0.24092E-07         0.17741E-10         0.00000E+00
    0.24092E-07         0.10945E-10         0.00000E+00
    0.24092E-07         0.37578E-11         0.00000E+00
    0.23277E-07         0.16052E-11         0.00000E+00
    0.23278E-07         0.48595E-11         0.00000E+00
    0.23278E-07         0.81669E-11         0.00000E+00
    0.23278E-07         0.11510E-10         0.00000E+00
    0.23279E-07         0.14873E-10         0.00000E+00
    0.23280E-07         0.18239E-10         0.00000E+00
    0.23281E-07         0.21594E-10         0.00000E+00
    0.23282E-07         0.24923E-10         0.00000E+00
    0.23283E-07         0.28212E-10         0.00000E+00
    0.23284E-07         0.31446E-10         0.00000E+00
    0.23285E-07         0.34614E-10         0.00000E+00
    0.23287E-07         0.37702E-10         0.00000E+00
    0.23288E-07         0.40698E-10         0.00000E+00
    0.23290E-07         0.43591E-10         0.00000E+00
    0.23291E-07         0.46368E-10         0.00000E+00
    0.23293E-07         0.49019E-10         0.00000E+00
    0.23295E-07         0.51533E-10         0.00000E+00
    0.23296E-07         0.53900E-10         0.00000E+00
    0.23298E-07         0.56110E-10         0.00000E+00
    0.23300E-07         0.58152E-10         0.00000E+00
    0.23302E-07         0.60018E-10         0.00000E+00
    0.23304E-07         0.61699E-10         0.00000E+00
    0.23306E-07         0.63184E-10         0.00000E+00
    0.23308E-07         0.64466E-10         0.00000E+00
    0.23310E-07         0.65536E-10         0.00000E+00
    0.23312E-07         0.66387E-10         0.00000E+00
    0.23314E-07         0.67009E-10         0.00000E+00
    0.23316E-07         0.67396E-10         0.00000E+00
    0.23318E-07         0.67539E-10         0.00000E+00
    0.23320E-07         0.67432E-10         0.00000E+00
    0.23322E-07         0.67067E-10         0.00000E+00
    0.23324E-07         0.66438E-10         0.00000E+00
    0.23326E-07         0.65537E-10         0.00000E+00
    0.23327E-07         0.64359E-10         0.00000E+00
    0.23329E-07         0.62897E-10         0.00000E+00
    0.23331E-07         0.61145E-10         0.00000E+00
    0.23332E-07         0.59098E-10         0.00000E+00
    0.23334E-07         0.56748E-10         0.00000E+00
    0.23336E-07         0.54092E-10         0.00000E+00
    0.23337E-07         0.51125E-10         0.00000E+00
    0.23338E-07         0.47840E-10         0.00000E+00
    0.23339E-07         0.44233E-10         0.00000E+00
    0.23341E-07         0.40300E-10         0.00000E+00
    0.23342E-07         0.36037E-10         0.00000E+00
    0.23342E-07         0.31439E-10         0.00000E+00
    0.23343E-07         0.26503E-10         0.00000E+00
    0.23344E-07         0.21225E-10         0.00000E+00
    0.23344E-07         0.15602E-10         0.00000E+00
    0.23345E-07         0.96304E-11         0.00000E+00
    0.23345E-07         0.33082E-11         0.00000E+00
    0.22613E-07         0.12470E-11         0.00000E+00
    0.22613E-07         0.38048E-11         0.00000E+00
    0.22613E-07         0.64452E-11         0.00000E+00
    0.22614E-07         0.91509E-11         0.00000E+00
    0.22614E-07         0.11906E-10         0.00000E+00
    0.22615E-07         0.14693E-10         0.00000E+00
    0.22615E-07         0.17499E-10         0.00000E+00
    0.22616E-07         0.20307E-10         0.00000E+00
    0.22617E-07         0.23105E-10         0.00000E+00
    0.22618E-07         0.25877E-10         0.00000E+00
    0.22619E-07         0.28611E-10         0.00000E+00
    0.22620E-07         0.31294E-10         0.00000E+00
    0.22621E-07         0.33913E-10         0.00000E+00
    0.22622E-07         0.36458E-10         0.00000E+00
    0.22624E-07         0.38915E-10         0.00000E+00
    0.22625E-07         0.41274E-10         0.00000E+00
    0.22626E-07         0.43524E-10         0.00000E+00
    0.22628E-07         0.45655E-10         0.00000E+00
    0.22629E-07         0.47656E-10         0.00000E+00
    0.22631E-07         0.49518E-10         0.00000E+00
    0.22633E-07         0.51231E-10         0.00000E+00
    0.22634E-07         0.52787E-10         0.00000E+00
    0.22636E-07         0.54175E-10         0.00000E+00
    0.22637E-07         0.55388E-10         0.00000E+00
    0.22639E-07         0.56417E-10         0.00000E+00
    0.22641E-07         0.57254E-10         0.00000E+00
    0.22642E-07         0.57892E-10         0.00000E+00
    0.22644E-07         0.58322E-10         0.00000E+00
    0.22646E-07         0.58538E-10         0.00000E+00
    0.22647E-07         0.58532E-10         0.00000E+00
    0.22649E-07         0.58297E-10         0.00000E+00
    0.22650E-07         0.57827E-10         0.00000E+00
    0.22652E-07         0.57116E-10         0.00000E+00
    0.22653E-07         0.56156E-10         0.00000E+00
    0.22655E-07         0.54943E-10         0.00000E+00
    0.22656E-07         0.53470E-10         0.00000E+00
    0.22658E-07         0.51732E-10         0.00000E+00
    0.22659E-07         0.49724E-10         0.00000E+00
    0.22660E-07         0.47441E-10         0.00000E+00
    0.22661E-07         0.44877E-10         0.00000E+00
    0.22663E-07         0.42028E-10         0.00000E+00
    0.22664E-07         0.38891E-10         0.00000E+00
    0.22665E-07         0.35459E-10         0.00000E+00
    0.22665E-07         0.31731E-10         0.00000E+00
    0.22666E-07         0.27701E-10         0.00000E+00
    0.22667E-07         0.23367E-10         0.00000E+00
    0.22667E-07         0.18725E-10         0.00000E+00
    0.22668E-07         0.13772E-10         0.00000E+00
    0.22668E-07         0.85058E-11         0.00000E+00
    0.22668E-07         0.29236E-11         0.00000E+00
    0.22018E-07         0.98029E-12         0.00000E+00
    0.22018E-07         0.30161E-11         0.00000E+00
    0.22018E-07         0.51521E-11         0.00000E+00
    0.22019E-07         0.73716E-11         0.00000E+00
    0.22019E-07         0.96586E-11         0.00000E+00
    0.22019E-07         0.11997E-10         0.00000E+00
    0.22020E-07         0.14373E-10         0.00000E+00
    0.22020E-07         0.16771E-10         0.00000E+00
    0.22021E-07         0.19178E-10         0.00000E+00
    0.22022E-07         0.21580E-10         0.00000E+00
    0.22023E-07         0.23963E-10         0.00000E+00
    0.22023E-07         0.26316E-10         0.00000E+00
    0.22024E-07         0.28626E-10         0.00000E+00
    0.22025E-07         0.30882E-10         0.00000E+00
    0.22026E-07         0.33071E-10         0.00000E+00
    0.22027E-07         0.35183E-10         0.00000E+00
    0.22028E-07         0.37208E-10         0.00000E+00
    0.22029E-07         0.39134E-10         0.00000E+00
    0.22031E-07         0.40953E-10         0.00000E+00
    0.22032E-07         0.42654E-10         0.00000E+00
    0.22033E-07         0.44229E-10         0.00000E+00
    0.22034E-07         0.45668E-10         0.00000E+00
    0.22035E-07         0.46962E-10         0.00000E+00
    0.22037E-07         0.48103E-10         0.00000E+00
    0.22038E-07         0.49084E-10         0.00000E+00
    0.22039E-07         0.49895E-10         0.00000E+00
    0.22041E-07         0.50531E-10         0.00000E+00
    0.22042E-07         0.50982E-10         0.00000E+00
    0.22043E-07         0.51243E-10         0.00000E+00
    0.22044E-07         0.51306E-10         0.00000E+00
    0.22046E-07         0.51164E-10         0.00000E+00
    0.22047E-07         0.50813E-10         0.00000E+00
    0.22048E-07         0.50244E-10         0.00000E+00
    0.22049E-07         0.49453E-10         0.00000E+00
    0.22051E-07         0.48434E-10         0.00000E+00
    0.22052E-07         0.47181E-10         0.00000E+00
    0.22053E-07         0.45689E-10         0.00000E+00
    0.22054E-07         0.43954E-10         0.00000E+00
    0.22055E-07         0.41970E-10         0.00000E+00
    0.22056E-07         0.39733E-10         0.00000E+00
    0.22057E-07         0.37238E-10         0.00000E+00
    0.22058E-07         0.34482E-10         0.00000E+00
    0.22058E-07         0.31461E-10         0.00000E+00
    0.22059E-07         0.28170E-10         0.00000E+00
    0.22060E-07         0.24608E-10         0.00000E+00
    0.22060E-07         0.20769E-10         0.00000E+00
    0.22060E-07         0.16653E-10         0.00000E+00
    0.22061E-07         0.12254E-10         0.00000E+00
    0.22061E-07         0.75723E-11         0.00000E+00
    0.22061E-07         0.26041E-11         0.00000E+00
    0.21492E-07         0.80160E-12         0.00000E+00
    0.21492E-07         0.24842E-11         0.00000E+00
    0.21492E-07         0.42738E-11         0.00000E+00
    0.21492E-07         0.61546E-11         0.00000E+00
    0.21492E-07         0.81111E-11         0.00000E+00
    0.21493E-07         0.10129E-10         0.00000E+00
    0.21493E-07         0.12193E-10         0.00000E+00
    0.21493E-07         0.14290E-10         0.00000E+00
    0.21494E-07         0.16406E-10         0.00000E+00
    0.21494E-07         0.18529E-10         0.00000E+00
    0.21495E-07         0.20645E-10         0.00000E+00
    0.21495E-07         0.22744E-10         0.00000E+00
    0.21496E-07         0.24812E-10         0.00000E+00
    0.21496E-07         0.26839E-10         0.00000E+00
    0.21497E-07         0.28814E-10         0.00000E+00
    0.21498E-07         0.30726E-10         0.00000E+00
    0.21499E-07         0.32565E-10         0.00000E+00
    0.21499E-07         0.34320E-10         0.00000E+00
    0.21500E-07         0.35984E-10         0.00000E+00
    0.21501E-07         0.37545E-10         0.00000E+00
    0.21502E-07         0.38996E-10         0.00000E+00
    0.21503E-07         0.40328E-10         0.00000E+00
    0.21504E-07         0.41531E-10         0.00000E+00
    0.21505E-07         0.42600E-10         0.00000E+00
    0.21505E-07         0.43524E-10         0.00000E+00
    0.21506E-07         0.44298E-10         0.00000E+00
    0.21507E-07         0.44914E-10         0.00000E+00
    0.21508E-07         0.45364E-10         0.00000E+00
    0.21509E-07         0.45643E-10         0.00000E+00
    0.21510E-07         0.45743E-10         0.00000E+00
    0.21511E-07         0.45658E-10         0.00000E+00
    0.21512E-07         0.45383E-10         0.00000E+00
    0.21513E-07         0.44912E-10         0.00000E+00
    0.21514E-07         0.44239E-10         0.00000E+00
    0.21515E-07         0.43359E-10         0.00000E+00
    0.21516E-07         0.42266E-10         0.00000E+00
    0.21516E-07         0.40956E-10         0.00000E+00
    0.21517E-07         0.39425E-10         0.00000E+00
    0.21518E-07         0.37667E-10         0.00000E+00
    0.21519E-07         0.35679E-10         0.00000E+00
    0.21519E-07         0.33456E-10         0.00000E+00
    0.21520E-07         0.30995E-10         0.00000E+00
    0.21521E-07         0.28293E-10         0.00000E+00
    0.21521E-07         0.25345E-10         0.00000E+00
    0.21522E-07         0.22149E-10         0.00000E+00
    0.21522E-07         0.18702E-10         0.00000E+00
    0.21522E-07         0.15000E-10         0.00000E+00
    0.21523E-07         0.11043E-10         0.00000E+00
    0.21523E-07         0.68260E-11         0.00000E+00
    0.21523E-07         0.23483E-11         0.00000E+00
    0.21032E-07         0.70588E-12         0.00000E+00
    0.21032E-07         0.21946E-11         0.00000E+00
    0.21032E-07         0.37874E-11         0.00000E+00
    0.21032E-07         0.54696E-11         0.00000E+00
    0.21032E-07         0.72268E-11         0.00000E+00
    0.21033E-07         0.90452E-11         0.00000E+00
    0.21033E-07         0.10911E-10         0.00000E+00
    0.21033E-07         0.12812E-10         0.00000E+00
    0.21033E-07         0.14735E-10         0.00000E+00
    0.21033E-07         0.16667E-10         0.00000E+00
    0.21034E-07         0.18598E-10         0.00000E+00
    0.21034E-07         0.20516E-10         0.00000E+00
    0.21034E-07         0.22409E-10         0.00000E+00
    0.21035E-07         0.24267E-10         0.00000E+00
    0.21035E-07         0.26080E-10         0.00000E+00
    0.21035E-07         0.27837E-10         0.00000E+00
    0.21036E-07         0.29530E-10         0.00000E+00
    0.21036E-07         0.31148E-10         0.00000E+00
    0.21037E-07         0.32683E-10         0.00000E+00
    0.21037E-07         0.34126E-10         0.00000E+00
    0.21038E-07         0.35469E-10         0.00000E+00
    0.21038E-07         0.36703E-10         0.00000E+00
    0.21039E-07         0.37821E-10         0.00000E+00
    0.21040E-07         0.38815E-10         0.00000E+00
    0.21040E-07         0.39678E-10         0.00000E+00
    0.21041E-07         0.40403E-10         0.00000E+00
    0.21041E-07         0.40983E-10         0.00000E+00
    0.21042E-07         0.41411E-10         0.00000E+00
    0.21043E-07         0.41681E-10         0.00000E+00
    0.21043E-07         0.41788E-10         0.00000E+00
    0.21044E-07         0.41725E-10         0.00000E+00
    0.21045E-07         0.41486E-10         0.00000E+00
    0.21045E-07         0.41067E-10         0.00000E+00
    0.21046E-07         0.40463E-10         0.00000E+00
    0.21046E-07         0.39668E-10         0.00000E+00
    0.21047E-07         0.38677E-10         0.00000E+00
    0.21048E-07         0.37487E-10         0.00000E+00
    0.21048E-07         0.36092E-10         0.00000E+00
    0.21049E-07         0.34490E-10         0.00000E+00
    0.21049E-07         0.32675E-10         0.00000E+00
    0.21050E-07         0.30645E-10         0.00000E+00
    0.21050E-07         0.28395E-10         0.00000E+00
    0.21051E-07         0.25923E-10         0.00000E+00
    0.21051E-07         0.23225E-10         0.00000E+00
    0.21051E-07         0.20299E-10         0.00000E+00
    0.21052E-07         0.17142E-10         0.00000E+00
    0.21052E-07         0.13751E-10         0.00000E+00
    0.21052E-07         0.10124E-10         0.00000E+00
    0.21052E-07         0.62586E-11         0.00000E+00
    0.21052E-07         0.21533E-11         0.00000E+00
    0.20638E-07         0.68684E-12         0.00000E+00
    0.20638E-07         0.21292E-11         0.00000E+00
    0.20638E-07         0.36642E-11         0.00000E+00
    0.20638E-07         0.52783E-11         0.00000E+00
    0.20638E-07         0.69584E-11         0.00000E+00
    0.20638E-07         0.86918E-11         0.00000E+00
    0.20638E-07         0.10466E-10         0.00000E+00
    0.20638E-07         0.12269E-10         0.00000E+00
    0.20638E-07         0.14090E-10         0.00000E+00
    0.20638E-07         0.15917E-10         0.00000E+00
    0.20638E-07         0.17739E-10         0.00000E+00
    0.20638E-07         0.19546E-10         0.00000E+00
    0.20639E-07         0.21327E-10         0.00000E+00
    0.20639E-07         0.23073E-10         0.00000E+00
    0.20639E-07         0.24775E-10         0.00000E+00
    0.20639E-07         0.26422E-10         0.00000E+00
    0.20639E-07         0.28007E-10         0.00000E+00
    0.20639E-07         0.29520E-10         0.00000E+00
    0.20639E-07         0.30953E-10         0.00000E+00
    0.20640E-07         0.32299E-10         0.00000E+00
    0.20640E-07         0.33549E-10         0.00000E+00
    0.20640E-07         0.34696E-10         0.00000E+00
    0.20640E-07         0.35733E-10         0.00000E+00
    0.20641E-07         0.36652E-10         0.00000E+00
    0.20641E-07         0.37448E-10         0.00000E+00
    0.20641E-07         0.38113E-10         0.00000E+00
    0.20641E-07         0.38642E-10         0.00000E+00
    0.20642E-07         0.39028E-10         0.00000E+00
    0.20642E-07         0.39266E-10         0.00000E+00
    0.20642E-07         0.39349E-10         0.00000E+00
    0.20643E-07         0.39274E-10         0.00000E+00
    0.20643E-07         0.39035E-10         0.00000E+00
    0.20644E-07         0.38626E-10         0.00000E+00
    0.20644E-07         0.38043E-10         0.00000E+00
    0.20644E-07         0.37283E-10         0.00000E+00
    0.20645E-07         0.36339E-10         0.00000E+00
    0.20645E-07         0.35209E-10         0.00000E+00
    0.20645E-07         0.33888E-10         0.00000E+00
    0.20646E-07         0.32373E-10         0.00000E+00
    0.20646E-07         0.30661E-10         0.00000E+00
    0.20646E-07         0.28747E-10         0.00000E+00
    0.20646E-07         0.26629E-10         0.00000E+00
    0.20647E-07         0.24304E-10         0.00000E+00
    0.20647E-07         0.21769E-10         0.00000E+00
    0.20647E-07         0.19021E-10         0.00000E+00
    0.20647E-07         0.16058E-10         0.00000E+00
    0.20648E-07         0.12878E-10         0.00000E+00
    0.20648E-07         0.94793E-11         0.00000E+00
    0.20648E-07         0.58588E-11         0.00000E+00
    0.20648E-07         0.20153E-11         0.00000E+00
    0.20309E-07         0.73739E-12         0.00000E+00
    0.20309E-07         0.22674E-11         0.00000E+00
    0.20309E-07         0.38712E-11         0.00000E+00
    0.20309E-07         0.55364E-11         0.00000E+00
    0.20309E-07         0.72513E-11         0.00000E+00
    0.20308E-07         0.90045E-11         0.00000E+00
    0.20308E-07         0.10785E-10         0.00000E+00
    0.20308E-07         0.12582E-10         0.00000E+00
    0.20308E-07         0.14384E-10         0.00000E+00
    0.20308E-07         0.16183E-10         0.00000E+00
    0.20308E-07         0.17968E-10         0.00000E+00
    0.20308E-07         0.19729E-10         0.00000E+00
    0.20307E-07         0.21458E-10         0.00000E+00
    0.20307E-07         0.23145E-10         0.00000E+00
    0.20307E-07         0.24782E-10         0.00000E+00
    0.20307E-07         0.26361E-10         0.00000E+00
    0.20307E-07         0.27874E-10         0.00000E+00
    0.20307E-07         0.29312E-10         0.00000E+00
    0.20307E-07         0.30669E-10         0.00000E+00
    0.20307E-07         0.31937E-10         0.00000E+00
    0.20307E-07         0.33109E-10         0.00000E+00
    0.20307E-07         0.34179E-10         0.00000E+00
    0.20306E-07         0.35139E-10         0.00000E+00
    0.20306E-07         0.35984E-10         0.00000E+00
    0.20306E-07         0.36708E-10         0.00000E+00
    0.20306E-07         0.37305E-10         0.00000E+00
    0.20307E-07         0.37769E-10         0.00000E+00
    0.20307E-07         0.38095E-10         0.00000E+00
    0.20307E-07         0.38278E-10         0.00000E+00
    0.20307E-07         0.38312E-10         0.00000E+00
    0.20307E-07         0.38194E-10         0.00000E+00
    0.20307E-07         0.37918E-10         0.00000E+00
    0.20307E-07         0.37480E-10         0.00000E+00
    0.20307E-07         0.36876E-10         0.00000E+00
    0.20307E-07         0.36102E-10         0.00000E+00
    0.20307E-07         0.35155E-10         0.00000E+00
    0.20307E-07         0.34030E-10         0.00000E+00
    0.20308E-07         0.32724E-10         0.00000E+00
    0.20308E-07         0.31235E-10         0.00000E+00
    0.20308E-07         0.29558E-10         0.00000E+00
    0.20308E-07         0.27691E-10         0.00000E+00
    0.20308E-07         0.25631E-10         0.00000E+00
    0.20308E-07         0.23375E-10         0.00000E+00
    0.20308E-07         0.20922E-10         0.00000E+00
    0.20308E-07         0.18269E-10         0.00000E+00
    0.20309E-07         0.15413E-10         0.00000E+00
    0.20309E-07         0.12353E-10         0.00000E+00
    0.20309E-07         0.90867E-11         0.00000E+00
    0.20309E-07         0.56127E-11         0.00000E+00
    0.20309E-07         0.19294E-11         0.00000E+00
    0.20043E-07         0.85001E-12         0.00000E+00
    0.20043E-07         0.25875E-11         0.00000E+00
    0.20042E-07         0.43732E-11         0.00000E+00
    0.20042E-07         0.61963E-11         0.00000E+00
    0.20042E-07         0.80465E-11         0.00000E+00
    0.20042E-07         0.99138E-11         0.00000E+00
    0.20042E-07         0.11788E-10         0.00000E+00
    0.20041E-07         0.13661E-10         0.00000E+00
    0.20041E-07         0.15522E-10         0.00000E+00
    0.20041E-07         0.17363E-10         0.00000E+00
    0.20040E-07         0.19175E-10         0.00000E+00
    0.20040E-07         0.20950E-10         0.00000E+00
    0.20040E-07         0.22680E-10         0.00000E+00
    0.20039E-07         0.24356E-10         0.00000E+00
    0.20039E-07         0.25973E-10         0.00000E+00
    0.20039E-07         0.27521E-10         0.00000E+00
    0.20038E-07         0.28994E-10         0.00000E+00
    0.20038E-07         0.30386E-10         0.00000E+00
    0.20038E-07         0.31689E-10         0.00000E+00
    0.20037E-07         0.32898E-10         0.00000E+00
    0.20037E-07         0.34006E-10         0.00000E+00
    0.20037E-07         0.35007E-10         0.00000E+00
    0.20036E-07         0.35896E-10         0.00000E+00
    0.20036E-07         0.36667E-10         0.00000E+00
    0.20036E-07         0.37316E-10         0.00000E+00
    0.20036E-07         0.37836E-10         0.00000E+00
    0.20035E-07         0.38223E-10         0.00000E+00
    0.20035E-07         0.38472E-10         0.00000E+00
    0.20035E-07         0.38579E-10         0.00000E+00
    0.20035E-07         0.38540E-10         0.00000E+00
    0.20035E-07         0.38351E-10         0.00000E+00
    0.20035E-07         0.38007E-10         0.00000E+00
    0.20034E-07         0.37504E-10         0.00000E+00
    0.20034E-07         0.36840E-10         0.00000E+00
    0.20034E-07         0.36011E-10         0.00000E+00
    0.20034E-07         0.35013E-10         0.00000E+00
    0.20034E-07         0.33843E-10         0.00000E+00
    0.20034E-07         0.32500E-10         0.00000E+00
    0.20034E-07         0.30978E-10         0.00000E+00
    0.20034E-07         0.29277E-10         0.00000E+00
    0.20034E-07         0.27393E-10         0.00000E+00
    0.20034E-07         0.25325E-10         0.00000E+00
    0.20034E-07         0.23070E-10         0.00000E+00
    0.20034E-07         0.20625E-10         0.00000E+00
    0.20034E-07         0.17990E-10         0.00000E+00
    0.20034E-07         0.15162E-10         0.00000E+00
    0.20034E-07         0.12139E-10         0.00000E+00
    0.20034E-07         0.89206E-11         0.00000E+00
    0.20034E-07         0.55048E-11         0.00000E+00
    0.20034E-07         0.18904E-11         0.00000E+00
    0.19839E-07         0.10170E-11         0.00000E+00
    0.19839E-07         0.30669E-11         0.00000E+00
    0.19839E-07         0.51338E-11         0.00000E+00
    0.19838E-07         0.72087E-11         0.00000E+00
    0.19838E-07         0.92826E-11         0.00000E+00
    0.19838E-07         0.11347E-10         0.00000E+00
    0.19837E-07         0.13394E-10         0.00000E+00
    0.19837E-07         0.15414E-10         0.00000E+00
    0.19837E-07         0.17401E-10         0.00000E+00
    0.19836E-07         0.19347E-10         0.00000E+00
    0.19836E-07         0.21243E-10         0.00000E+00
    0.19835E-07         0.23084E-10         0.00000E+00
    0.19835E-07         0.24863E-10         0.00000E+00
    0.19834E-07         0.26572E-10         0.00000E+00
    0.19834E-07         0.28205E-10         0.00000E+00
    0.19833E-07         0.29757E-10         0.00000E+00
    0.19833E-07         0.31220E-10         0.00000E+00
    0.19832E-07         0.32590E-10         0.00000E+00
    0.19831E-07         0.33861E-10         0.00000E+00
    0.19831E-07         0.35026E-10         0.00000E+00
    0.19830E-07         0.36083E-10         0.00000E+00
    0.19830E-07         0.37024E-10         0.00000E+00
    0.19829E-07         0.37846E-10         0.00000E+00
    0.19829E-07         0.38543E-10         0.00000E+00
    0.19828E-07         0.39112E-10         0.00000E+00
    0.19828E-07         0.39548E-10         0.00000E+00
    0.19827E-07         0.39848E-10         0.00000E+00
    0.19827E-07         0.40006E-10         0.00000E+00
    0.19827E-07         0.40020E-10         0.00000E+00
    0.19826E-07         0.39886E-10         0.00000E+00
    0.19826E-07         0.39600E-10         0.00000E+00
    0.19826E-07         0.39159E-10         0.00000E+00
    0.19825E-07         0.38561E-10         0.00000E+00
    0.19825E-07         0.37802E-10         0.00000E+00
    0.19825E-07         0.36879E-10         0.00000E+00
    0.19824E-07         0.35790E-10         0.00000E+00
    0.19824E-07         0.34531E-10         0.00000E+00
    0.19824E-07         0.33102E-10         0.00000E+00
    0.19824E-07         0.31499E-10         0.00000E+00
    0.19824E-07         0.29721E-10         0.00000E+00
    0.19823E-07         0.27764E-10         0.00000E+00
    0.19823E-07         0.25629E-10         0.00000E+00
    0.19823E-07         0.23311E-10         0.00000E+00
    0.19823E-07         0.20811E-10         0.00000E+00
    0.19823E-07         0.18127E-10         0.00000E+00
    0.19823E-07         0.15257E-10         0.00000E+00
    0.19823E-07         0.12199E-10         0.00000E+00
    0.19823E-07         0.89534E-11         0.00000E+00
    0.19823E-07         0.55181E-11         0.00000E+00
    0.19823E-07         0.18925E-11         0.00000E+00
    0.19697E-07         0.12305E-11         0.00000E+00
    0.19697E-07         0.36828E-11         0.00000E+00
    0.19697E-07         0.61164E-11         0.00000E+00
    0.19696E-07         0.85236E-11         0.00000E+00
    0.19696E-07         0.10897E-10         0.00000E+00
    0.19696E-07         0.13230E-10         0.00000E+00
    0.19695E-07         0.15515E-10         0.00000E+00
    0.19695E-07         0.17747E-10         0.00000E+00
    0.19694E-07         0.19917E-10         0.00000E+00
    0.19694E-07         0.22021E-10         0.00000E+00
    0.19693E-07         0.24052E-10         0.00000E+00
    0.19692E-07         0.26004E-10         0.00000E+00
    0.19692E-07         0.27872E-10         0.00000E+00
    0.19691E-07         0.29651E-10         0.00000E+00
    0.19690E-07         0.31334E-10         0.00000E+00
    0.19690E-07         0.32918E-10         0.00000E+00
    0.19689E-07         0.34397E-10         0.00000E+00
    0.19688E-07         0.35766E-10         0.00000E+00
    0.19687E-07         0.37022E-10         0.00000E+00
    0.19687E-07         0.38159E-10         0.00000E+00
    0.19686E-07         0.39174E-10         0.00000E+00
    0.19685E-07         0.40062E-10         0.00000E+00
    0.19685E-07         0.40820E-10         0.00000E+00
    0.19684E-07         0.41444E-10         0.00000E+00
    0.19683E-07         0.41931E-10         0.00000E+00
    0.19683E-07         0.42277E-10         0.00000E+00
    0.19682E-07         0.42479E-10         0.00000E+00
    0.19681E-07         0.42534E-10         0.00000E+00
    0.19681E-07         0.42439E-10         0.00000E+00
    0.19680E-07         0.42191E-10         0.00000E+00
    0.19680E-07         0.41787E-10         0.00000E+00
    0.19679E-07         0.41226E-10         0.00000E+00
    0.19679E-07         0.40504E-10         0.00000E+00
    0.19678E-07         0.39620E-10         0.00000E+00
    0.19678E-07         0.38570E-10         0.00000E+00
    0.19677E-07         0.37354E-10         0.00000E+00
    0.19677E-07         0.35969E-10         0.00000E+00
    0.19677E-07         0.34413E-10         0.00000E+00
    0.19676E-07         0.32686E-10         0.00000E+00
    0.19676E-07         0.30784E-10         0.00000E+00
    0.19676E-07         0.28707E-10         0.00000E+00
    0.19676E-07         0.26453E-10         0.00000E+00
    0.19675E-07         0.24022E-10         0.00000E+00
    0.19675E-07         0.21411E-10         0.00000E+00
    0.19675E-07         0.18620E-10         0.00000E+00
    0.19675E-07         0.15647E-10         0.00000E+00
    0.19675E-07         0.12493E-10         0.00000E+00
    0.19675E-07         0.91557E-11         0.00000E+00
    0.19675E-07         0.56348E-11         0.00000E+00
    0.19675E-07         0.19296E-11         0.00000E+00
    0.19616E-07         0.14829E-11         0.00000E+00
    0.19616E-07         0.44128E-11         0.00000E+00
    0.19616E-07         0.72840E-11         0.00000E+00
    0.19616E-07         0.10091E-10         0.00000E+00
    0.19615E-07         0.12827E-10         0.00000E+00
    0.19615E-07         0.15488E-10         0.00000E+00
    0.19614E-07         0.18068E-10         0.00000E+00
    0.19614E-07         0.20562E-10         0.00000E+00
    0.19613E-07         0.22964E-10         0.00000E+00
    0.19612E-07         0.25271E-10         0.00000E+00
    0.19612E-07         0.27477E-10         0.00000E+00
    0.19611E-07         0.29578E-10         0.00000E+00
    0.19610E-07         0.31570E-10         0.00000E+00
    0.19609E-07         0.33449E-10         0.00000E+00
    0.19608E-07         0.35210E-10         0.00000E+00
    0.19608E-07         0.36850E-10         0.00000E+00
    0.19607E-07         0.38365E-10         0.00000E+00
    0.19606E-07         0.39751E-10         0.00000E+00
    0.19605E-07         0.41006E-10         0.00000E+00
    0.19604E-07         0.42126E-10         0.00000E+00
    0.19603E-07         0.43108E-10         0.00000E+00
    0.19602E-07         0.43949E-10         0.00000E+00
    0.19602E-07         0.44646E-10         0.00000E+00
    0.19601E-07         0.45197E-10         0.00000E+00
    0.19600E-07         0.45599E-10         0.00000E+00
    0.19599E-07         0.45849E-10         0.00000E+00
    0.19598E-07         0.45946E-10         0.00000E+00
    0.19598E-07         0.45886E-10         0.00000E+00
    0.19597E-07         0.45669E-10         0.00000E+00
    0.19596E-07         0.45291E-10         0.00000E+00
    0.19595E-07         0.44752E-10         0.00000E+00
    0.19595E-07         0.44049E-10         0.00000E+00
    0.19594E-07         0.43180E-10         0.00000E+00
    0.19594E-07         0.42145E-10         0.00000E+00
    0.19593E-07         0.40942E-10         0.00000E+00
    0.19593E-07         0.39569E-10         0.00000E+00
    0.19592E-07         0.38026E-10         0.00000E+00
    0.19592E-07         0.36310E-10         0.00000E+00
    0.19591E-07         0.34421E-10         0.00000E+00
    0.19591E-07         0.32358E-10         0.00000E+00
    0.19590E-07         0.30121E-10         0.00000E+00
    0.19590E-07         0.27707E-10         0.00000E+00
    0.19590E-07         0.25117E-10         0.00000E+00
    0.19590E-07         0.22350E-10         0.00000E+00
    0.19589E-07         0.19404E-10         0.00000E+00
    0.19589E-07         0.16281E-10         0.00000E+00
    0.19589E-07         0.12979E-10         0.00000E+00
    0.19589E-07         0.94972E-11         0.00000E+00
    0.19589E-07         0.58361E-11         0.00000E+00
    0.19589E-07         0.19954E-11         0.00000E+00
    0.19596E-07         0.17666E-11         0.00000E+00
    0.19596E-07         0.52342E-11         0.00000E+00
    0.19596E-07         0.86001E-11         0.00000E+00
    0.19596E-07         0.11860E-10         0.00000E+00
    0.19595E-07         0.15010E-10         0.00000E+00
    0.19595E-07         0.18047E-10         0.00000E+00
    0.19594E-07         0.20966E-10         0.00000E+00
    0.19594E-07         0.23763E-10         0.00000E+00
    0.19593E-07         0.26436E-10         0.00000E+00
    0.19592E-07         0.28982E-10         0.00000E+00
    0.19591E-07         0.31395E-10         0.00000E+00
    0.19591E-07         0.33675E-10         0.00000E+00
    0.19590E-07         0.35818E-10         0.00000E+00
    0.19589E-07         0.37820E-10         0.00000E+00
    0.19588E-07         0.39680E-10         0.00000E+00
    0.19587E-07         0.41395E-10         0.00000E+00
    0.19586E-07         0.42962E-10         0.00000E+00
    0.19585E-07         0.44380E-10         0.00000E+00
    0.19584E-07         0.45645E-10         0.00000E+00
    0.19583E-07         0.46757E-10         0.00000E+00
    0.19582E-07         0.47712E-10         0.00000E+00
    0.19581E-07         0.48510E-10         0.00000E+00
    0.19580E-07         0.49148E-10         0.00000E+00
    0.19579E-07         0.49624E-10         0.00000E+00
    0.19578E-07         0.49938E-10         0.00000E+00
    0.19577E-07         0.50087E-10         0.00000E+00
    0.19576E-07         0.50071E-10         0.00000E+00
    0.19575E-07         0.49888E-10         0.00000E+00
    0.19575E-07         0.49537E-10         0.00000E+00
    0.19574E-07         0.49017E-10         0.00000E+00
    0.19573E-07         0.48327E-10         0.00000E+00
    0.19572E-07         0.47466E-10         0.00000E+00
    0.19572E-07         0.46432E-10         0.00000E+00
    0.19571E-07         0.45227E-10         0.00000E+00
    0.19570E-07         0.43847E-10         0.00000E+00
    0.19570E-07         0.42294E-10         0.00000E+00
    0.19569E-07         0.40567E-10         0.00000E+00
    0.19568E-07         0.38664E-10         0.00000E+00
    0.19568E-07         0.36586E-10         0.00000E+00
    0.19568E-07         0.34332E-10         0.00000E+00
    0.19567E-07         0.31902E-10         0.00000E+00
    0.19567E-07         0.29295E-10         0.00000E+00
    0.19566E-07         0.26512E-10         0.00000E+00
    0.19566E-07         0.23552E-10         0.00000E+00
    0.19566E-07         0.20416E-10         0.00000E+00
    0.19566E-07         0.17103E-10         0.00000E+00
    0.19566E-07         0.13613E-10         0.00000E+00
    0.19565E-07         0.99463E-11         0.00000E+00
    0.19565E-07         0.61030E-11         0.00000E+00
    0.19565E-07         0.20833E-11         0.00000E+00
    0.19638E-07         0.20739E-11         0.00000E+00
    0.19637E-07         0.61248E-11         0.00000E+00
    0.19637E-07         0.10028E-10         0.00000E+00
    0.19637E-07         0.13782E-10         0.00000E+00
    0.19636E-07         0.17384E-10         0.00000E+00
    0.19636E-07         0.20832E-10         0.00000E+00
    0.19635E-07         0.24122E-10         0.00000E+00
    0.19635E-07         0.27255E-10         0.00000E+00
    0.19634E-07         0.30226E-10         0.00000E+00
    0.19633E-07         0.33036E-10         0.00000E+00
    0.19632E-07         0.35681E-10         0.00000E+00
    0.19631E-07         0.38161E-10         0.00000E+00
    0.19630E-07         0.40473E-10         0.00000E+00
    0.19629E-07         0.42617E-10         0.00000E+00
    0.19628E-07         0.44592E-10         0.00000E+00
    0.19627E-07         0.46395E-10         0.00000E+00
    0.19626E-07         0.48025E-10         0.00000E+00
    0.19625E-07         0.49483E-10         0.00000E+00
    0.19624E-07         0.50766E-10         0.00000E+00
    0.19623E-07         0.51875E-10         0.00000E+00
    0.19622E-07         0.52807E-10         0.00000E+00
    0.19621E-07         0.53563E-10         0.00000E+00
    0.19620E-07         0.54142E-10         0.00000E+00
    0.19619E-07         0.54543E-10         0.00000E+00
    0.19618E-07         0.54766E-10         0.00000E+00
    0.19617E-07         0.54811E-10         0.00000E+00
    0.19616E-07         0.54676E-10         0.00000E+00
    0.19615E-07         0.54362E-10         0.00000E+00
    0.19614E-07         0.53869E-10         0.00000E+00
    0.19613E-07         0.53196E-10         0.00000E+00
    0.19612E-07         0.52343E-10         0.00000E+00
    0.19611E-07         0.51311E-10         0.00000E+00
    0.19611E-07         0.50099E-10         0.00000E+00
    0.19610E-07         0.48707E-10         0.00000E+00
    0.19609E-07         0.47135E-10         0.00000E+00
    0.19609E-07         0.45384E-10         0.00000E+00
    0.19608E-07         0.43453E-10         0.00000E+00
    0.19607E-07         0.41343E-10         0.00000E+00
    0.19607E-07         0.39055E-10         0.00000E+00
    0.19606E-07         0.36588E-10         0.00000E+00
    0.19606E-07         0.33943E-10         0.00000E+00
    0.19605E-07         0.31120E-10         0.00000E+00
    0.19605E-07         0.28119E-10         0.00000E+00
    0.19605E-07         0.24941E-10         0.00000E+00
    0.19605E-07         0.21587E-10         0.00000E+00
    0.19604E-07         0.18057E-10         0.00000E+00
    0.19604E-07         0.14351E-10         0.00000E+00
    0.19604E-07         0.10471E-10         0.00000E+00
    0.19604E-07         0.64157E-11         0.00000E+00
    0.19604E-07         0.21867E-11         0.00000E+00
    0.19740E-07         0.23972E-11         0.00000E+00
    0.19740E-07         0.70622E-11         0.00000E+00
    0.19739E-07         0.11532E-10         0.00000E+00
    0.19739E-07         0.15807E-10         0.00000E+00
    0.19739E-07         0.19886E-10         0.00000E+00
    0.19738E-07         0.23767E-10         0.00000E+00
    0.19737E-07         0.27452E-10         0.00000E+00
    0.19737E-07         0.30938E-10         0.00000E+00
    0.19736E-07         0.34227E-10         0.00000E+00
    0.19735E-07         0.37317E-10         0.00000E+00
    0.19734E-07         0.40208E-10         0.00000E+00
    0.19733E-07         0.42901E-10         0.00000E+00
    0.19732E-07         0.45395E-10         0.00000E+00
    0.19731E-07         0.47691E-10         0.00000E+00
    0.19730E-07         0.49787E-10         0.00000E+00
    0.19729E-07         0.51686E-10         0.00000E+00
    0.19728E-07         0.53386E-10         0.00000E+00
    0.19727E-07         0.54889E-10         0.00000E+00
    0.19726E-07         0.56193E-10         0.00000E+00
    0.19725E-07         0.57301E-10         0.00000E+00
    0.19724E-07         0.58212E-10         0.00000E+00
    0.19723E-07         0.58926E-10         0.00000E+00
    0.19721E-07         0.59445E-10         0.00000E+00
    0.19720E-07         0.59769E-10         0.00000E+00
    0.19719E-07         0.59898E-10         0.00000E+00
    0.19718E-07         0.59833E-10         0.00000E+00
    0.19717E-07         0.59575E-10         0.00000E+00
    0.19716E-07         0.59125E-10         0.00000E+00
    0.19715E-07         0.58483E-10         0.00000E+00
    0.19714E-07         0.57650E-10         0.00000E+00
    0.19713E-07         0.56626E-10         0.00000E+00
    0.19713E-07         0.55414E-10         0.00000E+00
    0.19712E-07         0.54013E-10         0.00000E+00
    0.19711E-07         0.52424E-10         0.00000E+00
    0.19710E-07         0.50649E-10         0.00000E+00
    0.19710E-07         0.48689E-10         0.00000E+00
    0.19709E-07         0.46543E-10         0.00000E+00
    0.19708E-07         0.44214E-10         0.00000E+00
    0.19708E-07         0.41702E-10         0.00000E+00
    0.19707E-07         0.39009E-10         0.00000E+00
    0.19707E-07         0.36134E-10         0.00000E+00
    0.19706E-07         0.33080E-10         0.00000E+00
    0.19706E-07         0.29847E-10         0.00000E+00
    0.19706E-07         0.26437E-10         0.00000E+00
    0.19705E-07         0.22849E-10         0.00000E+00
    0.19705E-07         0.19086E-10         0.00000E+00
    0.19705E-07         0.15149E-10         0.00000E+00
    0.19705E-07         0.11038E-10         0.00000E+00
    0.19705E-07         0.67538E-11         0.00000E+00
    0.19705E-07         0.22987E-11         0.00000E+00
    0.19903E-07         0.27290E-11         0.00000E+00
    0.19903E-07         0.80241E-11         0.00000E+00
    0.19903E-07         0.13075E-10         0.00000E+00
    0.19903E-07         0.17884E-10         0.00000E+00
    0.19902E-07         0.22451E-10         0.00000E+00
    0.19902E-07         0.26778E-10         0.00000E+00
    0.19901E-07         0.30865E-10         0.00000E+00
    0.19900E-07         0.34714E-10         0.00000E+00
    0.19899E-07         0.38327E-10         0.00000E+00
    0.19899E-07         0.41704E-10         0.00000E+00
    0.19898E-07         0.44847E-10         0.00000E+00
    0.19897E-07         0.47758E-10         0.00000E+00
    0.19896E-07         0.50437E-10         0.00000E+00
    0.19895E-07         0.52887E-10         0.00000E+00
    0.19894E-07         0.55109E-10         0.00000E+00
    0.19893E-07         0.57104E-10         0.00000E+00
    0.19892E-07         0.58874E-10         0.00000E+00
    0.19890E-07         0.60422E-10         0.00000E+00
    0.19889E-07         0.61747E-10         0.00000E+00
    0.19888E-07         0.62853E-10         0.00000E+00
    0.19887E-07         0.63741E-10         0.00000E+00
    0.19886E-07         0.64412E-10         0.00000E+00
    0.19885E-07         0.64868E-10         0.00000E+00
    0.19884E-07         0.65111E-10         0.00000E+00
    0.19883E-07         0.65143E-10         0.00000E+00
    0.19882E-07         0.64965E-10         0.00000E+00
    0.19881E-07         0.64580E-10         0.00000E+00
    0.19880E-07         0.63989E-10         0.00000E+00
    0.19879E-07         0.63193E-10         0.00000E+00
    0.19878E-07         0.62195E-10         0.00000E+00
    0.19877E-07         0.60997E-10         0.00000E+00
    0.19876E-07         0.59599E-10         0.00000E+00
    0.19875E-07         0.58005E-10         0.00000E+00
    0.19874E-07         0.56215E-10         0.00000E+00
    0.19874E-07         0.54232E-10         0.00000E+00
    0.19873E-07         0.52057E-10         0.00000E+00
    0.19872E-07         0.49691E-10         0.00000E+00
    0.19872E-07         0.47138E-10         0.00000E+00
    0.19871E-07         0.44397E-10         0.00000E+00
    0.19871E-07         0.41472E-10         0.00000E+00
    0.19870E-07         0.38364E-10         0.00000E+00
    0.19870E-07         0.35074E-10         0.00000E+00
    0.19869E-07         0.31604E-10         0.00000E+00
    0.19869E-07         0.27956E-10         0.00000E+00
    0.19869E-07         0.24131E-10         0.00000E+00
    0.19869E-07         0.20131E-10         0.00000E+00
    0.19868E-07         0.15958E-10         0.00000E+00
    0.19868E-07         0.11612E-10         0.00000E+00
    0.19868E-07         0.70967E-11         0.00000E+00
    0.19868E-07         0.24121E-11         0.00000E+00
    0.20129E-07         0.30614E-11         0.00000E+00
    0.20129E-07         0.89872E-11         0.00000E+00
    0.20129E-07         0.14620E-10         0.00000E+00
    0.20128E-07         0.19961E-10         0.00000E+00
    0.20128E-07         0.25016E-10         0.00000E+00
    0.20127E-07         0.29785E-10         0.00000E+00
    0.20127E-07         0.34273E-10         0.00000E+00
    0.20126E-07         0.38482E-10         0.00000E+00
    0.20125E-07         0.42415E-10         0.00000E+00
    0.20124E-07         0.46075E-10         0.00000E+00
    0.20123E-07         0.49466E-10         0.00000E+00
    0.20123E-07         0.52590E-10         0.00000E+00
    0.20122E-07         0.55450E-10         0.00000E+00
    0.20121E-07         0.58049E-10         0.00000E+00
    0.20120E-07         0.60391E-10         0.00000E+00
    0.20118E-07         0.62478E-10         0.00000E+00
    0.20117E-07         0.64314E-10         0.00000E+00
    0.20116E-07         0.65901E-10         0.00000E+00
    0.20115E-07         0.67243E-10         0.00000E+00
    0.20114E-07         0.68342E-10         0.00000E+00
    0.20113E-07         0.69202E-10         0.00000E+00
    0.20112E-07         0.69825E-10         0.00000E+00
    0.20111E-07         0.70214E-10         0.00000E+00
    0.20110E-07         0.70373E-10         0.00000E+00
    0.20109E-07         0.70304E-10         0.00000E+00
    0.20108E-07         0.70011E-10         0.00000E+00
    0.20107E-07         0.69495E-10         0.00000E+00
    0.20106E-07         0.68761E-10         0.00000E+00
    0.20105E-07         0.67810E-10         0.00000E+00
    0.20104E-07         0.66645E-10         0.00000E+00
    0.20103E-07         0.65270E-10         0.00000E+00
    0.20102E-07         0.63687E-10         0.00000E+00
    0.20102E-07         0.61899E-10         0.00000E+00
    0.20101E-07         0.59908E-10         0.00000E+00
    0.20100E-07         0.57718E-10         0.00000E+00
    0.20100E-07         0.55329E-10         0.00000E+00
    0.20099E-07         0.52746E-10         0.00000E+00
    0.20098E-07         0.49971E-10         0.00000E+00
    0.20098E-07         0.47005E-10         0.00000E+00
    0.20097E-07         0.43853E-10         0.00000E+00
    0.20097E-07         0.40515E-10         0.00000E+00
    0.20097E-07         0.36994E-10         0.00000E+00
    0.20096E-07         0.33294E-10         0.00000E+00
    0.20096E-07         0.29415E-10         0.00000E+00
    0.20096E-07         0.25360E-10         0.00000E+00
    0.20095E-07         0.21131E-10         0.00000E+00
    0.20095E-07         0.16730E-10         0.00000E+00
    0.20095E-07         0.12160E-10         0.00000E+00
    0.20095E-07         0.74229E-11         0.00000E+00
    0.20095E-07         0.25198E-11         0.00000E+00
    0.20418E-07         0.33863E-11         0.00000E+00
    0.20417E-07         0.99276E-11         0.00000E+00
    0.20417E-07         0.16126E-10         0.00000E+00
    0.20417E-07         0.21985E-10         0.00000E+00
    0.20416E-07         0.27511E-10         0.00000E+00
    0.20416E-07         0.32708E-10         0.00000E+00
    0.20415E-07         0.37581E-10         0.00000E+00
    0.20415E-07         0.42135E-10         0.00000E+00
    0.20414E-07         0.46374E-10         0.00000E+00
    0.20413E-07         0.50303E-10         0.00000E+00
    0.20412E-07         0.53927E-10         0.00000E+00
    0.20411E-07         0.57251E-10         0.00000E+00
    0.20410E-07         0.60278E-10         0.00000E+00
    0.20409E-07         0.63015E-10         0.00000E+00
    0.20408E-07         0.65465E-10         0.00000E+00
    0.20407E-07         0.67632E-10         0.00000E+00
    0.20406E-07         0.69522E-10         0.00000E+00
    0.20405E-07         0.71140E-10         0.00000E+00
    0.20404E-07         0.72488E-10         0.00000E+00
    0.20403E-07         0.73572E-10         0.00000E+00
    0.20402E-07         0.74396E-10         0.00000E+00
    0.20401E-07         0.74965E-10         0.00000E+00
    0.20400E-07         0.75282E-10         0.00000E+00
    0.20399E-07         0.75352E-10         0.00000E+00
    0.20399E-07         0.75178E-10         0.00000E+00
    0.20398E-07         0.74766E-10         0.00000E+00
    0.20397E-07         0.74118E-10         0.00000E+00
    0.20396E-07         0.73239E-10         0.00000E+00
    0.20395E-07         0.72134E-10         0.00000E+00
    0.20394E-07         0.70804E-10         0.00000E+00
    0.20393E-07         0.69255E-10         0.00000E+00
    0.20393E-07         0.67490E-10         0.00000E+00
    0.20392E-07         0.65513E-10         0.00000E+00
    0.20391E-07         0.63327E-10         0.00000E+00
    0.20391E-07         0.60936E-10         0.00000E+00
    0.20390E-07         0.58343E-10         0.00000E+00
    0.20390E-07         0.55552E-10         0.00000E+00
    0.20389E-07         0.52565E-10         0.00000E+00
    0.20389E-07         0.49387E-10         0.00000E+00
    0.20388E-07         0.46020E-10         0.00000E+00
    0.20388E-07         0.42467E-10         0.00000E+00
    0.20387E-07         0.38732E-10         0.00000E+00
    0.20387E-07         0.34817E-10         0.00000E+00
    0.20387E-07         0.30725E-10         0.00000E+00
    0.20387E-07         0.26459E-10         0.00000E+00
    0.20386E-07         0.22022E-10         0.00000E+00
    0.20386E-07         0.17417E-10         0.00000E+00
    0.20386E-07         0.12645E-10         0.00000E+00
    0.20386E-07         0.77102E-11         0.00000E+00
    0.20386E-07         0.26142E-11         0.00000E+00
    0.20770E-07         0.36951E-11         0.00000E+00
    0.20770E-07         0.10820E-10         0.00000E+00
    0.20770E-07         0.17553E-10         0.00000E+00
    0.20769E-07         0.23899E-10         0.00000E+00
    0.20769E-07         0.29867E-10         0.00000E+00
    0.20768E-07         0.35462E-10         0.00000E+00
    0.20768E-07         0.40692E-10         0.00000E+00
    0.20767E-07         0.45563E-10         0.00000E+00
    0.20767E-07         0.50081E-10         0.00000E+00
    0.20766E-07         0.54254E-10         0.00000E+00
    0.20765E-07         0.58086E-10         0.00000E+00
    0.20764E-07         0.61586E-10         0.00000E+00
    0.20763E-07         0.64759E-10         0.00000E+00
    0.20763E-07         0.67612E-10         0.00000E+00
    0.20762E-07         0.70150E-10         0.00000E+00
    0.20761E-07         0.72381E-10         0.00000E+00
    0.20760E-07         0.74309E-10         0.00000E+00
    0.20759E-07         0.75940E-10         0.00000E+00
    0.20758E-07         0.77282E-10         0.00000E+00
    0.20757E-07         0.78339E-10         0.00000E+00
    0.20756E-07         0.79117E-10         0.00000E+00
    0.20755E-07         0.79622E-10         0.00000E+00
    0.20755E-07         0.79859E-10         0.00000E+00
    0.20754E-07         0.79834E-10         0.00000E+00
    0.20753E-07         0.79552E-10         0.00000E+00
    0.20752E-07         0.79018E-10         0.00000E+00
    0.20751E-07         0.78238E-10         0.00000E+00
    0.20751E-07         0.77216E-10         0.00000E+00
    0.20750E-07         0.75958E-10         0.00000E+00
    0.20749E-07         0.74468E-10         0.00000E+00
    0.20748E-07         0.72752E-10         0.00000E+00
    0.20748E-07         0.70813E-10         0.00000E+00
    0.20747E-07         0.68657E-10         0.00000E+00
    0.20747E-07         0.66288E-10         0.00000E+00
    0.20746E-07         0.63710E-10         0.00000E+00
    0.20746E-07         0.60928E-10         0.00000E+00
    0.20745E-07         0.57946E-10         0.00000E+00
    0.20745E-07         0.54767E-10         0.00000E+00
    0.20744E-07         0.51397E-10         0.00000E+00
    0.20744E-07         0.47838E-10         0.00000E+00
    0.20744E-07         0.44095E-10         0.00000E+00
    0.20744E-07         0.40171E-10         0.00000E+00
    0.20743E-07         0.36070E-10         0.00000E+00
    0.20743E-07         0.31796E-10         0.00000E+00
    0.20743E-07         0.27351E-10         0.00000E+00
    0.20743E-07         0.22740E-10         0.00000E+00
    0.20743E-07         0.17965E-10         0.00000E+00
    0.20743E-07         0.13029E-10         0.00000E+00
    0.20743E-07         0.79355E-11         0.00000E+00
    0.20743E-07         0.26874E-11         0.00000E+00
    0.21188E-07         0.39788E-11         0.00000E+00
    0.21188E-07         0.11638E-10         0.00000E+00
    0.21187E-07         0.18857E-10         0.00000E+00
    0.21187E-07         0.25644E-10         0.00000E+00
    0.21187E-07         0.32007E-10         0.00000E+00
    0.21186E-07         0.37957E-10         0.00000E+00
    0.21186E-07         0.43501E-10         0.00000E+00
    0.21185E-07         0.48648E-10         0.00000E+00
    0.21185E-07         0.53407E-10         0.00000E+00
    0.21184E-07         0.57785E-10         0.00000E+00
    0.21183E-07         0.61792E-10         0.00000E+00
    0.21183E-07         0.65434E-10         0.00000E+00
    0.21182E-07         0.68722E-10         0.00000E+00
    0.21181E-07         0.71661E-10         0.00000E+00
    0.21180E-07         0.74261E-10         0.00000E+00
    0.21180E-07         0.76528E-10         0.00000E+00
    0.21179E-07         0.78471E-10         0.00000E+00
    0.21178E-07         0.80097E-10         0.00000E+00
    0.21177E-07         0.81413E-10         0.00000E+00
    0.21177E-07         0.82427E-10         0.00000E+00
    0.21176E-07         0.83145E-10         0.00000E+00
    0.21175E-07         0.83575E-10         0.00000E+00
    0.21175E-07         0.83723E-10         0.00000E+00
    0.21174E-07         0.83596E-10         0.00000E+00
    0.21173E-07         0.83202E-10         0.00000E+00
    0.21173E-07         0.82545E-10         0.00000E+00
    0.21172E-07         0.81633E-10         0.00000E+00
    0.21171E-07         0.80471E-10         0.00000E+00
    0.21171E-07         0.79066E-10         0.00000E+00
    0.21170E-07         0.77424E-10         0.00000E+00
    0.21170E-07         0.75551E-10         0.00000E+00
    0.21169E-07         0.73452E-10         0.00000E+00
    0.21169E-07         0.71132E-10         0.00000E+00
    0.21169E-07         0.68598E-10         0.00000E+00
    0.21168E-07         0.65854E-10         0.00000E+00
    0.21168E-07         0.62906E-10         0.00000E+00
    0.21168E-07         0.59758E-10         0.00000E+00
    0.21167E-07         0.56415E-10         0.00000E+00
    0.21167E-07         0.52883E-10         0.00000E+00
    0.21167E-07         0.49166E-10         0.00000E+00
    0.21167E-07         0.45268E-10         0.00000E+00
    0.21166E-07         0.41194E-10         0.00000E+00
    0.21166E-07         0.36947E-10         0.00000E+00
    0.21166E-07         0.32533E-10         0.00000E+00
    0.21166E-07         0.27954E-10         0.00000E+00
    0.21166E-07         0.23216E-10         0.00000E+00
    0.21166E-07         0.18320E-10         0.00000E+00
    0.21166E-07         0.13272E-10         0.00000E+00
    0.21166E-07         0.80749E-11         0.00000E+00
    0.21166E-07         0.27314E-11         0.00000E+00
    0.21672E-07         0.42277E-11         0.00000E+00
    0.21672E-07         0.12353E-10         0.00000E+00
    0.21672E-07         0.19991E-10         0.00000E+00
    0.21672E-07         0.27154E-10         0.00000E+00
    0.21672E-07         0.33852E-10         0.00000E+00
    0.21671E-07         0.40096E-10         0.00000E+00
    0.21671E-07         0.45897E-10         0.00000E+00
    0.21670E-07         0.51265E-10         0.00000E+00
    0.21670E-07         0.56212E-10         0.00000E+00
    0.21669E-07         0.60747E-10         0.00000E+00
    0.21669E-07         0.64880E-10         0.00000E+00
    0.21668E-07         0.68622E-10         0.00000E+00
    0.21668E-07         0.71982E-10         0.00000E+00
    0.21667E-07         0.74970E-10         0.00000E+00
    0.21667E-07         0.77596E-10         0.00000E+00
    0.21666E-07         0.79869E-10         0.00000E+00
    0.21665E-07         0.81797E-10         0.00000E+00
    0.21665E-07         0.83391E-10         0.00000E+00
    0.21664E-07         0.84658E-10         0.00000E+00
    0.21664E-07         0.85609E-10         0.00000E+00
    0.21663E-07         0.86250E-10         0.00000E+00
    0.21663E-07         0.86591E-10         0.00000E+00
    0.21662E-07         0.86640E-10         0.00000E+00
    0.21662E-07         0.86404E-10         0.00000E+00
    0.21661E-07         0.85892E-10         0.00000E+00
    0.21661E-07         0.85111E-10         0.00000E+00
    0.21660E-07         0.84069E-10         0.00000E+00
    0.21660E-07         0.82773E-10         0.00000E+00
    0.21660E-07         0.81231E-10         0.00000E+00
    0.21659E-07         0.79448E-10         0.00000E+00
    0.21659E-07         0.77433E-10         0.00000E+00
    0.21659E-07         0.75191E-10         0.00000E+00
    0.21659E-07         0.72730E-10         0.00000E+00
    0.21658E-07         0.70055E-10         0.00000E+00
    0.21658E-07         0.67173E-10         0.00000E+00
    0.21658E-07         0.64089E-10         0.00000E+00
    0.21658E-07         0.60810E-10         0.00000E+00
    0.21658E-07         0.57341E-10         0.00000E+00
    0.21658E-07         0.53688E-10         0.00000E+00
    0.21658E-07         0.49855E-10         0.00000E+00
    0.21658E-07         0.45849E-10         0.00000E+00
    0.21658E-07         0.41673E-10         0.00000E+00
    0.21658E-07         0.37334E-10         0.00000E+00
    0.21658E-07         0.32835E-10         0.00000E+00
    0.21658E-07         0.28182E-10         0.00000E+00
    0.21658E-07         0.23378E-10         0.00000E+00
    0.21658E-07         0.18427E-10         0.00000E+00
    0.21658E-07         0.13334E-10         0.00000E+00
    0.21658E-07         0.81033E-11         0.00000E+00
    0.21658E-07         0.27376E-11         0.00000E+00
    0.22226E-07         0.44310E-11         0.00000E+00
    0.22226E-07         0.12933E-10         0.00000E+00
    0.22226E-07         0.20905E-10         0.00000E+00
    0.22225E-07         0.28361E-10         0.00000E+00
    0.22225E-07         0.35313E-10         0.00000E+00
    0.22225E-07         0.41775E-10         0.00000E+00
    0.22225E-07         0.47760E-10         0.00000E+00
    0.22224E-07         0.53281E-10         0.00000E+00
    0.22224E-07         0.58349E-10         0.00000E+00
    0.22224E-07         0.62978E-10         0.00000E+00
    0.22223E-07         0.67180E-10         0.00000E+00
    0.22223E-07         0.70965E-10         0.00000E+00
    0.22222E-07         0.74347E-10         0.00000E+00
    0.22222E-07         0.77336E-10         0.00000E+00
    0.22222E-07         0.79944E-10         0.00000E+00
    0.22221E-07         0.82182E-10         0.00000E+00
    0.22221E-07         0.84060E-10         0.00000E+00
    0.22221E-07         0.85589E-10         0.00000E+00
    0.22220E-07         0.86780E-10         0.00000E+00
    0.22220E-07         0.87643E-10         0.00000E+00
    0.22220E-07         0.88187E-10         0.00000E+00
    0.22220E-07         0.88423E-10         0.00000E+00
    0.22219E-07         0.88360E-10         0.00000E+00
    0.22219E-07         0.88008E-10         0.00000E+00
    0.22219E-07         0.87374E-10         0.00000E+00
    0.22219E-07         0.86470E-10         0.00000E+00
    0.22219E-07         0.85302E-10         0.00000E+00
    0.22219E-07         0.83879E-10         0.00000E+00
    0.22218E-07         0.82211E-10         0.00000E+00
    0.22218E-07         0.80304E-10         0.00000E+00
    0.22218E-07         0.78166E-10         0.00000E+00
    0.22218E-07         0.75806E-10         0.00000E+00
    0.22218E-07         0.73230E-10         0.00000E+00
    0.22218E-07         0.70447E-10         0.00000E+00
    0.22218E-07         0.67462E-10         0.00000E+00
    0.22219E-07         0.64282E-10         0.00000E+00
    0.22219E-07         0.60915E-10         0.00000E+00
    0.22219E-07         0.57367E-10         0.00000E+00
    0.22219E-07         0.53643E-10         0.00000E+00
    0.22219E-07         0.49750E-10         0.00000E+00
    0.22219E-07         0.45694E-10         0.00000E+00
    0.22219E-07         0.41480E-10         0.00000E+00
    0.22219E-07         0.37114E-10         0.00000E+00
    0.22219E-07         0.32600E-10         0.00000E+00
    0.22219E-07         0.27944E-10         0.00000E+00
    0.22220E-07         0.23151E-10         0.00000E+00
    0.22220E-07         0.18226E-10         0.00000E+00
    0.22220E-07         0.13172E-10         0.00000E+00
    0.22220E-07         0.79944E-11         0.00000E+00
    0.22220E-07         0.26971E-11         0.00000E+00
    0.22850E-07         0.45776E-11         0.00000E+00
    0.22850E-07         0.13345E-10         0.00000E+00
    0.22850E-07         0.21544E-10         0.00000E+00
    0.22850E-07         0.29190E-10         0.00000E+00
    0.22850E-07         0.36298E-10         0.00000E+00
    0.22849E-07         0.42884E-10         0.00000E+00
    0.22849E-07         0.48963E-10         0.00000E+00
    0.22849E-07         0.54550E-10         0.00000E+00
    0.22849E-07         0.59660E-10         0.00000E+00
    0.22849E-07         0.64307E-10         0.00000E+00
    0.22849E-07         0.68505E-10         0.00000E+00
    0.22848E-07         0.72267E-10         0.00000E+00
    0.22848E-07         0.75608E-10         0.00000E+00
    0.22848E-07         0.78541E-10         0.00000E+00
    0.22848E-07         0.81079E-10         0.00000E+00
    0.22848E-07         0.83234E-10         0.00000E+00
    0.22848E-07         0.85019E-10         0.00000E+00
    0.22848E-07         0.86446E-10         0.00000E+00
    0.22848E-07         0.87527E-10         0.00000E+00
    0.22848E-07         0.88274E-10         0.00000E+00
    0.22848E-07         0.88699E-10         0.00000E+00
    0.22848E-07         0.88811E-10         0.00000E+00
    0.22848E-07         0.88623E-10         0.00000E+00
    0.22848E-07         0.88145E-10         0.00000E+00
    0.22848E-07         0.87387E-10         0.00000E+00
    0.22848E-07         0.86359E-10         0.00000E+00
    0.22849E-07         0.85071E-10         0.00000E+00
    0.22849E-07         0.83533E-10         0.00000E+00
    0.22849E-07         0.81754E-10         0.00000E+00
    0.22849E-07         0.79743E-10         0.00000E+00
    0.22850E-07         0.77509E-10         0.00000E+00
    0.22850E-07         0.75060E-10         0.00000E+00
    0.22850E-07         0.72404E-10         0.00000E+00
    0.22851E-07         0.69551E-10         0.00000E+00
    0.22851E-07         0.66507E-10         0.00000E+00
    0.22851E-07         0.63281E-10         0.00000E+00
    0.22852E-07         0.59879E-10         0.00000E+00
    0.22852E-07         0.56308E-10         0.00000E+00
    0.22852E-07         0.52576E-10         0.00000E+00
    0.22853E-07         0.48690E-10         0.00000E+00
    0.22853E-07         0.44654E-10         0.00000E+00
    0.22853E-07         0.40477E-10         0.00000E+00
    0.22853E-07         0.36163E-10         0.00000E+00
    0.22854E-07         0.31718E-10         0.00000E+00
    0.22854E-07         0.27149E-10         0.00000E+00
    0.22854E-07         0.22459E-10         0.00000E+00
    0.22854E-07         0.17655E-10         0.00000E+00
    0.22854E-07         0.12741E-10         0.00000E+00
    0.22855E-07         0.77211E-11         0.00000E+00
    0.22855E-07         0.26007E-11         0.00000E+00
    0.23547E-07         0.46550E-11         0.00000E+00
    0.23547E-07         0.13554E-10         0.00000E+00
    0.23547E-07         0.21850E-10         0.00000E+00
    0.23547E-07         0.29561E-10         0.00000E+00
    0.23547E-07         0.36706E-10         0.00000E+00
    0.23547E-07         0.43303E-10         0.00000E+00
    0.23547E-07         0.49368E-10         0.00000E+00
    0.23547E-07         0.54920E-10         0.00000E+00
    0.23547E-07         0.59975E-10         0.00000E+00
    0.23547E-07         0.64548E-10         0.00000E+00
    0.23547E-07         0.68658E-10         0.00000E+00
    0.23547E-07         0.72318E-10         0.00000E+00
    0.23548E-07         0.75546E-10         0.00000E+00
    0.23548E-07         0.78355E-10         0.00000E+00
    0.23548E-07         0.80761E-10         0.00000E+00
    0.23548E-07         0.82778E-10         0.00000E+00
    0.23548E-07         0.84420E-10         0.00000E+00
    0.23549E-07         0.85701E-10         0.00000E+00
    0.23549E-07         0.86635E-10         0.00000E+00
    0.23549E-07         0.87234E-10         0.00000E+00
    0.23550E-07         0.87512E-10         0.00000E+00
    0.23550E-07         0.87481E-10         0.00000E+00
    0.23551E-07         0.87153E-10         0.00000E+00
    0.23551E-07         0.86540E-10         0.00000E+00
    0.23552E-07         0.85654E-10         0.00000E+00
    0.23552E-07         0.84506E-10         0.00000E+00
    0.23553E-07         0.83106E-10         0.00000E+00
    0.23554E-07         0.81466E-10         0.00000E+00
    0.23554E-07         0.79596E-10         0.00000E+00
    0.23555E-07         0.77506E-10         0.00000E+00
    0.23555E-07         0.75206E-10         0.00000E+00
    0.23556E-07         0.72705E-10         0.00000E+00
    0.23557E-07         0.70012E-10         0.00000E+00
    0.23557E-07         0.67136E-10         0.00000E+00
    0.23558E-07         0.64086E-10         0.00000E+00
    0.23559E-07         0.60870E-10         0.00000E+00
    0.23559E-07         0.57496E-10         0.00000E+00
    0.23560E-07         0.53972E-10         0.00000E+00
    0.23560E-07         0.50306E-10         0.00000E+00
    0.23561E-07         0.46504E-10         0.00000E+00
    0.23562E-07         0.42574E-10         0.00000E+00
    0.23562E-07         0.38522E-10         0.00000E+00
    0.23563E-07         0.34354E-10         0.00000E+00
    0.23563E-07         0.30077E-10         0.00000E+00
    0.23563E-07         0.25698E-10         0.00000E+00
    0.23564E-07         0.21220E-10         0.00000E+00
    0.23564E-07         0.16650E-10         0.00000E+00
    0.23564E-07         0.11994E-10         0.00000E+00
    0.23564E-07         0.72549E-11         0.00000E+00
    0.23564E-07         0.24387E-11         0.00000E+00
    0.24320E-07         0.46500E-11         0.00000E+00
    0.24320E-07         0.13519E-10         0.00000E+00
    0.24320E-07         0.21758E-10         0.00000E+00
    0.24320E-07         0.29389E-10         0.00000E+00
    0.24321E-07         0.36430E-10         0.00000E+00
    0.24321E-07         0.42904E-10         0.00000E+00
    0.24321E-07         0.48830E-10         0.00000E+00
    0.24321E-07         0.54226E-10         0.00000E+00
    0.24321E-07         0.59113E-10         0.00000E+00
    0.24322E-07         0.63508E-10         0.00000E+00
    0.24322E-07         0.67430E-10         0.00000E+00
    0.24323E-07         0.70897E-10         0.00000E+00
    0.24323E-07         0.73926E-10         0.00000E+00
    0.24323E-07         0.76534E-10         0.00000E+00
    0.24324E-07         0.78737E-10         0.00000E+00
    0.24325E-07         0.80552E-10         0.00000E+00
    0.24325E-07         0.81995E-10         0.00000E+00
    0.24326E-07         0.83080E-10         0.00000E+00
    0.24327E-07         0.83823E-10         0.00000E+00
    0.24328E-07         0.84239E-10         0.00000E+00
    0.24328E-07         0.84341E-10         0.00000E+00
    0.24329E-07         0.84144E-10         0.00000E+00
    0.24330E-07         0.83660E-10         0.00000E+00
    0.24331E-07         0.82904E-10         0.00000E+00
    0.24332E-07         0.81888E-10         0.00000E+00
    0.24333E-07         0.80624E-10         0.00000E+00
    0.24334E-07         0.79124E-10         0.00000E+00
    0.24335E-07         0.77400E-10         0.00000E+00
    0.24336E-07         0.75463E-10         0.00000E+00
    0.24337E-07         0.73324E-10         0.00000E+00
    0.24338E-07         0.70995E-10         0.00000E+00
    0.24339E-07         0.68484E-10         0.00000E+00
    0.24340E-07         0.65803E-10         0.00000E+00
    0.24341E-07         0.62961E-10         0.00000E+00
    0.24342E-07         0.59966E-10         0.00000E+00
    0.24343E-07         0.56829E-10         0.00000E+00
    0.24344E-07         0.53557E-10         0.00000E+00
    0.24345E-07         0.50160E-10         0.00000E+00
    0.24346E-07         0.46644E-10         0.00000E+00
    0.24347E-07         0.43019E-10         0.00000E+00
    0.24348E-07         0.39291E-10         0.00000E+00
    0.24349E-07         0.35467E-10         0.00000E+00
    0.24349E-07         0.31555E-10         0.00000E+00
    0.24350E-07         0.27561E-10         0.00000E+00
    0.24350E-07         0.23491E-10         0.00000E+00
    0.24351E-07         0.19351E-10         0.00000E+00
    0.24351E-07         0.15146E-10         0.00000E+00
    0.24352E-07         0.10883E-10         0.00000E+00
    0.24352E-07         0.65667E-11         0.00000E+00
    0.24352E-07         0.22013E-11         0.00000E+00
    0.25172E-07         0.45484E-11         0.00000E+00
    0.25172E-07         0.13200E-10         0.00000E+00
    0.25172E-07         0.21204E-10         0.00000E+00
    0.25172E-07         0.28581E-10         0.00000E+00
    0.25173E-07         0.35357E-10         0.00000E+00
    0.25173E-07         0.41553E-10         0.00000E+00
    0.25173E-07         0.47192E-10         0.00000E+00
    0.25174E-07         0.52296E-10         0.00000E+00
    0.25174E-07         0.56885E-10         0.00000E+00
    0.25175E-07         0.60980E-10         0.00000E+00
    0.25176E-07         0.64603E-10         0.00000E+00
    0.25177E-07         0.67771E-10         0.00000E+00
    0.25177E-07         0.70505E-10         0.00000E+00
    0.25178E-07         0.72823E-10         0.00000E+00
    0.25179E-07         0.74744E-10         0.00000E+00
    0.25180E-07         0.76286E-10         0.00000E+00
    0.25181E-07         0.77465E-10         0.00000E+00
    0.25183E-07         0.78299E-10         0.00000E+00
    0.25184E-07         0.78804E-10         0.00000E+00
    0.25185E-07         0.78996E-10         0.00000E+00
    0.25186E-07         0.78890E-10         0.00000E+00
    0.25188E-07         0.78503E-10         0.00000E+00
    0.25189E-07         0.77848E-10         0.00000E+00
    0.25190E-07         0.76940E-10         0.00000E+00
    0.25192E-07         0.75792E-10         0.00000E+00
    0.25193E-07         0.74419E-10         0.00000E+00
    0.25195E-07         0.72832E-10         0.00000E+00
    0.25196E-07         0.71045E-10         0.00000E+00
    0.25198E-07         0.69071E-10         0.00000E+00
    0.25199E-07         0.66920E-10         0.00000E+00
    0.25201E-07         0.64604E-10         0.00000E+00
    0.25202E-07         0.62135E-10         0.00000E+00
    0.25204E-07         0.59523E-10         0.00000E+00
    0.25205E-07         0.56778E-10         0.00000E+00
    0.25207E-07         0.53910E-10         0.00000E+00
    0.25208E-07         0.50930E-10         0.00000E+00
    0.25210E-07         0.47845E-10         0.00000E+00
    0.25211E-07         0.44666E-10         0.00000E+00
    0.25212E-07         0.41400E-10         0.00000E+00
    0.25213E-07         0.38056E-10         0.00000E+00
    0.25214E-07         0.34642E-10         0.00000E+00
    0.25215E-07         0.31164E-10         0.00000E+00
    0.25216E-07         0.27631E-10         0.00000E+00
    0.25217E-07         0.24050E-10         0.00000E+00
    0.25218E-07         0.20426E-10         0.00000E+00
    0.25219E-07         0.16766E-10         0.00000E+00
    0.25219E-07         0.13076E-10         0.00000E+00
    0.25220E-07         0.93608E-11         0.00000E+00
    0.25220E-07         0.56267E-11         0.00000E+00
    0.25220E-07         0.18784E-11         0.00000E+00
    0.26105E-07         0.43353E-11         0.00000E+00
    0.26105E-07         0.12554E-10         0.00000E+00
    0.26106E-07         0.20114E-10         0.00000E+00
    0.26106E-07         0.27043E-10         0.00000E+00
    0.26106E-07         0.33366E-10         0.00000E+00
    0.26107E-07         0.39108E-10         0.00000E+00
    0.26108E-07         0.44294E-10         0.00000E+00
    0.26108E-07         0.48948E-10         0.00000E+00
    0.26109E-07         0.53093E-10         0.00000E+00
    0.26110E-07         0.56752E-10         0.00000E+00
    0.26111E-07         0.59947E-10         0.00000E+00
    0.26112E-07         0.62699E-10         0.00000E+00
    0.26114E-07         0.65030E-10         0.00000E+00
    0.26115E-07         0.66960E-10         0.00000E+00
    0.26117E-07         0.68510E-10         0.00000E+00
    0.26118E-07         0.69698E-10         0.00000E+00
    0.26120E-07         0.70543E-10         0.00000E+00
    0.26121E-07         0.71064E-10         0.00000E+00
    0.26123E-07         0.71279E-10         0.00000E+00
    0.26125E-07         0.71204E-10         0.00000E+00
    0.26127E-07         0.70857E-10         0.00000E+00
    0.26129E-07         0.70254E-10         0.00000E+00
    0.26131E-07         0.69410E-10         0.00000E+00
    0.26133E-07         0.68342E-10         0.00000E+00
    0.26135E-07         0.67064E-10         0.00000E+00
    0.26137E-07         0.65590E-10         0.00000E+00
    0.26139E-07         0.63935E-10         0.00000E+00
    0.26141E-07         0.62111E-10         0.00000E+00
    0.26143E-07         0.60132E-10         0.00000E+00
    0.26145E-07         0.58011E-10         0.00000E+00
    0.26147E-07         0.55759E-10         0.00000E+00
    0.26149E-07         0.53389E-10         0.00000E+00
    0.26151E-07         0.50912E-10         0.00000E+00
    0.26153E-07         0.48338E-10         0.00000E+00
    0.26155E-07         0.45679E-10         0.00000E+00
    0.26157E-07         0.42944E-10         0.00000E+00
    0.26158E-07         0.40143E-10         0.00000E+00
    0.26160E-07         0.37285E-10         0.00000E+00
    0.26162E-07         0.34379E-10         0.00000E+00
    0.26163E-07         0.31435E-10         0.00000E+00
    0.26165E-07         0.28460E-10         0.00000E+00
    0.26166E-07         0.25461E-10         0.00000E+00
    0.26167E-07         0.22447E-10         0.00000E+00
    0.26168E-07         0.19424E-10         0.00000E+00
    0.26169E-07         0.16400E-10         0.00000E+00
    0.26170E-07         0.13379E-10         0.00000E+00
    0.26171E-07         0.10370E-10         0.00000E+00
    0.26171E-07         0.73766E-11         0.00000E+00
    0.26172E-07         0.44049E-11         0.00000E+00
    0.26172E-07         0.14597E-11         0.00000E+00
    0.27123E-07         0.39951E-11         0.00000E+00
    0.27124E-07         0.11534E-10         0.00000E+00
    0.27124E-07         0.18418E-10         0.00000E+00
    0.27124E-07         0.24675E-10         0.00000E+00
    0.27125E-07         0.30335E-10         0.00000E+00
    0.27126E-07         0.35425E-10         0.00000E+00
    0.27127E-07         0.39970E-10         0.00000E+00
    0.27128E-07         0.43999E-10         0.00000E+00
    0.27129E-07         0.47535E-10         0.00000E+00
    0.27131E-07         0.50604E-10         0.00000E+00
    0.27132E-07         0.53230E-10         0.00000E+00
    0.27134E-07         0.55436E-10         0.00000E+00
    0.27135E-07         0.57244E-10         0.00000E+00
    0.27137E-07         0.58678E-10         0.00000E+00
    0.27139E-07         0.59758E-10         0.00000E+00
    0.27141E-07         0.60505E-10         0.00000E+00
    0.27143E-07         0.60939E-10         0.00000E+00
    0.27146E-07         0.61081E-10         0.00000E+00
    0.27148E-07         0.60949E-10         0.00000E+00
    0.27150E-07         0.60561E-10         0.00000E+00
    0.27153E-07         0.59936E-10         0.00000E+00
    0.27155E-07         0.59091E-10         0.00000E+00
    0.27158E-07         0.58043E-10         0.00000E+00
    0.27161E-07         0.56807E-10         0.00000E+00
    0.27163E-07         0.55401E-10         0.00000E+00
    0.27166E-07         0.53839E-10         0.00000E+00
    0.27168E-07         0.52135E-10         0.00000E+00
    0.27171E-07         0.50305E-10         0.00000E+00
    0.27174E-07         0.48361E-10         0.00000E+00
    0.27176E-07         0.46318E-10         0.00000E+00
    0.27179E-07         0.44187E-10         0.00000E+00
    0.27182E-07         0.41982E-10         0.00000E+00
    0.27184E-07         0.39713E-10         0.00000E+00
    0.27187E-07         0.37394E-10         0.00000E+00
    0.27189E-07         0.35033E-10         0.00000E+00
    0.27191E-07         0.32643E-10         0.00000E+00
    0.27194E-07         0.30233E-10         0.00000E+00
    0.27196E-07         0.27813E-10         0.00000E+00
    0.27198E-07         0.25391E-10         0.00000E+00
    0.27200E-07         0.22978E-10         0.00000E+00
    0.27202E-07         0.20581E-10         0.00000E+00
    0.27203E-07         0.18208E-10         0.00000E+00
    0.27205E-07         0.15867E-10         0.00000E+00
    0.27206E-07         0.13566E-10         0.00000E+00
    0.27207E-07         0.11310E-10         0.00000E+00
    0.27208E-07         0.91069E-11         0.00000E+00
    0.27209E-07         0.69624E-11         0.00000E+00
    0.27210E-07         0.48821E-11         0.00000E+00
    0.27210E-07         0.28714E-11         0.00000E+00
    0.27211E-07         0.93528E-12         0.00000E+00
    0.28230E-07         0.35120E-11         0.00000E+00
    0.28230E-07         0.10095E-10         0.00000E+00
    0.28231E-07         0.16039E-10         0.00000E+00
    0.28231E-07         0.21377E-10         0.00000E+00
    0.28232E-07         0.26139E-10         0.00000E+00
    0.28233E-07         0.30355E-10         0.00000E+00
    0.28235E-07         0.34053E-10         0.00000E+00
    0.28236E-07         0.37262E-10         0.00000E+00
    0.28238E-07         0.40008E-10         0.00000E+00
    0.28239E-07         0.42319E-10         0.00000E+00
    0.28241E-07         0.44220E-10         0.00000E+00
    0.28243E-07         0.45737E-10         0.00000E+00
    0.28246E-07         0.46892E-10         0.00000E+00
    0.28248E-07         0.47710E-10         0.00000E+00
    0.28251E-07         0.48214E-10         0.00000E+00
    0.28253E-07         0.48426E-10         0.00000E+00
    0.28256E-07         0.48367E-10         0.00000E+00
    0.28259E-07         0.48058E-10         0.00000E+00
    0.28262E-07         0.47519E-10         0.00000E+00
    0.28265E-07         0.46770E-10         0.00000E+00
    0.28268E-07         0.45829E-10         0.00000E+00
    0.28271E-07         0.44716E-10         0.00000E+00
    0.28275E-07         0.43446E-10         0.00000E+00
    0.28278E-07         0.42038E-10         0.00000E+00
    0.28281E-07         0.40508E-10         0.00000E+00
    0.28284E-07         0.38872E-10         0.00000E+00
    0.28288E-07         0.37146E-10         0.00000E+00
    0.28291E-07         0.35344E-10         0.00000E+00
    0.28294E-07         0.33480E-10         0.00000E+00
    0.28298E-07         0.31569E-10         0.00000E+00
    0.28301E-07         0.29623E-10         0.00000E+00
    0.28304E-07         0.27656E-10         0.00000E+00
    0.28307E-07         0.25679E-10         0.00000E+00
    0.28310E-07         0.23705E-10         0.00000E+00
    0.28313E-07         0.21744E-10         0.00000E+00
    0.28316E-07         0.19809E-10         0.00000E+00
    0.28319E-07         0.17908E-10         0.00000E+00
    0.28322E-07         0.16052E-10         0.00000E+00
    0.28324E-07         0.14251E-10         0.00000E+00
    0.28327E-07         0.12513E-10         0.00000E+00
    0.28329E-07         0.10847E-10         0.00000E+00
    0.28331E-07         0.92610E-11         0.00000E+00
    0.28333E-07         0.77629E-11         0.00000E+00
    0.28334E-07         0.63600E-11         0.00000E+00
    0.28336E-07         0.50590E-11         0.00000E+00
    0.28337E-07         0.38665E-11         0.00000E+00
    0.28338E-07         0.27884E-11         0.00000E+00
    0.28339E-07         0.18304E-11         0.00000E+00
    0.28339E-07         0.99781E-12         0.00000E+00
    0.28340E-07         0.29533E-12         0.00000E+00
    0.29429E-07         0.28702E-11         0.00000E+00
    0.29429E-07         0.81904E-11         0.00000E+00
    0.29429E-07         0.12906E-10         0.00000E+00
    0.29430E-07         0.17050E-10         0.00000E+00
    0.29431E-07         0.20656E-10         0.00000E+00
    0.29433E-07         0.23755E-10         0.00000E+00
    0.29434E-07         0.26379E-10         0.00000E+00
    0.29436E-07         0.28555E-10         0.00000E+00
    0.29438E-07         0.30315E-10         0.00000E+00
    0.29440E-07         0.31685E-10         0.00000E+00
    0.29443E-07         0.32693E-10         0.00000E+00
    0.29446E-07         0.33365E-10         0.00000E+00
    0.29448E-07         0.33727E-10         0.00000E+00
    0.29451E-07         0.33804E-10         0.00000E+00
    0.29455E-07         0.33618E-10         0.00000E+00
    0.29458E-07         0.33194E-10         0.00000E+00
    0.29461E-07         0.32554E-10         0.00000E+00
    0.29465E-07         0.31719E-10         0.00000E+00
    0.29469E-07         0.30711E-10         0.00000E+00
    0.29472E-07         0.29550E-10         0.00000E+00
    0.29476E-07         0.28255E-10         0.00000E+00
    0.29480E-07         0.26845E-10         0.00000E+00
    0.29484E-07         0.25339E-10         0.00000E+00
    0.29488E-07         0.23755E-10         0.00000E+00
    0.29492E-07         0.22109E-10         0.00000E+00
    0.29496E-07         0.20418E-10         0.00000E+00
    0.29500E-07         0.18697E-10         0.00000E+00
    0.29504E-07         0.16963E-10         0.00000E+00
    0.29508E-07         0.15229E-10         0.00000E+00
    0.29512E-07         0.13511E-10         0.00000E+00
    0.29516E-07         0.11820E-10         0.00000E+00
    0.29520E-07         0.10172E-10         0.00000E+00
    0.29524E-07         0.85773E-11         0.00000E+00
    0.29527E-07         0.70491E-11         0.00000E+00
    0.29531E-07         0.55986E-11         0.00000E+00
    0.29535E-07         0.42368E-11         0.00000E+00
    0.29538E-07         0.29743E-11         0.00000E+00
    0.29541E-07         0.18212E-11         0.00000E+00
    0.29544E-07         0.78691E-12         0.00000E+00
    0.29547E-07        -0.11935E-12         0.00000E+00
    0.29550E-07        -0.88899E-12         0.00000E+00
    0.29552E-07        -0.15138E-11         0.00000E+00
    0.29554E-07        -0.19862E-11         0.00000E+00
    0.29556E-07        -0.22988E-11         0.00000E+00
    0.29558E-07        -0.24449E-11         0.00000E+00
    0.29559E-07        -0.24180E-11         0.00000E+00
    0.29561E-07        -0.22123E-11         0.00000E+00
    0.29562E-07        -0.18222E-11         0.00000E+00
    0.29562E-07        -0.12427E-11         0.00000E+00
    0.29563E-07        -0.46920E-12         0.00000E+00
    0.30723E-07         0.20545E-11         0.00000E+00
    0.30723E-07         0.57771E-11         0.00000E+00
    0.30724E-07         0.89471E-11         0.00000E+00
    0.30725E-07         0.11600E-10         0.00000E+00
    0.30726E-07         0.13770E-10         0.00000E+00
    0.30728E-07         0.15490E-10         0.00000E+00
    0.30730E-07         0.16793E-10         0.00000E+00
    0.30732E-07         0.17710E-10         0.00000E+00
    0.30735E-07         0.18271E-10         0.00000E+00
    0.30737E-07         0.18505E-10         0.00000E+00
    0.30740E-07         0.18440E-10         0.00000E+00
    0.30744E-07         0.18104E-10         0.00000E+00
    0.30747E-07         0.17523E-10         0.00000E+00
    0.30751E-07         0.16723E-10         0.00000E+00
    0.30755E-07         0.15728E-10         0.00000E+00
    0.30759E-07         0.14563E-10         0.00000E+00
    0.30763E-07         0.13250E-10         0.00000E+00
    0.30767E-07         0.11812E-10         0.00000E+00
    0.30771E-07         0.10270E-10         0.00000E+00
    0.30776E-07         0.86451E-11         0.00000E+00
    0.30781E-07         0.69573E-11         0.00000E+00
    0.30785E-07         0.52261E-11         0.00000E+00
    0.30790E-07         0.34700E-11         0.00000E+00
    0.30795E-07         0.17073E-11         0.00000E+00
    0.30800E-07        -0.44813E-13         0.00000E+00
    0.30804E-07        -0.17695E-11         0.00000E+00
    0.30809E-07        -0.34507E-11         0.00000E+00
    0.30814E-07        -0.50729E-11         0.00000E+00
    0.30819E-07        -0.66210E-11         0.00000E+00
    0.30823E-07        -0.80809E-11         0.00000E+00
    0.30828E-07        -0.94386E-11         0.00000E+00
    0.30833E-07        -0.10681E-10         0.00000E+00
    0.30837E-07        -0.11795E-10         0.00000E+00
    0.30841E-07        -0.12770E-10         0.00000E+00
    0.30846E-07        -0.13592E-10         0.00000E+00
    0.30850E-07        -0.14252E-10         0.00000E+00
    0.30854E-07        -0.14738E-10         0.00000E+00
    0.30857E-07        -0.15041E-10         0.00000E+00
    0.30861E-07        -0.15151E-10         0.00000E+00
    0.30864E-07        -0.15059E-10         0.00000E+00
    0.30867E-07        -0.14756E-10         0.00000E+00
    0.30870E-07        -0.14234E-10         0.00000E+00
    0.30873E-07        -0.13486E-10         0.00000E+00
    0.30875E-07        -0.12504E-10         0.00000E+00
    0.30877E-07        -0.11282E-10         0.00000E+00
    0.30879E-07        -0.98134E-11         0.00000E+00
    0.30880E-07        -0.80926E-11         0.00000E+00
    0.30882E-07        -0.61143E-11         0.00000E+00
    0.30882E-07        -0.38737E-11         0.00000E+00
    0.30883E-07        -0.13663E-11         0.00000E+00
    0.32116E-07         0.10511E-11         0.00000E+00
    0.32117E-07         0.28151E-11         0.00000E+00
    0.32118E-07         0.40995E-11         0.00000E+00
    0.32119E-07         0.49413E-11         0.00000E+00
    0.32121E-07         0.53759E-11         0.00000E+00
    0.32123E-07         0.54378E-11         0.00000E+00
    0.32125E-07         0.51601E-11         0.00000E+00
    0.32128E-07         0.45749E-11         0.00000E+00
    0.32131E-07         0.37131E-11         0.00000E+00
    0.32134E-07         0.26048E-11         0.00000E+00
    0.32138E-07         0.12787E-11         0.00000E+00
    0.32141E-07        -0.23726E-12         0.00000E+00
    0.32146E-07        -0.19161E-11         0.00000E+00
    0.32150E-07        -0.37319E-11         0.00000E+00
    0.32154E-07        -0.56594E-11         0.00000E+00
    0.32159E-07        -0.76746E-11         0.00000E+00
    0.32164E-07        -0.97539E-11         0.00000E+00
    0.32169E-07        -0.11875E-10         0.00000E+00
    0.32174E-07        -0.14016E-10         0.00000E+00
    0.32180E-07        -0.16156E-10         0.00000E+00
    0.32185E-07        -0.18274E-10         0.00000E+00
    0.32190E-07        -0.20352E-10         0.00000E+00
    0.32196E-07        -0.22370E-10         0.00000E+00
    0.32202E-07        -0.24310E-10         0.00000E+00
    0.32207E-07        -0.26155E-10         0.00000E+00
    0.32213E-07        -0.27888E-10         0.00000E+00
    0.32218E-07        -0.29493E-10         0.00000E+00
    0.32224E-07        -0.30954E-10         0.00000E+00
    0.32230E-07        -0.32257E-10         0.00000E+00
    0.32235E-07        -0.33386E-10         0.00000E+00
    0.32240E-07        -0.34329E-10         0.00000E+00
    0.32246E-07        -0.35072E-10         0.00000E+00
    0.32251E-07        -0.35603E-10         0.00000E+00
    0.32256E-07        -0.35909E-10         0.00000E+00
    0.32261E-07        -0.35978E-10         0.00000E+00
    0.32266E-07        -0.35801E-10         0.00000E+00
    0.32270E-07        -0.35366E-10         0.00000E+00
    0.32274E-07        -0.34663E-10         0.00000E+00
    0.32278E-07        -0.33683E-10         0.00000E+00
    0.32282E-07        -0.32417E-10         0.00000E+00
    0.32286E-07        -0.30857E-10         0.00000E+00
    0.32289E-07        -0.28994E-10         0.00000E+00
    0.32292E-07        -0.26820E-10         0.00000E+00
    0.32295E-07        -0.24330E-10         0.00000E+00
    0.32297E-07        -0.21517E-10         0.00000E+00
    0.32299E-07        -0.18374E-10         0.00000E+00
    0.32301E-07        -0.14896E-10         0.00000E+00
    0.32302E-07        -0.11077E-10         0.00000E+00
    0.32303E-07        -0.69143E-11         0.00000E+00
    0.32303E-07        -0.24026E-11         0.00000E+00
    0.33613E-07        -0.15171E-12         0.00000E+00
    0.33614E-07        -0.72941E-12         0.00000E+00
    0.33615E-07        -0.16899E-11         0.00000E+00
    0.33616E-07        -0.29958E-11         0.00000E+00
    0.33618E-07        -0.46108E-11         0.00000E+00
    0.33620E-07        -0.65003E-11         0.00000E+00
    0.33623E-07        -0.86307E-11         0.00000E+00
    0.33626E-07        -0.10970E-10         0.00000E+00
    0.33630E-07        -0.13486E-10         0.00000E+00
    0.33634E-07        -0.16149E-10         0.00000E+00
    0.33638E-07        -0.18931E-10         0.00000E+00
    0.33643E-07        -0.21804E-10         0.00000E+00
    0.33647E-07        -0.24739E-10         0.00000E+00
    0.33652E-07        -0.27713E-10         0.00000E+00
    0.33658E-07        -0.30699E-10         0.00000E+00
    0.33663E-07        -0.33673E-10         0.00000E+00
    0.33669E-07        -0.36613E-10         0.00000E+00
    0.33675E-07        -0.39496E-10         0.00000E+00
    0.33681E-07        -0.42300E-10         0.00000E+00
    0.33687E-07        -0.45004E-10         0.00000E+00
    0.33693E-07        -0.47590E-10         0.00000E+00
    0.33699E-07        -0.50036E-10         0.00000E+00
    0.33706E-07        -0.52325E-10         0.00000E+00
    0.33712E-07        -0.54439E-10         0.00000E+00
    0.33719E-07        -0.56361E-10         0.00000E+00
    0.33725E-07        -0.58074E-10         0.00000E+00
    0.33731E-07        -0.59562E-10         0.00000E+00
    0.33738E-07        -0.60809E-10         0.00000E+00
    0.33744E-07        -0.61802E-10         0.00000E+00
    0.33750E-07        -0.62526E-10         0.00000E+00
    0.33757E-07        -0.62968E-10         0.00000E+00
    0.33763E-07        -0.63114E-10         0.00000E+00
    0.33769E-07        -0.62953E-10         0.00000E+00
    0.33774E-07        -0.62471E-10         0.00000E+00
    0.33780E-07        -0.61659E-10         0.00000E+00
    0.33785E-07        -0.60504E-10         0.00000E+00
    0.33790E-07        -0.58997E-10         0.00000E+00
    0.33795E-07        -0.57128E-10         0.00000E+00
    0.33800E-07        -0.54888E-10         0.00000E+00
    0.33804E-07        -0.52268E-10         0.00000E+00
    0.33808E-07        -0.49260E-10         0.00000E+00
    0.33812E-07        -0.45855E-10         0.00000E+00
    0.33815E-07        -0.42046E-10         0.00000E+00
    0.33819E-07        -0.37828E-10         0.00000E+00
    0.33821E-07        -0.33193E-10         0.00000E+00
    0.33823E-07        -0.28135E-10         0.00000E+00
    0.33825E-07        -0.22650E-10         0.00000E+00
    0.33827E-07        -0.16732E-10         0.00000E+00
    0.33828E-07        -0.10378E-10         0.00000E+00
    0.33828E-07        -0.35825E-11         0.00000E+00
    0.35217E-07        -0.15626E-11         0.00000E+00
    0.35217E-07        -0.48805E-11         0.00000E+00
    0.35219E-07        -0.84587E-11         0.00000E+00
    0.35220E-07        -0.12260E-10         0.00000E+00
    0.35223E-07        -0.16249E-10         0.00000E+00
    0.35225E-07        -0.20390E-10         0.00000E+00
    0.35229E-07        -0.24652E-10         0.00000E+00
    0.35232E-07        -0.29001E-10         0.00000E+00
    0.35236E-07        -0.33407E-10         0.00000E+00
    0.35241E-07        -0.37841E-10         0.00000E+00
    0.35245E-07        -0.42275E-10         0.00000E+00
    0.35251E-07        -0.46681E-10         0.00000E+00
    0.35256E-07        -0.51032E-10         0.00000E+00
    0.35262E-07        -0.55305E-10         0.00000E+00
    0.35268E-07        -0.59473E-10         0.00000E+00
    0.35274E-07        -0.63515E-10         0.00000E+00
    0.35281E-07        -0.67407E-10         0.00000E+00
    0.35287E-07        -0.71127E-10         0.00000E+00
    0.35294E-07        -0.74656E-10         0.00000E+00
    0.35301E-07        -0.77972E-10         0.00000E+00
    0.35308E-07        -0.81057E-10         0.00000E+00
    0.35315E-07        -0.83892E-10         0.00000E+00
    0.35322E-07        -0.86458E-10         0.00000E+00
    0.35330E-07        -0.88739E-10         0.00000E+00
    0.35337E-07        -0.90718E-10         0.00000E+00
    0.35344E-07        -0.92379E-10         0.00000E+00
    0.35351E-07        -0.93706E-10         0.00000E+00
    0.35359E-07        -0.94685E-10         0.00000E+00
    0.35366E-07        -0.95302E-10         0.00000E+00
    0.35373E-07        -0.95543E-10         0.00000E+00
    0.35380E-07        -0.95394E-10         0.00000E+00
    0.35387E-07        -0.94844E-10         0.00000E+00
    0.35393E-07        -0.93879E-10         0.00000E+00
    0.35400E-07        -0.92490E-10         0.00000E+00
    0.35406E-07        -0.90664E-10         0.00000E+00
    0.35412E-07        -0.88391E-10         0.00000E+00
    0.35418E-07        -0.85660E-10         0.00000E+00
    0.35423E-07        -0.82464E-10         0.00000E+00
    0.35428E-07        -0.78791E-10         0.00000E+00
    0.35433E-07        -0.74635E-10         0.00000E+00
    0.35438E-07        -0.69986E-10         0.00000E+00
    0.35442E-07        -0.64838E-10         0.00000E+00
    0.35446E-07        -0.59182E-10         0.00000E+00
    0.35449E-07        -0.53013E-10         0.00000E+00
    0.35452E-07        -0.46325E-10         0.00000E+00
    0.35455E-07        -0.39111E-10         0.00000E+00
    0.35457E-07        -0.31367E-10         0.00000E+00
    0.35458E-07        -0.23087E-10         0.00000E+00
    0.35459E-07        -0.14269E-10         0.00000E+00
    0.35460E-07        -0.49079E-11         0.00000E+00
    0.36931E-07        -0.31859E-11         0.00000E+00
    0.36932E-07        -0.96496E-11         0.00000E+00
    0.36933E-07        -0.16224E-10         0.00000E+00
    0.36935E-07        -0.22872E-10         0.00000E+00
    0.36938E-07        -0.29560E-10         0.00000E+00
    0.36941E-07        -0.36255E-10         0.00000E+00
    0.36944E-07        -0.42925E-10         0.00000E+00
    0.36948E-07        -0.49539E-10         0.00000E+00
    0.36953E-07        -0.56069E-10         0.00000E+00
    0.36958E-07        -0.62486E-10         0.00000E+00
    0.36963E-07        -0.68763E-10         0.00000E+00
    0.36969E-07        -0.74875E-10         0.00000E+00
    0.36975E-07        -0.80797E-10         0.00000E+00
    0.36982E-07        -0.86504E-10         0.00000E+00
    0.36988E-07        -0.91974E-10         0.00000E+00
    0.36995E-07        -0.97185E-10         0.00000E+00
    0.37003E-07        -0.10212E-09         0.00000E+00
    0.37010E-07        -0.10675E-09         0.00000E+00
    0.37018E-07        -0.11106E-09         0.00000E+00
    0.37025E-07        -0.11503E-09         0.00000E+00
    0.37033E-07        -0.11864E-09         0.00000E+00
    0.37041E-07        -0.12188E-09         0.00000E+00
    0.37049E-07        -0.12472E-09         0.00000E+00
    0.37057E-07        -0.12716E-09         0.00000E+00
    0.37065E-07        -0.12917E-09         0.00000E+00
    0.37074E-07        -0.13075E-09         0.00000E+00
    0.37082E-07        -0.13187E-09         0.00000E+00
    0.37090E-07        -0.13252E-09         0.00000E+00
    0.37098E-07        -0.13270E-09         0.00000E+00
    0.37105E-07        -0.13238E-09         0.00000E+00
    0.37113E-07        -0.13155E-09         0.00000E+00
    0.37121E-07        -0.13020E-09         0.00000E+00
    0.37128E-07        -0.12833E-09         0.00000E+00
    0.37135E-07        -0.12591E-09         0.00000E+00
    0.37142E-07        -0.12294E-09         0.00000E+00
    0.37149E-07        -0.11941E-09         0.00000E+00
    0.37155E-07        -0.11530E-09         0.00000E+00
    0.37161E-07        -0.11062E-09         0.00000E+00
    0.37167E-07        -0.10535E-09         0.00000E+00
    0.37172E-07        -0.99477E-10         0.00000E+00
    0.37177E-07        -0.93000E-10         0.00000E+00
    0.37182E-07        -0.85910E-10         0.00000E+00
    0.37186E-07        -0.78200E-10         0.00000E+00
    0.37190E-07        -0.69863E-10         0.00000E+00
    0.37193E-07        -0.60893E-10         0.00000E+00
    0.37196E-07        -0.51285E-10         0.00000E+00
    0.37198E-07        -0.41033E-10         0.00000E+00
    0.37200E-07        -0.30134E-10         0.00000E+00
    0.37201E-07        -0.18583E-10         0.00000E+00
    0.37202E-07        -0.63773E-11         0.00000E+00
    0.38759E-07        -0.50201E-11         0.00000E+00
    0.38760E-07        -0.15032E-10         0.00000E+00
    0.38761E-07        -0.24974E-10         0.00000E+00
    0.38763E-07        -0.34814E-10         0.00000E+00
    0.38766E-07        -0.44520E-10         0.00000E+00
    0.38770E-07        -0.54061E-10         0.00000E+00
    0.38774E-07        -0.63408E-10         0.00000E+00
    0.38778E-07        -0.72533E-10         0.00000E+00
    0.38783E-07        -0.81409E-10         0.00000E+00
    0.38789E-07        -0.90010E-10         0.00000E+00
    0.38795E-07        -0.98313E-10         0.00000E+00
    0.38801E-07        -0.10629E-09         0.00000E+00
    0.38808E-07        -0.11393E-09         0.00000E+00
    0.38815E-07        -0.12120E-09         0.00000E+00
    0.38823E-07        -0.12808E-09         0.00000E+00
    0.38830E-07        -0.13455E-09         0.00000E+00
    0.38838E-07        -0.14060E-09         0.00000E+00
    0.38846E-07        -0.14620E-09         0.00000E+00
    0.38855E-07        -0.15134E-09         0.00000E+00
    0.38863E-07        -0.15600E-09         0.00000E+00
    0.38872E-07        -0.16016E-09         0.00000E+00
    0.38881E-07        -0.16382E-09         0.00000E+00
    0.38889E-07        -0.16694E-09         0.00000E+00
    0.38898E-07        -0.16952E-09         0.00000E+00
    0.38907E-07        -0.17154E-09         0.00000E+00
    0.38916E-07        -0.17300E-09         0.00000E+00
    0.38925E-07        -0.17386E-09         0.00000E+00
    0.38933E-07        -0.17414E-09         0.00000E+00
    0.38942E-07        -0.17380E-09         0.00000E+00
    0.38951E-07        -0.17284E-09         0.00000E+00
    0.38959E-07        -0.17125E-09         0.00000E+00
    0.38967E-07        -0.16901E-09         0.00000E+00
    0.38975E-07        -0.16612E-09         0.00000E+00
    0.38983E-07        -0.16256E-09         0.00000E+00
    0.38990E-07        -0.15832E-09         0.00000E+00
    0.38998E-07        -0.15340E-09         0.00000E+00
    0.39005E-07        -0.14778E-09         0.00000E+00
    0.39011E-07        -0.14146E-09         0.00000E+00
    0.39017E-07        -0.13443E-09         0.00000E+00
    0.39023E-07        -0.12668E-09         0.00000E+00
    0.39029E-07        -0.11819E-09         0.00000E+00
    0.39034E-07        -0.10897E-09         0.00000E+00
    0.39038E-07        -0.99011E-10         0.00000E+00
    0.39042E-07        -0.88299E-10         0.00000E+00
    0.39046E-07        -0.76832E-10         0.00000E+00
    0.39049E-07        -0.64604E-10         0.00000E+00
    0.39052E-07        -0.51609E-10         0.00000E+00
    0.39053E-07        -0.37844E-10         0.00000E+00
    0.39055E-07        -0.23304E-10         0.00000E+00
    0.39055E-07        -0.79850E-11         0.00000E+00
    0.40703E-07        -0.70568E-11         0.00000E+00
    0.40704E-07        -0.21000E-10         0.00000E+00
    0.40706E-07        -0.34665E-10         0.00000E+00
    0.40708E-07        -0.48023E-10         0.00000E+00
    0.40711E-07        -0.61045E-10         0.00000E+00
    0.40715E-07        -0.73705E-10         0.00000E+00
    0.40719E-07        -0.85978E-10         0.00000E+00
    0.40724E-07        -0.97838E-10         0.00000E+00
    0.40730E-07        -0.10926E-09         0.00000E+00
    0.40736E-07        -0.12023E-09         0.00000E+00
    0.40743E-07        -0.13072E-09         0.00000E+00
    0.40750E-07        -0.14072E-09         0.00000E+00
    0.40757E-07        -0.15019E-09         0.00000E+00
    0.40765E-07        -0.15913E-09         0.00000E+00
    0.40773E-07        -0.16752E-09         0.00000E+00
    0.40781E-07        -0.17534E-09         0.00000E+00
    0.40790E-07        -0.18256E-09         0.00000E+00
    0.40798E-07        -0.18919E-09         0.00000E+00
    0.40808E-07        -0.19520E-09         0.00000E+00
    0.40817E-07        -0.20057E-09         0.00000E+00
    0.40826E-07        -0.20530E-09         0.00000E+00
    0.40835E-07        -0.20937E-09         0.00000E+00
    0.40845E-07        -0.21276E-09         0.00000E+00
    0.40854E-07        -0.21547E-09         0.00000E+00
    0.40864E-07        -0.21748E-09         0.00000E+00
    0.40873E-07        -0.21877E-09         0.00000E+00
    0.40883E-07        -0.21934E-09         0.00000E+00
    0.40892E-07        -0.21918E-09         0.00000E+00
    0.40902E-07        -0.21826E-09         0.00000E+00
    0.40911E-07        -0.21660E-09         0.00000E+00
    0.40920E-07        -0.21416E-09         0.00000E+00
    0.40928E-07        -0.21094E-09         0.00000E+00
    0.40937E-07        -0.20694E-09         0.00000E+00
    0.40945E-07        -0.20213E-09         0.00000E+00
    0.40953E-07        -0.19652E-09         0.00000E+00
    0.40961E-07        -0.19009E-09         0.00000E+00
    0.40968E-07        -0.18283E-09         0.00000E+00
    0.40976E-07        -0.17474E-09         0.00000E+00
    0.40982E-07        -0.16580E-09         0.00000E+00
    0.40989E-07        -0.15601E-09         0.00000E+00
    0.40994E-07        -0.14536E-09         0.00000E+00
    0.41000E-07        -0.13385E-09         0.00000E+00
    0.41005E-07        -0.12146E-09         0.00000E+00
    0.41009E-07        -0.10818E-09         0.00000E+00
    0.41013E-07        -0.94025E-10         0.00000E+00
    0.41016E-07        -0.78971E-10         0.00000E+00
    0.41019E-07        -0.63019E-10         0.00000E+00
    0.41021E-07        -0.46163E-10         0.00000E+00
    0.41022E-07        -0.28398E-10         0.00000E+00
    0.41023E-07        -0.97203E-11         0.00000E+00
    0.42767E-07        -0.92786E-11         0.00000E+00
    0.42768E-07        -0.27503E-10         0.00000E+00
    0.42769E-07        -0.45211E-10         0.00000E+00
    0.42772E-07        -0.62378E-10         0.00000E+00
    0.42775E-07        -0.78981E-10         0.00000E+00
    0.42779E-07        -0.95000E-10         0.00000E+00
    0.42784E-07        -0.11041E-09         0.00000E+00
    0.42790E-07        -0.12521E-09         0.00000E+00
    0.42795E-07        -0.13936E-09         0.00000E+00
    0.42802E-07        -0.15285E-09         0.00000E+00
    0.42809E-07        -0.16566E-09         0.00000E+00
    0.42816E-07        -0.17778E-09         0.00000E+00
    0.42824E-07        -0.18920E-09         0.00000E+00
    0.42832E-07        -0.19990E-09         0.00000E+00
    0.42841E-07        -0.20987E-09         0.00000E+00
    0.42850E-07        -0.21908E-09         0.00000E+00
    0.42859E-07        -0.22754E-09         0.00000E+00
    0.42868E-07        -0.23522E-09         0.00000E+00
    0.42878E-07        -0.24212E-09         0.00000E+00
    0.42888E-07        -0.24823E-09         0.00000E+00
    0.42898E-07        -0.25353E-09         0.00000E+00
    0.42908E-07        -0.25801E-09         0.00000E+00
    0.42918E-07        -0.26166E-09         0.00000E+00
    0.42928E-07        -0.26447E-09         0.00000E+00
    0.42938E-07        -0.26643E-09         0.00000E+00
    0.42948E-07        -0.26753E-09         0.00000E+00
    0.42958E-07        -0.26776E-09         0.00000E+00
    0.42968E-07        -0.26710E-09         0.00000E+00
    0.42977E-07        -0.26556E-09         0.00000E+00
    0.42987E-07        -0.26312E-09         0.00000E+00
    0.42996E-07        -0.25977E-09         0.00000E+00
    0.43006E-07        -0.25550E-09         0.00000E+00
    0.43015E-07        -0.25030E-09         0.00000E+00
    0.43024E-07        -0.24417E-09         0.00000E+00
    0.43032E-07        -0.23708E-09         0.00000E+00
    0.43040E-07        -0.22905E-09         0.00000E+00
    0.43048E-07        -0.22004E-09         0.00000E+00
    0.43055E-07        -0.21007E-09         0.00000E+00
    0.43062E-07        -0.19911E-09         0.00000E+00
    0.43069E-07        -0.18716E-09         0.00000E+00
    0.43075E-07        -0.17421E-09         0.00000E+00
    0.43081E-07        -0.16026E-09         0.00000E+00
    0.43086E-07        -0.14529E-09         0.00000E+00
    0.43091E-07        -0.12930E-09         0.00000E+00
    0.43095E-07        -0.11229E-09         0.00000E+00
    0.43098E-07        -0.94237E-10         0.00000E+00
    0.43101E-07        -0.75145E-10         0.00000E+00
    0.43103E-07        -0.55006E-10         0.00000E+00
    0.43105E-07        -0.33815E-10         0.00000E+00
    0.43105E-07        -0.11566E-10         0.00000E+00
    0.44951E-07        -0.11658E-10         0.00000E+00
    0.44952E-07        -0.34460E-10         0.00000E+00
    0.44954E-07        -0.56476E-10         0.00000E+00
    0.44957E-07        -0.77692E-10         0.00000E+00
    0.44960E-07        -0.98092E-10         0.00000E+00
    0.44964E-07        -0.11766E-09         0.00000E+00
    0.44969E-07        -0.13639E-09         0.00000E+00
    0.44975E-07        -0.15426E-09         0.00000E+00
    0.44981E-07        -0.17126E-09         0.00000E+00
    0.44988E-07        -0.18739E-09         0.00000E+00
    0.44995E-07        -0.20262E-09         0.00000E+00
    0.45003E-07        -0.21696E-09         0.00000E+00
    0.45011E-07        -0.23039E-09         0.00000E+00
    0.45020E-07        -0.24290E-09         0.00000E+00
    0.45029E-07        -0.25449E-09         0.00000E+00
    0.45038E-07        -0.26514E-09         0.00000E+00
    0.45048E-07        -0.27485E-09         0.00000E+00
    0.45057E-07        -0.28360E-09         0.00000E+00
    0.45067E-07        -0.29140E-09         0.00000E+00
    0.45078E-07        -0.29823E-09         0.00000E+00
    0.45088E-07        -0.30409E-09         0.00000E+00
    0.45098E-07        -0.30897E-09         0.00000E+00
    0.45109E-07        -0.31285E-09         0.00000E+00
    0.45119E-07        -0.31574E-09         0.00000E+00
    0.45129E-07        -0.31763E-09         0.00000E+00
    0.45140E-07        -0.31850E-09         0.00000E+00
    0.45150E-07        -0.31834E-09         0.00000E+00
    0.45160E-07        -0.31716E-09         0.00000E+00
    0.45170E-07        -0.31495E-09         0.00000E+00
    0.45180E-07        -0.31168E-09         0.00000E+00
    0.45190E-07        -0.30737E-09         0.00000E+00
    0.45200E-07        -0.30199E-09         0.00000E+00
    0.45209E-07        -0.29553E-09         0.00000E+00
    0.45218E-07        -0.28800E-09         0.00000E+00
    0.45227E-07        -0.27938E-09         0.00000E+00
    0.45235E-07        -0.26967E-09         0.00000E+00
    0.45243E-07        -0.25884E-09         0.00000E+00
    0.45251E-07        -0.24690E-09         0.00000E+00
    0.45258E-07        -0.23384E-09         0.00000E+00
    0.45265E-07        -0.21964E-09         0.00000E+00
    0.45272E-07        -0.20431E-09         0.00000E+00
    0.45277E-07        -0.18782E-09         0.00000E+00
    0.45283E-07        -0.17017E-09         0.00000E+00
    0.45288E-07        -0.15135E-09         0.00000E+00
    0.45292E-07        -0.13136E-09         0.00000E+00
    0.45295E-07        -0.11019E-09         0.00000E+00
    0.45298E-07        -0.87819E-10         0.00000E+00
    0.45300E-07        -0.64253E-10         0.00000E+00
    0.45302E-07        -0.39482E-10         0.00000E+00
    0.45303E-07        -0.13499E-10         0.00000E+00
    0.47257E-07        -0.14156E-10         0.00000E+00
    0.47258E-07        -0.41754E-10         0.00000E+00
    0.47260E-07        -0.68272E-10         0.00000E+00
    0.47263E-07        -0.93706E-10         0.00000E+00
    0.47266E-07        -0.11805E-09         0.00000E+00
    0.47271E-07        -0.14129E-09         0.00000E+00
    0.47276E-07        -0.16344E-09         0.00000E+00
    0.47282E-07        -0.18448E-09         0.00000E+00
    0.47288E-07        -0.20441E-09         0.00000E+00
    0.47295E-07        -0.22323E-09         0.00000E+00
    0.47303E-07        -0.24093E-09         0.00000E+00
    0.47311E-07        -0.25752E-09         0.00000E+00
    0.47319E-07        -0.27298E-09         0.00000E+00
    0.47328E-07        -0.28732E-09         0.00000E+00
    0.47337E-07        -0.30053E-09         0.00000E+00
    0.47346E-07        -0.31262E-09         0.00000E+00
    0.47356E-07        -0.32357E-09         0.00000E+00
    0.47366E-07        -0.33339E-09         0.00000E+00
    0.47376E-07        -0.34206E-09         0.00000E+00
    0.47386E-07        -0.34960E-09         0.00000E+00
    0.47397E-07        -0.35600E-09         0.00000E+00
    0.47407E-07        -0.36124E-09         0.00000E+00
    0.47418E-07        -0.36533E-09         0.00000E+00
    0.47428E-07        -0.36827E-09         0.00000E+00
    0.47439E-07        -0.37004E-09         0.00000E+00
    0.47450E-07        -0.37065E-09         0.00000E+00
    0.47460E-07        -0.37008E-09         0.00000E+00
    0.47470E-07        -0.36834E-09         0.00000E+00
    0.47481E-07        -0.36541E-09         0.00000E+00
    0.47491E-07        -0.36129E-09         0.00000E+00
    0.47500E-07        -0.35597E-09         0.00000E+00
    0.47510E-07        -0.34945E-09         0.00000E+00
    0.47520E-07        -0.34171E-09         0.00000E+00
    0.47529E-07        -0.33276E-09         0.00000E+00
    0.47538E-07        -0.32257E-09         0.00000E+00
    0.47546E-07        -0.31114E-09         0.00000E+00
    0.47554E-07        -0.29846E-09         0.00000E+00
    0.47562E-07        -0.28452E-09         0.00000E+00
    0.47569E-07        -0.26932E-09         0.00000E+00
    0.47576E-07        -0.25284E-09         0.00000E+00
    0.47583E-07        -0.23506E-09         0.00000E+00
    0.47589E-07        -0.21600E-09         0.00000E+00
    0.47594E-07        -0.19562E-09         0.00000E+00
    0.47599E-07        -0.17392E-09         0.00000E+00
    0.47603E-07        -0.15089E-09         0.00000E+00
    0.47607E-07        -0.12653E-09         0.00000E+00
    0.47610E-07        -0.10082E-09         0.00000E+00
    0.47612E-07        -0.73743E-10         0.00000E+00
    0.47613E-07        -0.45302E-10         0.00000E+00
    0.47614E-07        -0.15485E-10         0.00000E+00
    0.49684E-07        -0.16722E-10         0.00000E+00
    0.49685E-07        -0.49233E-10         0.00000E+00
    0.49687E-07        -0.80351E-10         0.00000E+00
    0.49690E-07        -0.11008E-09         0.00000E+00
    0.49694E-07        -0.13842E-09         0.00000E+00
    0.49698E-07        -0.16539E-09         0.00000E+00
    0.49704E-07        -0.19098E-09         0.00000E+00
    0.49709E-07        -0.21520E-09         0.00000E+00
    0.49716E-07        -0.23806E-09         0.00000E+00
    0.49723E-07        -0.25957E-09         0.00000E+00
    0.49730E-07        -0.27972E-09         0.00000E+00
    0.49738E-07        -0.29853E-09         0.00000E+00
    0.49747E-07        -0.31599E-09         0.00000E+00
    0.49756E-07        -0.33212E-09         0.00000E+00
    0.49765E-07        -0.34692E-09         0.00000E+00
    0.49774E-07        -0.36039E-09         0.00000E+00
    0.49784E-07        -0.37254E-09         0.00000E+00
    0.49794E-07        -0.38337E-09         0.00000E+00
    0.49804E-07        -0.39288E-09         0.00000E+00
    0.49814E-07        -0.40107E-09         0.00000E+00
    0.49824E-07        -0.40795E-09         0.00000E+00
    0.49834E-07        -0.41352E-09         0.00000E+00
    0.49845E-07        -0.41778E-09         0.00000E+00
    0.49855E-07        -0.42072E-09         0.00000E+00
    0.49866E-07        -0.42235E-09         0.00000E+00
    0.49876E-07        -0.42266E-09         0.00000E+00
    0.49886E-07        -0.42165E-09         0.00000E+00
    0.49896E-07        -0.41932E-09         0.00000E+00
    0.49906E-07        -0.41566E-09         0.00000E+00
    0.49916E-07        -0.41067E-09         0.00000E+00
    0.49926E-07        -0.40435E-09         0.00000E+00
    0.49935E-07        -0.39668E-09         0.00000E+00
    0.49945E-07        -0.38766E-09         0.00000E+00
    0.49954E-07        -0.37728E-09         0.00000E+00
    0.49962E-07        -0.36553E-09         0.00000E+00
    0.49971E-07        -0.35240E-09         0.00000E+00
    0.49979E-07        -0.33789E-09         0.00000E+00
    0.49986E-07        -0.32198E-09         0.00000E+00
    0.49993E-07        -0.30465E-09         0.00000E+00
    0.50000E-07        -0.28591E-09         0.00000E+00
    0.50006E-07        -0.26573E-09         0.00000E+00
    0.50012E-07        -0.24411E-09         0.00000E+00
    0.50018E-07        -0.22103E-09         0.00000E+00
    0.50022E-07        -0.19647E-09         0.00000E+00
    0.50027E-07        -0.17043E-09         0.00000E+00
    0.50030E-07        -0.14289E-09         0.00000E+00
    0.50033E-07        -0.11384E-09         0.00000E+00
    0.50035E-07        -0.83261E-10         0.00000E+00
    0.50037E-07        -0.51147E-10         0.00000E+00
    0.50038E-07        -0.17482E-10         0.00000E+00
    0.52233E-07        -0.19290E-10         0.00000E+00
    0.52234E-07        -0.56709E-10         0.00000E+00
    0.52235E-07        -0.92404E-10         0.00000E+00
    0.52238E-07        -0.12639E-09         0.00000E+00
    0.52242E-07        -0.15869E-09         0.00000E+00
    0.52246E-07        -0.18931E-09         0.00000E+00
    0.52251E-07        -0.21828E-09         0.00000E+00
    0.52257E-07        -0.24561E-09         0.00000E+00
    0.52263E-07        -0.27131E-09         0.00000E+00
    0.52270E-07        -0.29541E-09         0.00000E+00
    0.52277E-07        -0.31792E-09         0.00000E+00
    0.52285E-07        -0.33885E-09         0.00000E+00
    0.52293E-07        -0.35822E-09         0.00000E+00
    0.52302E-07        -0.37604E-09         0.00000E+00
    0.52311E-07        -0.39232E-09         0.00000E+00
    0.52320E-07        -0.40708E-09         0.00000E+00
    0.52329E-07        -0.42033E-09         0.00000E+00
    0.52338E-07        -0.43207E-09         0.00000E+00
    0.52348E-07        -0.44232E-09         0.00000E+00
    0.52358E-07        -0.45109E-09         0.00000E+00
    0.52367E-07        -0.45838E-09         0.00000E+00
    0.52377E-07        -0.46420E-09         0.00000E+00
    0.52387E-07        -0.46856E-09         0.00000E+00
    0.52397E-07        -0.47145E-09         0.00000E+00
    0.52407E-07        -0.47289E-09         0.00000E+00
    0.52417E-07        -0.47287E-09         0.00000E+00
    0.52426E-07        -0.47139E-09         0.00000E+00
    0.52436E-07        -0.46846E-09         0.00000E+00
    0.52446E-07        -0.46407E-09         0.00000E+00
    0.52455E-07        -0.45823E-09         0.00000E+00
    0.52464E-07        -0.45091E-09         0.00000E+00
    0.52473E-07        -0.44213E-09         0.00000E+00
    0.52482E-07        -0.43186E-09         0.00000E+00
    0.52490E-07        -0.42011E-09         0.00000E+00
    0.52498E-07        -0.40687E-09         0.00000E+00
    0.52506E-07        -0.39212E-09         0.00000E+00
    0.52514E-07        -0.37585E-09         0.00000E+00
    0.52521E-07        -0.35805E-09         0.00000E+00
    0.52528E-07        -0.33871E-09         0.00000E+00
    0.52534E-07        -0.31781E-09         0.00000E+00
    0.52540E-07        -0.29534E-09         0.00000E+00
    0.52546E-07        -0.27127E-09         0.00000E+00
    0.52551E-07        -0.24560E-09         0.00000E+00
    0.52555E-07        -0.21831E-09         0.00000E+00
    0.52559E-07        -0.18937E-09         0.00000E+00
    0.52563E-07        -0.15878E-09         0.00000E+00
    0.52565E-07        -0.12650E-09         0.00000E+00
    0.52567E-07        -0.92532E-10         0.00000E+00
    0.52569E-07        -0.56849E-10         0.00000E+00
    0.52570E-07        -0.19435E-10         0.00000E+00
    0.54899E-07        -0.21785E-10         0.00000E+00
    0.54900E-07        -0.63960E-10         0.00000E+00
    0.54902E-07        -0.10407E-09         0.00000E+00
    0.54904E-07        -0.14215E-09         0.00000E+00
    0.54908E-07        -0.17822E-09         0.00000E+00
    0.54912E-07        -0.21232E-09         0.00000E+00
    0.54917E-07        -0.24448E-09         0.00000E+00
    0.54922E-07        -0.27473E-09         0.00000E+00
    0.54928E-07        -0.30309E-09         0.00000E+00
    0.54934E-07        -0.32960E-09         0.00000E+00
    0.54941E-07        -0.35427E-09         0.00000E+00
    0.54948E-07        -0.37714E-09         0.00000E+00
    0.54956E-07        -0.39823E-09         0.00000E+00
    0.54964E-07        -0.41756E-09         0.00000E+00
    0.54972E-07        -0.43515E-09         0.00000E+00
    0.54980E-07        -0.45103E-09         0.00000E+00
    0.54989E-07        -0.46522E-09         0.00000E+00
    0.54997E-07        -0.47773E-09         0.00000E+00
    0.55006E-07        -0.48858E-09         0.00000E+00
    0.55015E-07        -0.49779E-09         0.00000E+00
    0.55024E-07        -0.50537E-09         0.00000E+00
    0.55033E-07        -0.51134E-09         0.00000E+00
    0.55042E-07        -0.51570E-09         0.00000E+00
    0.55051E-07        -0.51847E-09         0.00000E+00
    0.55060E-07        -0.51966E-09         0.00000E+00
    0.55068E-07        -0.51926E-09         0.00000E+00
    0.55077E-07        -0.51729E-09         0.00000E+00
    0.55086E-07        -0.51376E-09         0.00000E+00
    0.55094E-07        -0.50865E-09         0.00000E+00
    0.55103E-07        -0.50197E-09         0.00000E+00
    0.55111E-07        -0.49371E-09         0.00000E+00
    0.55119E-07        -0.48388E-09         0.00000E+00
    0.55126E-07        -0.47246E-09         0.00000E+00
    0.55134E-07        -0.45945E-09         0.00000E+00
    0.55141E-07        -0.44483E-09         0.00000E+00
    0.55148E-07        -0.42860E-09         0.00000E+00
    0.55155E-07        -0.41074E-09         0.00000E+00
    0.55161E-07        -0.39123E-09         0.00000E+00
    0.55168E-07        -0.37006E-09         0.00000E+00
    0.55173E-07        -0.34720E-09         0.00000E+00
    0.55179E-07        -0.32265E-09         0.00000E+00
    0.55184E-07        -0.29637E-09         0.00000E+00
    0.55188E-07        -0.26835E-09         0.00000E+00
    0.55192E-07        -0.23855E-09         0.00000E+00
    0.55196E-07        -0.20697E-09         0.00000E+00
    0.55199E-07        -0.17357E-09         0.00000E+00
    0.55201E-07        -0.13832E-09         0.00000E+00
    0.55203E-07        -0.10121E-09         0.00000E+00
    0.55205E-07        -0.62200E-10         0.00000E+00
    0.55205E-07        -0.21273E-10         0.00000E+00
    0.57679E-07        -0.24122E-10         0.00000E+00
    0.57680E-07        -0.70739E-10         0.00000E+00
    0.57682E-07        -0.11495E-09         0.00000E+00
    0.57684E-07        -0.15680E-09         0.00000E+00
    0.57687E-07        -0.19634E-09         0.00000E+00
    0.57691E-07        -0.23360E-09         0.00000E+00
    0.57695E-07        -0.26864E-09         0.00000E+00
    0.57700E-07        -0.30150E-09         0.00000E+00
    0.57705E-07        -0.33222E-09         0.00000E+00
    0.57711E-07        -0.36083E-09         0.00000E+00
    0.57717E-07        -0.38737E-09         0.00000E+00
    0.57723E-07        -0.41189E-09         0.00000E+00
    0.57730E-07        -0.43441E-09         0.00000E+00
    0.57737E-07        -0.45498E-09         0.00000E+00
    0.57744E-07        -0.47362E-09         0.00000E+00
    0.57751E-07        -0.49037E-09         0.00000E+00
    0.57759E-07        -0.50525E-09         0.00000E+00
    0.57766E-07        -0.51830E-09         0.00000E+00
    0.57774E-07        -0.52954E-09         0.00000E+00
    0.57781E-07        -0.53900E-09         0.00000E+00
    0.57789E-07        -0.54670E-09         0.00000E+00
    0.57796E-07        -0.55266E-09         0.00000E+00
    0.57804E-07        -0.55689E-09         0.00000E+00
    0.57811E-07        -0.55942E-09         0.00000E+00
    0.57819E-07        -0.56027E-09         0.00000E+00
    0.57826E-07        -0.55943E-09         0.00000E+00
    0.57833E-07        -0.55693E-09         0.00000E+00
    0.57840E-07        -0.55277E-09         0.00000E+00
    0.57847E-07        -0.54695E-09         0.00000E+00
    0.57854E-07        -0.53948E-09         0.00000E+00
    0.57861E-07        -0.53036E-09         0.00000E+00
    0.57867E-07        -0.51958E-09         0.00000E+00
    0.57874E-07        -0.50714E-09         0.00000E+00
    0.57880E-07        -0.49302E-09         0.00000E+00
    0.57886E-07        -0.47723E-09         0.00000E+00
    0.57891E-07        -0.45973E-09         0.00000E+00
    0.57897E-07        -0.44052E-09         0.00000E+00
    0.57902E-07        -0.41957E-09         0.00000E+00
    0.57907E-07        -0.39687E-09         0.00000E+00
    0.57912E-07        -0.37239E-09         0.00000E+00
    0.57916E-07        -0.34610E-09         0.00000E+00
    0.57920E-07        -0.31797E-09         0.00000E+00
    0.57924E-07        -0.28798E-09         0.00000E+00
    0.57927E-07        -0.25609E-09         0.00000E+00
    0.57930E-07        -0.22226E-09         0.00000E+00
    0.57933E-07        -0.18647E-09         0.00000E+00
    0.57935E-07        -0.14868E-09         0.00000E+00
    0.57936E-07        -0.10884E-09         0.00000E+00
    0.57938E-07        -0.66929E-10         0.00000E+00
    0.57938E-07        -0.22905E-10         0.00000E+00
    0.60568E-07        -0.26216E-10         0.00000E+00
    0.60569E-07        -0.76790E-10         0.00000E+00
    0.60570E-07        -0.12462E-09         0.00000E+00
    0.60572E-07        -0.16978E-09         0.00000E+00
    0.60575E-07        -0.21232E-09         0.00000E+00
    0.60578E-07        -0.25230E-09         0.00000E+00
    0.60582E-07        -0.28977E-09         0.00000E+00
    0.60586E-07        -0.32480E-09         0.00000E+00
    0.60590E-07        -0.35743E-09         0.00000E+00
    0.60595E-07        -0.38772E-09         0.00000E+00
    0.60600E-07        -0.41572E-09         0.00000E+00
    0.60605E-07        -0.44148E-09         0.00000E+00
    0.60611E-07        -0.46505E-09         0.00000E+00
    0.60616E-07        -0.48647E-09         0.00000E+00
    0.60622E-07        -0.50579E-09         0.00000E+00
    0.60627E-07        -0.52305E-09         0.00000E+00
    0.60633E-07        -0.53830E-09         0.00000E+00
    0.60639E-07        -0.55156E-09         0.00000E+00
    0.60645E-07        -0.56289E-09         0.00000E+00
    0.60651E-07        -0.57232E-09         0.00000E+00
    0.60656E-07        -0.57987E-09         0.00000E+00
    0.60662E-07        -0.58558E-09         0.00000E+00
    0.60668E-07        -0.58949E-09         0.00000E+00
    0.60673E-07        -0.59161E-09         0.00000E+00
    0.60678E-07        -0.59196E-09         0.00000E+00
    0.60684E-07        -0.59057E-09         0.00000E+00
    0.60689E-07        -0.58746E-09         0.00000E+00
    0.60694E-07        -0.58264E-09         0.00000E+00
    0.60699E-07        -0.57611E-09         0.00000E+00
    0.60703E-07        -0.56789E-09         0.00000E+00
    0.60708E-07        -0.55798E-09         0.00000E+00
    0.60712E-07        -0.54637E-09         0.00000E+00
    0.60716E-07        -0.53307E-09         0.00000E+00
    0.60720E-07        -0.51806E-09         0.00000E+00
    0.60724E-07        -0.50134E-09         0.00000E+00
    0.60728E-07        -0.48288E-09         0.00000E+00
    0.60732E-07        -0.46266E-09         0.00000E+00
    0.60735E-07        -0.44067E-09         0.00000E+00
    0.60738E-07        -0.41686E-09         0.00000E+00
    0.60742E-07        -0.39122E-09         0.00000E+00
    0.60744E-07        -0.36370E-09         0.00000E+00
    0.60747E-07        -0.33426E-09         0.00000E+00
    0.60750E-07        -0.30286E-09         0.00000E+00
    0.60752E-07        -0.26946E-09         0.00000E+00
    0.60754E-07        -0.23401E-09         0.00000E+00
    0.60756E-07        -0.19646E-09         0.00000E+00
    0.60757E-07        -0.15676E-09         0.00000E+00
    0.60758E-07        -0.11485E-09         0.00000E+00
    0.60759E-07        -0.70688E-10         0.00000E+00
    0.60760E-07        -0.24217E-10         0.00000E+00
    0.63558E-07        -0.27982E-10         0.00000E+00
    0.63558E-07        -0.81869E-10         0.00000E+00
    0.63560E-07        -0.13270E-09         0.00000E+00
    0.63561E-07        -0.18054E-09         0.00000E+00
    0.63563E-07        -0.22548E-09         0.00000E+00
    0.63566E-07        -0.26757E-09         0.00000E+00
    0.63569E-07        -0.30689E-09         0.00000E+00
    0.63572E-07        -0.34351E-09         0.00000E+00
    0.63575E-07        -0.37750E-09         0.00000E+00
    0.63579E-07        -0.40892E-09         0.00000E+00
    0.63582E-07        -0.43783E-09         0.00000E+00
    0.63586E-07        -0.46430E-09         0.00000E+00
    0.63590E-07        -0.48839E-09         0.00000E+00
    0.63594E-07        -0.51016E-09         0.00000E+00
    0.63598E-07        -0.52966E-09         0.00000E+00
    0.63601E-07        -0.54696E-09         0.00000E+00
    0.63605E-07        -0.56210E-09         0.00000E+00
    0.63609E-07        -0.57515E-09         0.00000E+00
    0.63612E-07        -0.58615E-09         0.00000E+00
    0.63616E-07        -0.59515E-09         0.00000E+00
    0.63619E-07        -0.60219E-09         0.00000E+00
    0.63622E-07        -0.60732E-09         0.00000E+00
    0.63625E-07        -0.61058E-09         0.00000E+00
    0.63628E-07        -0.61201E-09         0.00000E+00
    0.63631E-07        -0.61164E-09         0.00000E+00
    0.63633E-07        -0.60950E-09         0.00000E+00
    0.63636E-07        -0.60563E-09         0.00000E+00
    0.63638E-07        -0.60003E-09         0.00000E+00
    0.63640E-07        -0.59274E-09         0.00000E+00
    0.63642E-07        -0.58376E-09         0.00000E+00
    0.63643E-07        -0.57311E-09         0.00000E+00
    0.63645E-07        -0.56080E-09         0.00000E+00
    0.63646E-07        -0.54681E-09         0.00000E+00
    0.63647E-07        -0.53115E-09         0.00000E+00
    0.63649E-07        -0.51380E-09         0.00000E+00
    0.63650E-07        -0.49474E-09         0.00000E+00
    0.63651E-07        -0.47396E-09         0.00000E+00
    0.63652E-07        -0.45141E-09         0.00000E+00
    0.63653E-07        -0.42707E-09         0.00000E+00
    0.63653E-07        -0.40089E-09         0.00000E+00
    0.63654E-07        -0.37283E-09         0.00000E+00
    0.63655E-07        -0.34283E-09         0.00000E+00
    0.63656E-07        -0.31082E-09         0.00000E+00
    0.63657E-07        -0.27676E-09         0.00000E+00
    0.63657E-07        -0.24056E-09         0.00000E+00
    0.63658E-07        -0.20217E-09         0.00000E+00
    0.63659E-07        -0.16149E-09         0.00000E+00
    0.63659E-07        -0.11847E-09         0.00000E+00
    0.63660E-07        -0.73014E-10         0.00000E+00
    0.63660E-07        -0.25055E-10         0.00000E+00
    0.66639E-07        -0.29353E-10         0.00000E+00
    0.66640E-07        -0.85774E-10         0.00000E+00
    0.66640E-07        -0.13883E-09         0.00000E+00
    0.66642E-07        -0.18862E-09         0.00000E+00
    0.66643E-07        -0.23521E-09         0.00000E+00
    0.66645E-07        -0.27870E-09         0.00000E+00
    0.66647E-07        -0.31915E-09         0.00000E+00
    0.66649E-07        -0.35667E-09         0.00000E+00
    0.66651E-07        -0.39131E-09         0.00000E+00
    0.66653E-07        -0.42317E-09         0.00000E+00
    0.66655E-07        -0.45232E-09         0.00000E+00
    0.66657E-07        -0.47884E-09         0.00000E+00
    0.66659E-07        -0.50280E-09         0.00000E+00
    0.66661E-07        -0.52427E-09         0.00000E+00
    0.66662E-07        -0.54334E-09         0.00000E+00
    0.66664E-07        -0.56006E-09         0.00000E+00
    0.66665E-07        -0.57451E-09         0.00000E+00
    0.66666E-07        -0.58676E-09         0.00000E+00
    0.66667E-07        -0.59687E-09         0.00000E+00
    0.66668E-07        -0.60491E-09         0.00000E+00
    0.66668E-07        -0.61093E-09         0.00000E+00
    0.66668E-07        -0.61500E-09         0.00000E+00
    0.66668E-07        -0.61717E-09         0.00000E+00
    0.66668E-07        -0.61749E-09         0.00000E+00
    0.66667E-07        -0.61602E-09         0.00000E+00
    0.66666E-07        -0.61280E-09         0.00000E+00
    0.66665E-07        -0.60787E-09         0.00000E+00
    0.66664E-07        -0.60127E-09         0.00000E+00
    0.66662E-07        -0.59304E-09         0.00000E+00
    0.66660E-07        -0.58320E-09         0.00000E+00
    0.66658E-07        -0.57177E-09         0.00000E+00
    0.66656E-07        -0.55877E-09         0.00000E+00
    0.66653E-07        -0.54421E-09         0.00000E+00
    0.66651E-07        -0.52810E-09         0.00000E+00
    0.66649E-07        -0.51041E-09         0.00000E+00
    0.66646E-07        -0.49115E-09         0.00000E+00
    0.66644E-07        -0.47029E-09         0.00000E+00
    0.66641E-07        -0.44779E-09         0.00000E+00
    0.66639E-07        -0.42361E-09         0.00000E+00
    0.66637E-07        -0.39770E-09         0.00000E+00
    0.66635E-07        -0.36999E-09         0.00000E+00
    0.66633E-07        -0.34042E-09         0.00000E+00
    0.66631E-07        -0.30890E-09         0.00000E+00
    0.66630E-07        -0.27533E-09         0.00000E+00
    0.66628E-07        -0.23963E-09         0.00000E+00
    0.66627E-07        -0.20169E-09         0.00000E+00
    0.66627E-07        -0.16139E-09         0.00000E+00
    0.66626E-07        -0.11863E-09         0.00000E+00
    0.66626E-07        -0.73268E-10         0.00000E+00
    0.66626E-07        -0.25200E-10         0.00000E+00
    0.69800E-07        -0.30281E-10         0.00000E+00
    0.69801E-07        -0.88362E-10         0.00000E+00
    0.69801E-07        -0.14279E-09         0.00000E+00
    0.69802E-07        -0.19367E-09         0.00000E+00
    0.69802E-07        -0.24108E-09         0.00000E+00
    0.69803E-07        -0.28513E-09         0.00000E+00
    0.69804E-07        -0.32590E-09         0.00000E+00
    0.69805E-07        -0.36349E-09         0.00000E+00
    0.69805E-07        -0.39799E-09         0.00000E+00
    0.69806E-07        -0.42949E-09         0.00000E+00
    0.69806E-07        -0.45809E-09         0.00000E+00
    0.69806E-07        -0.48387E-09         0.00000E+00
    0.69806E-07        -0.50692E-09         0.00000E+00
    0.69806E-07        -0.52734E-09         0.00000E+00
    0.69805E-07        -0.54521E-09         0.00000E+00
    0.69804E-07        -0.56062E-09         0.00000E+00
    0.69803E-07        -0.57364E-09         0.00000E+00
    0.69801E-07        -0.58438E-09         0.00000E+00
    0.69799E-07        -0.59290E-09         0.00000E+00
    0.69796E-07        -0.59929E-09         0.00000E+00
    0.69793E-07        -0.60362E-09         0.00000E+00
    0.69790E-07        -0.60598E-09         0.00000E+00
    0.69786E-07        -0.60644E-09         0.00000E+00
    0.69782E-07        -0.60506E-09         0.00000E+00
    0.69777E-07        -0.60193E-09         0.00000E+00
    0.69772E-07        -0.59709E-09         0.00000E+00
    0.69767E-07        -0.59063E-09         0.00000E+00
    0.69761E-07        -0.58259E-09         0.00000E+00
    0.69755E-07        -0.57303E-09         0.00000E+00
    0.69749E-07        -0.56200E-09         0.00000E+00
    0.69742E-07        -0.54954E-09         0.00000E+00
    0.69735E-07        -0.53570E-09         0.00000E+00
    0.69728E-07        -0.52050E-09         0.00000E+00
    0.69721E-07        -0.50396E-09         0.00000E+00
    0.69714E-07        -0.48610E-09         0.00000E+00
    0.69706E-07        -0.46692E-09         0.00000E+00
    0.69699E-07        -0.44640E-09         0.00000E+00
    0.69692E-07        -0.42453E-09         0.00000E+00
    0.69686E-07        -0.40126E-09         0.00000E+00
    0.69679E-07        -0.37653E-09         0.00000E+00
    0.69673E-07        -0.35028E-09         0.00000E+00
    0.69667E-07        -0.32240E-09         0.00000E+00
    0.69662E-07        -0.29279E-09         0.00000E+00
    0.69657E-07        -0.26132E-09         0.00000E+00
    0.69654E-07        -0.22784E-09         0.00000E+00
    0.69650E-07        -0.19219E-09         0.00000E+00
    0.69648E-07        -0.15419E-09         0.00000E+00
    0.69646E-07        -0.11366E-09         0.00000E+00
    0.69644E-07        -0.70451E-10         0.00000E+00
    0.69644E-07        -0.24351E-10         0.00000E+00
    0.73027E-07        -0.30746E-10         0.00000E+00
    0.73027E-07        -0.89565E-10         0.00000E+00
    0.73027E-07        -0.14445E-09         0.00000E+00
    0.73027E-07        -0.19550E-09         0.00000E+00
    0.73027E-07        -0.24282E-09         0.00000E+00
    0.73027E-07        -0.28652E-09         0.00000E+00
    0.73027E-07        -0.32670E-09         0.00000E+00
    0.73026E-07        -0.36347E-09         0.00000E+00
    0.73026E-07        -0.39693E-09         0.00000E+00
    0.73024E-07        -0.42719E-09         0.00000E+00
    0.73023E-07        -0.45436E-09         0.00000E+00
    0.73021E-07        -0.47853E-09         0.00000E+00
    0.73019E-07        -0.49982E-09         0.00000E+00
    0.73016E-07        -0.51833E-09         0.00000E+00
    0.73012E-07        -0.53415E-09         0.00000E+00
    0.73009E-07        -0.54740E-09         0.00000E+00
    0.73004E-07        -0.55817E-09         0.00000E+00
    0.72999E-07        -0.56657E-09         0.00000E+00
    0.72994E-07        -0.57268E-09         0.00000E+00
    0.72988E-07        -0.57662E-09         0.00000E+00
    0.72981E-07        -0.57847E-09         0.00000E+00
    0.72974E-07        -0.57832E-09         0.00000E+00
    0.72966E-07        -0.57628E-09         0.00000E+00
    0.72958E-07        -0.57244E-09         0.00000E+00
    0.72949E-07        -0.56688E-09         0.00000E+00
    0.72940E-07        -0.55969E-09         0.00000E+00
    0.72930E-07        -0.55095E-09         0.00000E+00
    0.72919E-07        -0.54077E-09         0.00000E+00
    0.72908E-07        -0.52920E-09         0.00000E+00
    0.72896E-07        -0.51635E-09         0.00000E+00
    0.72885E-07        -0.50227E-09         0.00000E+00
    0.72872E-07        -0.48705E-09         0.00000E+00
    0.72860E-07        -0.47074E-09         0.00000E+00
    0.72847E-07        -0.45342E-09         0.00000E+00
    0.72834E-07        -0.43513E-09         0.00000E+00
    0.72820E-07        -0.41592E-09         0.00000E+00
    0.72807E-07        -0.39581E-09         0.00000E+00
    0.72794E-07        -0.37483E-09         0.00000E+00
    0.72781E-07        -0.35297E-09         0.00000E+00
    0.72769E-07        -0.33021E-09         0.00000E+00
    0.72757E-07        -0.30649E-09         0.00000E+00
    0.72746E-07        -0.28172E-09         0.00000E+00
    0.72735E-07        -0.25575E-09         0.00000E+00
    0.72726E-07        -0.22843E-09         0.00000E+00
    0.72718E-07        -0.19955E-09         0.00000E+00
    0.72711E-07        -0.16887E-09         0.00000E+00
    0.72705E-07        -0.13611E-09         0.00000E+00
    0.72701E-07        -0.10093E-09         0.00000E+00
    0.72698E-07        -0.62958E-10         0.00000E+00
    0.72697E-07        -0.21887E-10         0.00000E+00
    0.76303E-07        -0.30745E-10         0.00000E+00
    0.76302E-07        -0.89360E-10         0.00000E+00
    0.76302E-07        -0.14375E-09         0.00000E+00
    0.76302E-07        -0.19402E-09         0.00000E+00
    0.76301E-07        -0.24029E-09         0.00000E+00
    0.76300E-07        -0.28269E-09         0.00000E+00
    0.76298E-07        -0.32132E-09         0.00000E+00
    0.76296E-07        -0.35632E-09         0.00000E+00
    0.76294E-07        -0.38780E-09         0.00000E+00
    0.76291E-07        -0.41589E-09         0.00000E+00
    0.76288E-07        -0.44070E-09         0.00000E+00
    0.76284E-07        -0.46236E-09         0.00000E+00
    0.76279E-07        -0.48098E-09         0.00000E+00
    0.76274E-07        -0.49669E-09         0.00000E+00
    0.76268E-07        -0.50960E-09         0.00000E+00
    0.76261E-07        -0.51983E-09         0.00000E+00
    0.76254E-07        -0.52749E-09         0.00000E+00
    0.76246E-07        -0.53270E-09         0.00000E+00
    0.76237E-07        -0.53557E-09         0.00000E+00
    0.76227E-07        -0.53621E-09         0.00000E+00
    0.76217E-07        -0.53474E-09         0.00000E+00
    0.76206E-07        -0.53126E-09         0.00000E+00
    0.76194E-07        -0.52588E-09         0.00000E+00
    0.76182E-07        -0.51872E-09         0.00000E+00
    0.76169E-07        -0.50987E-09         0.00000E+00
    0.76155E-07        -0.49944E-09         0.00000E+00
    0.76140E-07        -0.48755E-09         0.00000E+00
    0.76125E-07        -0.47430E-09         0.00000E+00
    0.76109E-07        -0.45979E-09         0.00000E+00
    0.76092E-07        -0.44415E-09         0.00000E+00
    0.76074E-07        -0.42747E-09         0.00000E+00
    0.76056E-07        -0.40986E-09         0.00000E+00
    0.76038E-07        -0.39145E-09         0.00000E+00
    0.76018E-07        -0.37234E-09         0.00000E+00
    0.75999E-07        -0.35265E-09         0.00000E+00
    0.75979E-07        -0.33249E-09         0.00000E+00
    0.75959E-07        -0.31197E-09         0.00000E+00
    0.75938E-07        -0.29119E-09         0.00000E+00
    0.75918E-07        -0.27025E-09         0.00000E+00
    0.75897E-07        -0.24922E-09         0.00000E+00
    0.75877E-07        -0.22820E-09         0.00000E+00
    0.75858E-07        -0.20722E-09         0.00000E+00
    0.75840E-07        -0.18630E-09         0.00000E+00
    0.75822E-07        -0.16534E-09         0.00000E+00
    0.75807E-07        -0.14409E-09         0.00000E+00
    0.75794E-07        -0.12219E-09         0.00000E+00
    0.75783E-07        -0.99119E-10         0.00000E+00
    0.75774E-07        -0.74337E-10         0.00000E+00
    0.75768E-07        -0.47221E-10         0.00000E+00
    0.75766E-07        -0.16878E-10         0.00000E+00
    0.79606E-07        -0.30269E-10         0.00000E+00
    0.79606E-07        -0.87712E-10         0.00000E+00
    0.79605E-07        -0.14061E-09         0.00000E+00
    0.79604E-07        -0.18910E-09         0.00000E+00
    0.79603E-07        -0.23333E-09         0.00000E+00
    0.79600E-07        -0.27342E-09         0.00000E+00
    0.79598E-07        -0.30952E-09         0.00000E+00
    0.79594E-07        -0.34177E-09         0.00000E+00
    0.79590E-07        -0.37031E-09         0.00000E+00
    0.79586E-07        -0.39528E-09         0.00000E+00
    0.79580E-07        -0.41682E-09         0.00000E+00
    0.79574E-07        -0.43506E-09         0.00000E+00
    0.79567E-07        -0.45015E-09         0.00000E+00
    0.79559E-07        -0.46222E-09         0.00000E+00
    0.79551E-07        -0.47140E-09         0.00000E+00
    0.79541E-07        -0.47782E-09         0.00000E+00
    0.79531E-07        -0.48160E-09         0.00000E+00
    0.79520E-07        -0.48289E-09         0.00000E+00
    0.79508E-07        -0.48179E-09         0.00000E+00
    0.79495E-07        -0.47843E-09         0.00000E+00
    0.79481E-07        -0.47294E-09         0.00000E+00
    0.79467E-07        -0.46543E-09         0.00000E+00
    0.79451E-07        -0.45602E-09         0.00000E+00
    0.79435E-07        -0.44483E-09         0.00000E+00
    0.79418E-07        -0.43197E-09         0.00000E+00
    0.79400E-07        -0.41756E-09         0.00000E+00
    0.79381E-07        -0.40172E-09         0.00000E+00
    0.79361E-07        -0.38456E-09         0.00000E+00
    0.79341E-07        -0.36622E-09         0.00000E+00
    0.79320E-07        -0.34680E-09         0.00000E+00
    0.79297E-07        -0.32645E-09         0.00000E+00
    0.79274E-07        -0.30529E-09         0.00000E+00
    0.79250E-07        -0.28347E-09         0.00000E+00
    0.79226E-07        -0.26113E-09         0.00000E+00
    0.79200E-07        -0.23842E-09         0.00000E+00
    0.79174E-07        -0.21553E-09         0.00000E+00
    0.79147E-07        -0.19264E-09         0.00000E+00
    0.79119E-07        -0.16999E-09         0.00000E+00
    0.79091E-07        -0.14781E-09         0.00000E+00
    0.79062E-07        -0.12634E-09         0.00000E+00
    0.79033E-07        -0.10580E-09         0.00000E+00
    0.79004E-07        -0.86418E-10         0.00000E+00
    0.78975E-07        -0.68452E-10         0.00000E+00
    0.78946E-07        -0.52327E-10         0.00000E+00
    0.78917E-07        -0.38591E-10         0.00000E+00
    0.78891E-07        -0.27737E-10         0.00000E+00
    0.78867E-07        -0.19996E-10         0.00000E+00
    0.78848E-07        -0.14636E-10         0.00000E+00
    0.78834E-07        -0.10183E-10         0.00000E+00
    0.78827E-07        -0.46579E-11         0.00000E+00
    0.82914E-07        -0.29269E-10         0.00000E+00
    0.82914E-07        -0.84475E-10         0.00000E+00
    0.82913E-07        -0.13480E-09         0.00000E+00
    0.82911E-07        -0.18043E-09         0.00000E+00
    0.82908E-07        -0.22151E-09         0.00000E+00
    0.82905E-07        -0.25823E-09         0.00000E+00
    0.82901E-07        -0.29074E-09         0.00000E+00
    0.82896E-07        -0.31922E-09         0.00000E+00
    0.82890E-07        -0.34384E-09         0.00000E+00
    0.82884E-07        -0.36476E-09         0.00000E+00
    0.82876E-07        -0.38213E-09         0.00000E+00
    0.82868E-07        -0.39612E-09         0.00000E+00
    0.82858E-07        -0.40688E-09         0.00000E+00
    0.82848E-07        -0.41457E-09         0.00000E+00
    0.82836E-07        -0.41933E-09         0.00000E+00
    0.82824E-07        -0.42131E-09         0.00000E+00
    0.82811E-07        -0.42065E-09         0.00000E+00
    0.82797E-07        -0.41748E-09         0.00000E+00
    0.82782E-07        -0.41194E-09         0.00000E+00
    0.82766E-07        -0.40415E-09         0.00000E+00
    0.82749E-07        -0.39426E-09         0.00000E+00
    0.82731E-07        -0.38237E-09         0.00000E+00
    0.82712E-07        -0.36861E-09         0.00000E+00
    0.82693E-07        -0.35310E-09         0.00000E+00
    0.82672E-07        -0.33596E-09         0.00000E+00
    0.82651E-07        -0.31730E-09         0.00000E+00
    0.82629E-07        -0.29723E-09         0.00000E+00
    0.82606E-07        -0.27588E-09         0.00000E+00
    0.82582E-07        -0.25335E-09         0.00000E+00
    0.82558E-07        -0.22976E-09         0.00000E+00
    0.82532E-07        -0.20523E-09         0.00000E+00
    0.82506E-07        -0.17989E-09         0.00000E+00
    0.82479E-07        -0.15390E-09         0.00000E+00
    0.82451E-07        -0.12742E-09         0.00000E+00
    0.82422E-07        -0.10061E-09         0.00000E+00
    0.82392E-07        -0.73625E-10         0.00000E+00
    0.82362E-07        -0.46636E-10         0.00000E+00
    0.82330E-07        -0.19782E-10         0.00000E+00
    0.82297E-07         0.66717E-11         0.00000E+00
    0.82263E-07         0.32335E-10         0.00000E+00
    0.82228E-07         0.56679E-10         0.00000E+00
    0.82192E-07         0.79024E-10         0.00000E+00
    0.82155E-07         0.98610E-10         0.00000E+00
    0.82117E-07         0.11518E-09         0.00000E+00
    0.82078E-07         0.12852E-09         0.00000E+00
    0.82038E-07         0.13780E-09         0.00000E+00
    0.81997E-07         0.14143E-09         0.00000E+00
    0.81954E-07         0.13463E-09         0.00000E+00
    0.81914E-07         0.10470E-09         0.00000E+00
    0.81890E-07         0.40313E-10         0.00000E+00
    0.86199E-07        -0.27623E-10         0.00000E+00
    0.86199E-07        -0.79291E-10         0.00000E+00
    0.86197E-07        -0.12575E-09         0.00000E+00
    0.86194E-07        -0.16723E-09         0.00000E+00
    0.86191E-07        -0.20392E-09         0.00000E+00
    0.86186E-07        -0.23605E-09         0.00000E+00
    0.86180E-07        -0.26383E-09         0.00000E+00
    0.86173E-07        -0.28744E-09         0.00000E+00
    0.86165E-07        -0.30710E-09         0.00000E+00
    0.86156E-07        -0.32300E-09         0.00000E+00
    0.86146E-07        -0.33533E-09         0.00000E+00
    0.86135E-07        -0.34426E-09         0.00000E+00
    0.86123E-07        -0.34998E-09         0.00000E+00
    0.86110E-07        -0.35265E-09         0.00000E+00
    0.86095E-07        -0.35245E-09         0.00000E+00
    0.86080E-07        -0.34953E-09         0.00000E+00
    0.86063E-07        -0.34405E-09         0.00000E+00
    0.86046E-07        -0.33615E-09         0.00000E+00
    0.86027E-07        -0.32599E-09         0.00000E+00
    0.86008E-07        -0.31368E-09         0.00000E+00
    0.85988E-07        -0.29938E-09         0.00000E+00
    0.85967E-07        -0.28319E-09         0.00000E+00
    0.85945E-07        -0.26525E-09         0.00000E+00
    0.85923E-07        -0.24567E-09         0.00000E+00
    0.85899E-07        -0.22455E-09         0.00000E+00
    0.85875E-07        -0.20201E-09         0.00000E+00
    0.85850E-07        -0.17815E-09         0.00000E+00
    0.85825E-07        -0.15310E-09         0.00000E+00
    0.85799E-07        -0.12695E-09         0.00000E+00
    0.85772E-07        -0.99828E-10         0.00000E+00
    0.85745E-07        -0.71806E-10         0.00000E+00
    0.85717E-07        -0.42976E-10         0.00000E+00
    0.85689E-07        -0.13386E-10         0.00000E+00
    0.85660E-07         0.16904E-10         0.00000E+00
    0.85630E-07         0.47736E-10         0.00000E+00
    0.85600E-07         0.78889E-10         0.00000E+00
    0.85568E-07         0.11011E-09         0.00000E+00
    0.85537E-07         0.14090E-09         0.00000E+00
    0.85504E-07         0.17112E-09         0.00000E+00
    0.85471E-07         0.20093E-09         0.00000E+00
    0.85438E-07         0.23040E-09         0.00000E+00
    0.85404E-07         0.25967E-09         0.00000E+00
    0.85367E-07         0.28892E-09         0.00000E+00
    0.85326E-07         0.31596E-09         0.00000E+00
    0.85284E-07         0.33261E-09         0.00000E+00
    0.85244E-07         0.33229E-09         0.00000E+00
    0.85213E-07         0.31276E-09         0.00000E+00
    0.85195E-07         0.26670E-09         0.00000E+00
    0.85192E-07         0.18432E-09         0.00000E+00
    0.85195E-07         0.66576E-10         0.00000E+00
    0.89430E-07        -0.25108E-10         0.00000E+00
    0.89429E-07        -0.71528E-10         0.00000E+00
    0.89426E-07        -0.11246E-09         0.00000E+00
    0.89422E-07        -0.14819E-09         0.00000E+00
    0.89417E-07        -0.17897E-09         0.00000E+00
    0.89411E-07        -0.20508E-09         0.00000E+00
    0.89403E-07        -0.22676E-09         0.00000E+00
    0.89394E-07        -0.24426E-09         0.00000E+00
    0.89383E-07        -0.25782E-09         0.00000E+00
    0.89371E-07        -0.26766E-09         0.00000E+00
    0.89358E-07        -0.27400E-09         0.00000E+00
    0.89343E-07        -0.27706E-09         0.00000E+00
    0.89328E-07        -0.27703E-09         0.00000E+00
    0.89311E-07        -0.27411E-09         0.00000E+00
    0.89293E-07        -0.26848E-09         0.00000E+00
    0.89273E-07        -0.26033E-09         0.00000E+00
    0.89253E-07        -0.24981E-09         0.00000E+00
    0.89232E-07        -0.23709E-09         0.00000E+00
    0.89210E-07        -0.22231E-09         0.00000E+00
    0.89187E-07        -0.20563E-09         0.00000E+00
    0.89163E-07        -0.18717E-09         0.00000E+00
    0.89138E-07        -0.16707E-09         0.00000E+00
    0.89113E-07        -0.14545E-09         0.00000E+00
    0.89087E-07        -0.12245E-09         0.00000E+00
    0.89060E-07        -0.98179E-10         0.00000E+00
    0.89033E-07        -0.72716E-10         0.00000E+00
    0.89006E-07        -0.46151E-10         0.00000E+00
    0.88978E-07        -0.18533E-10         0.00000E+00
    0.88949E-07         0.10109E-10         0.00000E+00
    0.88921E-07         0.39665E-10         0.00000E+00
    0.88892E-07         0.70011E-10         0.00000E+00
    0.88862E-07         0.10102E-09         0.00000E+00
    0.88833E-07         0.13240E-09         0.00000E+00
    0.88803E-07         0.16390E-09         0.00000E+00
    0.88774E-07         0.19571E-09         0.00000E+00
    0.88745E-07         0.22805E-09         0.00000E+00
    0.88716E-07         0.26105E-09         0.00000E+00
    0.88687E-07         0.29580E-09         0.00000E+00
    0.88656E-07         0.33195E-09         0.00000E+00
    0.88623E-07         0.36758E-09         0.00000E+00
    0.88590E-07         0.39680E-09         0.00000E+00
    0.88560E-07         0.41543E-09         0.00000E+00
    0.88539E-07         0.42444E-09         0.00000E+00
    0.88532E-07         0.41843E-09         0.00000E+00
    0.88542E-07         0.39074E-09         0.00000E+00
    0.88568E-07         0.34327E-09         0.00000E+00
    0.88604E-07         0.28070E-09         0.00000E+00
    0.88640E-07         0.20338E-09         0.00000E+00
    0.88670E-07         0.11753E-09         0.00000E+00
    0.88685E-07         0.37523E-10         0.00000E+00
    0.92570E-07        -0.21413E-10         0.00000E+00
    0.92568E-07        -0.60298E-10         0.00000E+00
    0.92564E-07        -0.93542E-10         0.00000E+00
    0.92559E-07        -0.12149E-09         0.00000E+00
    0.92552E-07        -0.14446E-09         0.00000E+00
    0.92543E-07        -0.16278E-09         0.00000E+00
    0.92532E-07        -0.17675E-09         0.00000E+00
    0.92520E-07        -0.18666E-09         0.00000E+00
    0.92506E-07        -0.19278E-09         0.00000E+00
    0.92491E-07        -0.19537E-09         0.00000E+00
    0.92473E-07        -0.19469E-09         0.00000E+00
    0.92455E-07        -0.19097E-09         0.00000E+00
    0.92435E-07        -0.18443E-09         0.00000E+00
    0.92414E-07        -0.17529E-09         0.00000E+00
    0.92391E-07        -0.16376E-09         0.00000E+00
    0.92367E-07        -0.15003E-09         0.00000E+00
    0.92342E-07        -0.13427E-09         0.00000E+00
    0.92316E-07        -0.11667E-09         0.00000E+00
    0.92289E-07        -0.97394E-10         0.00000E+00
    0.92262E-07        -0.76589E-10         0.00000E+00
    0.92233E-07        -0.54381E-10         0.00000E+00
    0.92204E-07        -0.30907E-10         0.00000E+00
    0.92174E-07        -0.62592E-11         0.00000E+00
    0.92144E-07         0.19500E-10         0.00000E+00
    0.92113E-07         0.46236E-10         0.00000E+00
    0.92082E-07         0.73819E-10         0.00000E+00
    0.92051E-07         0.10214E-09         0.00000E+00
    0.92019E-07         0.13092E-09         0.00000E+00
    0.91988E-07         0.15990E-09         0.00000E+00
    0.91956E-07         0.18921E-09         0.00000E+00
    0.91926E-07         0.21896E-09         0.00000E+00
    0.91896E-07         0.24918E-09         0.00000E+00
    0.91866E-07         0.28083E-09         0.00000E+00
    0.91836E-07         0.31462E-09         0.00000E+00
    0.91804E-07         0.34954E-09         0.00000E+00
    0.91771E-07         0.38149E-09         0.00000E+00
    0.91740E-07         0.40670E-09         0.00000E+00
    0.91714E-07         0.42627E-09         0.00000E+00
    0.91698E-07         0.43866E-09         0.00000E+00
    0.91695E-07         0.43913E-09         0.00000E+00
    0.91709E-07         0.42337E-09         0.00000E+00
    0.91738E-07         0.39314E-09         0.00000E+00
    0.91778E-07         0.35273E-09         0.00000E+00
    0.91823E-07         0.29950E-09         0.00000E+00
    0.91867E-07         0.23694E-09         0.00000E+00
    0.91906E-07         0.17459E-09         0.00000E+00
    0.91937E-07         0.11820E-09         0.00000E+00
    0.91959E-07         0.70592E-10         0.00000E+00
    0.91973E-07         0.34113E-10         0.00000E+00
    0.91980E-07         0.97114E-11         0.00000E+00
    0.95579E-07        -0.16163E-10         0.00000E+00
    0.95577E-07        -0.44563E-10         0.00000E+00
    0.95572E-07        -0.67381E-10         0.00000E+00
    0.95564E-07        -0.85021E-10         0.00000E+00
    0.95555E-07        -0.97868E-10         0.00000E+00
    0.95543E-07        -0.10629E-09         0.00000E+00
    0.95529E-07        -0.11062E-09         0.00000E+00
    0.95513E-07        -0.11119E-09         0.00000E+00
    0.95495E-07        -0.10831E-09         0.00000E+00
    0.95475E-07        -0.10228E-09         0.00000E+00
    0.95453E-07        -0.93358E-10         0.00000E+00
    0.95430E-07        -0.81817E-10         0.00000E+00
    0.95405E-07        -0.67906E-10         0.00000E+00
    0.95378E-07        -0.51859E-10         0.00000E+00
    0.95350E-07        -0.33874E-10         0.00000E+00
    0.95321E-07        -0.14156E-10         0.00000E+00
    0.95290E-07         0.70874E-11         0.00000E+00
    0.95259E-07         0.29705E-10         0.00000E+00
    0.95226E-07         0.53569E-10         0.00000E+00
    0.95193E-07         0.78489E-10         0.00000E+00
    0.95158E-07         0.10430E-09         0.00000E+00
    0.95123E-07         0.13089E-09         0.00000E+00
    0.95088E-07         0.15797E-09         0.00000E+00
    0.95052E-07         0.18524E-09         0.00000E+00
    0.95016E-07         0.21273E-09         0.00000E+00
    0.94981E-07         0.24038E-09         0.00000E+00
    0.94946E-07         0.26821E-09         0.00000E+00
    0.94911E-07         0.29714E-09         0.00000E+00
    0.94876E-07         0.32808E-09         0.00000E+00
    0.94839E-07         0.36011E-09         0.00000E+00
    0.94801E-07         0.38975E-09         0.00000E+00
    0.94764E-07         0.41387E-09         0.00000E+00
    0.94731E-07         0.43354E-09         0.00000E+00
    0.94703E-07         0.44977E-09         0.00000E+00
    0.94686E-07         0.45780E-09         0.00000E+00
    0.94683E-07         0.45368E-09         0.00000E+00
    0.94693E-07         0.43660E-09         0.00000E+00
    0.94716E-07         0.41003E-09         0.00000E+00
    0.94749E-07         0.37536E-09         0.00000E+00
    0.94787E-07         0.32905E-09         0.00000E+00
    0.94825E-07         0.27469E-09         0.00000E+00
    0.94860E-07         0.21965E-09         0.00000E+00
    0.94892E-07         0.16797E-09         0.00000E+00
    0.94919E-07         0.12084E-09         0.00000E+00
    0.94942E-07         0.80033E-10         0.00000E+00
    0.94960E-07         0.46838E-10         0.00000E+00
    0.94974E-07         0.21472E-10         0.00000E+00
    0.94985E-07         0.45101E-11         0.00000E+00
    0.94992E-07        -0.36926E-11         0.00000E+00
    0.94995E-07        -0.27702E-11         0.00000E+00
    0.98415E-07        -0.90242E-11         0.00000E+00
    0.98412E-07        -0.23351E-10         0.00000E+00
    0.98406E-07        -0.32464E-10         0.00000E+00
    0.98396E-07        -0.36818E-10         0.00000E+00
    0.98384E-07        -0.36835E-10         0.00000E+00
    0.98369E-07        -0.32909E-10         0.00000E+00
    0.98351E-07        -0.25411E-10         0.00000E+00
    0.98331E-07        -0.14699E-10         0.00000E+00
    0.98308E-07        -0.10866E-11         0.00000E+00
    0.98283E-07         0.15128E-10         0.00000E+00
    0.98256E-07         0.33633E-10         0.00000E+00
    0.98227E-07         0.54151E-10         0.00000E+00
    0.98196E-07         0.76458E-10         0.00000E+00
    0.98163E-07         0.10034E-09         0.00000E+00
    0.98129E-07         0.12552E-09         0.00000E+00
    0.98093E-07         0.15184E-09         0.00000E+00
    0.98056E-07         0.17911E-09         0.00000E+00
    0.98018E-07         0.20699E-09         0.00000E+00
    0.97979E-07         0.23509E-09         0.00000E+00
    0.97939E-07         0.26335E-09         0.00000E+00
    0.97899E-07         0.29165E-09         0.00000E+00
    0.97858E-07         0.32004E-09         0.00000E+00
    0.97818E-07         0.34948E-09         0.00000E+00
    0.97776E-07         0.38083E-09         0.00000E+00
    0.97733E-07         0.41326E-09         0.00000E+00
    0.97688E-07         0.44268E-09         0.00000E+00
    0.97642E-07         0.46658E-09         0.00000E+00
    0.97600E-07         0.48722E-09         0.00000E+00
    0.97561E-07         0.50605E-09         0.00000E+00
    0.97530E-07         0.51914E-09         0.00000E+00
    0.97510E-07         0.52127E-09         0.00000E+00
    0.97501E-07         0.51064E-09         0.00000E+00
    0.97504E-07         0.49151E-09         0.00000E+00
    0.97517E-07         0.46665E-09         0.00000E+00
    0.97536E-07         0.43093E-09         0.00000E+00
    0.97558E-07         0.38530E-09         0.00000E+00
    0.97582E-07         0.33443E-09         0.00000E+00
    0.97604E-07         0.28245E-09         0.00000E+00
    0.97626E-07         0.23215E-09         0.00000E+00
    0.97646E-07         0.18347E-09         0.00000E+00
    0.97665E-07         0.13819E-09         0.00000E+00
    0.97681E-07         0.97338E-10         0.00000E+00
    0.97695E-07         0.61275E-10         0.00000E+00
    0.97707E-07         0.30909E-10         0.00000E+00
    0.97717E-07         0.67215E-11         0.00000E+00
    0.97725E-07        -0.10945E-10         0.00000E+00
    0.97731E-07        -0.21615E-10         0.00000E+00
    0.97735E-07        -0.24944E-10         0.00000E+00
    0.97737E-07        -0.20582E-10         0.00000E+00
    0.97739E-07        -0.82137E-11         0.00000E+00
    0.10103E-06         0.28340E-12         0.00000E+00
    0.10103E-06         0.40274E-11         0.00000E+00
    0.10102E-06         0.12225E-10         0.00000E+00
    0.10101E-06         0.24419E-10         0.00000E+00
    0.10099E-06         0.40164E-10         0.00000E+00
    0.10098E-06         0.59044E-10         0.00000E+00
    0.10095E-06         0.80680E-10         0.00000E+00
    0.10093E-06         0.10477E-09         0.00000E+00
    0.10090E-06         0.13098E-09         0.00000E+00
    0.10087E-06         0.15899E-09         0.00000E+00
    0.10084E-06         0.18861E-09         0.00000E+00
    0.10080E-06         0.21953E-09         0.00000E+00
    0.10077E-06         0.25129E-09         0.00000E+00
    0.10073E-06         0.28346E-09         0.00000E+00
    0.10069E-06         0.31588E-09         0.00000E+00
    0.10065E-06         0.34845E-09         0.00000E+00
    0.10060E-06         0.38139E-09         0.00000E+00
    0.10056E-06         0.41576E-09         0.00000E+00
    0.10051E-06         0.45231E-09         0.00000E+00
    0.10046E-06         0.48862E-09         0.00000E+00
    0.10041E-06         0.52089E-09         0.00000E+00
    0.10036E-06         0.54890E-09         0.00000E+00
    0.10031E-06         0.57507E-09         0.00000E+00
    0.10026E-06         0.60051E-09         0.00000E+00
    0.10022E-06         0.62195E-09         0.00000E+00
    0.10019E-06         0.63246E-09         0.00000E+00
    0.10016E-06         0.63014E-09         0.00000E+00
    0.10015E-06         0.62014E-09         0.00000E+00
    0.10014E-06         0.60507E-09         0.00000E+00
    0.10014E-06         0.58106E-09         0.00000E+00
    0.10014E-06         0.54579E-09         0.00000E+00
    0.10014E-06         0.50182E-09         0.00000E+00
    0.10015E-06         0.45414E-09         0.00000E+00
    0.10016E-06         0.40548E-09         0.00000E+00
    0.10017E-06         0.35532E-09         0.00000E+00
    0.10018E-06         0.30459E-09         0.00000E+00
    0.10018E-06         0.25499E-09         0.00000E+00
    0.10019E-06         0.20708E-09         0.00000E+00
    0.10020E-06         0.16152E-09         0.00000E+00
    0.10021E-06         0.11947E-09         0.00000E+00
    0.10021E-06         0.81457E-10         0.00000E+00
    0.10022E-06         0.47974E-10         0.00000E+00
    0.10022E-06         0.19559E-10         0.00000E+00
    0.10022E-06        -0.34445E-11         0.00000E+00
    0.10023E-06        -0.20665E-10         0.00000E+00
    0.10023E-06        -0.31757E-10         0.00000E+00
    0.10023E-06        -0.36458E-10         0.00000E+00
    0.10023E-06        -0.34512E-10         0.00000E+00
    0.10023E-06        -0.25697E-10         0.00000E+00
    0.10023E-06        -0.98293E-11         0.00000E+00
    0.10339E-06         0.11719E-10         0.00000E+00
    0.10338E-06         0.37585E-10         0.00000E+00
    0.10337E-06         0.66673E-10         0.00000E+00
    0.10336E-06         0.98571E-10         0.00000E+00
    0.10334E-06         0.13295E-09         0.00000E+00
    0.10332E-06         0.16946E-09         0.00000E+00
    0.10329E-06         0.20768E-09         0.00000E+00
    0.10326E-06         0.24695E-09         0.00000E+00
    0.10323E-06         0.28694E-09         0.00000E+00
    0.10320E-06         0.32757E-09         0.00000E+00
    0.10316E-06         0.36875E-09         0.00000E+00
    0.10312E-06         0.41101E-09         0.00000E+00
    0.10308E-06         0.45541E-09         0.00000E+00
    0.10303E-06         0.50167E-09         0.00000E+00
    0.10298E-06         0.54551E-09         0.00000E+00
    0.10293E-06         0.58481E-09         0.00000E+00
    0.10288E-06         0.62179E-09         0.00000E+00
    0.10283E-06         0.65842E-09         0.00000E+00
    0.10278E-06         0.69536E-09         0.00000E+00
    0.10273E-06         0.72841E-09         0.00000E+00
    0.10268E-06         0.75116E-09         0.00000E+00
    0.10265E-06         0.76228E-09         0.00000E+00
    0.10262E-06         0.76656E-09         0.00000E+00
    0.10259E-06         0.76685E-09         0.00000E+00
    0.10257E-06         0.75949E-09         0.00000E+00
    0.10256E-06         0.74012E-09         0.00000E+00
    0.10255E-06         0.70997E-09         0.00000E+00
    0.10254E-06         0.67391E-09         0.00000E+00
    0.10253E-06         0.63428E-09         0.00000E+00
    0.10252E-06         0.59081E-09         0.00000E+00
    0.10252E-06         0.54342E-09         0.00000E+00
    0.10251E-06         0.49356E-09         0.00000E+00
    0.10251E-06         0.44213E-09         0.00000E+00
    0.10251E-06         0.38969E-09         0.00000E+00
    0.10251E-06         0.33760E-09         0.00000E+00
    0.10251E-06         0.28674E-09         0.00000E+00
    0.10250E-06         0.23772E-09         0.00000E+00
    0.10250E-06         0.19125E-09         0.00000E+00
    0.10250E-06         0.14795E-09         0.00000E+00
    0.10250E-06         0.10822E-09         0.00000E+00
    0.10250E-06         0.72573E-10         0.00000E+00
    0.10250E-06         0.41411E-10         0.00000E+00
    0.10249E-06         0.15080E-10         0.00000E+00
    0.10249E-06        -0.60751E-11         0.00000E+00
    0.10249E-06        -0.21749E-10         0.00000E+00
    0.10249E-06        -0.31667E-10         0.00000E+00
    0.10249E-06        -0.35578E-10         0.00000E+00
    0.10249E-06        -0.33277E-10         0.00000E+00
    0.10249E-06        -0.24597E-10         0.00000E+00
    0.10249E-06        -0.93815E-11         0.00000E+00
    0.10543E-06         0.25324E-10         0.00000E+00
    0.10542E-06         0.76717E-10         0.00000E+00
    0.10541E-06         0.12916E-09         0.00000E+00
    0.10540E-06         0.18259E-09         0.00000E+00
    0.10538E-06         0.23701E-09         0.00000E+00
    0.10535E-06         0.29277E-09         0.00000E+00
    0.10533E-06         0.35052E-09         0.00000E+00
    0.10529E-06         0.41069E-09         0.00000E+00
    0.10526E-06         0.46990E-09         0.00000E+00
    0.10522E-06         0.52537E-09         0.00000E+00
    0.10517E-06         0.57851E-09         0.00000E+00
    0.10512E-06         0.63088E-09         0.00000E+00
    0.10508E-06         0.68401E-09         0.00000E+00
    0.10503E-06         0.73726E-09         0.00000E+00
    0.10498E-06         0.78489E-09         0.00000E+00
    0.10494E-06         0.82237E-09         0.00000E+00
    0.10490E-06         0.85064E-09         0.00000E+00
    0.10486E-06         0.87468E-09         0.00000E+00
    0.10483E-06         0.89611E-09         0.00000E+00
    0.10480E-06         0.91063E-09         0.00000E+00
    0.10478E-06         0.91418E-09         0.00000E+00
    0.10475E-06         0.90589E-09         0.00000E+00
    0.10473E-06         0.88983E-09         0.00000E+00
    0.10471E-06         0.86894E-09         0.00000E+00
    0.10469E-06         0.84245E-09         0.00000E+00
    0.10467E-06         0.80947E-09         0.00000E+00
    0.10466E-06         0.77081E-09         0.00000E+00
    0.10465E-06         0.72750E-09         0.00000E+00
    0.10464E-06         0.68000E-09         0.00000E+00
    0.10463E-06         0.62943E-09         0.00000E+00
    0.10462E-06         0.57687E-09         0.00000E+00
    0.10461E-06         0.52300E-09         0.00000E+00
    0.10460E-06         0.46860E-09         0.00000E+00
    0.10459E-06         0.41448E-09         0.00000E+00
    0.10458E-06         0.36120E-09         0.00000E+00
    0.10457E-06         0.30939E-09         0.00000E+00
    0.10457E-06         0.25964E-09         0.00000E+00
    0.10456E-06         0.21248E-09         0.00000E+00
    0.10455E-06         0.16837E-09         0.00000E+00
    0.10455E-06         0.12778E-09         0.00000E+00
    0.10454E-06         0.91143E-10         0.00000E+00
    0.10453E-06         0.58837E-10         0.00000E+00
    0.10453E-06         0.31235E-10         0.00000E+00
    0.10453E-06         0.86516E-11         0.00000E+00
    0.10452E-06        -0.86362E-11         0.00000E+00
    0.10452E-06        -0.20381E-10         0.00000E+00
    0.10452E-06        -0.26365E-10         0.00000E+00
    0.10451E-06        -0.26391E-10         0.00000E+00
    0.10451E-06        -0.20282E-10         0.00000E+00
    0.10451E-06        -0.78967E-11         0.00000E+00
    0.10712E-06         0.40060E-10         0.00000E+00
    0.10711E-06         0.12023E-09         0.00000E+00
    0.10710E-06         0.19939E-09         0.00000E+00
    0.10709E-06         0.27672E-09         0.00000E+00
    0.10706E-06         0.35269E-09         0.00000E+00
    0.10704E-06         0.42821E-09         0.00000E+00
    0.10701E-06         0.50433E-09         0.00000E+00
    0.10697E-06         0.58153E-09         0.00000E+00
    0.10694E-06         0.65553E-09         0.00000E+00
    0.10690E-06         0.72138E-09         0.00000E+00
    0.10687E-06         0.77841E-09         0.00000E+00
    0.10684E-06         0.83101E-09         0.00000E+00
    0.10680E-06         0.88235E-09         0.00000E+00
    0.10677E-06         0.92954E-09         0.00000E+00
    0.10674E-06         0.96953E-09         0.00000E+00
    0.10672E-06         0.99902E-09         0.00000E+00
    0.10669E-06         0.10173E-08         0.00000E+00
    0.10666E-06         0.10286E-08         0.00000E+00
    0.10663E-06         0.10351E-08         0.00000E+00
    0.10661E-06         0.10348E-08         0.00000E+00
    0.10659E-06         0.10266E-08         0.00000E+00
    0.10657E-06         0.10107E-08         0.00000E+00
    0.10655E-06         0.98768E-09         0.00000E+00
    0.10653E-06         0.95798E-09         0.00000E+00
    0.10652E-06         0.92244E-09         0.00000E+00
    0.10650E-06         0.88200E-09         0.00000E+00
    0.10649E-06         0.83728E-09         0.00000E+00
    0.10648E-06         0.78892E-09         0.00000E+00
    0.10647E-06         0.73768E-09         0.00000E+00
    0.10645E-06         0.68420E-09         0.00000E+00
    0.10644E-06         0.62913E-09         0.00000E+00
    0.10643E-06         0.57314E-09         0.00000E+00
    0.10642E-06         0.51685E-09         0.00000E+00
    0.10641E-06         0.46084E-09         0.00000E+00
    0.10640E-06         0.40569E-09         0.00000E+00
    0.10639E-06         0.35193E-09         0.00000E+00
    0.10638E-06         0.30011E-09         0.00000E+00
    0.10637E-06         0.25073E-09         0.00000E+00
    0.10636E-06         0.20428E-09         0.00000E+00
    0.10636E-06         0.16121E-09         0.00000E+00
    0.10635E-06         0.12193E-09         0.00000E+00
    0.10634E-06         0.86833E-10         0.00000E+00
    0.10634E-06         0.56274E-10         0.00000E+00
    0.10633E-06         0.30585E-10         0.00000E+00
    0.10633E-06         0.10073E-10         0.00000E+00
    0.10632E-06        -0.49848E-11         0.00000E+00
    0.10632E-06        -0.14335E-10         0.00000E+00
    0.10632E-06        -0.17761E-10         0.00000E+00
    0.10632E-06        -0.15078E-10         0.00000E+00
    0.10632E-06        -0.61344E-11         0.00000E+00
    0.10844E-06         0.49997E-10         0.00000E+00
    0.10844E-06         0.15353E-09         0.00000E+00
    0.10843E-06         0.25696E-09         0.00000E+00
    0.10842E-06         0.35544E-09         0.00000E+00
    0.10841E-06         0.44916E-09         0.00000E+00
    0.10839E-06         0.54092E-09         0.00000E+00
    0.10838E-06         0.63069E-09         0.00000E+00
    0.10836E-06         0.71640E-09         0.00000E+00
    0.10834E-06         0.79579E-09         0.00000E+00
    0.10831E-06         0.86614E-09         0.00000E+00
    0.10829E-06         0.92522E-09         0.00000E+00
    0.10826E-06         0.97640E-09         0.00000E+00
    0.10824E-06         0.10228E-08         0.00000E+00
    0.10822E-06         0.10627E-08         0.00000E+00
    0.10819E-06         0.10944E-08         0.00000E+00
    0.10817E-06         0.11174E-08         0.00000E+00
    0.10815E-06         0.11317E-08         0.00000E+00
    0.10814E-06         0.11375E-08         0.00000E+00
    0.10812E-06         0.11352E-08         0.00000E+00
    0.10811E-06         0.11254E-08         0.00000E+00
    0.10810E-06         0.11087E-08         0.00000E+00
    0.10808E-06         0.10855E-08         0.00000E+00
    0.10807E-06         0.10564E-08         0.00000E+00
    0.10806E-06         0.10219E-08         0.00000E+00
    0.10805E-06         0.98252E-09         0.00000E+00
    0.10804E-06         0.93885E-09         0.00000E+00
    0.10804E-06         0.89151E-09         0.00000E+00
    0.10803E-06         0.84112E-09         0.00000E+00
    0.10802E-06         0.78822E-09         0.00000E+00
    0.10801E-06         0.73339E-09         0.00000E+00
    0.10800E-06         0.67716E-09         0.00000E+00
    0.10800E-06         0.62007E-09         0.00000E+00
    0.10799E-06         0.56265E-09         0.00000E+00
    0.10798E-06         0.50542E-09         0.00000E+00
    0.10797E-06         0.44891E-09         0.00000E+00
    0.10797E-06         0.39359E-09         0.00000E+00
    0.10796E-06         0.33997E-09         0.00000E+00
    0.10795E-06         0.28852E-09         0.00000E+00
    0.10795E-06         0.23971E-09         0.00000E+00
    0.10794E-06         0.19399E-09         0.00000E+00
    0.10793E-06         0.15183E-09         0.00000E+00
    0.10793E-06         0.11364E-09         0.00000E+00
    0.10792E-06         0.79846E-10         0.00000E+00
    0.10792E-06         0.50837E-10         0.00000E+00
    0.10792E-06         0.26977E-10         0.00000E+00
    0.10792E-06         0.85984E-11         0.00000E+00
    0.10791E-06        -0.40048E-11         0.00000E+00
    0.10791E-06        -0.10572E-10         0.00000E+00
    0.10791E-06        -0.10872E-10         0.00000E+00
    0.10791E-06        -0.47214E-11         0.00000E+00
    0.10949E-06         0.60699E-10         0.00000E+00
    0.10948E-06         0.18471E-09         0.00000E+00
    0.10947E-06         0.30674E-09         0.00000E+00
    0.10946E-06         0.42225E-09         0.00000E+00
    0.10944E-06         0.53018E-09         0.00000E+00
    0.10942E-06         0.63236E-09         0.00000E+00
    0.10940E-06         0.72853E-09         0.00000E+00
    0.10938E-06         0.81683E-09         0.00000E+00
    0.10936E-06         0.89594E-09         0.00000E+00
    0.10935E-06         0.96512E-09         0.00000E+00
    0.10933E-06         0.10243E-08         0.00000E+00
    0.10932E-06         0.10735E-08         0.00000E+00
    0.10930E-06         0.11130E-08         0.00000E+00
    0.10929E-06         0.11434E-08         0.00000E+00
    0.10929E-06         0.11651E-08         0.00000E+00
    0.10928E-06         0.11784E-08         0.00000E+00
    0.10928E-06         0.11837E-08         0.00000E+00
    0.10927E-06         0.11814E-08         0.00000E+00
    0.10927E-06         0.11720E-08         0.00000E+00
    0.10927E-06         0.11559E-08         0.00000E+00
    0.10927E-06         0.11337E-08         0.00000E+00
    0.10928E-06         0.11059E-08         0.00000E+00
    0.10928E-06         0.10731E-08         0.00000E+00
    0.10929E-06         0.10358E-08         0.00000E+00
    0.10929E-06         0.99457E-09         0.00000E+00
    0.10929E-06         0.94984E-09         0.00000E+00
    0.10930E-06         0.90211E-09         0.00000E+00
    0.10930E-06         0.85186E-09         0.00000E+00
    0.10931E-06         0.79957E-09         0.00000E+00
    0.10931E-06         0.74568E-09         0.00000E+00
    0.10931E-06         0.69063E-09         0.00000E+00
    0.10931E-06         0.63484E-09         0.00000E+00
    0.10931E-06         0.57874E-09         0.00000E+00
    0.10932E-06         0.52274E-09         0.00000E+00
    0.10932E-06         0.46724E-09         0.00000E+00
    0.10932E-06         0.41266E-09         0.00000E+00
    0.10932E-06         0.35942E-09         0.00000E+00
    0.10931E-06         0.30794E-09         0.00000E+00
    0.10931E-06         0.25867E-09         0.00000E+00
    0.10931E-06         0.21206E-09         0.00000E+00
    0.10931E-06         0.16857E-09         0.00000E+00
    0.10931E-06         0.12871E-09         0.00000E+00
    0.10931E-06         0.92955E-10         0.00000E+00
    0.10931E-06         0.61807E-10         0.00000E+00
    0.10931E-06         0.35747E-10         0.00000E+00
    0.10931E-06         0.15224E-10         0.00000E+00
    0.10931E-06         0.63725E-12         0.00000E+00
    0.10931E-06        -0.76621E-11         0.00000E+00
    0.10931E-06        -0.93709E-11         0.00000E+00
    0.10931E-06        -0.41932E-11         0.00000E+00
    0.11001E-06         0.79437E-10         0.00000E+00
    0.11000E-06         0.23255E-09         0.00000E+00
    0.10999E-06         0.37323E-09         0.00000E+00
    0.10997E-06         0.50067E-09         0.00000E+00
    0.10996E-06         0.61584E-09         0.00000E+00
    0.10994E-06         0.71845E-09         0.00000E+00
    0.10993E-06         0.80780E-09         0.00000E+00
    0.10992E-06         0.88472E-09         0.00000E+00
    0.10991E-06         0.94999E-09         0.00000E+00
    0.10991E-06         0.10043E-08         0.00000E+00
    0.10992E-06         0.10483E-08         0.00000E+00
    0.10992E-06         0.10827E-08         0.00000E+00
    0.10993E-06         0.11080E-08         0.00000E+00
    0.10995E-06         0.11248E-08         0.00000E+00
    0.10997E-06         0.11338E-08         0.00000E+00
    0.10999E-06         0.11355E-08         0.00000E+00
    0.11001E-06         0.11307E-08         0.00000E+00
    0.11004E-06         0.11197E-08         0.00000E+00
    0.11006E-06         0.11032E-08         0.00000E+00
    0.11009E-06         0.10816E-08         0.00000E+00
    0.11012E-06         0.10555E-08         0.00000E+00
    0.11015E-06         0.10252E-08         0.00000E+00
    0.11018E-06         0.99125E-09         0.00000E+00
    0.11021E-06         0.95406E-09         0.00000E+00
    0.11024E-06         0.91404E-09         0.00000E+00
    0.11026E-06         0.87158E-09         0.00000E+00
    0.11029E-06         0.82704E-09         0.00000E+00
    0.11031E-06         0.78078E-09         0.00000E+00
    0.11034E-06         0.73311E-09         0.00000E+00
    0.11036E-06         0.68437E-09         0.00000E+00
    0.11038E-06         0.63484E-09         0.00000E+00
    0.11040E-06         0.58483E-09         0.00000E+00
    0.11042E-06         0.53462E-09         0.00000E+00
    0.11043E-06         0.48449E-09         0.00000E+00
    0.11045E-06         0.43473E-09         0.00000E+00
    0.11046E-06         0.38562E-09         0.00000E+00
    0.11047E-06         0.33746E-09         0.00000E+00
    0.11048E-06         0.29057E-09         0.00000E+00
    0.11049E-06         0.24529E-09         0.00000E+00
    0.11049E-06         0.20200E-09         0.00000E+00
    0.11050E-06         0.16114E-09         0.00000E+00
    0.11050E-06         0.12317E-09         0.00000E+00
    0.11050E-06         0.88620E-10         0.00000E+00
    0.11051E-06         0.58074E-10         0.00000E+00
    0.11051E-06         0.32151E-10         0.00000E+00
    0.11051E-06         0.11528E-10         0.00000E+00
    0.11051E-06        -0.30868E-11         0.00000E+00
    0.11051E-06        -0.11027E-10         0.00000E+00
    0.11052E-06        -0.11758E-10         0.00000E+00
    0.11052E-06        -0.50088E-11         0.00000E+00
    0.10974E-06         0.94463E-10         0.00000E+00
    0.10974E-06         0.26462E-09         0.00000E+00
    0.10974E-06         0.41008E-09         0.00000E+00
    0.10974E-06         0.53249E-09         0.00000E+00
    0.10974E-06         0.62816E-09         0.00000E+00
    0.10976E-06         0.70114E-09         0.00000E+00
    0.10979E-06         0.75980E-09         0.00000E+00
    0.10982E-06         0.80677E-09         0.00000E+00
    0.10986E-06         0.84368E-09         0.00000E+00
    0.10991E-06         0.87178E-09         0.00000E+00
    0.10997E-06         0.89203E-09         0.00000E+00
    0.11003E-06         0.90526E-09         0.00000E+00
    0.11009E-06         0.91223E-09         0.00000E+00
    0.11015E-06         0.91358E-09         0.00000E+00
    0.11022E-06         0.90989E-09         0.00000E+00
    0.11029E-06         0.90165E-09         0.00000E+00
    0.11037E-06         0.88931E-09         0.00000E+00
    0.11044E-06         0.87331E-09         0.00000E+00
    0.11051E-06         0.85405E-09         0.00000E+00
    0.11058E-06         0.83186E-09         0.00000E+00
    0.11065E-06         0.80709E-09         0.00000E+00
    0.11072E-06         0.78003E-09         0.00000E+00
    0.11079E-06         0.75097E-09         0.00000E+00
    0.11086E-06         0.72017E-09         0.00000E+00
    0.11092E-06         0.68787E-09         0.00000E+00
    0.11098E-06         0.65431E-09         0.00000E+00
    0.11104E-06         0.61969E-09         0.00000E+00
    0.11110E-06         0.58422E-09         0.00000E+00
    0.11115E-06         0.54808E-09         0.00000E+00
    0.11120E-06         0.51144E-09         0.00000E+00
    0.11124E-06         0.47448E-09         0.00000E+00
    0.11129E-06         0.43733E-09         0.00000E+00
    0.11133E-06         0.40017E-09         0.00000E+00
    0.11136E-06         0.36313E-09         0.00000E+00
    0.11139E-06         0.32636E-09         0.00000E+00
    0.11142E-06         0.29002E-09         0.00000E+00
    0.11145E-06         0.25425E-09         0.00000E+00
    0.11147E-06         0.21923E-09         0.00000E+00
    0.11149E-06         0.18514E-09         0.00000E+00
    0.11150E-06         0.15223E-09         0.00000E+00
    0.11152E-06         0.12075E-09         0.00000E+00
    0.11153E-06         0.91032E-10         0.00000E+00
    0.11154E-06         0.63488E-10         0.00000E+00
    0.11154E-06         0.38611E-10         0.00000E+00
    0.11155E-06         0.17013E-10         0.00000E+00
    0.11155E-06        -0.53494E-12         0.00000E+00
    0.11155E-06        -0.13069E-10         0.00000E+00
    0.11156E-06        -0.19368E-10         0.00000E+00
    0.11156E-06        -0.17934E-10         0.00000E+00
    0.11156E-06        -0.70312E-11         0.00000E+00
    0.10837E-06         0.49426E-10         0.00000E+00
    0.10841E-06         0.13469E-09         0.00000E+00
    0.10848E-06         0.20498E-09         0.00000E+00
    0.10857E-06         0.26213E-09         0.00000E+00
    0.10868E-06         0.30057E-09         0.00000E+00
    0.10881E-06         0.32413E-09         0.00000E+00
    0.10894E-06         0.34179E-09         0.00000E+00
    0.10908E-06         0.35508E-09         0.00000E+00
    0.10922E-06         0.36471E-09         0.00000E+00
    0.10937E-06         0.37116E-09         0.00000E+00
    0.10952E-06         0.37477E-09         0.00000E+00
    0.10967E-06         0.37591E-09         0.00000E+00
    0.10982E-06         0.37492E-09         0.00000E+00
    0.10997E-06         0.37207E-09         0.00000E+00
    0.11012E-06         0.36757E-09         0.00000E+00
    0.11026E-06         0.36163E-09         0.00000E+00
    0.11041E-06         0.35440E-09         0.00000E+00
    0.11055E-06         0.34605E-09         0.00000E+00
    0.11068E-06         0.33670E-09         0.00000E+00
    0.11081E-06         0.32647E-09         0.00000E+00
    0.11094E-06         0.31547E-09         0.00000E+00
    0.11107E-06         0.30381E-09         0.00000E+00
    0.11119E-06         0.29158E-09         0.00000E+00
    0.11130E-06         0.27886E-09         0.00000E+00
    0.11141E-06         0.26573E-09         0.00000E+00
    0.11151E-06         0.25226E-09         0.00000E+00
    0.11161E-06         0.23852E-09         0.00000E+00
    0.11170E-06         0.22456E-09         0.00000E+00
    0.11179E-06         0.21045E-09         0.00000E+00
    0.11187E-06         0.19623E-09         0.00000E+00
    0.11195E-06         0.18195E-09         0.00000E+00
    0.11202E-06         0.16766E-09         0.00000E+00
    0.11208E-06         0.15341E-09         0.00000E+00
    0.11214E-06         0.13922E-09         0.00000E+00
    0.11219E-06         0.12515E-09         0.00000E+00
    0.11224E-06         0.11123E-09         0.00000E+00
    0.11228E-06         0.97519E-10         0.00000E+00
    0.11232E-06         0.84049E-10         0.00000E+00
    0.11235E-06         0.70875E-10         0.00000E+00
    0.11238E-06         0.58066E-10         0.00000E+00
    0.11240E-06         0.45705E-10         0.00000E+00
    0.11241E-06         0.33901E-10         0.00000E+00
    0.11242E-06         0.22798E-10         0.00000E+00
    0.11243E-06         0.12593E-10         0.00000E+00
    0.11243E-06         0.35530E-11         0.00000E+00
    0.11243E-06        -0.39594E-11         0.00000E+00
    0.11243E-06        -0.94470E-11         0.00000E+00
    0.11243E-06        -0.12148E-10         0.00000E+00
    0.11242E-06        -0.10926E-10         0.00000E+00
    0.11242E-06        -0.41260E-11         0.00000E+00
POINT_DATA       5151
VECTORS vDarcyNodal double 
    0.82631E-07         0.00000E+00         0.00000E+00
    0.82649E-07         0.00000E+00         0.00000E+00
    0.82699E-07         0.00000E+00         0.00000E+00
    0.82778E-07         0.00000E+00         0.00000E+00
    0.82883E-07         0.00000E+00         0.00000E+00
    0.83008E-07         0.00000E+00         0.00000E+00
    0.83150E-07         0.00000E+00         0.00000E+00
    0.83305E-07         0.00000E+00         0.00000E+00
    0.83472E-07         0.00000E+00         0.00000E+00
    0.83648E-07         0.00000E+00         0.00000E+00
    0.83832E-07         0.00000E+00         0.00000E+00
    0.84021E-07         0.00000E+00         0.00000E+00
    0.84213E-07         0.00000E+00         0.00000E+00
    0.84408E-07         0.00000E+00         0.00000E+00
    0.84604E-07         0.00000E+00         0.00000E+00
    0.84798E-07         0.00000E+00         0.00000E+00
    0.84990E-07         0.00000E+00         0.00000E+00
    0.85179E-07         0.00000E+00         0.00000E+00
    0.85363E-07         0.00000E+00         0.00000E+00
    0.85542E-07         0.00000E+00         0.00000E+00
    0.85713E-07         0.00000E+00         0.00000E+00
    0.85877E-07         0.00000E+00         0.00000E+00
    0.86032E-07         0.00000E+00         0.00000E+00
    0.86177E-07         0.00000E+00         0.00000E+00
    0.86312E-07         0.00000E+00         0.00000E+00
    0.86435E-07         0.00000E+00         0.00000E+00
    0.86547E-07         0.00000E+00         0.00000E+00
    0.86647E-07         0.00000E+00         0.00000E+00
    0.86734E-07         0.00000E+00         0.00000E+00
    0.86808E-07         0.00000E+00         0.00000E+00
    0.86870E-07         0.00000E+00         0.00000E+00
    0.86919E-07         0.00000E+00         0.00000E+00
    0.86956E-07         0.00000E+00         0.00000E+00
    0.86982E-07         0.00000E+00         0.00000E+00
    0.86996E-07         0.00000E+00         0.00000E+00
    0.86999E-07         0.00000E+00         0.00000E+00
    0.86991E-07         0.00000E+00         0.00000E+00
    0.86973E-07         0.00000E+00         0.00000E+00
    0.86946E-07         0.00000E+00         0.00000E+00
    0.86909E-07         0.00000E+00         0.00000E+00
    0.86865E-07         0.00000E+00         0.00000E+00
    0.86814E-07         0.00000E+00         0.00000E+00
    0.86756E-07         0.00000E+00         0.00000E+00
    0.86693E-07         0.00000E+00         0.00000E+00
    0.86627E-07         0.00000E+00         0.00000E+00
    0.86559E-07         0.00000E+00         0.00000E+00
    0.86493E-07         0.00000E+00         0.00000E+00
    0.86431E-07         0.00000E+00         0.00000E+00
    0.86379E-07         0.00000E+00         0.00000E+00
    0.86342E-07         0.00000E+00         0.00000E+00
    0.86328E-07         0.00000E+00         0.00000E+00
    0.82592E-07        -0.88221E-10         0.00000E+00
    0.82600E-07        -0.16920E-09         0.00000E+00
    0.82625E-07        -0.32369E-09         0.00000E+00
    0.82664E-07        -0.46062E-09         0.00000E+00
    0.82717E-07        -0.57433E-09         0.00000E+00
    0.82784E-07        -0.66576E-09         0.00000E+00
    0.82862E-07        -0.74181E-09         0.00000E+00
    0.82950E-07        -0.80569E-09         0.00000E+00
    0.83049E-07        -0.85805E-09         0.00000E+00
    0.83155E-07        -0.89968E-09         0.00000E+00
    0.83268E-07        -0.93144E-09         0.00000E+00
    0.83388E-07        -0.95419E-09         0.00000E+00
    0.83513E-07        -0.96865E-09         0.00000E+00
    0.83641E-07        -0.97522E-09         0.00000E+00
    0.83773E-07        -0.97435E-09         0.00000E+00
    0.83907E-07        -0.96674E-09         0.00000E+00
    0.84042E-07        -0.95278E-09         0.00000E+00
    0.84178E-07        -0.93262E-09         0.00000E+00
    0.84312E-07        -0.90657E-09         0.00000E+00
    0.84445E-07        -0.87497E-09         0.00000E+00
    0.84576E-07        -0.83830E-09         0.00000E+00
    0.84703E-07        -0.79687E-09         0.00000E+00
    0.84825E-07        -0.75066E-09         0.00000E+00
    0.84943E-07        -0.69991E-09         0.00000E+00
    0.85054E-07        -0.64539E-09         0.00000E+00
    0.85157E-07        -0.58787E-09         0.00000E+00
    0.85254E-07        -0.52799E-09         0.00000E+00
    0.85341E-07        -0.46629E-09         0.00000E+00
    0.85420E-07        -0.40353E-09         0.00000E+00
    0.85489E-07        -0.34053E-09         0.00000E+00
    0.85549E-07        -0.27799E-09         0.00000E+00
    0.85599E-07        -0.21648E-09         0.00000E+00
    0.85639E-07        -0.15641E-09         0.00000E+00
    0.85670E-07        -0.98118E-10         0.00000E+00
    0.85691E-07        -0.41813E-10         0.00000E+00
    0.85704E-07         0.12299E-10         0.00000E+00
    0.85707E-07         0.63942E-10         0.00000E+00
    0.85703E-07         0.11289E-09         0.00000E+00
    0.85691E-07         0.15881E-09         0.00000E+00
    0.85672E-07         0.20120E-09         0.00000E+00
    0.85646E-07         0.23959E-09         0.00000E+00
    0.85615E-07         0.27331E-09         0.00000E+00
    0.85580E-07         0.30138E-09         0.00000E+00
    0.85541E-07         0.32241E-09         0.00000E+00
    0.85501E-07         0.33446E-09         0.00000E+00
    0.85460E-07         0.33488E-09         0.00000E+00
    0.85422E-07         0.32017E-09         0.00000E+00
    0.85387E-07         0.28543E-09         0.00000E+00
    0.85359E-07         0.22357E-09         0.00000E+00
    0.85340E-07         0.12641E-09         0.00000E+00
    0.85334E-07         0.68006E-10         0.00000E+00
    0.81944E-07        -0.81732E-10         0.00000E+00
    0.81941E-07        -0.16190E-09         0.00000E+00
    0.81932E-07        -0.31757E-09         0.00000E+00
    0.81918E-07        -0.46334E-09         0.00000E+00
    0.81902E-07        -0.59855E-09         0.00000E+00
    0.81886E-07        -0.72250E-09         0.00000E+00
    0.81873E-07        -0.83434E-09         0.00000E+00
    0.81863E-07        -0.93416E-09         0.00000E+00
    0.81859E-07        -0.10224E-08         0.00000E+00
    0.81859E-07        -0.10995E-08         0.00000E+00
    0.81866E-07        -0.11657E-08         0.00000E+00
    0.81880E-07        -0.12214E-08         0.00000E+00
    0.81900E-07        -0.12670E-08         0.00000E+00
    0.81927E-07        -0.13027E-08         0.00000E+00
    0.81960E-07        -0.13286E-08         0.00000E+00
    0.82000E-07        -0.13451E-08         0.00000E+00
    0.82045E-07        -0.13522E-08         0.00000E+00
    0.82096E-07        -0.13501E-08         0.00000E+00
    0.82152E-07        -0.13387E-08         0.00000E+00
    0.82213E-07        -0.13178E-08         0.00000E+00
    0.82277E-07        -0.12875E-08         0.00000E+00
    0.82345E-07        -0.12478E-08         0.00000E+00
    0.82415E-07        -0.11988E-08         0.00000E+00
    0.82486E-07        -0.11408E-08         0.00000E+00
    0.82559E-07        -0.10742E-08         0.00000E+00
    0.82631E-07        -0.99977E-09         0.00000E+00
    0.82701E-07        -0.91838E-09         0.00000E+00
    0.82770E-07        -0.83123E-09         0.00000E+00
    0.82835E-07        -0.73964E-09         0.00000E+00
    0.82896E-07        -0.64495E-09         0.00000E+00
    0.82952E-07        -0.54850E-09         0.00000E+00
    0.83004E-07        -0.45155E-09         0.00000E+00
    0.83049E-07        -0.35526E-09         0.00000E+00
    0.83089E-07        -0.26072E-09         0.00000E+00
    0.83123E-07        -0.16885E-09         0.00000E+00
    0.83152E-07        -0.80480E-10         0.00000E+00
    0.83174E-07         0.36407E-11         0.00000E+00
    0.83191E-07         0.82735E-10         0.00000E+00
    0.83204E-07         0.15600E-09         0.00000E+00
    0.83212E-07         0.22257E-09         0.00000E+00
    0.83217E-07         0.28132E-09         0.00000E+00
    0.83218E-07         0.33086E-09         0.00000E+00
    0.83217E-07         0.36952E-09         0.00000E+00
    0.83215E-07         0.39525E-09         0.00000E+00
    0.83212E-07         0.40559E-09         0.00000E+00
    0.83209E-07         0.39761E-09         0.00000E+00
    0.83208E-07         0.36804E-09         0.00000E+00
    0.83208E-07         0.31352E-09         0.00000E+00
    0.83209E-07         0.23144E-09         0.00000E+00
    0.83212E-07         0.12356E-09         0.00000E+00
    0.83213E-07         0.63856E-10         0.00000E+00
    0.80295E-07        -0.52653E-10         0.00000E+00
    0.80287E-07        -0.10518E-09         0.00000E+00
    0.80264E-07        -0.20917E-09         0.00000E+00
    0.80231E-07        -0.31201E-09         0.00000E+00
    0.80189E-07        -0.41553E-09         0.00000E+00
    0.80144E-07        -0.52073E-09         0.00000E+00
    0.80096E-07        -0.62732E-09         0.00000E+00
    0.80050E-07        -0.73384E-09         0.00000E+00
    0.80005E-07        -0.83833E-09         0.00000E+00
    0.79964E-07        -0.93895E-09         0.00000E+00
    0.79928E-07        -0.10341E-08         0.00000E+00
    0.79897E-07        -0.11225E-08         0.00000E+00
    0.79872E-07        -0.12031E-08         0.00000E+00
    0.79853E-07        -0.12753E-08         0.00000E+00
    0.79841E-07        -0.13383E-08         0.00000E+00
    0.79835E-07        -0.13916E-08         0.00000E+00
    0.79837E-07        -0.14348E-08         0.00000E+00
    0.79844E-07        -0.14676E-08         0.00000E+00
    0.79859E-07        -0.14896E-08         0.00000E+00
    0.79880E-07        -0.15002E-08         0.00000E+00
    0.79908E-07        -0.14990E-08         0.00000E+00
    0.79942E-07        -0.14854E-08         0.00000E+00
    0.79981E-07        -0.14589E-08         0.00000E+00
    0.80025E-07        -0.14191E-08         0.00000E+00
    0.80074E-07        -0.13662E-08         0.00000E+00
    0.80127E-07        -0.13005E-08         0.00000E+00
    0.80182E-07        -0.12227E-08         0.00000E+00
    0.80239E-07        -0.11338E-08         0.00000E+00
    0.80297E-07        -0.10354E-08         0.00000E+00
    0.80355E-07        -0.92917E-09         0.00000E+00
    0.80412E-07        -0.81716E-09         0.00000E+00
    0.80466E-07        -0.70151E-09         0.00000E+00
    0.80518E-07        -0.58430E-09         0.00000E+00
    0.80566E-07        -0.46750E-09         0.00000E+00
    0.80610E-07        -0.35284E-09         0.00000E+00
    0.80650E-07        -0.24189E-09         0.00000E+00
    0.80686E-07        -0.13603E-09         0.00000E+00
    0.80718E-07        -0.36559E-10         0.00000E+00
    0.80747E-07         0.55232E-10         0.00000E+00
    0.80772E-07         0.13802E-09         0.00000E+00
    0.80795E-07         0.21040E-09         0.00000E+00
    0.80815E-07         0.27079E-09         0.00000E+00
    0.80833E-07         0.31743E-09         0.00000E+00
    0.80849E-07         0.34845E-09         0.00000E+00
    0.80864E-07         0.36187E-09         0.00000E+00
    0.80878E-07         0.35571E-09         0.00000E+00
    0.80890E-07         0.32810E-09         0.00000E+00
    0.80901E-07         0.27734E-09         0.00000E+00
    0.80910E-07         0.20290E-09         0.00000E+00
    0.80915E-07         0.10765E-09         0.00000E+00
    0.80917E-07         0.55483E-10         0.00000E+00
    0.77846E-07        -0.25077E-12         0.00000E+00
    0.77836E-07        -0.89127E-11         0.00000E+00
    0.77812E-07        -0.37036E-10         0.00000E+00
    0.77782E-07        -0.88625E-10         0.00000E+00
    0.77749E-07        -0.16377E-09         0.00000E+00
    0.77716E-07        -0.25761E-09         0.00000E+00
    0.77683E-07        -0.36403E-09         0.00000E+00
    0.77651E-07        -0.47786E-09         0.00000E+00
    0.77619E-07        -0.59532E-09         0.00000E+00
    0.77588E-07        -0.71333E-09         0.00000E+00
    0.77559E-07        -0.82943E-09         0.00000E+00
    0.77533E-07        -0.94168E-09         0.00000E+00
    0.77509E-07        -0.10483E-08         0.00000E+00
    0.77487E-07        -0.11479E-08         0.00000E+00
    0.77470E-07        -0.12397E-08         0.00000E+00
    0.77456E-07        -0.13232E-08         0.00000E+00
    0.77447E-07        -0.13979E-08         0.00000E+00
    0.77443E-07        -0.14633E-08         0.00000E+00
    0.77444E-07        -0.15183E-08         0.00000E+00
    0.77450E-07        -0.15622E-08         0.00000E+00
    0.77462E-07        -0.15939E-08         0.00000E+00
    0.77479E-07        -0.16124E-08         0.00000E+00
    0.77502E-07        -0.16171E-08         0.00000E+00
    0.77532E-07        -0.16069E-08         0.00000E+00
    0.77567E-07        -0.15812E-08         0.00000E+00
    0.77608E-07        -0.15395E-08         0.00000E+00
    0.77654E-07        -0.14817E-08         0.00000E+00
    0.77705E-07        -0.14079E-08         0.00000E+00
    0.77760E-07        -0.13191E-08         0.00000E+00
    0.77818E-07        -0.12168E-08         0.00000E+00
    0.77878E-07        -0.11033E-08         0.00000E+00
    0.77938E-07        -0.98098E-09         0.00000E+00
    0.77998E-07        -0.85279E-09         0.00000E+00
    0.78056E-07        -0.72163E-09         0.00000E+00
    0.78111E-07        -0.59038E-09         0.00000E+00
    0.78163E-07        -0.46175E-09         0.00000E+00
    0.78212E-07        -0.33812E-09         0.00000E+00
    0.78257E-07        -0.22151E-09         0.00000E+00
    0.78298E-07        -0.11368E-09         0.00000E+00
    0.78336E-07        -0.16300E-10         0.00000E+00
    0.78371E-07         0.69062E-10         0.00000E+00
    0.78404E-07         0.14094E-09         0.00000E+00
    0.78433E-07         0.19791E-09         0.00000E+00
    0.78460E-07         0.23861E-09         0.00000E+00
    0.78485E-07         0.26180E-09         0.00000E+00
    0.78507E-07         0.26639E-09         0.00000E+00
    0.78526E-07         0.25152E-09         0.00000E+00
    0.78541E-07         0.21656E-09         0.00000E+00
    0.78553E-07         0.16092E-09         0.00000E+00
    0.78559E-07         0.86261E-10         0.00000E+00
    0.78562E-07         0.44676E-10         0.00000E+00
    0.74867E-07         0.48471E-10         0.00000E+00
    0.74873E-07         0.65535E-10         0.00000E+00
    0.74887E-07         0.61575E-10         0.00000E+00
    0.74907E-07         0.31774E-12         0.00000E+00
    0.74928E-07        -0.88432E-10         0.00000E+00
    0.74948E-07        -0.18953E-09         0.00000E+00
    0.74964E-07        -0.29796E-09         0.00000E+00
    0.74977E-07        -0.41136E-09         0.00000E+00
    0.74987E-07        -0.52676E-09         0.00000E+00
    0.74994E-07        -0.64251E-09         0.00000E+00
    0.74997E-07        -0.75713E-09         0.00000E+00
    0.74996E-07        -0.86857E-09         0.00000E+00
    0.74993E-07        -0.97650E-09         0.00000E+00
    0.74990E-07        -0.10814E-08         0.00000E+00
    0.74986E-07        -0.11826E-08         0.00000E+00
    0.74984E-07        -0.12789E-08         0.00000E+00
    0.74982E-07        -0.13689E-08         0.00000E+00
    0.74981E-07        -0.14515E-08         0.00000E+00
    0.74982E-07        -0.15254E-08         0.00000E+00
    0.74984E-07        -0.15897E-08         0.00000E+00
    0.74990E-07        -0.16439E-08         0.00000E+00
    0.74999E-07        -0.16878E-08         0.00000E+00
    0.75013E-07        -0.17206E-08         0.00000E+00
    0.75032E-07        -0.17410E-08         0.00000E+00
    0.75056E-07        -0.17470E-08         0.00000E+00
    0.75087E-07        -0.17370E-08         0.00000E+00
    0.75124E-07        -0.17094E-08         0.00000E+00
    0.75168E-07        -0.16636E-08         0.00000E+00
    0.75218E-07        -0.15994E-08         0.00000E+00
    0.75275E-07        -0.15170E-08         0.00000E+00
    0.75337E-07        -0.14172E-08         0.00000E+00
    0.75402E-07        -0.13015E-08         0.00000E+00
    0.75470E-07        -0.11726E-08         0.00000E+00
    0.75539E-07        -0.10342E-08         0.00000E+00
    0.75606E-07        -0.89051E-09         0.00000E+00
    0.75672E-07        -0.74578E-09         0.00000E+00
    0.75735E-07        -0.60388E-09         0.00000E+00
    0.75793E-07        -0.46838E-09         0.00000E+00
    0.75848E-07        -0.34225E-09         0.00000E+00
    0.75898E-07        -0.22763E-09         0.00000E+00
    0.75944E-07        -0.12605E-09         0.00000E+00
    0.75986E-07        -0.38727E-10         0.00000E+00
    0.76025E-07         0.33408E-10         0.00000E+00
    0.76059E-07         0.89610E-10         0.00000E+00
    0.76090E-07         0.12922E-09         0.00000E+00
    0.76117E-07         0.15168E-09         0.00000E+00
    0.76139E-07         0.15653E-09         0.00000E+00
    0.76157E-07         0.14328E-09         0.00000E+00
    0.76170E-07         0.11153E-09         0.00000E+00
    0.76178E-07         0.61943E-10         0.00000E+00
    0.76181E-07         0.32902E-10         0.00000E+00
    0.72160E-07        -0.57069E-10         0.00000E+00
    0.72174E-07        -0.11007E-09         0.00000E+00
    0.72205E-07        -0.20857E-09         0.00000E+00
    0.72244E-07        -0.29314E-09         0.00000E+00
    0.72286E-07        -0.36675E-09         0.00000E+00
    0.72327E-07        -0.43579E-09         0.00000E+00
    0.72366E-07        -0.50936E-09         0.00000E+00
    0.72402E-07        -0.59215E-09         0.00000E+00
    0.72434E-07        -0.67978E-09         0.00000E+00
    0.72462E-07        -0.76273E-09         0.00000E+00
    0.72486E-07        -0.84048E-09         0.00000E+00
    0.72506E-07        -0.92368E-09         0.00000E+00
    0.72522E-07        -0.10162E-08         0.00000E+00
    0.72536E-07        -0.11131E-08         0.00000E+00
    0.72548E-07        -0.12094E-08         0.00000E+00
    0.72556E-07        -0.13013E-08         0.00000E+00
    0.72562E-07        -0.13863E-08         0.00000E+00
    0.72564E-07        -0.14636E-08         0.00000E+00
    0.72564E-07        -0.15348E-08         0.00000E+00
    0.72563E-07        -0.16026E-08         0.00000E+00
    0.72564E-07        -0.16673E-08         0.00000E+00
    0.72566E-07        -0.17266E-08         0.00000E+00
    0.72571E-07        -0.17788E-08         0.00000E+00
    0.72578E-07        -0.18226E-08         0.00000E+00
    0.72588E-07        -0.18563E-08         0.00000E+00
    0.72604E-07        -0.18785E-08         0.00000E+00
    0.72627E-07        -0.18877E-08         0.00000E+00
    0.72658E-07        -0.18810E-08         0.00000E+00
    0.72697E-07        -0.18553E-08         0.00000E+00
    0.72744E-07        -0.18083E-08         0.00000E+00
    0.72799E-07        -0.17388E-08         0.00000E+00
    0.72861E-07        -0.16471E-08         0.00000E+00
    0.72929E-07        -0.15347E-08         0.00000E+00
    0.73003E-07        -0.14039E-08         0.00000E+00
    0.73080E-07        -0.12584E-08         0.00000E+00
    0.73159E-07        -0.11033E-08         0.00000E+00
    0.73236E-07        -0.94437E-09         0.00000E+00
    0.73311E-07        -0.78739E-09         0.00000E+00
    0.73382E-07        -0.63720E-09         0.00000E+00
    0.73447E-07        -0.49780E-09         0.00000E+00
    0.73506E-07        -0.37201E-09         0.00000E+00
    0.73559E-07        -0.26135E-09         0.00000E+00
    0.73605E-07        -0.16647E-09         0.00000E+00
    0.73646E-07        -0.87693E-10         0.00000E+00
    0.73682E-07        -0.25293E-10         0.00000E+00
    0.73712E-07         0.20401E-10         0.00000E+00
    0.73738E-07         0.49119E-10         0.00000E+00
    0.73757E-07         0.60839E-10         0.00000E+00
    0.73772E-07         0.55746E-10         0.00000E+00
    0.73780E-07         0.34070E-10         0.00000E+00
    0.73783E-07         0.19114E-10         0.00000E+00
    0.70045E-07        -0.83618E-10         0.00000E+00
    0.70047E-07        -0.15692E-09         0.00000E+00
    0.70053E-07        -0.29132E-09         0.00000E+00
    0.70062E-07        -0.40434E-09         0.00000E+00
    0.70075E-07        -0.50201E-09         0.00000E+00
    0.70092E-07        -0.58960E-09         0.00000E+00
    0.70111E-07        -0.67122E-09         0.00000E+00
    0.70132E-07        -0.75113E-09         0.00000E+00
    0.70151E-07        -0.82952E-09         0.00000E+00
    0.70170E-07        -0.90295E-09         0.00000E+00
    0.70188E-07        -0.97374E-09         0.00000E+00
    0.70205E-07        -0.10488E-08         0.00000E+00
    0.70220E-07        -0.11306E-08         0.00000E+00
    0.70232E-07        -0.12117E-08         0.00000E+00
    0.70240E-07        -0.12834E-08         0.00000E+00
    0.70244E-07        -0.13466E-08         0.00000E+00
    0.70245E-07        -0.14059E-08         0.00000E+00
    0.70243E-07        -0.14634E-08         0.00000E+00
    0.70239E-07        -0.15234E-08         0.00000E+00
    0.70234E-07        -0.15893E-08         0.00000E+00
    0.70228E-07        -0.16574E-08         0.00000E+00
    0.70221E-07        -0.17222E-08         0.00000E+00
    0.70215E-07        -0.17793E-08         0.00000E+00
    0.70209E-07        -0.18287E-08         0.00000E+00
    0.70207E-07        -0.18778E-08         0.00000E+00
    0.70208E-07        -0.19297E-08         0.00000E+00
    0.70213E-07        -0.19775E-08         0.00000E+00
    0.70222E-07        -0.20133E-08         0.00000E+00
    0.70238E-07        -0.20310E-08         0.00000E+00
    0.70262E-07        -0.20270E-08         0.00000E+00
    0.70294E-07        -0.20014E-08         0.00000E+00
    0.70337E-07        -0.19542E-08         0.00000E+00
    0.70390E-07        -0.18839E-08         0.00000E+00
    0.70453E-07        -0.17885E-08         0.00000E+00
    0.70524E-07        -0.16677E-08         0.00000E+00
    0.70604E-07        -0.15253E-08         0.00000E+00
    0.70691E-07        -0.13665E-08         0.00000E+00
    0.70780E-07        -0.11963E-08         0.00000E+00
    0.70868E-07        -0.10213E-08         0.00000E+00
    0.70952E-07        -0.84889E-09         0.00000E+00
    0.71031E-07        -0.68552E-09         0.00000E+00
    0.71100E-07        -0.53630E-09         0.00000E+00
    0.71161E-07        -0.40487E-09         0.00000E+00
    0.71212E-07        -0.29302E-09         0.00000E+00
    0.71255E-07        -0.20055E-09         0.00000E+00
    0.71290E-07        -0.12626E-09         0.00000E+00
    0.71318E-07        -0.68941E-10         0.00000E+00
    0.71340E-07        -0.27950E-10         0.00000E+00
    0.71355E-07        -0.33417E-11         0.00000E+00
    0.71364E-07         0.46510E-11         0.00000E+00
    0.71367E-07         0.44768E-11         0.00000E+00
    0.68079E-07        -0.75607E-10         0.00000E+00
    0.68077E-07        -0.14673E-09         0.00000E+00
    0.68073E-07        -0.28226E-09         0.00000E+00
    0.68069E-07        -0.40482E-09         0.00000E+00
    0.68065E-07        -0.51561E-09         0.00000E+00
    0.68062E-07        -0.61617E-09         0.00000E+00
    0.68061E-07        -0.70817E-09         0.00000E+00
    0.68061E-07        -0.79272E-09         0.00000E+00
    0.68061E-07        -0.87126E-09         0.00000E+00
    0.68061E-07        -0.94589E-09         0.00000E+00
    0.68061E-07        -0.10175E-08         0.00000E+00
    0.68061E-07        -0.10860E-08         0.00000E+00
    0.68060E-07        -0.11509E-08         0.00000E+00
    0.68056E-07        -0.12121E-08         0.00000E+00
    0.68050E-07        -0.12698E-08         0.00000E+00
    0.68044E-07        -0.13247E-08         0.00000E+00
    0.68036E-07        -0.13781E-08         0.00000E+00
    0.68029E-07        -0.14323E-08         0.00000E+00
    0.68020E-07        -0.14893E-08         0.00000E+00
    0.68011E-07        -0.15482E-08         0.00000E+00
    0.67999E-07        -0.16053E-08         0.00000E+00
    0.67985E-07        -0.16603E-08         0.00000E+00
    0.67970E-07        -0.17181E-08         0.00000E+00
    0.67955E-07        -0.17834E-08         0.00000E+00
    0.67940E-07        -0.18508E-08         0.00000E+00
    0.67924E-07        -0.19096E-08         0.00000E+00
    0.67908E-07        -0.19599E-08         0.00000E+00
    0.67891E-07        -0.20069E-08         0.00000E+00
    0.67876E-07        -0.20512E-08         0.00000E+00
    0.67866E-07        -0.20895E-08         0.00000E+00
    0.67862E-07        -0.21172E-08         0.00000E+00
    0.67867E-07        -0.21271E-08         0.00000E+00
    0.67884E-07        -0.21109E-08         0.00000E+00
    0.67914E-07        -0.20724E-08         0.00000E+00
    0.67958E-07        -0.20181E-08         0.00000E+00
    0.68016E-07        -0.19372E-08         0.00000E+00
    0.68088E-07        -0.18201E-08         0.00000E+00
    0.68173E-07        -0.16723E-08         0.00000E+00
    0.68266E-07        -0.15014E-08         0.00000E+00
    0.68364E-07        -0.13120E-08         0.00000E+00
    0.68462E-07        -0.11115E-08         0.00000E+00
    0.68557E-07        -0.91261E-09         0.00000E+00
    0.68644E-07        -0.72625E-09         0.00000E+00
    0.68719E-07        -0.55891E-09         0.00000E+00
    0.68781E-07        -0.41490E-09         0.00000E+00
    0.68830E-07        -0.29528E-09         0.00000E+00
    0.68865E-07        -0.19845E-09         0.00000E+00
    0.68891E-07        -0.12238E-09         0.00000E+00
    0.68908E-07        -0.65267E-10         0.00000E+00
    0.68917E-07        -0.25990E-10         0.00000E+00
    0.68921E-07        -0.10740E-10         0.00000E+00
    0.66069E-07        -0.65407E-10         0.00000E+00
    0.66067E-07        -0.12824E-09         0.00000E+00
    0.66062E-07        -0.25004E-09         0.00000E+00
    0.66054E-07        -0.36415E-09         0.00000E+00
    0.66044E-07        -0.47069E-09         0.00000E+00
    0.66034E-07        -0.56997E-09         0.00000E+00
    0.66022E-07        -0.66239E-09         0.00000E+00
    0.66011E-07        -0.74861E-09         0.00000E+00
    0.65999E-07        -0.82925E-09         0.00000E+00
    0.65987E-07        -0.90468E-09         0.00000E+00
    0.65974E-07        -0.97543E-09         0.00000E+00
    0.65962E-07        -0.10421E-08         0.00000E+00
    0.65949E-07        -0.11052E-08         0.00000E+00
    0.65935E-07        -0.11652E-08         0.00000E+00
    0.65922E-07        -0.12224E-08         0.00000E+00
    0.65908E-07        -0.12775E-08         0.00000E+00
    0.65894E-07        -0.13308E-08         0.00000E+00
    0.65880E-07        -0.13826E-08         0.00000E+00
    0.65866E-07        -0.14330E-08         0.00000E+00
    0.65850E-07        -0.14822E-08         0.00000E+00
    0.65832E-07        -0.15313E-08         0.00000E+00
    0.65814E-07        -0.15805E-08         0.00000E+00
    0.65794E-07        -0.16294E-08         0.00000E+00
    0.65772E-07        -0.16771E-08         0.00000E+00
    0.65748E-07        -0.17230E-08         0.00000E+00
    0.65721E-07        -0.17676E-08         0.00000E+00
    0.65693E-07        -0.18114E-08         0.00000E+00
    0.65664E-07        -0.18560E-08         0.00000E+00
    0.65634E-07        -0.19049E-08         0.00000E+00
    0.65604E-07        -0.19572E-08         0.00000E+00
    0.65574E-07        -0.20079E-08         0.00000E+00
    0.65545E-07        -0.20616E-08         0.00000E+00
    0.65521E-07        -0.21175E-08         0.00000E+00
    0.65502E-07        -0.21588E-08         0.00000E+00
    0.65492E-07        -0.21782E-08         0.00000E+00
    0.65491E-07        -0.21769E-08         0.00000E+00
    0.65505E-07        -0.21495E-08         0.00000E+00
    0.65536E-07        -0.20868E-08         0.00000E+00
    0.65587E-07        -0.19776E-08         0.00000E+00
    0.65659E-07        -0.18275E-08         0.00000E+00
    0.65750E-07        -0.16509E-08         0.00000E+00
    0.65855E-07        -0.14456E-08         0.00000E+00
    0.65967E-07        -0.12163E-08         0.00000E+00
    0.66077E-07        -0.98088E-09         0.00000E+00
    0.66177E-07        -0.75293E-09         0.00000E+00
    0.66262E-07        -0.54632E-09         0.00000E+00
    0.66326E-07        -0.37404E-09         0.00000E+00
    0.66371E-07        -0.23911E-09         0.00000E+00
    0.66398E-07        -0.13687E-09         0.00000E+00
    0.66411E-07        -0.60492E-10         0.00000E+00
    0.66415E-07        -0.27832E-10         0.00000E+00
    0.63997E-07        -0.56213E-10         0.00000E+00
    0.63995E-07        -0.11074E-09         0.00000E+00
    0.63990E-07        -0.21726E-09         0.00000E+00
    0.63982E-07        -0.31868E-09         0.00000E+00
    0.63972E-07        -0.41500E-09         0.00000E+00
    0.63960E-07        -0.50628E-09         0.00000E+00
    0.63946E-07        -0.59265E-09         0.00000E+00
    0.63931E-07        -0.67426E-09         0.00000E+00
    0.63915E-07        -0.75130E-09         0.00000E+00
    0.63898E-07        -0.82408E-09         0.00000E+00
    0.63880E-07        -0.89286E-09         0.00000E+00
    0.63862E-07        -0.95794E-09         0.00000E+00
    0.63843E-07        -0.10196E-08         0.00000E+00
    0.63823E-07        -0.10782E-08         0.00000E+00
    0.63803E-07        -0.11340E-08         0.00000E+00
    0.63783E-07        -0.11874E-08         0.00000E+00
    0.63762E-07        -0.12385E-08         0.00000E+00
    0.63741E-07        -0.12876E-08         0.00000E+00
    0.63719E-07        -0.13351E-08         0.00000E+00
    0.63696E-07        -0.13811E-08         0.00000E+00
    0.63673E-07        -0.14258E-08         0.00000E+00
    0.63648E-07        -0.14692E-08         0.00000E+00
    0.63623E-07        -0.15115E-08         0.00000E+00
    0.63596E-07        -0.15531E-08         0.00000E+00
    0.63569E-07        -0.15939E-08         0.00000E+00
    0.63540E-07        -0.16341E-08         0.00000E+00
    0.63510E-07        -0.16737E-08         0.00000E+00
    0.63480E-07        -0.17128E-08         0.00000E+00
    0.63448E-07        -0.17510E-08         0.00000E+00
    0.63413E-07        -0.17882E-08         0.00000E+00
    0.63377E-07        -0.18256E-08         0.00000E+00
    0.63338E-07        -0.18621E-08         0.00000E+00
    0.63297E-07        -0.18963E-08         0.00000E+00
    0.63252E-07        -0.19291E-08         0.00000E+00
    0.63208E-07        -0.19634E-08         0.00000E+00
    0.63165E-07        -0.20020E-08         0.00000E+00
    0.63125E-07        -0.20423E-08         0.00000E+00
    0.63091E-07        -0.20832E-08         0.00000E+00
    0.63067E-07        -0.21191E-08         0.00000E+00
    0.63059E-07        -0.21263E-08         0.00000E+00
    0.63068E-07        -0.20872E-08         0.00000E+00
    0.63099E-07        -0.19959E-08         0.00000E+00
    0.63155E-07        -0.18394E-08         0.00000E+00
    0.63236E-07        -0.16118E-08         0.00000E+00
    0.63339E-07        -0.13363E-08         0.00000E+00
    0.63454E-07        -0.10413E-08         0.00000E+00
    0.63566E-07        -0.74634E-09         0.00000E+00
    0.63663E-07        -0.48051E-09         0.00000E+00
    0.63730E-07        -0.26696E-09         0.00000E+00
    0.63767E-07        -0.11152E-09         0.00000E+00
    0.63777E-07        -0.48541E-10         0.00000E+00
    0.61879E-07        -0.47895E-10         0.00000E+00
    0.61878E-07        -0.94683E-10         0.00000E+00
    0.61873E-07        -0.18654E-09         0.00000E+00
    0.61866E-07        -0.27490E-09         0.00000E+00
    0.61856E-07        -0.35968E-09         0.00000E+00
    0.61844E-07        -0.44085E-09         0.00000E+00
    0.61831E-07        -0.51841E-09         0.00000E+00
    0.61815E-07        -0.59243E-09         0.00000E+00
    0.61798E-07        -0.66299E-09         0.00000E+00
    0.61779E-07        -0.73018E-09         0.00000E+00
    0.61759E-07        -0.79414E-09         0.00000E+00
    0.61739E-07        -0.85503E-09         0.00000E+00
    0.61717E-07        -0.91301E-09         0.00000E+00
    0.61694E-07        -0.96826E-09         0.00000E+00
    0.61670E-07        -0.10209E-08         0.00000E+00
    0.61646E-07        -0.10712E-08         0.00000E+00
    0.61621E-07        -0.11193E-08         0.00000E+00
    0.61595E-07        -0.11654E-08         0.00000E+00
    0.61568E-07        -0.12095E-08         0.00000E+00
    0.61541E-07        -0.12519E-08         0.00000E+00
    0.61512E-07        -0.12927E-08         0.00000E+00
    0.61483E-07        -0.13320E-08         0.00000E+00
    0.61453E-07        -0.13699E-08         0.00000E+00
    0.61422E-07        -0.14066E-08         0.00000E+00
    0.61390E-07        -0.14420E-08         0.00000E+00
    0.61357E-07        -0.14762E-08         0.00000E+00
    0.61322E-07        -0.15094E-08         0.00000E+00
    0.61287E-07        -0.15415E-08         0.00000E+00
    0.61249E-07        -0.15727E-08         0.00000E+00
    0.61211E-07        -0.16030E-08         0.00000E+00
    0.61171E-07        -0.16322E-08         0.00000E+00
    0.61129E-07        -0.16605E-08         0.00000E+00
    0.61086E-07        -0.16881E-08         0.00000E+00
    0.61041E-07        -0.17147E-08         0.00000E+00
    0.60995E-07        -0.17395E-08         0.00000E+00
    0.60946E-07        -0.17620E-08         0.00000E+00
    0.60894E-07        -0.17823E-08         0.00000E+00
    0.60839E-07        -0.18008E-08         0.00000E+00
    0.60780E-07        -0.18168E-08         0.00000E+00
    0.60719E-07        -0.18323E-08         0.00000E+00
    0.60659E-07        -0.18534E-08         0.00000E+00
    0.60605E-07        -0.18785E-08         0.00000E+00
    0.60561E-07        -0.19006E-08         0.00000E+00
    0.60535E-07        -0.19014E-08         0.00000E+00
    0.60532E-07        -0.18393E-08         0.00000E+00
    0.60555E-07        -0.16826E-08         0.00000E+00
    0.60606E-07        -0.14199E-08         0.00000E+00
    0.60680E-07        -0.10595E-08         0.00000E+00
    0.60765E-07        -0.65687E-09         0.00000E+00
    0.60837E-07        -0.29555E-09         0.00000E+00
    0.60866E-07        -0.13545E-09         0.00000E+00
    0.59735E-07        -0.40558E-10         0.00000E+00
    0.59734E-07        -0.80298E-10         0.00000E+00
    0.59730E-07        -0.15852E-09         0.00000E+00
    0.59723E-07        -0.23418E-09         0.00000E+00
    0.59714E-07        -0.30721E-09         0.00000E+00
    0.59702E-07        -0.37758E-09         0.00000E+00
    0.59689E-07        -0.44526E-09         0.00000E+00
    0.59674E-07        -0.51026E-09         0.00000E+00
    0.59656E-07        -0.57259E-09         0.00000E+00
    0.59637E-07        -0.63231E-09         0.00000E+00
    0.59617E-07        -0.68946E-09         0.00000E+00
    0.59595E-07        -0.74412E-09         0.00000E+00
    0.59572E-07        -0.79636E-09         0.00000E+00
    0.59548E-07        -0.84626E-09         0.00000E+00
    0.59522E-07        -0.89394E-09         0.00000E+00
    0.59495E-07        -0.93946E-09         0.00000E+00
    0.59467E-07        -0.98295E-09         0.00000E+00
    0.59439E-07        -0.10245E-08         0.00000E+00
    0.59409E-07        -0.10641E-08         0.00000E+00
    0.59378E-07        -0.11020E-08         0.00000E+00
    0.59346E-07        -0.11382E-08         0.00000E+00
    0.59313E-07        -0.11728E-08         0.00000E+00
    0.59279E-07        -0.12058E-08         0.00000E+00
    0.59244E-07        -0.12374E-08         0.00000E+00
    0.59207E-07        -0.12674E-08         0.00000E+00
    0.59170E-07        -0.12961E-08         0.00000E+00
    0.59131E-07        -0.13233E-08         0.00000E+00
    0.59091E-07        -0.13491E-08         0.00000E+00
    0.59050E-07        -0.13735E-08         0.00000E+00
    0.59007E-07        -0.13964E-08         0.00000E+00
    0.58963E-07        -0.14177E-08         0.00000E+00
    0.58917E-07        -0.14374E-08         0.00000E+00
    0.58869E-07        -0.14553E-08         0.00000E+00
    0.58819E-07        -0.14713E-08         0.00000E+00
    0.58767E-07        -0.14854E-08         0.00000E+00
    0.58713E-07        -0.14976E-08         0.00000E+00
    0.58657E-07        -0.15076E-08         0.00000E+00
    0.58598E-07        -0.15152E-08         0.00000E+00
    0.58536E-07        -0.15202E-08         0.00000E+00
    0.58472E-07        -0.15215E-08         0.00000E+00
    0.58403E-07        -0.15168E-08         0.00000E+00
    0.58330E-07        -0.15054E-08         0.00000E+00
    0.58251E-07        -0.14880E-08         0.00000E+00
    0.58166E-07        -0.14648E-08         0.00000E+00
    0.58077E-07        -0.14398E-08         0.00000E+00
    0.57992E-07        -0.14127E-08         0.00000E+00
    0.57917E-07        -0.13722E-08         0.00000E+00
    0.57862E-07        -0.12764E-08         0.00000E+00
    0.57833E-07        -0.10482E-08         0.00000E+00
    0.57826E-07        -0.61704E-09         0.00000E+00
    0.57826E-07        -0.34366E-09         0.00000E+00
    0.57582E-07        -0.33827E-10         0.00000E+00
    0.57581E-07        -0.67019E-10         0.00000E+00
    0.57577E-07        -0.13243E-09         0.00000E+00
    0.57571E-07        -0.19587E-09         0.00000E+00
    0.57562E-07        -0.25730E-09         0.00000E+00
    0.57551E-07        -0.31670E-09         0.00000E+00
    0.57538E-07        -0.37404E-09         0.00000E+00
    0.57523E-07        -0.42931E-09         0.00000E+00
    0.57506E-07        -0.48251E-09         0.00000E+00
    0.57487E-07        -0.53365E-09         0.00000E+00
    0.57467E-07        -0.58274E-09         0.00000E+00
    0.57444E-07        -0.62981E-09         0.00000E+00
    0.57421E-07        -0.67489E-09         0.00000E+00
    0.57396E-07        -0.71802E-09         0.00000E+00
    0.57369E-07        -0.75921E-09         0.00000E+00
    0.57341E-07        -0.79853E-09         0.00000E+00
    0.57312E-07        -0.83601E-09         0.00000E+00
    0.57281E-07        -0.87169E-09         0.00000E+00
    0.57250E-07        -0.90560E-09         0.00000E+00
    0.57217E-07        -0.93779E-09         0.00000E+00
    0.57182E-07        -0.96828E-09         0.00000E+00
    0.57147E-07        -0.99710E-09         0.00000E+00
    0.57110E-07        -0.10243E-08         0.00000E+00
    0.57072E-07        -0.10498E-08         0.00000E+00
    0.57033E-07        -0.10736E-08         0.00000E+00
    0.56993E-07        -0.10958E-08         0.00000E+00
    0.56951E-07        -0.11163E-08         0.00000E+00
    0.56908E-07        -0.11350E-08         0.00000E+00
    0.56863E-07        -0.11519E-08         0.00000E+00
    0.56817E-07        -0.11669E-08         0.00000E+00
    0.56769E-07        -0.11799E-08         0.00000E+00
    0.56719E-07        -0.11908E-08         0.00000E+00
    0.56668E-07        -0.11994E-08         0.00000E+00
    0.56614E-07        -0.12055E-08         0.00000E+00
    0.56559E-07        -0.12088E-08         0.00000E+00
    0.56502E-07        -0.12091E-08         0.00000E+00
    0.56442E-07        -0.12058E-08         0.00000E+00
    0.56379E-07        -0.11985E-08         0.00000E+00
    0.56314E-07        -0.11866E-08         0.00000E+00
    0.56246E-07        -0.11695E-08         0.00000E+00
    0.56175E-07        -0.11468E-08         0.00000E+00
    0.56101E-07        -0.11174E-08         0.00000E+00
    0.56023E-07        -0.10796E-08         0.00000E+00
    0.55942E-07        -0.10311E-08         0.00000E+00
    0.55857E-07        -0.96710E-09         0.00000E+00
    0.55767E-07        -0.88275E-09         0.00000E+00
    0.55672E-07        -0.77428E-09         0.00000E+00
    0.55573E-07        -0.63840E-09         0.00000E+00
    0.55478E-07        -0.47306E-09         0.00000E+00
    0.55403E-07        -0.26247E-09         0.00000E+00
    0.55373E-07        -0.14205E-09         0.00000E+00
    0.55436E-07        -0.27443E-10         0.00000E+00
    0.55435E-07        -0.54389E-10         0.00000E+00
    0.55431E-07        -0.10753E-09         0.00000E+00
    0.55425E-07        -0.15915E-09         0.00000E+00
    0.55417E-07        -0.20922E-09         0.00000E+00
    0.55406E-07        -0.25774E-09         0.00000E+00
    0.55394E-07        -0.30466E-09         0.00000E+00
    0.55379E-07        -0.34998E-09         0.00000E+00
    0.55362E-07        -0.39369E-09         0.00000E+00
    0.55344E-07        -0.43576E-09         0.00000E+00
    0.55324E-07        -0.47620E-09         0.00000E+00
    0.55302E-07        -0.51499E-09         0.00000E+00
    0.55278E-07        -0.55214E-09         0.00000E+00
    0.55253E-07        -0.58765E-09         0.00000E+00
    0.55227E-07        -0.62151E-09         0.00000E+00
    0.55198E-07        -0.65373E-09         0.00000E+00
    0.55169E-07        -0.68431E-09         0.00000E+00
    0.55138E-07        -0.71325E-09         0.00000E+00
    0.55106E-07        -0.74054E-09         0.00000E+00
    0.55072E-07        -0.76618E-09         0.00000E+00
    0.55037E-07        -0.79016E-09         0.00000E+00
    0.55001E-07        -0.81246E-09         0.00000E+00
    0.54964E-07        -0.83305E-09         0.00000E+00
    0.54925E-07        -0.85191E-09         0.00000E+00
    0.54885E-07        -0.86900E-09         0.00000E+00
    0.54844E-07        -0.88425E-09         0.00000E+00
    0.54801E-07        -0.89760E-09         0.00000E+00
    0.54757E-07        -0.90896E-09         0.00000E+00
    0.54711E-07        -0.91824E-09         0.00000E+00
    0.54664E-07        -0.92532E-09         0.00000E+00
    0.54616E-07        -0.93004E-09         0.00000E+00
    0.54566E-07        -0.93223E-09         0.00000E+00
    0.54515E-07        -0.93168E-09         0.00000E+00
    0.54462E-07        -0.92815E-09         0.00000E+00
    0.54408E-07        -0.92136E-09         0.00000E+00
    0.54351E-07        -0.91098E-09         0.00000E+00
    0.54294E-07        -0.89662E-09         0.00000E+00
    0.54234E-07        -0.87784E-09         0.00000E+00
    0.54174E-07        -0.85415E-09         0.00000E+00
    0.54111E-07        -0.82488E-09         0.00000E+00
    0.54048E-07        -0.78923E-09         0.00000E+00
    0.53983E-07        -0.74636E-09         0.00000E+00
    0.53918E-07        -0.69539E-09         0.00000E+00
    0.53852E-07        -0.63552E-09         0.00000E+00
    0.53787E-07        -0.56648E-09         0.00000E+00
    0.53724E-07        -0.48817E-09         0.00000E+00
    0.53665E-07        -0.40049E-09         0.00000E+00
    0.53613E-07        -0.30375E-09         0.00000E+00
    0.53570E-07        -0.19899E-09         0.00000E+00
    0.53539E-07        -0.94200E-10         0.00000E+00
    0.53528E-07        -0.43566E-10         0.00000E+00
    0.53310E-07        -0.21295E-10         0.00000E+00
    0.53309E-07        -0.42234E-10         0.00000E+00
    0.53306E-07        -0.83566E-10         0.00000E+00
    0.53300E-07        -0.12380E-09         0.00000E+00
    0.53292E-07        -0.16290E-09         0.00000E+00
    0.53282E-07        -0.20084E-09         0.00000E+00
    0.53270E-07        -0.23760E-09         0.00000E+00
    0.53256E-07        -0.27314E-09         0.00000E+00
    0.53240E-07        -0.30744E-09         0.00000E+00
    0.53222E-07        -0.34048E-09         0.00000E+00
    0.53203E-07        -0.37222E-09         0.00000E+00
    0.53182E-07        -0.40265E-09         0.00000E+00
    0.53159E-07        -0.43173E-09         0.00000E+00
    0.53135E-07        -0.45945E-09         0.00000E+00
    0.53109E-07        -0.48578E-09         0.00000E+00
    0.53082E-07        -0.51069E-09         0.00000E+00
    0.53053E-07        -0.53417E-09         0.00000E+00
    0.53023E-07        -0.55618E-09         0.00000E+00
    0.52992E-07        -0.57669E-09         0.00000E+00
    0.52960E-07        -0.59568E-09         0.00000E+00
    0.52926E-07        -0.61311E-09         0.00000E+00
    0.52891E-07        -0.62894E-09         0.00000E+00
    0.52855E-07        -0.64312E-09         0.00000E+00
    0.52817E-07        -0.65559E-09         0.00000E+00
    0.52779E-07        -0.66631E-09         0.00000E+00
    0.52739E-07        -0.67519E-09         0.00000E+00
    0.52698E-07        -0.68217E-09         0.00000E+00
    0.52657E-07        -0.68715E-09         0.00000E+00
    0.52614E-07        -0.69003E-09         0.00000E+00
    0.52570E-07        -0.69070E-09         0.00000E+00
    0.52525E-07        -0.68903E-09         0.00000E+00
    0.52479E-07        -0.68488E-09         0.00000E+00
    0.52432E-07        -0.67809E-09         0.00000E+00
    0.52384E-07        -0.66850E-09         0.00000E+00
    0.52336E-07        -0.65590E-09         0.00000E+00
    0.52287E-07        -0.64011E-09         0.00000E+00
    0.52237E-07        -0.62092E-09         0.00000E+00
    0.52187E-07        -0.59811E-09         0.00000E+00
    0.52137E-07        -0.57146E-09         0.00000E+00
    0.52088E-07        -0.54081E-09         0.00000E+00
    0.52039E-07        -0.50604E-09         0.00000E+00
    0.51991E-07        -0.46710E-09         0.00000E+00
    0.51945E-07        -0.42405E-09         0.00000E+00
    0.51901E-07        -0.37708E-09         0.00000E+00
    0.51861E-07        -0.32649E-09         0.00000E+00
    0.51824E-07        -0.27283E-09         0.00000E+00
    0.51793E-07        -0.21707E-09         0.00000E+00
    0.51767E-07        -0.16069E-09         0.00000E+00
    0.51749E-07        -0.10565E-09         0.00000E+00
    0.51738E-07        -0.52431E-10         0.00000E+00
    0.51735E-07        -0.26141E-10         0.00000E+00
    0.51216E-07        -0.15443E-10         0.00000E+00
    0.51214E-07        -0.30676E-10         0.00000E+00
    0.51211E-07        -0.60811E-10         0.00000E+00
    0.51206E-07        -0.90264E-10         0.00000E+00
    0.51198E-07        -0.11899E-09         0.00000E+00
    0.51189E-07        -0.14695E-09         0.00000E+00
    0.51178E-07        -0.17410E-09         0.00000E+00
    0.51164E-07        -0.20040E-09         0.00000E+00
    0.51150E-07        -0.22580E-09         0.00000E+00
    0.51133E-07        -0.25027E-09         0.00000E+00
    0.51115E-07        -0.27376E-09         0.00000E+00
    0.51096E-07        -0.29624E-09         0.00000E+00
    0.51074E-07        -0.31766E-09         0.00000E+00
    0.51052E-07        -0.33799E-09         0.00000E+00
    0.51028E-07        -0.35719E-09         0.00000E+00
    0.51003E-07        -0.37522E-09         0.00000E+00
    0.50976E-07        -0.39205E-09         0.00000E+00
    0.50949E-07        -0.40762E-09         0.00000E+00
    0.50920E-07        -0.42191E-09         0.00000E+00
    0.50890E-07        -0.43487E-09         0.00000E+00
    0.50859E-07        -0.44646E-09         0.00000E+00
    0.50827E-07        -0.45663E-09         0.00000E+00
    0.50794E-07        -0.46533E-09         0.00000E+00
    0.50760E-07        -0.47251E-09         0.00000E+00
    0.50725E-07        -0.47812E-09         0.00000E+00
    0.50689E-07        -0.48210E-09         0.00000E+00
    0.50652E-07        -0.48439E-09         0.00000E+00
    0.50615E-07        -0.48493E-09         0.00000E+00
    0.50577E-07        -0.48365E-09         0.00000E+00
    0.50539E-07        -0.48048E-09         0.00000E+00
    0.50500E-07        -0.47535E-09         0.00000E+00
    0.50460E-07        -0.46819E-09         0.00000E+00
    0.50421E-07        -0.45894E-09         0.00000E+00
    0.50381E-07        -0.44753E-09         0.00000E+00
    0.50341E-07        -0.43390E-09         0.00000E+00
    0.50302E-07        -0.41802E-09         0.00000E+00
    0.50262E-07        -0.39986E-09         0.00000E+00
    0.50224E-07        -0.37941E-09         0.00000E+00
    0.50186E-07        -0.35672E-09         0.00000E+00
    0.50149E-07        -0.33187E-09         0.00000E+00
    0.50114E-07        -0.30497E-09         0.00000E+00
    0.50081E-07        -0.27621E-09         0.00000E+00
    0.50050E-07        -0.24584E-09         0.00000E+00
    0.50021E-07        -0.21421E-09         0.00000E+00
    0.49995E-07        -0.18176E-09         0.00000E+00
    0.49973E-07        -0.14902E-09         0.00000E+00
    0.49955E-07        -0.11652E-09         0.00000E+00
    0.49940E-07        -0.84792E-10         0.00000E+00
    0.49930E-07        -0.54238E-10         0.00000E+00
    0.49924E-07        -0.25671E-10         0.00000E+00
    0.49921E-07        -0.12042E-10         0.00000E+00
    0.49160E-07        -0.10035E-10         0.00000E+00
    0.49159E-07        -0.20009E-10         0.00000E+00
    0.49156E-07        -0.39838E-10         0.00000E+00
    0.49151E-07        -0.59400E-10         0.00000E+00
    0.49145E-07        -0.78632E-10         0.00000E+00
    0.49136E-07        -0.97473E-10         0.00000E+00
    0.49126E-07        -0.11586E-09         0.00000E+00
    0.49114E-07        -0.13375E-09         0.00000E+00
    0.49101E-07        -0.15107E-09         0.00000E+00
    0.49086E-07        -0.16778E-09         0.00000E+00
    0.49070E-07        -0.18382E-09         0.00000E+00
    0.49052E-07        -0.19914E-09         0.00000E+00
    0.49033E-07        -0.21370E-09         0.00000E+00
    0.49013E-07        -0.22746E-09         0.00000E+00
    0.48992E-07        -0.24035E-09         0.00000E+00
    0.48970E-07        -0.25235E-09         0.00000E+00
    0.48946E-07        -0.26340E-09         0.00000E+00
    0.48922E-07        -0.27347E-09         0.00000E+00
    0.48896E-07        -0.28252E-09         0.00000E+00
    0.48870E-07        -0.29049E-09         0.00000E+00
    0.48842E-07        -0.29736E-09         0.00000E+00
    0.48814E-07        -0.30309E-09         0.00000E+00
    0.48786E-07        -0.30764E-09         0.00000E+00
    0.48756E-07        -0.31096E-09         0.00000E+00
    0.48726E-07        -0.31303E-09         0.00000E+00
    0.48695E-07        -0.31381E-09         0.00000E+00
    0.48664E-07        -0.31326E-09         0.00000E+00
    0.48633E-07        -0.31136E-09         0.00000E+00
    0.48601E-07        -0.30809E-09         0.00000E+00
    0.48569E-07        -0.30341E-09         0.00000E+00
    0.48537E-07        -0.29732E-09         0.00000E+00
    0.48505E-07        -0.28981E-09         0.00000E+00
    0.48473E-07        -0.28088E-09         0.00000E+00
    0.48442E-07        -0.27054E-09         0.00000E+00
    0.48411E-07        -0.25882E-09         0.00000E+00
    0.48380E-07        -0.24576E-09         0.00000E+00
    0.48350E-07        -0.23143E-09         0.00000E+00
    0.48321E-07        -0.21592E-09         0.00000E+00
    0.48293E-07        -0.19934E-09         0.00000E+00
    0.48267E-07        -0.18183E-09         0.00000E+00
    0.48242E-07        -0.16356E-09         0.00000E+00
    0.48218E-07        -0.14476E-09         0.00000E+00
    0.48197E-07        -0.12565E-09         0.00000E+00
    0.48178E-07        -0.10651E-09         0.00000E+00
    0.48161E-07        -0.87639E-10         0.00000E+00
    0.48146E-07        -0.69361E-10         0.00000E+00
    0.48134E-07        -0.52024E-10         0.00000E+00
    0.48124E-07        -0.36025E-10         0.00000E+00
    0.48118E-07        -0.21823E-10         0.00000E+00
    0.48114E-07        -0.98012E-11         0.00000E+00
    0.48112E-07        -0.43698E-11         0.00000E+00
    0.47152E-07        -0.52392E-11         0.00000E+00
    0.47151E-07        -0.10553E-10         0.00000E+00
    0.47148E-07        -0.21259E-10         0.00000E+00
    0.47144E-07        -0.32083E-10         0.00000E+00
    0.47138E-07        -0.42942E-10         0.00000E+00
    0.47131E-07        -0.53761E-10         0.00000E+00
    0.47122E-07        -0.64467E-10         0.00000E+00
    0.47112E-07        -0.74991E-10         0.00000E+00
    0.47100E-07        -0.85269E-10         0.00000E+00
    0.47088E-07        -0.95238E-10         0.00000E+00
    0.47074E-07        -0.10484E-09         0.00000E+00
    0.47058E-07        -0.11402E-09         0.00000E+00
    0.47042E-07        -0.12273E-09         0.00000E+00
    0.47025E-07        -0.13091E-09         0.00000E+00
    0.47007E-07        -0.13852E-09         0.00000E+00
    0.46988E-07        -0.14552E-09         0.00000E+00
    0.46968E-07        -0.15186E-09         0.00000E+00
    0.46947E-07        -0.15750E-09         0.00000E+00
    0.46925E-07        -0.16241E-09         0.00000E+00
    0.46903E-07        -0.16655E-09         0.00000E+00
    0.46880E-07        -0.16989E-09         0.00000E+00
    0.46856E-07        -0.17241E-09         0.00000E+00
    0.46832E-07        -0.17407E-09         0.00000E+00
    0.46808E-07        -0.17486E-09         0.00000E+00
    0.46783E-07        -0.17477E-09         0.00000E+00
    0.46758E-07        -0.17376E-09         0.00000E+00
    0.46733E-07        -0.17185E-09         0.00000E+00
    0.46707E-07        -0.16902E-09         0.00000E+00
    0.46682E-07        -0.16528E-09         0.00000E+00
    0.46656E-07        -0.16063E-09         0.00000E+00
    0.46631E-07        -0.15510E-09         0.00000E+00
    0.46606E-07        -0.14872E-09         0.00000E+00
    0.46581E-07        -0.14151E-09         0.00000E+00
    0.46557E-07        -0.13354E-09         0.00000E+00
    0.46533E-07        -0.12485E-09         0.00000E+00
    0.46510E-07        -0.11553E-09         0.00000E+00
    0.46487E-07        -0.10567E-09         0.00000E+00
    0.46466E-07        -0.95371E-10         0.00000E+00
    0.46446E-07        -0.84755E-10         0.00000E+00
    0.46427E-07        -0.73966E-10         0.00000E+00
    0.46409E-07        -0.63159E-10         0.00000E+00
    0.46392E-07        -0.52510E-10         0.00000E+00
    0.46377E-07        -0.42210E-10         0.00000E+00
    0.46364E-07        -0.32469E-10         0.00000E+00
    0.46352E-07        -0.23510E-10         0.00000E+00
    0.46342E-07        -0.15575E-10         0.00000E+00
    0.46334E-07        -0.89152E-11         0.00000E+00
    0.46328E-07        -0.37879E-11         0.00000E+00
    0.46323E-07        -0.44243E-12         0.00000E+00
    0.46320E-07         0.84772E-12         0.00000E+00
    0.46320E-07         0.94098E-12         0.00000E+00
    0.45196E-07        -0.11819E-11         0.00000E+00
    0.45195E-07        -0.25520E-11         0.00000E+00
    0.45193E-07        -0.55373E-11         0.00000E+00
    0.45190E-07        -0.89654E-11         0.00000E+00
    0.45185E-07        -0.12744E-10         0.00000E+00
    0.45179E-07        -0.16788E-10         0.00000E+00
    0.45171E-07        -0.21016E-10         0.00000E+00
    0.45163E-07        -0.25353E-10         0.00000E+00
    0.45153E-07        -0.29728E-10         0.00000E+00
    0.45143E-07        -0.34075E-10         0.00000E+00
    0.45131E-07        -0.38333E-10         0.00000E+00
    0.45119E-07        -0.42443E-10         0.00000E+00
    0.45105E-07        -0.46354E-10         0.00000E+00
    0.45091E-07        -0.50014E-10         0.00000E+00
    0.45076E-07        -0.53379E-10         0.00000E+00
    0.45061E-07        -0.56406E-10         0.00000E+00
    0.45044E-07        -0.59057E-10         0.00000E+00
    0.45027E-07        -0.61298E-10         0.00000E+00
    0.45010E-07        -0.63097E-10         0.00000E+00
    0.44992E-07        -0.64428E-10         0.00000E+00
    0.44973E-07        -0.65268E-10         0.00000E+00
    0.44954E-07        -0.65598E-10         0.00000E+00
    0.44935E-07        -0.65404E-10         0.00000E+00
    0.44915E-07        -0.64677E-10         0.00000E+00
    0.44896E-07        -0.63411E-10         0.00000E+00
    0.44876E-07        -0.61608E-10         0.00000E+00
    0.44856E-07        -0.59273E-10         0.00000E+00
    0.44836E-07        -0.56419E-10         0.00000E+00
    0.44816E-07        -0.53064E-10         0.00000E+00
    0.44797E-07        -0.49234E-10         0.00000E+00
    0.44777E-07        -0.44963E-10         0.00000E+00
    0.44758E-07        -0.40291E-10         0.00000E+00
    0.44739E-07        -0.35269E-10         0.00000E+00
    0.44721E-07        -0.29956E-10         0.00000E+00
    0.44703E-07        -0.24420E-10         0.00000E+00
    0.44686E-07        -0.18740E-10         0.00000E+00
    0.44670E-07        -0.13003E-10         0.00000E+00
    0.44654E-07        -0.73103E-11         0.00000E+00
    0.44639E-07        -0.17702E-11         0.00000E+00
    0.44626E-07         0.34966E-11         0.00000E+00
    0.44613E-07         0.83595E-11         0.00000E+00
    0.44601E-07         0.12678E-10         0.00000E+00
    0.44591E-07         0.16301E-10         0.00000E+00
    0.44581E-07         0.19070E-10         0.00000E+00
    0.44573E-07         0.20818E-10         0.00000E+00
    0.44566E-07         0.21371E-10         0.00000E+00
    0.44561E-07         0.20550E-10         0.00000E+00
    0.44557E-07         0.18173E-10         0.00000E+00
    0.44554E-07         0.14046E-10         0.00000E+00
    0.44552E-07         0.79851E-11         0.00000E+00
    0.44551E-07         0.44481E-11         0.00000E+00
    0.43298E-07         0.20748E-11         0.00000E+00
    0.43298E-07         0.38765E-11         0.00000E+00
    0.43296E-07         0.71087E-11         0.00000E+00
    0.43293E-07         0.96477E-11         0.00000E+00
    0.43289E-07         0.11589E-10         0.00000E+00
    0.43285E-07         0.13020E-10         0.00000E+00
    0.43279E-07         0.14024E-10         0.00000E+00
    0.43272E-07         0.14679E-10         0.00000E+00
    0.43265E-07         0.15055E-10         0.00000E+00
    0.43256E-07         0.15218E-10         0.00000E+00
    0.43247E-07         0.15231E-10         0.00000E+00
    0.43237E-07         0.15149E-10         0.00000E+00
    0.43227E-07         0.15024E-10         0.00000E+00
    0.43216E-07         0.14903E-10         0.00000E+00
    0.43204E-07         0.14831E-10         0.00000E+00
    0.43192E-07         0.14844E-10         0.00000E+00
    0.43179E-07         0.14978E-10         0.00000E+00
    0.43166E-07         0.15261E-10         0.00000E+00
    0.43152E-07         0.15721E-10         0.00000E+00
    0.43138E-07         0.16377E-10         0.00000E+00
    0.43124E-07         0.17247E-10         0.00000E+00
    0.43109E-07         0.18343E-10         0.00000E+00
    0.43094E-07         0.19671E-10         0.00000E+00
    0.43079E-07         0.21235E-10         0.00000E+00
    0.43064E-07         0.23031E-10         0.00000E+00
    0.43049E-07         0.25053E-10         0.00000E+00
    0.43034E-07         0.27286E-10         0.00000E+00
    0.43019E-07         0.29713E-10         0.00000E+00
    0.43004E-07         0.32308E-10         0.00000E+00
    0.42989E-07         0.35041E-10         0.00000E+00
    0.42975E-07         0.37874E-10         0.00000E+00
    0.42961E-07         0.40765E-10         0.00000E+00
    0.42947E-07         0.43663E-10         0.00000E+00
    0.42934E-07         0.46510E-10         0.00000E+00
    0.42921E-07         0.49243E-10         0.00000E+00
    0.42908E-07         0.51791E-10         0.00000E+00
    0.42897E-07         0.54076E-10         0.00000E+00
    0.42885E-07         0.56013E-10         0.00000E+00
    0.42875E-07         0.57510E-10         0.00000E+00
    0.42865E-07         0.58467E-10         0.00000E+00
    0.42856E-07         0.58781E-10         0.00000E+00
    0.42848E-07         0.58341E-10         0.00000E+00
    0.42841E-07         0.57029E-10         0.00000E+00
    0.42835E-07         0.54724E-10         0.00000E+00
    0.42829E-07         0.51300E-10         0.00000E+00
    0.42825E-07         0.46627E-10         0.00000E+00
    0.42821E-07         0.40572E-10         0.00000E+00
    0.42818E-07         0.33001E-10         0.00000E+00
    0.42816E-07         0.23778E-10         0.00000E+00
    0.42815E-07         0.12766E-10         0.00000E+00
    0.42814E-07         0.67958E-11         0.00000E+00
    0.41463E-07         0.45348E-11         0.00000E+00
    0.41463E-07         0.87417E-11         0.00000E+00
    0.41461E-07         0.16701E-10         0.00000E+00
    0.41459E-07         0.23797E-10         0.00000E+00
    0.41457E-07         0.30122E-10         0.00000E+00
    0.41453E-07         0.35760E-10         0.00000E+00
    0.41449E-07         0.40792E-10         0.00000E+00
    0.41444E-07         0.45291E-10         0.00000E+00
    0.41438E-07         0.49324E-10         0.00000E+00
    0.41432E-07         0.52956E-10         0.00000E+00
    0.41425E-07         0.56243E-10         0.00000E+00
    0.41418E-07         0.59238E-10         0.00000E+00
    0.41410E-07         0.61991E-10         0.00000E+00
    0.41402E-07         0.64544E-10         0.00000E+00
    0.41393E-07         0.66937E-10         0.00000E+00
    0.41384E-07         0.69205E-10         0.00000E+00
    0.41374E-07         0.71377E-10         0.00000E+00
    0.41365E-07         0.73479E-10         0.00000E+00
    0.41354E-07         0.75533E-10         0.00000E+00
    0.41344E-07         0.77556E-10         0.00000E+00
    0.41333E-07         0.79559E-10         0.00000E+00
    0.41323E-07         0.81552E-10         0.00000E+00
    0.41312E-07         0.83538E-10         0.00000E+00
    0.41301E-07         0.85515E-10         0.00000E+00
    0.41290E-07         0.87479E-10         0.00000E+00
    0.41279E-07         0.89418E-10         0.00000E+00
    0.41268E-07         0.91317E-10         0.00000E+00
    0.41257E-07         0.93157E-10         0.00000E+00
    0.41246E-07         0.94913E-10         0.00000E+00
    0.41236E-07         0.96553E-10         0.00000E+00
    0.41225E-07         0.98044E-10         0.00000E+00
    0.41215E-07         0.99345E-10         0.00000E+00
    0.41206E-07         0.10041E-09         0.00000E+00
    0.41196E-07         0.10119E-09         0.00000E+00
    0.41187E-07         0.10163E-09         0.00000E+00
    0.41179E-07         0.10167E-09         0.00000E+00
    0.41170E-07         0.10124E-09         0.00000E+00
    0.41163E-07         0.10027E-09         0.00000E+00
    0.41156E-07         0.98692E-10         0.00000E+00
    0.41149E-07         0.96422E-10         0.00000E+00
    0.41143E-07         0.93377E-10         0.00000E+00
    0.41138E-07         0.89471E-10         0.00000E+00
    0.41133E-07         0.84614E-10         0.00000E+00
    0.41129E-07         0.78711E-10         0.00000E+00
    0.41125E-07         0.71666E-10         0.00000E+00
    0.41122E-07         0.63381E-10         0.00000E+00
    0.41120E-07         0.53758E-10         0.00000E+00
    0.41118E-07         0.42693E-10         0.00000E+00
    0.41117E-07         0.30087E-10         0.00000E+00
    0.41116E-07         0.15838E-10         0.00000E+00
    0.41116E-07         0.82907E-11         0.00000E+00
    0.39695E-07         0.62537E-11         0.00000E+00
    0.39695E-07         0.12153E-10         0.00000E+00
    0.39694E-07         0.23451E-10         0.00000E+00
    0.39692E-07         0.33795E-10         0.00000E+00
    0.39690E-07         0.43266E-10         0.00000E+00
    0.39688E-07         0.51942E-10         0.00000E+00
    0.39685E-07         0.59894E-10         0.00000E+00
    0.39682E-07         0.67190E-10         0.00000E+00
    0.39678E-07         0.73890E-10         0.00000E+00
    0.39674E-07         0.80053E-10         0.00000E+00
    0.39669E-07         0.85729E-10         0.00000E+00
    0.39664E-07         0.90968E-10         0.00000E+00
    0.39658E-07         0.95812E-10         0.00000E+00
    0.39653E-07         0.10030E-09         0.00000E+00
    0.39647E-07         0.10447E-09         0.00000E+00
    0.39640E-07         0.10834E-09         0.00000E+00
    0.39634E-07         0.11196E-09         0.00000E+00
    0.39627E-07         0.11532E-09         0.00000E+00
    0.39620E-07         0.11847E-09         0.00000E+00
    0.39612E-07         0.12140E-09         0.00000E+00
    0.39605E-07         0.12414E-09         0.00000E+00
    0.39598E-07         0.12667E-09         0.00000E+00
    0.39590E-07         0.12902E-09         0.00000E+00
    0.39583E-07         0.13117E-09         0.00000E+00
    0.39575E-07         0.13311E-09         0.00000E+00
    0.39567E-07         0.13484E-09         0.00000E+00
    0.39560E-07         0.13635E-09         0.00000E+00
    0.39553E-07         0.13761E-09         0.00000E+00
    0.39545E-07         0.13860E-09         0.00000E+00
    0.39538E-07         0.13930E-09         0.00000E+00
    0.39531E-07         0.13966E-09         0.00000E+00
    0.39524E-07         0.13967E-09         0.00000E+00
    0.39518E-07         0.13928E-09         0.00000E+00
    0.39512E-07         0.13844E-09         0.00000E+00
    0.39506E-07         0.13712E-09         0.00000E+00
    0.39500E-07         0.13526E-09         0.00000E+00
    0.39495E-07         0.13281E-09         0.00000E+00
    0.39490E-07         0.12970E-09         0.00000E+00
    0.39486E-07         0.12589E-09         0.00000E+00
    0.39481E-07         0.12131E-09         0.00000E+00
    0.39478E-07         0.11589E-09         0.00000E+00
    0.39474E-07         0.10957E-09         0.00000E+00
    0.39471E-07         0.10227E-09         0.00000E+00
    0.39469E-07         0.93920E-10         0.00000E+00
    0.39467E-07         0.84452E-10         0.00000E+00
    0.39465E-07         0.73787E-10         0.00000E+00
    0.39463E-07         0.61851E-10         0.00000E+00
    0.39462E-07         0.48567E-10         0.00000E+00
    0.39462E-07         0.33858E-10         0.00000E+00
    0.39461E-07         0.17648E-10         0.00000E+00
    0.39461E-07         0.91586E-11         0.00000E+00
    0.37997E-07         0.73207E-11         0.00000E+00
    0.37997E-07         0.14283E-10         0.00000E+00
    0.37996E-07         0.27699E-10         0.00000E+00
    0.37996E-07         0.40134E-10         0.00000E+00
    0.37994E-07         0.51658E-10         0.00000E+00
    0.37993E-07         0.62339E-10         0.00000E+00
    0.37991E-07         0.72238E-10         0.00000E+00
    0.37989E-07         0.81412E-10         0.00000E+00
    0.37987E-07         0.89916E-10         0.00000E+00
    0.37984E-07         0.97798E-10         0.00000E+00
    0.37981E-07         0.10510E-09         0.00000E+00
    0.37978E-07         0.11187E-09         0.00000E+00
    0.37975E-07         0.11815E-09         0.00000E+00
    0.37971E-07         0.12395E-09         0.00000E+00
    0.37967E-07         0.12933E-09         0.00000E+00
    0.37963E-07         0.13429E-09         0.00000E+00
    0.37959E-07         0.13887E-09         0.00000E+00
    0.37955E-07         0.14308E-09         0.00000E+00
    0.37950E-07         0.14694E-09         0.00000E+00
    0.37946E-07         0.15045E-09         0.00000E+00
    0.37941E-07         0.15363E-09         0.00000E+00
    0.37937E-07         0.15648E-09         0.00000E+00
    0.37932E-07         0.15900E-09         0.00000E+00
    0.37927E-07         0.16119E-09         0.00000E+00
    0.37922E-07         0.16304E-09         0.00000E+00
    0.37918E-07         0.16455E-09         0.00000E+00
    0.37913E-07         0.16569E-09         0.00000E+00
    0.37909E-07         0.16646E-09         0.00000E+00
    0.37904E-07         0.16683E-09         0.00000E+00
    0.37900E-07         0.16678E-09         0.00000E+00
    0.37896E-07         0.16629E-09         0.00000E+00
    0.37891E-07         0.16532E-09         0.00000E+00
    0.37888E-07         0.16385E-09         0.00000E+00
    0.37884E-07         0.16183E-09         0.00000E+00
    0.37880E-07         0.15924E-09         0.00000E+00
    0.37877E-07         0.15603E-09         0.00000E+00
    0.37874E-07         0.15216E-09         0.00000E+00
    0.37871E-07         0.14758E-09         0.00000E+00
    0.37869E-07         0.14224E-09         0.00000E+00
    0.37866E-07         0.13610E-09         0.00000E+00
    0.37864E-07         0.12911E-09         0.00000E+00
    0.37863E-07         0.12120E-09         0.00000E+00
    0.37861E-07         0.11234E-09         0.00000E+00
    0.37860E-07         0.10245E-09         0.00000E+00
    0.37859E-07         0.91485E-10         0.00000E+00
    0.37858E-07         0.79388E-10         0.00000E+00
    0.37857E-07         0.66100E-10         0.00000E+00
    0.37857E-07         0.51562E-10         0.00000E+00
    0.37856E-07         0.35717E-10         0.00000E+00
    0.37856E-07         0.18508E-10         0.00000E+00
    0.37856E-07         0.95548E-11         0.00000E+00
    0.36373E-07         0.78414E-11         0.00000E+00
    0.36372E-07         0.15339E-10         0.00000E+00
    0.36372E-07         0.29844E-10         0.00000E+00
    0.36372E-07         0.43394E-10         0.00000E+00
    0.36371E-07         0.56048E-10         0.00000E+00
    0.36371E-07         0.67860E-10         0.00000E+00
    0.36370E-07         0.78881E-10         0.00000E+00
    0.36369E-07         0.89159E-10         0.00000E+00
    0.36368E-07         0.98738E-10         0.00000E+00
    0.36367E-07         0.10766E-09         0.00000E+00
    0.36365E-07         0.11596E-09         0.00000E+00
    0.36364E-07         0.12367E-09         0.00000E+00
    0.36362E-07         0.13082E-09         0.00000E+00
    0.36360E-07         0.13745E-09         0.00000E+00
    0.36358E-07         0.14357E-09         0.00000E+00
    0.36356E-07         0.14920E-09         0.00000E+00
    0.36354E-07         0.15438E-09         0.00000E+00
    0.36352E-07         0.15910E-09         0.00000E+00
    0.36350E-07         0.16338E-09         0.00000E+00
    0.36347E-07         0.16724E-09         0.00000E+00
    0.36345E-07         0.17067E-09         0.00000E+00
    0.36342E-07         0.17368E-09         0.00000E+00
    0.36340E-07         0.17627E-09         0.00000E+00
    0.36338E-07         0.17844E-09         0.00000E+00
    0.36335E-07         0.18018E-09         0.00000E+00
    0.36333E-07         0.18148E-09         0.00000E+00
    0.36330E-07         0.18233E-09         0.00000E+00
    0.36328E-07         0.18273E-09         0.00000E+00
    0.36326E-07         0.18264E-09         0.00000E+00
    0.36324E-07         0.18206E-09         0.00000E+00
    0.36322E-07         0.18096E-09         0.00000E+00
    0.36320E-07         0.17932E-09         0.00000E+00
    0.36318E-07         0.17711E-09         0.00000E+00
    0.36316E-07         0.17430E-09         0.00000E+00
    0.36315E-07         0.17087E-09         0.00000E+00
    0.36313E-07         0.16678E-09         0.00000E+00
    0.36312E-07         0.16199E-09         0.00000E+00
    0.36311E-07         0.15648E-09         0.00000E+00
    0.36310E-07         0.15020E-09         0.00000E+00
    0.36309E-07         0.14311E-09         0.00000E+00
    0.36308E-07         0.13518E-09         0.00000E+00
    0.36307E-07         0.12636E-09         0.00000E+00
    0.36307E-07         0.11661E-09         0.00000E+00
    0.36307E-07         0.10589E-09         0.00000E+00
    0.36306E-07         0.94147E-10         0.00000E+00
    0.36306E-07         0.81346E-10         0.00000E+00
    0.36306E-07         0.67441E-10         0.00000E+00
    0.36306E-07         0.52386E-10         0.00000E+00
    0.36306E-07         0.36138E-10         0.00000E+00
    0.36306E-07         0.18654E-10         0.00000E+00
    0.36306E-07         0.95970E-11         0.00000E+00
    0.34824E-07         0.79252E-11         0.00000E+00
    0.34824E-07         0.15535E-10         0.00000E+00
    0.34824E-07         0.30300E-10         0.00000E+00
    0.34824E-07         0.44177E-10         0.00000E+00
    0.34824E-07         0.57211E-10         0.00000E+00
    0.34824E-07         0.69445E-10         0.00000E+00
    0.34824E-07         0.80918E-10         0.00000E+00
    0.34824E-07         0.91667E-10         0.00000E+00
    0.34824E-07         0.10173E-09         0.00000E+00
    0.34824E-07         0.11113E-09         0.00000E+00
    0.34823E-07         0.11990E-09         0.00000E+00
    0.34823E-07         0.12808E-09         0.00000E+00
    0.34823E-07         0.13567E-09         0.00000E+00
    0.34822E-07         0.14271E-09         0.00000E+00
    0.34822E-07         0.14921E-09         0.00000E+00
    0.34821E-07         0.15520E-09         0.00000E+00
    0.34821E-07         0.16067E-09         0.00000E+00
    0.34820E-07         0.16565E-09         0.00000E+00
    0.34820E-07         0.17015E-09         0.00000E+00
    0.34819E-07         0.17417E-09         0.00000E+00
    0.34818E-07         0.17771E-09         0.00000E+00
    0.34818E-07         0.18078E-09         0.00000E+00
    0.34817E-07         0.18337E-09         0.00000E+00
    0.34817E-07         0.18549E-09         0.00000E+00
    0.34816E-07         0.18713E-09         0.00000E+00
    0.34815E-07         0.18828E-09         0.00000E+00
    0.34815E-07         0.18892E-09         0.00000E+00
    0.34814E-07         0.18906E-09         0.00000E+00
    0.34814E-07         0.18868E-09         0.00000E+00
    0.34813E-07         0.18776E-09         0.00000E+00
    0.34813E-07         0.18628E-09         0.00000E+00
    0.34813E-07         0.18422E-09         0.00000E+00
    0.34812E-07         0.18157E-09         0.00000E+00
    0.34812E-07         0.17830E-09         0.00000E+00
    0.34812E-07         0.17438E-09         0.00000E+00
    0.34812E-07         0.16979E-09         0.00000E+00
    0.34812E-07         0.16451E-09         0.00000E+00
    0.34812E-07         0.15850E-09         0.00000E+00
    0.34812E-07         0.15174E-09         0.00000E+00
    0.34812E-07         0.14419E-09         0.00000E+00
    0.34813E-07         0.13582E-09         0.00000E+00
    0.34813E-07         0.12660E-09         0.00000E+00
    0.34813E-07         0.11650E-09         0.00000E+00
    0.34814E-07         0.10548E-09         0.00000E+00
    0.34814E-07         0.93519E-10         0.00000E+00
    0.34814E-07         0.80570E-10         0.00000E+00
    0.34815E-07         0.66604E-10         0.00000E+00
    0.34815E-07         0.51588E-10         0.00000E+00
    0.34815E-07         0.35487E-10         0.00000E+00
    0.34815E-07         0.18269E-10         0.00000E+00
    0.34816E-07         0.93766E-11         0.00000E+00
    0.33353E-07         0.76763E-11         0.00000E+00
    0.33353E-07         0.15074E-10         0.00000E+00
    0.33353E-07         0.29463E-10         0.00000E+00
    0.33353E-07         0.43058E-10         0.00000E+00
    0.33354E-07         0.55891E-10         0.00000E+00
    0.33354E-07         0.67993E-10         0.00000E+00
    0.33355E-07         0.79393E-10         0.00000E+00
    0.33355E-07         0.90117E-10         0.00000E+00
    0.33356E-07         0.10019E-09         0.00000E+00
    0.33356E-07         0.10964E-09         0.00000E+00
    0.33357E-07         0.11848E-09         0.00000E+00
    0.33358E-07         0.12674E-09         0.00000E+00
    0.33358E-07         0.13443E-09         0.00000E+00
    0.33359E-07         0.14157E-09         0.00000E+00
    0.33360E-07         0.14817E-09         0.00000E+00
    0.33361E-07         0.15424E-09         0.00000E+00
    0.33361E-07         0.15980E-09         0.00000E+00
    0.33362E-07         0.16485E-09         0.00000E+00
    0.33363E-07         0.16939E-09         0.00000E+00
    0.33363E-07         0.17344E-09         0.00000E+00
    0.33364E-07         0.17699E-09         0.00000E+00
    0.33365E-07         0.18005E-09         0.00000E+00
    0.33366E-07         0.18261E-09         0.00000E+00
    0.33366E-07         0.18466E-09         0.00000E+00
    0.33367E-07         0.18622E-09         0.00000E+00
    0.33368E-07         0.18726E-09         0.00000E+00
    0.33369E-07         0.18779E-09         0.00000E+00
    0.33370E-07         0.18778E-09         0.00000E+00
    0.33370E-07         0.18723E-09         0.00000E+00
    0.33371E-07         0.18613E-09         0.00000E+00
    0.33372E-07         0.18446E-09         0.00000E+00
    0.33373E-07         0.18220E-09         0.00000E+00
    0.33374E-07         0.17935E-09         0.00000E+00
    0.33375E-07         0.17587E-09         0.00000E+00
    0.33376E-07         0.17176E-09         0.00000E+00
    0.33377E-07         0.16698E-09         0.00000E+00
    0.33378E-07         0.16152E-09         0.00000E+00
    0.33379E-07         0.15536E-09         0.00000E+00
    0.33380E-07         0.14847E-09         0.00000E+00
    0.33381E-07         0.14083E-09         0.00000E+00
    0.33382E-07         0.13241E-09         0.00000E+00
    0.33383E-07         0.12319E-09         0.00000E+00
    0.33384E-07         0.11315E-09         0.00000E+00
    0.33385E-07         0.10225E-09         0.00000E+00
    0.33385E-07         0.90470E-10         0.00000E+00
    0.33386E-07         0.77787E-10         0.00000E+00
    0.33387E-07         0.64175E-10         0.00000E+00
    0.33387E-07         0.49606E-10         0.00000E+00
    0.33388E-07         0.34056E-10         0.00000E+00
    0.33388E-07         0.17499E-10         0.00000E+00
    0.33388E-07         0.89664E-11         0.00000E+00
    0.31960E-07         0.71886E-11         0.00000E+00
    0.31960E-07         0.14139E-10         0.00000E+00
    0.31960E-07         0.27692E-10         0.00000E+00
    0.31961E-07         0.40560E-10         0.00000E+00
    0.31962E-07         0.52763E-10         0.00000E+00
    0.31962E-07         0.64322E-10         0.00000E+00
    0.31963E-07         0.75256E-10         0.00000E+00
    0.31964E-07         0.85584E-10         0.00000E+00
    0.31966E-07         0.95321E-10         0.00000E+00
    0.31967E-07         0.10448E-09         0.00000E+00
    0.31968E-07         0.11309E-09         0.00000E+00
    0.31970E-07         0.12114E-09         0.00000E+00
    0.31971E-07         0.12866E-09         0.00000E+00
    0.31973E-07         0.13566E-09         0.00000E+00
    0.31974E-07         0.14214E-09         0.00000E+00
    0.31976E-07         0.14811E-09         0.00000E+00
    0.31977E-07         0.15358E-09         0.00000E+00
    0.31979E-07         0.15855E-09         0.00000E+00
    0.31981E-07         0.16302E-09         0.00000E+00
    0.31982E-07         0.16700E-09         0.00000E+00
    0.31984E-07         0.17049E-09         0.00000E+00
    0.31986E-07         0.17348E-09         0.00000E+00
    0.31987E-07         0.17598E-09         0.00000E+00
    0.31989E-07         0.17798E-09         0.00000E+00
    0.31991E-07         0.17947E-09         0.00000E+00
    0.31993E-07         0.18045E-09         0.00000E+00
    0.31994E-07         0.18091E-09         0.00000E+00
    0.31996E-07         0.18085E-09         0.00000E+00
    0.31998E-07         0.18024E-09         0.00000E+00
    0.32000E-07         0.17909E-09         0.00000E+00
    0.32002E-07         0.17738E-09         0.00000E+00
    0.32003E-07         0.17509E-09         0.00000E+00
    0.32005E-07         0.17222E-09         0.00000E+00
    0.32007E-07         0.16874E-09         0.00000E+00
    0.32009E-07         0.16465E-09         0.00000E+00
    0.32010E-07         0.15991E-09         0.00000E+00
    0.32012E-07         0.15453E-09         0.00000E+00
    0.32014E-07         0.14847E-09         0.00000E+00
    0.32015E-07         0.14173E-09         0.00000E+00
    0.32017E-07         0.13428E-09         0.00000E+00
    0.32018E-07         0.12610E-09         0.00000E+00
    0.32020E-07         0.11717E-09         0.00000E+00
    0.32021E-07         0.10747E-09         0.00000E+00
    0.32022E-07         0.96993E-10         0.00000E+00
    0.32023E-07         0.85704E-10         0.00000E+00
    0.32024E-07         0.73588E-10         0.00000E+00
    0.32025E-07         0.60625E-10         0.00000E+00
    0.32026E-07         0.46796E-10         0.00000E+00
    0.32027E-07         0.32082E-10         0.00000E+00
    0.32027E-07         0.16463E-10         0.00000E+00
    0.32027E-07         0.84251E-11         0.00000E+00
    0.30647E-07         0.65431E-11         0.00000E+00
    0.30647E-07         0.12891E-10         0.00000E+00
    0.30647E-07         0.25298E-10         0.00000E+00
    0.30648E-07         0.37135E-10         0.00000E+00
    0.30649E-07         0.48413E-10         0.00000E+00
    0.30650E-07         0.59144E-10         0.00000E+00
    0.30651E-07         0.69338E-10         0.00000E+00
    0.30653E-07         0.79005E-10         0.00000E+00
    0.30654E-07         0.88155E-10         0.00000E+00
    0.30656E-07         0.96797E-10         0.00000E+00
    0.30657E-07         0.10494E-09         0.00000E+00
    0.30659E-07         0.11259E-09         0.00000E+00
    0.30661E-07         0.11975E-09         0.00000E+00
    0.30663E-07         0.12642E-09         0.00000E+00
    0.30665E-07         0.13262E-09         0.00000E+00
    0.30667E-07         0.13835E-09         0.00000E+00
    0.30670E-07         0.14360E-09         0.00000E+00
    0.30672E-07         0.14839E-09         0.00000E+00
    0.30674E-07         0.15270E-09         0.00000E+00
    0.30677E-07         0.15654E-09         0.00000E+00
    0.30679E-07         0.15991E-09         0.00000E+00
    0.30681E-07         0.16281E-09         0.00000E+00
    0.30684E-07         0.16523E-09         0.00000E+00
    0.30686E-07         0.16716E-09         0.00000E+00
    0.30689E-07         0.16861E-09         0.00000E+00
    0.30691E-07         0.16956E-09         0.00000E+00
    0.30693E-07         0.17001E-09         0.00000E+00
    0.30696E-07         0.16995E-09         0.00000E+00
    0.30698E-07         0.16938E-09         0.00000E+00
    0.30701E-07         0.16827E-09         0.00000E+00
    0.30703E-07         0.16663E-09         0.00000E+00
    0.30706E-07         0.16443E-09         0.00000E+00
    0.30708E-07         0.16168E-09         0.00000E+00
    0.30710E-07         0.15835E-09         0.00000E+00
    0.30712E-07         0.15443E-09         0.00000E+00
    0.30715E-07         0.14991E-09         0.00000E+00
    0.30717E-07         0.14478E-09         0.00000E+00
    0.30719E-07         0.13902E-09         0.00000E+00
    0.30721E-07         0.13261E-09         0.00000E+00
    0.30723E-07         0.12555E-09         0.00000E+00
    0.30725E-07         0.11781E-09         0.00000E+00
    0.30726E-07         0.10938E-09         0.00000E+00
    0.30728E-07         0.10025E-09         0.00000E+00
    0.30730E-07         0.90389E-10         0.00000E+00
    0.30731E-07         0.79797E-10         0.00000E+00
    0.30732E-07         0.68452E-10         0.00000E+00
    0.30733E-07         0.56341E-10         0.00000E+00
    0.30734E-07         0.43447E-10         0.00000E+00
    0.30734E-07         0.29757E-10         0.00000E+00
    0.30735E-07         0.15256E-10         0.00000E+00
    0.30735E-07         0.78006E-11         0.00000E+00
    0.29413E-07         0.58076E-11         0.00000E+00
    0.29413E-07         0.11462E-10         0.00000E+00
    0.29414E-07         0.22541E-10         0.00000E+00
    0.29415E-07         0.33164E-10         0.00000E+00
    0.29416E-07         0.43335E-10         0.00000E+00
    0.29417E-07         0.53058E-10         0.00000E+00
    0.29418E-07         0.62336E-10         0.00000E+00
    0.29420E-07         0.71173E-10         0.00000E+00
    0.29421E-07         0.79572E-10         0.00000E+00
    0.29423E-07         0.87535E-10         0.00000E+00
    0.29425E-07         0.95066E-10         0.00000E+00
    0.29427E-07         0.10216E-09         0.00000E+00
    0.29430E-07         0.10883E-09         0.00000E+00
    0.29432E-07         0.11507E-09         0.00000E+00
    0.29434E-07         0.12089E-09         0.00000E+00
    0.29437E-07         0.12627E-09         0.00000E+00
    0.29439E-07         0.13122E-09         0.00000E+00
    0.29442E-07         0.13575E-09         0.00000E+00
    0.29445E-07         0.13984E-09         0.00000E+00
    0.29447E-07         0.14349E-09         0.00000E+00
    0.29450E-07         0.14670E-09         0.00000E+00
    0.29453E-07         0.14948E-09         0.00000E+00
    0.29456E-07         0.15180E-09         0.00000E+00
    0.29459E-07         0.15367E-09         0.00000E+00
    0.29461E-07         0.15508E-09         0.00000E+00
    0.29464E-07         0.15603E-09         0.00000E+00
    0.29467E-07         0.15650E-09         0.00000E+00
    0.29470E-07         0.15650E-09         0.00000E+00
    0.29473E-07         0.15600E-09         0.00000E+00
    0.29476E-07         0.15501E-09         0.00000E+00
    0.29478E-07         0.15351E-09         0.00000E+00
    0.29481E-07         0.15149E-09         0.00000E+00
    0.29484E-07         0.14895E-09         0.00000E+00
    0.29486E-07         0.14587E-09         0.00000E+00
    0.29489E-07         0.14225E-09         0.00000E+00
    0.29492E-07         0.13806E-09         0.00000E+00
    0.29494E-07         0.13330E-09         0.00000E+00
    0.29496E-07         0.12796E-09         0.00000E+00
    0.29499E-07         0.12202E-09         0.00000E+00
    0.29501E-07         0.11548E-09         0.00000E+00
    0.29503E-07         0.10831E-09         0.00000E+00
    0.29505E-07         0.10052E-09         0.00000E+00
    0.29506E-07         0.92079E-10         0.00000E+00
    0.29508E-07         0.82983E-10         0.00000E+00
    0.29509E-07         0.73218E-10         0.00000E+00
    0.29511E-07         0.62773E-10         0.00000E+00
    0.29512E-07         0.51635E-10         0.00000E+00
    0.29513E-07         0.39793E-10         0.00000E+00
    0.29513E-07         0.27237E-10         0.00000E+00
    0.29514E-07         0.13955E-10         0.00000E+00
    0.29514E-07         0.71318E-11         0.00000E+00
    0.28259E-07         0.50367E-11         0.00000E+00
    0.28259E-07         0.99590E-11         0.00000E+00
    0.28260E-07         0.19631E-10         0.00000E+00
    0.28260E-07         0.28956E-10         0.00000E+00
    0.28261E-07         0.37931E-10         0.00000E+00
    0.28262E-07         0.46555E-10         0.00000E+00
    0.28264E-07         0.54824E-10         0.00000E+00
    0.28265E-07         0.62738E-10         0.00000E+00
    0.28267E-07         0.70293E-10         0.00000E+00
    0.28269E-07         0.77488E-10         0.00000E+00
    0.28271E-07         0.84320E-10         0.00000E+00
    0.28274E-07         0.90786E-10         0.00000E+00
    0.28276E-07         0.96885E-10         0.00000E+00
    0.28278E-07         0.10261E-09         0.00000E+00
    0.28281E-07         0.10797E-09         0.00000E+00
    0.28284E-07         0.11295E-09         0.00000E+00
    0.28286E-07         0.11755E-09         0.00000E+00
    0.28289E-07         0.12176E-09         0.00000E+00
    0.28292E-07         0.12558E-09         0.00000E+00
    0.28295E-07         0.12902E-09         0.00000E+00
    0.28298E-07         0.13205E-09         0.00000E+00
    0.28301E-07         0.13468E-09         0.00000E+00
    0.28304E-07         0.13690E-09         0.00000E+00
    0.28307E-07         0.13870E-09         0.00000E+00
    0.28310E-07         0.14009E-09         0.00000E+00
    0.28313E-07         0.14104E-09         0.00000E+00
    0.28316E-07         0.14156E-09         0.00000E+00
    0.28319E-07         0.14163E-09         0.00000E+00
    0.28322E-07         0.14125E-09         0.00000E+00
    0.28325E-07         0.14042E-09         0.00000E+00
    0.28328E-07         0.13911E-09         0.00000E+00
    0.28331E-07         0.13733E-09         0.00000E+00
    0.28334E-07         0.13506E-09         0.00000E+00
    0.28337E-07         0.13229E-09         0.00000E+00
    0.28339E-07         0.12902E-09         0.00000E+00
    0.28342E-07         0.12523E-09         0.00000E+00
    0.28345E-07         0.12092E-09         0.00000E+00
    0.28347E-07         0.11608E-09         0.00000E+00
    0.28349E-07         0.11069E-09         0.00000E+00
    0.28352E-07         0.10474E-09         0.00000E+00
    0.28354E-07         0.98231E-10         0.00000E+00
    0.28356E-07         0.91147E-10         0.00000E+00
    0.28357E-07         0.83477E-10         0.00000E+00
    0.28359E-07         0.75213E-10         0.00000E+00
    0.28361E-07         0.66345E-10         0.00000E+00
    0.28362E-07         0.56864E-10         0.00000E+00
    0.28363E-07         0.46760E-10         0.00000E+00
    0.28364E-07         0.36024E-10         0.00000E+00
    0.28364E-07         0.24648E-10         0.00000E+00
    0.28365E-07         0.12625E-10         0.00000E+00
    0.28365E-07         0.64495E-11         0.00000E+00
    0.27183E-07         0.42731E-11         0.00000E+00
    0.27184E-07         0.84672E-11         0.00000E+00
    0.27184E-07         0.16734E-10         0.00000E+00
    0.27185E-07         0.24753E-10         0.00000E+00
    0.27186E-07         0.32518E-10         0.00000E+00
    0.27187E-07         0.40021E-10         0.00000E+00
    0.27188E-07         0.47255E-10         0.00000E+00
    0.27190E-07         0.54214E-10         0.00000E+00
    0.27191E-07         0.60892E-10         0.00000E+00
    0.27193E-07         0.67282E-10         0.00000E+00
    0.27196E-07         0.73378E-10         0.00000E+00
    0.27198E-07         0.79175E-10         0.00000E+00
    0.27200E-07         0.84667E-10         0.00000E+00
    0.27203E-07         0.89848E-10         0.00000E+00
    0.27205E-07         0.94712E-10         0.00000E+00
    0.27208E-07         0.99253E-10         0.00000E+00
    0.27211E-07         0.10347E-09         0.00000E+00
    0.27213E-07         0.10734E-09         0.00000E+00
    0.27216E-07         0.11088E-09         0.00000E+00
    0.27219E-07         0.11407E-09         0.00000E+00
    0.27222E-07         0.11691E-09         0.00000E+00
    0.27225E-07         0.11938E-09         0.00000E+00
    0.27228E-07         0.12149E-09         0.00000E+00
    0.27231E-07         0.12323E-09         0.00000E+00
    0.27234E-07         0.12458E-09         0.00000E+00
    0.27237E-07         0.12555E-09         0.00000E+00
    0.27241E-07         0.12612E-09         0.00000E+00
    0.27244E-07         0.12629E-09         0.00000E+00
    0.27247E-07         0.12604E-09         0.00000E+00
    0.27250E-07         0.12538E-09         0.00000E+00
    0.27253E-07         0.12429E-09         0.00000E+00
    0.27256E-07         0.12276E-09         0.00000E+00
    0.27258E-07         0.12080E-09         0.00000E+00
    0.27261E-07         0.11837E-09         0.00000E+00
    0.27264E-07         0.11549E-09         0.00000E+00
    0.27267E-07         0.11214E-09         0.00000E+00
    0.27269E-07         0.10831E-09         0.00000E+00
    0.27271E-07         0.10400E-09         0.00000E+00
    0.27274E-07         0.99189E-10         0.00000E+00
    0.27276E-07         0.93877E-10         0.00000E+00
    0.27278E-07         0.88053E-10         0.00000E+00
    0.27280E-07         0.81709E-10         0.00000E+00
    0.27282E-07         0.74838E-10         0.00000E+00
    0.27283E-07         0.67430E-10         0.00000E+00
    0.27285E-07         0.59479E-10         0.00000E+00
    0.27286E-07         0.50976E-10         0.00000E+00
    0.27287E-07         0.41915E-10         0.00000E+00
    0.27288E-07         0.32289E-10         0.00000E+00
    0.27289E-07         0.22090E-10         0.00000E+00
    0.27289E-07         0.11313E-10         0.00000E+00
    0.27289E-07         0.57785E-11         0.00000E+00
    0.26185E-07         0.35489E-11         0.00000E+00
    0.26186E-07         0.70498E-11         0.00000E+00
    0.26186E-07         0.13975E-10         0.00000E+00
    0.26187E-07         0.20741E-10         0.00000E+00
    0.26188E-07         0.27337E-10         0.00000E+00
    0.26189E-07         0.33752E-10         0.00000E+00
    0.26190E-07         0.39976E-10         0.00000E+00
    0.26191E-07         0.45999E-10         0.00000E+00
    0.26193E-07         0.51810E-10         0.00000E+00
    0.26195E-07         0.57403E-10         0.00000E+00
    0.26197E-07         0.62766E-10         0.00000E+00
    0.26199E-07         0.67892E-10         0.00000E+00
    0.26201E-07         0.72773E-10         0.00000E+00
    0.26204E-07         0.77401E-10         0.00000E+00
    0.26206E-07         0.81766E-10         0.00000E+00
    0.26209E-07         0.85862E-10         0.00000E+00
    0.26211E-07         0.89681E-10         0.00000E+00
    0.26214E-07         0.93214E-10         0.00000E+00
    0.26217E-07         0.96455E-10         0.00000E+00
    0.26220E-07         0.99395E-10         0.00000E+00
    0.26222E-07         0.10203E-09         0.00000E+00
    0.26225E-07         0.10434E-09         0.00000E+00
    0.26228E-07         0.10634E-09         0.00000E+00
    0.26231E-07         0.10800E-09         0.00000E+00
    0.26234E-07         0.10932E-09         0.00000E+00
    0.26237E-07         0.11030E-09         0.00000E+00
    0.26240E-07         0.11093E-09         0.00000E+00
    0.26243E-07         0.11119E-09         0.00000E+00
    0.26246E-07         0.11108E-09         0.00000E+00
    0.26249E-07         0.11060E-09         0.00000E+00
    0.26252E-07         0.10973E-09         0.00000E+00
    0.26255E-07         0.10847E-09         0.00000E+00
    0.26257E-07         0.10680E-09         0.00000E+00
    0.26260E-07         0.10473E-09         0.00000E+00
    0.26263E-07         0.10225E-09         0.00000E+00
    0.26265E-07         0.99336E-10         0.00000E+00
    0.26268E-07         0.95995E-10         0.00000E+00
    0.26270E-07         0.92214E-10         0.00000E+00
    0.26272E-07         0.87987E-10         0.00000E+00
    0.26274E-07         0.83306E-10         0.00000E+00
    0.26276E-07         0.78165E-10         0.00000E+00
    0.26278E-07         0.72556E-10         0.00000E+00
    0.26280E-07         0.66471E-10         0.00000E+00
    0.26281E-07         0.59906E-10         0.00000E+00
    0.26283E-07         0.52852E-10         0.00000E+00
    0.26284E-07         0.45304E-10         0.00000E+00
    0.26285E-07         0.37256E-10         0.00000E+00
    0.26286E-07         0.28703E-10         0.00000E+00
    0.26286E-07         0.19638E-10         0.00000E+00
    0.26287E-07         0.10058E-10         0.00000E+00
    0.26287E-07         0.51377E-11         0.00000E+00
    0.25264E-07         0.28872E-11         0.00000E+00
    0.25264E-07         0.57526E-11         0.00000E+00
    0.25265E-07         0.11445E-10         0.00000E+00
    0.25265E-07         0.17054E-10         0.00000E+00
    0.25266E-07         0.22565E-10         0.00000E+00
    0.25267E-07         0.27966E-10         0.00000E+00
    0.25268E-07         0.33242E-10         0.00000E+00
    0.25270E-07         0.38383E-10         0.00000E+00
    0.25271E-07         0.43376E-10         0.00000E+00
    0.25273E-07         0.48210E-10         0.00000E+00
    0.25275E-07         0.52873E-10         0.00000E+00
    0.25276E-07         0.57356E-10         0.00000E+00
    0.25279E-07         0.61649E-10         0.00000E+00
    0.25281E-07         0.65741E-10         0.00000E+00
    0.25283E-07         0.69622E-10         0.00000E+00
    0.25285E-07         0.73283E-10         0.00000E+00
    0.25288E-07         0.76716E-10         0.00000E+00
    0.25290E-07         0.79910E-10         0.00000E+00
    0.25293E-07         0.82858E-10         0.00000E+00
    0.25295E-07         0.85550E-10         0.00000E+00
    0.25298E-07         0.87979E-10         0.00000E+00
    0.25301E-07         0.90135E-10         0.00000E+00
    0.25304E-07         0.92010E-10         0.00000E+00
    0.25306E-07         0.93596E-10         0.00000E+00
    0.25309E-07         0.94885E-10         0.00000E+00
    0.25312E-07         0.95870E-10         0.00000E+00
    0.25315E-07         0.96541E-10         0.00000E+00
    0.25317E-07         0.96892E-10         0.00000E+00
    0.25320E-07         0.96914E-10         0.00000E+00
    0.25323E-07         0.96600E-10         0.00000E+00
    0.25325E-07         0.95942E-10         0.00000E+00
    0.25328E-07         0.94933E-10         0.00000E+00
    0.25331E-07         0.93565E-10         0.00000E+00
    0.25333E-07         0.91832E-10         0.00000E+00
    0.25336E-07         0.89725E-10         0.00000E+00
    0.25338E-07         0.87237E-10         0.00000E+00
    0.25340E-07         0.84363E-10         0.00000E+00
    0.25342E-07         0.81094E-10         0.00000E+00
    0.25344E-07         0.77425E-10         0.00000E+00
    0.25346E-07         0.73348E-10         0.00000E+00
    0.25348E-07         0.68858E-10         0.00000E+00
    0.25350E-07         0.63948E-10         0.00000E+00
    0.25352E-07         0.58612E-10         0.00000E+00
    0.25353E-07         0.52844E-10         0.00000E+00
    0.25354E-07         0.46640E-10         0.00000E+00
    0.25355E-07         0.39993E-10         0.00000E+00
    0.25356E-07         0.32899E-10         0.00000E+00
    0.25357E-07         0.25353E-10         0.00000E+00
    0.25358E-07         0.17351E-10         0.00000E+00
    0.25358E-07         0.88881E-11         0.00000E+00
    0.25358E-07         0.45410E-11         0.00000E+00
    0.24418E-07         0.23036E-11         0.00000E+00
    0.24418E-07         0.46067E-11         0.00000E+00
    0.24418E-07         0.92059E-11         0.00000E+00
    0.24419E-07         0.13783E-10         0.00000E+00
    0.24420E-07         0.18323E-10         0.00000E+00
    0.24420E-07         0.22811E-10         0.00000E+00
    0.24421E-07         0.27231E-10         0.00000E+00
    0.24423E-07         0.31571E-10         0.00000E+00
    0.24424E-07         0.35817E-10         0.00000E+00
    0.24425E-07         0.39956E-10         0.00000E+00
    0.24427E-07         0.43976E-10         0.00000E+00
    0.24429E-07         0.47864E-10         0.00000E+00
    0.24431E-07         0.51610E-10         0.00000E+00
    0.24433E-07         0.55202E-10         0.00000E+00
    0.24435E-07         0.58629E-10         0.00000E+00
    0.24437E-07         0.61882E-10         0.00000E+00
    0.24439E-07         0.64949E-10         0.00000E+00
    0.24441E-07         0.67821E-10         0.00000E+00
    0.24443E-07         0.70488E-10         0.00000E+00
    0.24446E-07         0.72941E-10         0.00000E+00
    0.24448E-07         0.75171E-10         0.00000E+00
    0.24451E-07         0.77169E-10         0.00000E+00
    0.24453E-07         0.78925E-10         0.00000E+00
    0.24455E-07         0.80432E-10         0.00000E+00
    0.24458E-07         0.81681E-10         0.00000E+00
    0.24460E-07         0.82663E-10         0.00000E+00
    0.24463E-07         0.83372E-10         0.00000E+00
    0.24465E-07         0.83798E-10         0.00000E+00
    0.24468E-07         0.83934E-10         0.00000E+00
    0.24470E-07         0.83773E-10         0.00000E+00
    0.24473E-07         0.83306E-10         0.00000E+00
    0.24475E-07         0.82527E-10         0.00000E+00
    0.24477E-07         0.81429E-10         0.00000E+00
    0.24480E-07         0.80005E-10         0.00000E+00
    0.24482E-07         0.78247E-10         0.00000E+00
    0.24484E-07         0.76149E-10         0.00000E+00
    0.24486E-07         0.73705E-10         0.00000E+00
    0.24488E-07         0.70909E-10         0.00000E+00
    0.24490E-07         0.67753E-10         0.00000E+00
    0.24492E-07         0.64233E-10         0.00000E+00
    0.24493E-07         0.60343E-10         0.00000E+00
    0.24495E-07         0.56076E-10         0.00000E+00
    0.24496E-07         0.51428E-10         0.00000E+00
    0.24498E-07         0.46394E-10         0.00000E+00
    0.24499E-07         0.40969E-10         0.00000E+00
    0.24500E-07         0.35148E-10         0.00000E+00
    0.24501E-07         0.28927E-10         0.00000E+00
    0.24501E-07         0.22301E-10         0.00000E+00
    0.24502E-07         0.15268E-10         0.00000E+00
    0.24502E-07         0.78240E-11         0.00000E+00
    0.24502E-07         0.39986E-11         0.00000E+00
    0.23645E-07         0.18073E-11         0.00000E+00
    0.23646E-07         0.36307E-11         0.00000E+00
    0.23646E-07         0.72951E-11         0.00000E+00
    0.23646E-07         0.10986E-10         0.00000E+00
    0.23647E-07         0.14687E-10         0.00000E+00
    0.23648E-07         0.18382E-10         0.00000E+00
    0.23648E-07         0.22056E-10         0.00000E+00
    0.23649E-07         0.25694E-10         0.00000E+00
    0.23651E-07         0.29282E-10         0.00000E+00
    0.23652E-07         0.32806E-10         0.00000E+00
    0.23653E-07         0.36253E-10         0.00000E+00
    0.23655E-07         0.39610E-10         0.00000E+00
    0.23656E-07         0.42865E-10         0.00000E+00
    0.23658E-07         0.46006E-10         0.00000E+00
    0.23660E-07         0.49022E-10         0.00000E+00
    0.23661E-07         0.51901E-10         0.00000E+00
    0.23663E-07         0.54633E-10         0.00000E+00
    0.23665E-07         0.57207E-10         0.00000E+00
    0.23667E-07         0.59614E-10         0.00000E+00
    0.23669E-07         0.61842E-10         0.00000E+00
    0.23671E-07         0.63884E-10         0.00000E+00
    0.23673E-07         0.65729E-10         0.00000E+00
    0.23676E-07         0.67368E-10         0.00000E+00
    0.23678E-07         0.68794E-10         0.00000E+00
    0.23680E-07         0.69996E-10         0.00000E+00
    0.23682E-07         0.70967E-10         0.00000E+00
    0.23684E-07         0.71699E-10         0.00000E+00
    0.23686E-07         0.72184E-10         0.00000E+00
    0.23689E-07         0.72414E-10         0.00000E+00
    0.23691E-07         0.72381E-10         0.00000E+00
    0.23693E-07         0.72079E-10         0.00000E+00
    0.23695E-07         0.71500E-10         0.00000E+00
    0.23697E-07         0.70637E-10         0.00000E+00
    0.23699E-07         0.69484E-10         0.00000E+00
    0.23701E-07         0.68034E-10         0.00000E+00
    0.23703E-07         0.66281E-10         0.00000E+00
    0.23704E-07         0.64219E-10         0.00000E+00
    0.23706E-07         0.61841E-10         0.00000E+00
    0.23708E-07         0.59143E-10         0.00000E+00
    0.23709E-07         0.56118E-10         0.00000E+00
    0.23711E-07         0.52762E-10         0.00000E+00
    0.23712E-07         0.49069E-10         0.00000E+00
    0.23713E-07         0.45035E-10         0.00000E+00
    0.23715E-07         0.40654E-10         0.00000E+00
    0.23716E-07         0.35923E-10         0.00000E+00
    0.23716E-07         0.30838E-10         0.00000E+00
    0.23717E-07         0.25394E-10         0.00000E+00
    0.23718E-07         0.19589E-10         0.00000E+00
    0.23718E-07         0.13418E-10         0.00000E+00
    0.23719E-07         0.68788E-11         0.00000E+00
    0.23719E-07         0.35169E-11         0.00000E+00
    0.22945E-07         0.14030E-11         0.00000E+00
    0.22945E-07         0.28340E-11         0.00000E+00
    0.22945E-07         0.57314E-11         0.00000E+00
    0.22946E-07         0.86910E-11         0.00000E+00
    0.22946E-07         0.11696E-10         0.00000E+00
    0.22947E-07         0.14730E-10         0.00000E+00
    0.22948E-07         0.17777E-10         0.00000E+00
    0.22948E-07         0.20823E-10         0.00000E+00
    0.22949E-07         0.23853E-10         0.00000E+00
    0.22950E-07         0.26852E-10         0.00000E+00
    0.22951E-07         0.29808E-10         0.00000E+00
    0.22953E-07         0.32706E-10         0.00000E+00
    0.22954E-07         0.35535E-10         0.00000E+00
    0.22955E-07         0.38283E-10         0.00000E+00
    0.22957E-07         0.40937E-10         0.00000E+00
    0.22958E-07         0.43486E-10         0.00000E+00
    0.22960E-07         0.45920E-10         0.00000E+00
    0.22961E-07         0.48227E-10         0.00000E+00
    0.22963E-07         0.50397E-10         0.00000E+00
    0.22965E-07         0.52420E-10         0.00000E+00
    0.22966E-07         0.54287E-10         0.00000E+00
    0.22968E-07         0.55988E-10         0.00000E+00
    0.22970E-07         0.57514E-10         0.00000E+00
    0.22972E-07         0.58856E-10         0.00000E+00
    0.22974E-07         0.60006E-10         0.00000E+00
    0.22975E-07         0.60956E-10         0.00000E+00
    0.22977E-07         0.61696E-10         0.00000E+00
    0.22979E-07         0.62221E-10         0.00000E+00
    0.22981E-07         0.62521E-10         0.00000E+00
    0.22983E-07         0.62590E-10         0.00000E+00
    0.22984E-07         0.62420E-10         0.00000E+00
    0.22986E-07         0.62005E-10         0.00000E+00
    0.22988E-07         0.61338E-10         0.00000E+00
    0.22990E-07         0.60412E-10         0.00000E+00
    0.22991E-07         0.59222E-10         0.00000E+00
    0.22993E-07         0.57761E-10         0.00000E+00
    0.22994E-07         0.56024E-10         0.00000E+00
    0.22996E-07         0.54005E-10         0.00000E+00
    0.22997E-07         0.51698E-10         0.00000E+00
    0.22999E-07         0.49099E-10         0.00000E+00
    0.23000E-07         0.46202E-10         0.00000E+00
    0.23001E-07         0.43004E-10         0.00000E+00
    0.23002E-07         0.39499E-10         0.00000E+00
    0.23003E-07         0.35683E-10         0.00000E+00
    0.23004E-07         0.31553E-10         0.00000E+00
    0.23005E-07         0.27104E-10         0.00000E+00
    0.23005E-07         0.22334E-10         0.00000E+00
    0.23006E-07         0.17238E-10         0.00000E+00
    0.23006E-07         0.11814E-10         0.00000E+00
    0.23006E-07         0.60598E-11         0.00000E+00
    0.23006E-07         0.30995E-11         0.00000E+00
    0.22315E-07         0.10911E-11         0.00000E+00
    0.22316E-07         0.22179E-11         0.00000E+00
    0.22316E-07         0.45187E-11         0.00000E+00
    0.22316E-07         0.69051E-11         0.00000E+00
    0.22316E-07         0.93605E-11         0.00000E+00
    0.22317E-07         0.11869E-10         0.00000E+00
    0.22317E-07         0.14415E-10         0.00000E+00
    0.22318E-07         0.16983E-10         0.00000E+00
    0.22319E-07         0.19559E-10         0.00000E+00
    0.22319E-07         0.22129E-10         0.00000E+00
    0.22320E-07         0.24680E-10         0.00000E+00
    0.22321E-07         0.27199E-10         0.00000E+00
    0.22322E-07         0.29672E-10         0.00000E+00
    0.22323E-07         0.32088E-10         0.00000E+00
    0.22324E-07         0.34435E-10         0.00000E+00
    0.22326E-07         0.36702E-10         0.00000E+00
    0.22327E-07         0.38878E-10         0.00000E+00
    0.22328E-07         0.40952E-10         0.00000E+00
    0.22329E-07         0.42914E-10         0.00000E+00
    0.22331E-07         0.44754E-10         0.00000E+00
    0.22332E-07         0.46462E-10         0.00000E+00
    0.22333E-07         0.48030E-10         0.00000E+00
    0.22335E-07         0.49447E-10         0.00000E+00
    0.22336E-07         0.50707E-10         0.00000E+00
    0.22338E-07         0.51799E-10         0.00000E+00
    0.22339E-07         0.52716E-10         0.00000E+00
    0.22341E-07         0.53450E-10         0.00000E+00
    0.22342E-07         0.53994E-10         0.00000E+00
    0.22344E-07         0.54339E-10         0.00000E+00
    0.22345E-07         0.54480E-10         0.00000E+00
    0.22347E-07         0.54409E-10         0.00000E+00
    0.22348E-07         0.54119E-10         0.00000E+00
    0.22349E-07         0.53605E-10         0.00000E+00
    0.22351E-07         0.52859E-10         0.00000E+00
    0.22352E-07         0.51877E-10         0.00000E+00
    0.22353E-07         0.50652E-10         0.00000E+00
    0.22355E-07         0.49179E-10         0.00000E+00
    0.22356E-07         0.47452E-10         0.00000E+00
    0.22357E-07         0.45467E-10         0.00000E+00
    0.22358E-07         0.43219E-10         0.00000E+00
    0.22359E-07         0.40703E-10         0.00000E+00
    0.22360E-07         0.37915E-10         0.00000E+00
    0.22361E-07         0.34851E-10         0.00000E+00
    0.22362E-07         0.31507E-10         0.00000E+00
    0.22362E-07         0.27879E-10         0.00000E+00
    0.22363E-07         0.23963E-10         0.00000E+00
    0.22364E-07         0.19758E-10         0.00000E+00
    0.22364E-07         0.15259E-10         0.00000E+00
    0.22364E-07         0.10463E-10         0.00000E+00
    0.22365E-07         0.53696E-11         0.00000E+00
    0.22365E-07         0.27477E-11         0.00000E+00
    0.21755E-07         0.86947E-12         0.00000E+00
    0.21755E-07         0.17785E-11         0.00000E+00
    0.21755E-07         0.36496E-11         0.00000E+00
    0.21755E-07         0.56187E-11         0.00000E+00
    0.21755E-07         0.76697E-11         0.00000E+00
    0.21756E-07         0.97871E-11         0.00000E+00
    0.21756E-07         0.11956E-10         0.00000E+00
    0.21757E-07         0.14162E-10         0.00000E+00
    0.21757E-07         0.16390E-10         0.00000E+00
    0.21758E-07         0.18629E-10         0.00000E+00
    0.21758E-07         0.20863E-10         0.00000E+00
    0.21759E-07         0.23081E-10         0.00000E+00
    0.21760E-07         0.25271E-10         0.00000E+00
    0.21760E-07         0.27420E-10         0.00000E+00
    0.21761E-07         0.29517E-10         0.00000E+00
    0.21762E-07         0.31552E-10         0.00000E+00
    0.21763E-07         0.33513E-10         0.00000E+00
    0.21764E-07         0.35390E-10         0.00000E+00
    0.21765E-07         0.37174E-10         0.00000E+00
    0.21766E-07         0.38854E-10         0.00000E+00
    0.21767E-07         0.40421E-10         0.00000E+00
    0.21768E-07         0.41867E-10         0.00000E+00
    0.21769E-07         0.43182E-10         0.00000E+00
    0.21770E-07         0.44359E-10         0.00000E+00
    0.21771E-07         0.45388E-10         0.00000E+00
    0.21772E-07         0.46263E-10         0.00000E+00
    0.21773E-07         0.46976E-10         0.00000E+00
    0.21775E-07         0.47519E-10         0.00000E+00
    0.21776E-07         0.47885E-10         0.00000E+00
    0.21777E-07         0.48068E-10         0.00000E+00
    0.21778E-07         0.48061E-10         0.00000E+00
    0.21779E-07         0.47858E-10         0.00000E+00
    0.21780E-07         0.47452E-10         0.00000E+00
    0.21781E-07         0.46838E-10         0.00000E+00
    0.21782E-07         0.46010E-10         0.00000E+00
    0.21783E-07         0.44963E-10         0.00000E+00
    0.21784E-07         0.43691E-10         0.00000E+00
    0.21785E-07         0.42191E-10         0.00000E+00
    0.21786E-07         0.40456E-10         0.00000E+00
    0.21787E-07         0.38483E-10         0.00000E+00
    0.21788E-07         0.36267E-10         0.00000E+00
    0.21788E-07         0.33805E-10         0.00000E+00
    0.21789E-07         0.31092E-10         0.00000E+00
    0.21790E-07         0.28124E-10         0.00000E+00
    0.21790E-07         0.24899E-10         0.00000E+00
    0.21791E-07         0.21414E-10         0.00000E+00
    0.21791E-07         0.17664E-10         0.00000E+00
    0.21792E-07         0.13648E-10         0.00000E+00
    0.21792E-07         0.93633E-11         0.00000E+00
    0.21792E-07         0.48069E-11         0.00000E+00
    0.21792E-07         0.24606E-11         0.00000E+00
    0.21262E-07         0.73372E-12         0.00000E+00
    0.21262E-07         0.15073E-11         0.00000E+00
    0.21262E-07         0.31084E-11         0.00000E+00
    0.21262E-07         0.48097E-11         0.00000E+00
    0.21262E-07         0.65960E-11         0.00000E+00
    0.21262E-07         0.84527E-11         0.00000E+00
    0.21263E-07         0.10366E-10         0.00000E+00
    0.21263E-07         0.12321E-10         0.00000E+00
    0.21263E-07         0.14306E-10         0.00000E+00
    0.21264E-07         0.16306E-10         0.00000E+00
    0.21264E-07         0.18311E-10         0.00000E+00
    0.21264E-07         0.20308E-10         0.00000E+00
    0.21265E-07         0.22285E-10         0.00000E+00
    0.21265E-07         0.24231E-10         0.00000E+00
    0.21266E-07         0.26136E-10         0.00000E+00
    0.21266E-07         0.27988E-10         0.00000E+00
    0.21267E-07         0.29778E-10         0.00000E+00
    0.21268E-07         0.31495E-10         0.00000E+00
    0.21268E-07         0.33131E-10         0.00000E+00
    0.21269E-07         0.34675E-10         0.00000E+00
    0.21270E-07         0.36120E-10         0.00000E+00
    0.21270E-07         0.37457E-10         0.00000E+00
    0.21271E-07         0.38677E-10         0.00000E+00
    0.21272E-07         0.39772E-10         0.00000E+00
    0.21272E-07         0.40736E-10         0.00000E+00
    0.21273E-07         0.41559E-10         0.00000E+00
    0.21274E-07         0.42236E-10         0.00000E+00
    0.21275E-07         0.42759E-10         0.00000E+00
    0.21276E-07         0.43122E-10         0.00000E+00
    0.21276E-07         0.43317E-10         0.00000E+00
    0.21277E-07         0.43340E-10         0.00000E+00
    0.21278E-07         0.43184E-10         0.00000E+00
    0.21279E-07         0.42844E-10         0.00000E+00
    0.21279E-07         0.42313E-10         0.00000E+00
    0.21280E-07         0.41588E-10         0.00000E+00
    0.21281E-07         0.40662E-10         0.00000E+00
    0.21282E-07         0.39530E-10         0.00000E+00
    0.21282E-07         0.38190E-10         0.00000E+00
    0.21283E-07         0.36635E-10         0.00000E+00
    0.21284E-07         0.34862E-10         0.00000E+00
    0.21284E-07         0.32867E-10         0.00000E+00
    0.21285E-07         0.30646E-10         0.00000E+00
    0.21285E-07         0.28196E-10         0.00000E+00
    0.21286E-07         0.25513E-10         0.00000E+00
    0.21286E-07         0.22595E-10         0.00000E+00
    0.21287E-07         0.19437E-10         0.00000E+00
    0.21287E-07         0.16038E-10         0.00000E+00
    0.21287E-07         0.12395E-10         0.00000E+00
    0.21287E-07         0.85054E-11         0.00000E+00
    0.21287E-07         0.43674E-11         0.00000E+00
    0.21288E-07         0.22361E-11         0.00000E+00
    0.20835E-07         0.67804E-12         0.00000E+00
    0.20835E-07         0.13932E-11         0.00000E+00
    0.20835E-07         0.28736E-11         0.00000E+00
    0.20835E-07         0.44474E-11         0.00000E+00
    0.20835E-07         0.61005E-11         0.00000E+00
    0.20835E-07         0.78193E-11         0.00000E+00
    0.20835E-07         0.95908E-11         0.00000E+00
    0.20836E-07         0.11402E-10         0.00000E+00
    0.20836E-07         0.13241E-10         0.00000E+00
    0.20836E-07         0.15096E-10         0.00000E+00
    0.20836E-07         0.16954E-10         0.00000E+00
    0.20836E-07         0.18806E-10         0.00000E+00
    0.20836E-07         0.20639E-10         0.00000E+00
    0.20837E-07         0.22444E-10         0.00000E+00
    0.20837E-07         0.24211E-10         0.00000E+00
    0.20837E-07         0.25929E-10         0.00000E+00
    0.20837E-07         0.27590E-10         0.00000E+00
    0.20838E-07         0.29183E-10         0.00000E+00
    0.20838E-07         0.30701E-10         0.00000E+00
    0.20838E-07         0.32135E-10         0.00000E+00
    0.20839E-07         0.33475E-10         0.00000E+00
    0.20839E-07         0.34716E-10         0.00000E+00
    0.20839E-07         0.35848E-10         0.00000E+00
    0.20840E-07         0.36864E-10         0.00000E+00
    0.20840E-07         0.37758E-10         0.00000E+00
    0.20841E-07         0.38522E-10         0.00000E+00
    0.20841E-07         0.39150E-10         0.00000E+00
    0.20842E-07         0.39634E-10         0.00000E+00
    0.20842E-07         0.39970E-10         0.00000E+00
    0.20843E-07         0.40151E-10         0.00000E+00
    0.20843E-07         0.40172E-10         0.00000E+00
    0.20844E-07         0.40027E-10         0.00000E+00
    0.20844E-07         0.39710E-10         0.00000E+00
    0.20845E-07         0.39217E-10         0.00000E+00
    0.20845E-07         0.38543E-10         0.00000E+00
    0.20846E-07         0.37683E-10         0.00000E+00
    0.20846E-07         0.36633E-10         0.00000E+00
    0.20846E-07         0.35389E-10         0.00000E+00
    0.20847E-07         0.33947E-10         0.00000E+00
    0.20847E-07         0.32303E-10         0.00000E+00
    0.20848E-07         0.30453E-10         0.00000E+00
    0.20848E-07         0.28393E-10         0.00000E+00
    0.20848E-07         0.26122E-10         0.00000E+00
    0.20849E-07         0.23635E-10         0.00000E+00
    0.20849E-07         0.20930E-10         0.00000E+00
    0.20849E-07         0.18004E-10         0.00000E+00
    0.20850E-07         0.14855E-10         0.00000E+00
    0.20850E-07         0.11480E-10         0.00000E+00
    0.20850E-07         0.78770E-11         0.00000E+00
    0.20850E-07         0.40445E-11         0.00000E+00
    0.20850E-07         0.20706E-11         0.00000E+00
    0.20474E-07         0.69564E-12         0.00000E+00
    0.20474E-07         0.14229E-11         0.00000E+00
    0.20474E-07         0.29197E-11         0.00000E+00
    0.20473E-07         0.44951E-11         0.00000E+00
    0.20473E-07         0.61362E-11         0.00000E+00
    0.20473E-07         0.78309E-11         0.00000E+00
    0.20473E-07         0.95671E-11         0.00000E+00
    0.20473E-07         0.11333E-10         0.00000E+00
    0.20473E-07         0.13118E-10         0.00000E+00
    0.20473E-07         0.14911E-10         0.00000E+00
    0.20473E-07         0.16701E-10         0.00000E+00
    0.20473E-07         0.18479E-10         0.00000E+00
    0.20473E-07         0.20233E-10         0.00000E+00
    0.20473E-07         0.21956E-10         0.00000E+00
    0.20473E-07         0.23637E-10         0.00000E+00
    0.20473E-07         0.25267E-10         0.00000E+00
    0.20473E-07         0.26839E-10         0.00000E+00
    0.20473E-07         0.28343E-10         0.00000E+00
    0.20473E-07         0.29772E-10         0.00000E+00
    0.20473E-07         0.31117E-10         0.00000E+00
    0.20473E-07         0.32372E-10         0.00000E+00
    0.20473E-07         0.33529E-10         0.00000E+00
    0.20473E-07         0.34580E-10         0.00000E+00
    0.20473E-07         0.35520E-10         0.00000E+00
    0.20474E-07         0.36342E-10         0.00000E+00
    0.20474E-07         0.37039E-10         0.00000E+00
    0.20474E-07         0.37605E-10         0.00000E+00
    0.20474E-07         0.38035E-10         0.00000E+00
    0.20474E-07         0.38323E-10         0.00000E+00
    0.20474E-07         0.38464E-10         0.00000E+00
    0.20475E-07         0.38452E-10         0.00000E+00
    0.20475E-07         0.38282E-10         0.00000E+00
    0.20475E-07         0.37951E-10         0.00000E+00
    0.20475E-07         0.37452E-10         0.00000E+00
    0.20476E-07         0.36783E-10         0.00000E+00
    0.20476E-07         0.35938E-10         0.00000E+00
    0.20476E-07         0.34915E-10         0.00000E+00
    0.20476E-07         0.33708E-10         0.00000E+00
    0.20477E-07         0.32315E-10         0.00000E+00
    0.20477E-07         0.30731E-10         0.00000E+00
    0.20477E-07         0.28955E-10         0.00000E+00
    0.20477E-07         0.26982E-10         0.00000E+00
    0.20477E-07         0.24811E-10         0.00000E+00
    0.20478E-07         0.22438E-10         0.00000E+00
    0.20478E-07         0.19860E-10         0.00000E+00
    0.20478E-07         0.17075E-10         0.00000E+00
    0.20478E-07         0.14082E-10         0.00000E+00
    0.20478E-07         0.10878E-10         0.00000E+00
    0.20478E-07         0.74611E-11         0.00000E+00
    0.20478E-07         0.38295E-11         0.00000E+00
    0.20478E-07         0.19599E-11         0.00000E+00
    0.20176E-07         0.77914E-12         0.00000E+00
    0.20176E-07         0.15820E-11         0.00000E+00
    0.20176E-07         0.32189E-11         0.00000E+00
    0.20176E-07         0.49124E-11         0.00000E+00
    0.20175E-07         0.66515E-11         0.00000E+00
    0.20175E-07         0.84250E-11         0.00000E+00
    0.20175E-07         0.10222E-10         0.00000E+00
    0.20175E-07         0.12033E-10         0.00000E+00
    0.20175E-07         0.13848E-10         0.00000E+00
    0.20174E-07         0.15657E-10         0.00000E+00
    0.20174E-07         0.17450E-10         0.00000E+00
    0.20174E-07         0.19218E-10         0.00000E+00
    0.20174E-07         0.20954E-10         0.00000E+00
    0.20173E-07         0.22647E-10         0.00000E+00
    0.20173E-07         0.24291E-10         0.00000E+00
    0.20173E-07         0.25876E-10         0.00000E+00
    0.20173E-07         0.27396E-10         0.00000E+00
    0.20172E-07         0.28843E-10         0.00000E+00
    0.20172E-07         0.30209E-10         0.00000E+00
    0.20172E-07         0.31489E-10         0.00000E+00
    0.20172E-07         0.32674E-10         0.00000E+00
    0.20172E-07         0.33759E-10         0.00000E+00
    0.20172E-07         0.34737E-10         0.00000E+00
    0.20171E-07         0.35603E-10         0.00000E+00
    0.20171E-07         0.36351E-10         0.00000E+00
    0.20171E-07         0.36974E-10         0.00000E+00
    0.20171E-07         0.37469E-10         0.00000E+00
    0.20171E-07         0.37829E-10         0.00000E+00
    0.20171E-07         0.38049E-10         0.00000E+00
    0.20171E-07         0.38126E-10         0.00000E+00
    0.20171E-07         0.38054E-10         0.00000E+00
    0.20171E-07         0.37829E-10         0.00000E+00
    0.20171E-07         0.37447E-10         0.00000E+00
    0.20171E-07         0.36904E-10         0.00000E+00
    0.20171E-07         0.36196E-10         0.00000E+00
    0.20171E-07         0.35319E-10         0.00000E+00
    0.20171E-07         0.34271E-10         0.00000E+00
    0.20171E-07         0.33047E-10         0.00000E+00
    0.20171E-07         0.31645E-10         0.00000E+00
    0.20171E-07         0.30061E-10         0.00000E+00
    0.20171E-07         0.28293E-10         0.00000E+00
    0.20171E-07         0.26339E-10         0.00000E+00
    0.20171E-07         0.24195E-10         0.00000E+00
    0.20171E-07         0.21860E-10         0.00000E+00
    0.20171E-07         0.19331E-10         0.00000E+00
    0.20171E-07         0.16606E-10         0.00000E+00
    0.20171E-07         0.13684E-10         0.00000E+00
    0.20171E-07         0.10561E-10         0.00000E+00
    0.20171E-07         0.72383E-11         0.00000E+00
    0.20171E-07         0.37126E-11         0.00000E+00
    0.20171E-07         0.18989E-11         0.00000E+00
    0.19941E-07         0.92087E-12         0.00000E+00
    0.19941E-07         0.18556E-11         0.00000E+00
    0.19941E-07         0.37418E-11         0.00000E+00
    0.19940E-07         0.56570E-11         0.00000E+00
    0.19940E-07         0.75914E-11         0.00000E+00
    0.19940E-07         0.95354E-11         0.00000E+00
    0.19940E-07         0.11480E-10         0.00000E+00
    0.19939E-07         0.13416E-10         0.00000E+00
    0.19939E-07         0.15335E-10         0.00000E+00
    0.19939E-07         0.17228E-10         0.00000E+00
    0.19938E-07         0.19088E-10         0.00000E+00
    0.19938E-07         0.20907E-10         0.00000E+00
    0.19937E-07         0.22676E-10         0.00000E+00
    0.19937E-07         0.24389E-10         0.00000E+00
    0.19937E-07         0.26038E-10         0.00000E+00
    0.19936E-07         0.27617E-10         0.00000E+00
    0.19936E-07         0.29119E-10         0.00000E+00
    0.19935E-07         0.30537E-10         0.00000E+00
    0.19935E-07         0.31866E-10         0.00000E+00
    0.19934E-07         0.33099E-10         0.00000E+00
    0.19934E-07         0.34230E-10         0.00000E+00
    0.19933E-07         0.35254E-10         0.00000E+00
    0.19933E-07         0.36166E-10         0.00000E+00
    0.19933E-07         0.36960E-10         0.00000E+00
    0.19932E-07         0.37632E-10         0.00000E+00
    0.19932E-07         0.38177E-10         0.00000E+00
    0.19932E-07         0.38590E-10         0.00000E+00
    0.19931E-07         0.38866E-10         0.00000E+00
    0.19931E-07         0.39002E-10         0.00000E+00
    0.19931E-07         0.38994E-10         0.00000E+00
    0.19930E-07         0.38837E-10         0.00000E+00
    0.19930E-07         0.38528E-10         0.00000E+00
    0.19930E-07         0.38064E-10         0.00000E+00
    0.19930E-07         0.37441E-10         0.00000E+00
    0.19930E-07         0.36655E-10         0.00000E+00
    0.19929E-07         0.35704E-10         0.00000E+00
    0.19929E-07         0.34586E-10         0.00000E+00
    0.19929E-07         0.33296E-10         0.00000E+00
    0.19929E-07         0.31833E-10         0.00000E+00
    0.19929E-07         0.30194E-10         0.00000E+00
    0.19929E-07         0.28377E-10         0.00000E+00
    0.19929E-07         0.26379E-10         0.00000E+00
    0.19929E-07         0.24199E-10         0.00000E+00
    0.19929E-07         0.21835E-10         0.00000E+00
    0.19929E-07         0.19284E-10         0.00000E+00
    0.19929E-07         0.16545E-10         0.00000E+00
    0.19929E-07         0.13617E-10         0.00000E+00
    0.19928E-07         0.10498E-10         0.00000E+00
    0.19928E-07         0.71871E-11         0.00000E+00
    0.19928E-07         0.36826E-11         0.00000E+00
    0.19928E-07         0.18819E-11         0.00000E+00
    0.19768E-07         0.11131E-11         0.00000E+00
    0.19768E-07         0.22283E-11         0.00000E+00
    0.19768E-07         0.44589E-11         0.00000E+00
    0.19768E-07         0.66855E-11         0.00000E+00
    0.19767E-07         0.89000E-11         0.00000E+00
    0.19767E-07         0.11094E-10         0.00000E+00
    0.19767E-07         0.13261E-10         0.00000E+00
    0.19766E-07         0.15392E-10         0.00000E+00
    0.19766E-07         0.17480E-10         0.00000E+00
    0.19765E-07         0.19519E-10         0.00000E+00
    0.19765E-07         0.21502E-10         0.00000E+00
    0.19764E-07         0.23421E-10         0.00000E+00
    0.19763E-07         0.25271E-10         0.00000E+00
    0.19763E-07         0.27046E-10         0.00000E+00
    0.19762E-07         0.28739E-10         0.00000E+00
    0.19762E-07         0.30345E-10         0.00000E+00
    0.19761E-07         0.31858E-10         0.00000E+00
    0.19760E-07         0.33273E-10         0.00000E+00
    0.19760E-07         0.34585E-10         0.00000E+00
    0.19759E-07         0.35788E-10         0.00000E+00
    0.19758E-07         0.36879E-10         0.00000E+00
    0.19758E-07         0.37852E-10         0.00000E+00
    0.19757E-07         0.38703E-10         0.00000E+00
    0.19757E-07         0.39428E-10         0.00000E+00
    0.19756E-07         0.40023E-10         0.00000E+00
    0.19756E-07         0.40484E-10         0.00000E+00
    0.19755E-07         0.40806E-10         0.00000E+00
    0.19754E-07         0.40988E-10         0.00000E+00
    0.19754E-07         0.41024E-10         0.00000E+00
    0.19753E-07         0.40912E-10         0.00000E+00
    0.19753E-07         0.40649E-10         0.00000E+00
    0.19753E-07         0.40231E-10         0.00000E+00
    0.19752E-07         0.39657E-10         0.00000E+00
    0.19752E-07         0.38922E-10         0.00000E+00
    0.19751E-07         0.38026E-10         0.00000E+00
    0.19751E-07         0.36964E-10         0.00000E+00
    0.19751E-07         0.35735E-10         0.00000E+00
    0.19750E-07         0.34337E-10         0.00000E+00
    0.19750E-07         0.32768E-10         0.00000E+00
    0.19750E-07         0.31025E-10         0.00000E+00
    0.19750E-07         0.29108E-10         0.00000E+00
    0.19750E-07         0.27013E-10         0.00000E+00
    0.19749E-07         0.24741E-10         0.00000E+00
    0.19749E-07         0.22288E-10         0.00000E+00
    0.19749E-07         0.19655E-10         0.00000E+00
    0.19749E-07         0.16838E-10         0.00000E+00
    0.19749E-07         0.13839E-10         0.00000E+00
    0.19749E-07         0.10654E-10         0.00000E+00
    0.19749E-07         0.72844E-11         0.00000E+00
    0.19749E-07         0.37280E-11         0.00000E+00
    0.19749E-07         0.19031E-11         0.00000E+00
    0.19657E-07         0.13480E-11         0.00000E+00
    0.19656E-07         0.26851E-11         0.00000E+00
    0.19656E-07         0.53403E-11         0.00000E+00
    0.19656E-07         0.79544E-11         0.00000E+00
    0.19656E-07         0.10521E-10         0.00000E+00
    0.19655E-07         0.13033E-10         0.00000E+00
    0.19655E-07         0.15485E-10         0.00000E+00
    0.19654E-07         0.17870E-10         0.00000E+00
    0.19654E-07         0.20183E-10         0.00000E+00
    0.19653E-07         0.22419E-10         0.00000E+00
    0.19653E-07         0.24571E-10         0.00000E+00
    0.19652E-07         0.26635E-10         0.00000E+00
    0.19651E-07         0.28605E-10         0.00000E+00
    0.19650E-07         0.30477E-10         0.00000E+00
    0.19650E-07         0.32246E-10         0.00000E+00
    0.19649E-07         0.33907E-10         0.00000E+00
    0.19648E-07         0.35457E-10         0.00000E+00
    0.19647E-07         0.36890E-10         0.00000E+00
    0.19647E-07         0.38203E-10         0.00000E+00
    0.19646E-07         0.39392E-10         0.00000E+00
    0.19645E-07         0.40453E-10         0.00000E+00
    0.19644E-07         0.41383E-10         0.00000E+00
    0.19643E-07         0.42179E-10         0.00000E+00
    0.19643E-07         0.42836E-10         0.00000E+00
    0.19642E-07         0.43352E-10         0.00000E+00
    0.19641E-07         0.43724E-10         0.00000E+00
    0.19640E-07         0.43950E-10         0.00000E+00
    0.19640E-07         0.44025E-10         0.00000E+00
    0.19639E-07         0.43949E-10         0.00000E+00
    0.19638E-07         0.43718E-10         0.00000E+00
    0.19638E-07         0.43329E-10         0.00000E+00
    0.19637E-07         0.42782E-10         0.00000E+00
    0.19637E-07         0.42073E-10         0.00000E+00
    0.19636E-07         0.41201E-10         0.00000E+00
    0.19636E-07         0.40164E-10         0.00000E+00
    0.19635E-07         0.38960E-10         0.00000E+00
    0.19635E-07         0.37588E-10         0.00000E+00
    0.19634E-07         0.36045E-10         0.00000E+00
    0.19634E-07         0.34331E-10         0.00000E+00
    0.19634E-07         0.32444E-10         0.00000E+00
    0.19633E-07         0.30383E-10         0.00000E+00
    0.19633E-07         0.28147E-10         0.00000E+00
    0.19633E-07         0.25734E-10         0.00000E+00
    0.19633E-07         0.23144E-10         0.00000E+00
    0.19632E-07         0.20376E-10         0.00000E+00
    0.19632E-07         0.17429E-10         0.00000E+00
    0.19632E-07         0.14302E-10         0.00000E+00
    0.19632E-07         0.10994E-10         0.00000E+00
    0.19632E-07         0.75061E-11         0.00000E+00
    0.19632E-07         0.38364E-11         0.00000E+00
    0.19632E-07         0.19561E-11         0.00000E+00
    0.19606E-07         0.16179E-11         0.00000E+00
    0.19606E-07         0.32106E-11         0.00000E+00
    0.19606E-07         0.63564E-11         0.00000E+00
    0.19606E-07         0.94203E-11         0.00000E+00
    0.19605E-07         0.12397E-10         0.00000E+00
    0.19605E-07         0.15283E-10         0.00000E+00
    0.19605E-07         0.18072E-10         0.00000E+00
    0.19604E-07         0.20760E-10         0.00000E+00
    0.19603E-07         0.23343E-10         0.00000E+00
    0.19603E-07         0.25817E-10         0.00000E+00
    0.19602E-07         0.28177E-10         0.00000E+00
    0.19601E-07         0.30421E-10         0.00000E+00
    0.19600E-07         0.32543E-10         0.00000E+00
    0.19599E-07         0.34542E-10         0.00000E+00
    0.19599E-07         0.36412E-10         0.00000E+00
    0.19598E-07         0.38152E-10         0.00000E+00
    0.19597E-07         0.39758E-10         0.00000E+00
    0.19596E-07         0.41226E-10         0.00000E+00
    0.19595E-07         0.42555E-10         0.00000E+00
    0.19594E-07         0.43741E-10         0.00000E+00
    0.19593E-07         0.44781E-10         0.00000E+00
    0.19592E-07         0.45674E-10         0.00000E+00
    0.19591E-07         0.46417E-10         0.00000E+00
    0.19590E-07         0.47008E-10         0.00000E+00
    0.19589E-07         0.47444E-10         0.00000E+00
    0.19589E-07         0.47724E-10         0.00000E+00
    0.19588E-07         0.47845E-10         0.00000E+00
    0.19587E-07         0.47806E-10         0.00000E+00
    0.19586E-07         0.47606E-10         0.00000E+00
    0.19585E-07         0.47242E-10         0.00000E+00
    0.19585E-07         0.46713E-10         0.00000E+00
    0.19584E-07         0.46018E-10         0.00000E+00
    0.19583E-07         0.45156E-10         0.00000E+00
    0.19583E-07         0.44125E-10         0.00000E+00
    0.19582E-07         0.42923E-10         0.00000E+00
    0.19581E-07         0.41551E-10         0.00000E+00
    0.19581E-07         0.40007E-10         0.00000E+00
    0.19580E-07         0.38290E-10         0.00000E+00
    0.19580E-07         0.36400E-10         0.00000E+00
    0.19579E-07         0.34336E-10         0.00000E+00
    0.19579E-07         0.32096E-10         0.00000E+00
    0.19579E-07         0.29681E-10         0.00000E+00
    0.19578E-07         0.27090E-10         0.00000E+00
    0.19578E-07         0.24323E-10         0.00000E+00
    0.19578E-07         0.21378E-10         0.00000E+00
    0.19578E-07         0.18257E-10         0.00000E+00
    0.19577E-07         0.14958E-10         0.00000E+00
    0.19577E-07         0.11481E-10         0.00000E+00
    0.19577E-07         0.78272E-11         0.00000E+00
    0.19577E-07         0.39951E-11         0.00000E+00
    0.19577E-07         0.20346E-11         0.00000E+00
    0.19617E-07         0.19153E-11         0.00000E+00
    0.19617E-07         0.37901E-11         0.00000E+00
    0.19617E-07         0.74778E-11         0.00000E+00
    0.19617E-07         0.11040E-10         0.00000E+00
    0.19616E-07         0.14473E-10         0.00000E+00
    0.19616E-07         0.17775E-10         0.00000E+00
    0.19615E-07         0.20941E-10         0.00000E+00
    0.19614E-07         0.23969E-10         0.00000E+00
    0.19614E-07         0.26857E-10         0.00000E+00
    0.19613E-07         0.29601E-10         0.00000E+00
    0.19612E-07         0.32200E-10         0.00000E+00
    0.19611E-07         0.34650E-10         0.00000E+00
    0.19610E-07         0.36949E-10         0.00000E+00
    0.19610E-07         0.39096E-10         0.00000E+00
    0.19609E-07         0.41088E-10         0.00000E+00
    0.19608E-07         0.42923E-10         0.00000E+00
    0.19607E-07         0.44600E-10         0.00000E+00
    0.19606E-07         0.46116E-10         0.00000E+00
    0.19605E-07         0.47471E-10         0.00000E+00
    0.19604E-07         0.48662E-10         0.00000E+00
    0.19602E-07         0.49688E-10         0.00000E+00
    0.19601E-07         0.50548E-10         0.00000E+00
    0.19600E-07         0.51240E-10         0.00000E+00
    0.19599E-07         0.51764E-10         0.00000E+00
    0.19598E-07         0.52118E-10         0.00000E+00
    0.19598E-07         0.52302E-10         0.00000E+00
    0.19597E-07         0.52314E-10         0.00000E+00
    0.19596E-07         0.52153E-10         0.00000E+00
    0.19595E-07         0.51820E-10         0.00000E+00
    0.19594E-07         0.51313E-10         0.00000E+00
    0.19593E-07         0.50631E-10         0.00000E+00
    0.19592E-07         0.49774E-10         0.00000E+00
    0.19591E-07         0.48742E-10         0.00000E+00
    0.19591E-07         0.47535E-10         0.00000E+00
    0.19590E-07         0.46151E-10         0.00000E+00
    0.19589E-07         0.44590E-10         0.00000E+00
    0.19589E-07         0.42854E-10         0.00000E+00
    0.19588E-07         0.40940E-10         0.00000E+00
    0.19588E-07         0.38849E-10         0.00000E+00
    0.19587E-07         0.36582E-10         0.00000E+00
    0.19587E-07         0.34137E-10         0.00000E+00
    0.19586E-07         0.31516E-10         0.00000E+00
    0.19586E-07         0.28717E-10         0.00000E+00
    0.19586E-07         0.25742E-10         0.00000E+00
    0.19585E-07         0.22590E-10         0.00000E+00
    0.19585E-07         0.19262E-10         0.00000E+00
    0.19585E-07         0.15758E-10         0.00000E+00
    0.19585E-07         0.12078E-10         0.00000E+00
    0.19585E-07         0.82221E-11         0.00000E+00
    0.19585E-07         0.41912E-11         0.00000E+00
    0.19585E-07         0.21320E-11         0.00000E+00
    0.19689E-07         0.22325E-11         0.00000E+00
    0.19689E-07         0.44085E-11         0.00000E+00
    0.19688E-07         0.86753E-11         0.00000E+00
    0.19688E-07         0.12771E-10         0.00000E+00
    0.19688E-07         0.16693E-10         0.00000E+00
    0.19687E-07         0.20441E-10         0.00000E+00
    0.19687E-07         0.24013E-10         0.00000E+00
    0.19686E-07         0.27408E-10         0.00000E+00
    0.19685E-07         0.30624E-10         0.00000E+00
    0.19684E-07         0.33661E-10         0.00000E+00
    0.19684E-07         0.36517E-10         0.00000E+00
    0.19683E-07         0.39192E-10         0.00000E+00
    0.19682E-07         0.41685E-10         0.00000E+00
    0.19681E-07         0.43995E-10         0.00000E+00
    0.19680E-07         0.46121E-10         0.00000E+00
    0.19679E-07         0.48063E-10         0.00000E+00
    0.19678E-07         0.49820E-10         0.00000E+00
    0.19677E-07         0.51392E-10         0.00000E+00
    0.19676E-07         0.52779E-10         0.00000E+00
    0.19674E-07         0.53979E-10         0.00000E+00
    0.19673E-07         0.54994E-10         0.00000E+00
    0.19672E-07         0.55823E-10         0.00000E+00
    0.19671E-07         0.56465E-10         0.00000E+00
    0.19670E-07         0.56921E-10         0.00000E+00
    0.19669E-07         0.57191E-10         0.00000E+00
    0.19668E-07         0.57275E-10         0.00000E+00
    0.19667E-07         0.57173E-10         0.00000E+00
    0.19666E-07         0.56885E-10         0.00000E+00
    0.19665E-07         0.56411E-10         0.00000E+00
    0.19664E-07         0.55752E-10         0.00000E+00
    0.19663E-07         0.54908E-10         0.00000E+00
    0.19662E-07         0.53880E-10         0.00000E+00
    0.19662E-07         0.52667E-10         0.00000E+00
    0.19661E-07         0.51271E-10         0.00000E+00
    0.19660E-07         0.49691E-10         0.00000E+00
    0.19659E-07         0.47928E-10         0.00000E+00
    0.19659E-07         0.45983E-10         0.00000E+00
    0.19658E-07         0.43857E-10         0.00000E+00
    0.19658E-07         0.41549E-10         0.00000E+00
    0.19657E-07         0.39061E-10         0.00000E+00
    0.19657E-07         0.36393E-10         0.00000E+00
    0.19656E-07         0.33547E-10         0.00000E+00
    0.19656E-07         0.30521E-10         0.00000E+00
    0.19655E-07         0.27318E-10         0.00000E+00
    0.19655E-07         0.23938E-10         0.00000E+00
    0.19655E-07         0.20382E-10         0.00000E+00
    0.19655E-07         0.16651E-10         0.00000E+00
    0.19654E-07         0.12744E-10         0.00000E+00
    0.19654E-07         0.86644E-11         0.00000E+00
    0.19654E-07         0.44112E-11         0.00000E+00
    0.19654E-07         0.22414E-11         0.00000E+00
    0.19822E-07         0.25620E-11         0.00000E+00
    0.19822E-07         0.50509E-11         0.00000E+00
    0.19821E-07         0.99194E-11         0.00000E+00
    0.19821E-07         0.14569E-10         0.00000E+00
    0.19821E-07         0.19000E-10         0.00000E+00
    0.19820E-07         0.23212E-10         0.00000E+00
    0.19820E-07         0.27206E-10         0.00000E+00
    0.19819E-07         0.30982E-10         0.00000E+00
    0.19818E-07         0.34541E-10         0.00000E+00
    0.19817E-07         0.37882E-10         0.00000E+00
    0.19816E-07         0.41007E-10         0.00000E+00
    0.19815E-07         0.43917E-10         0.00000E+00
    0.19815E-07         0.46611E-10         0.00000E+00
    0.19814E-07         0.49091E-10         0.00000E+00
    0.19812E-07         0.51357E-10         0.00000E+00
    0.19811E-07         0.53411E-10         0.00000E+00
    0.19810E-07         0.55252E-10         0.00000E+00
    0.19809E-07         0.56883E-10         0.00000E+00
    0.19808E-07         0.58304E-10         0.00000E+00
    0.19807E-07         0.59515E-10         0.00000E+00
    0.19806E-07         0.60519E-10         0.00000E+00
    0.19805E-07         0.61316E-10         0.00000E+00
    0.19804E-07         0.61907E-10         0.00000E+00
    0.19803E-07         0.62293E-10         0.00000E+00
    0.19802E-07         0.62476E-10         0.00000E+00
    0.19800E-07         0.62456E-10         0.00000E+00
    0.19799E-07         0.62236E-10         0.00000E+00
    0.19798E-07         0.61815E-10         0.00000E+00
    0.19797E-07         0.61196E-10         0.00000E+00
    0.19797E-07         0.60380E-10         0.00000E+00
    0.19796E-07         0.59367E-10         0.00000E+00
    0.19795E-07         0.58160E-10         0.00000E+00
    0.19794E-07         0.56760E-10         0.00000E+00
    0.19793E-07         0.55167E-10         0.00000E+00
    0.19792E-07         0.53383E-10         0.00000E+00
    0.19792E-07         0.51410E-10         0.00000E+00
    0.19791E-07         0.49249E-10         0.00000E+00
    0.19790E-07         0.46901E-10         0.00000E+00
    0.19790E-07         0.44367E-10         0.00000E+00
    0.19789E-07         0.41650E-10         0.00000E+00
    0.19789E-07         0.38750E-10         0.00000E+00
    0.19788E-07         0.35668E-10         0.00000E+00
    0.19788E-07         0.32406E-10         0.00000E+00
    0.19788E-07         0.28965E-10         0.00000E+00
    0.19787E-07         0.25347E-10         0.00000E+00
    0.19787E-07         0.21553E-10         0.00000E+00
    0.19787E-07         0.17584E-10         0.00000E+00
    0.19787E-07         0.13442E-10         0.00000E+00
    0.19786E-07         0.91270E-11         0.00000E+00
    0.19786E-07         0.46413E-11         0.00000E+00
    0.19786E-07         0.23559E-11         0.00000E+00
    0.20016E-07         0.28960E-11         0.00000E+00
    0.20016E-07         0.57021E-11         0.00000E+00
    0.20016E-07         0.11180E-10         0.00000E+00
    0.20016E-07         0.16391E-10         0.00000E+00
    0.20015E-07         0.21336E-10         0.00000E+00
    0.20015E-07         0.26017E-10         0.00000E+00
    0.20014E-07         0.30437E-10         0.00000E+00
    0.20013E-07         0.34598E-10         0.00000E+00
    0.20013E-07         0.38501E-10         0.00000E+00
    0.20012E-07         0.42149E-10         0.00000E+00
    0.20011E-07         0.45544E-10         0.00000E+00
    0.20010E-07         0.48688E-10         0.00000E+00
    0.20009E-07         0.51584E-10         0.00000E+00
    0.20008E-07         0.54233E-10         0.00000E+00
    0.20007E-07         0.56639E-10         0.00000E+00
    0.20006E-07         0.58802E-10         0.00000E+00
    0.20005E-07         0.60726E-10         0.00000E+00
    0.20004E-07         0.62413E-10         0.00000E+00
    0.20003E-07         0.63865E-10         0.00000E+00
    0.20002E-07         0.65085E-10         0.00000E+00
    0.20001E-07         0.66075E-10         0.00000E+00
    0.20000E-07         0.66836E-10         0.00000E+00
    0.19998E-07         0.67373E-10         0.00000E+00
    0.19997E-07         0.67686E-10         0.00000E+00
    0.19996E-07         0.67778E-10         0.00000E+00
    0.19995E-07         0.67652E-10         0.00000E+00
    0.19994E-07         0.67310E-10         0.00000E+00
    0.19993E-07         0.66754E-10         0.00000E+00
    0.19992E-07         0.65986E-10         0.00000E+00
    0.19991E-07         0.65009E-10         0.00000E+00
    0.19991E-07         0.63825E-10         0.00000E+00
    0.19990E-07         0.62436E-10         0.00000E+00
    0.19989E-07         0.60845E-10         0.00000E+00
    0.19988E-07         0.59053E-10         0.00000E+00
    0.19987E-07         0.57064E-10         0.00000E+00
    0.19987E-07         0.54878E-10         0.00000E+00
    0.19986E-07         0.52499E-10         0.00000E+00
    0.19985E-07         0.49928E-10         0.00000E+00
    0.19985E-07         0.47168E-10         0.00000E+00
    0.19984E-07         0.44220E-10         0.00000E+00
    0.19984E-07         0.41087E-10         0.00000E+00
    0.19983E-07         0.37770E-10         0.00000E+00
    0.19983E-07         0.34272E-10         0.00000E+00
    0.19983E-07         0.30594E-10         0.00000E+00
    0.19982E-07         0.26739E-10         0.00000E+00
    0.19982E-07         0.22709E-10         0.00000E+00
    0.19982E-07         0.18505E-10         0.00000E+00
    0.19982E-07         0.14128E-10         0.00000E+00
    0.19982E-07         0.95822E-11         0.00000E+00
    0.19982E-07         0.48675E-11         0.00000E+00
    0.19982E-07         0.24683E-11         0.00000E+00
    0.20273E-07         0.32268E-11         0.00000E+00
    0.20273E-07         0.63465E-11         0.00000E+00
    0.20273E-07         0.12427E-10         0.00000E+00
    0.20273E-07         0.18190E-10         0.00000E+00
    0.20272E-07         0.23642E-10         0.00000E+00
    0.20272E-07         0.28784E-10         0.00000E+00
    0.20271E-07         0.33621E-10         0.00000E+00
    0.20271E-07         0.38157E-10         0.00000E+00
    0.20270E-07         0.42396E-10         0.00000E+00
    0.20269E-07         0.46342E-10         0.00000E+00
    0.20268E-07         0.49998E-10         0.00000E+00
    0.20267E-07         0.53368E-10         0.00000E+00
    0.20266E-07         0.56456E-10         0.00000E+00
    0.20265E-07         0.59266E-10         0.00000E+00
    0.20264E-07         0.61802E-10         0.00000E+00
    0.20263E-07         0.64067E-10         0.00000E+00
    0.20262E-07         0.66066E-10         0.00000E+00
    0.20261E-07         0.67802E-10         0.00000E+00
    0.20260E-07         0.69279E-10         0.00000E+00
    0.20259E-07         0.70500E-10         0.00000E+00
    0.20258E-07         0.71469E-10         0.00000E+00
    0.20257E-07         0.72190E-10         0.00000E+00
    0.20256E-07         0.72666E-10         0.00000E+00
    0.20255E-07         0.72901E-10         0.00000E+00
    0.20254E-07         0.72899E-10         0.00000E+00
    0.20253E-07         0.72663E-10         0.00000E+00
    0.20252E-07         0.72196E-10         0.00000E+00
    0.20251E-07         0.71502E-10         0.00000E+00
    0.20250E-07         0.70584E-10         0.00000E+00
    0.20250E-07         0.69446E-10         0.00000E+00
    0.20249E-07         0.68091E-10         0.00000E+00
    0.20248E-07         0.66522E-10         0.00000E+00
    0.20247E-07         0.64742E-10         0.00000E+00
    0.20246E-07         0.62754E-10         0.00000E+00
    0.20246E-07         0.60562E-10         0.00000E+00
    0.20245E-07         0.58169E-10         0.00000E+00
    0.20245E-07         0.55576E-10         0.00000E+00
    0.20244E-07         0.52789E-10         0.00000E+00
    0.20243E-07         0.49809E-10         0.00000E+00
    0.20243E-07         0.46638E-10         0.00000E+00
    0.20243E-07         0.43281E-10         0.00000E+00
    0.20242E-07         0.39740E-10         0.00000E+00
    0.20242E-07         0.36016E-10         0.00000E+00
    0.20241E-07         0.32114E-10         0.00000E+00
    0.20241E-07         0.28035E-10         0.00000E+00
    0.20241E-07         0.23781E-10         0.00000E+00
    0.20241E-07         0.19357E-10         0.00000E+00
    0.20241E-07         0.14762E-10         0.00000E+00
    0.20241E-07         0.10001E-10         0.00000E+00
    0.20241E-07         0.50752E-11         0.00000E+00
    0.20241E-07         0.25713E-11         0.00000E+00
    0.20594E-07         0.35458E-11         0.00000E+00
    0.20594E-07         0.69675E-11         0.00000E+00
    0.20594E-07         0.13627E-10         0.00000E+00
    0.20593E-07         0.19921E-10         0.00000E+00
    0.20593E-07         0.25855E-10         0.00000E+00
    0.20592E-07         0.31436E-10         0.00000E+00
    0.20592E-07         0.36669E-10         0.00000E+00
    0.20591E-07         0.41559E-10         0.00000E+00
    0.20591E-07         0.46113E-10         0.00000E+00
    0.20590E-07         0.50336E-10         0.00000E+00
    0.20589E-07         0.54233E-10         0.00000E+00
    0.20588E-07         0.57810E-10         0.00000E+00
    0.20587E-07         0.61073E-10         0.00000E+00
    0.20586E-07         0.64027E-10         0.00000E+00
    0.20586E-07         0.66677E-10         0.00000E+00
    0.20585E-07         0.69029E-10         0.00000E+00
    0.20584E-07         0.71089E-10         0.00000E+00
    0.20583E-07         0.72860E-10         0.00000E+00
    0.20582E-07         0.74349E-10         0.00000E+00
    0.20581E-07         0.75560E-10         0.00000E+00
    0.20580E-07         0.76500E-10         0.00000E+00
    0.20579E-07         0.77171E-10         0.00000E+00
    0.20578E-07         0.77580E-10         0.00000E+00
    0.20577E-07         0.77732E-10         0.00000E+00
    0.20576E-07         0.77631E-10         0.00000E+00
    0.20575E-07         0.77281E-10         0.00000E+00
    0.20574E-07         0.76688E-10         0.00000E+00
    0.20574E-07         0.75856E-10         0.00000E+00
    0.20573E-07         0.74789E-10         0.00000E+00
    0.20572E-07         0.73492E-10         0.00000E+00
    0.20571E-07         0.71969E-10         0.00000E+00
    0.20571E-07         0.70224E-10         0.00000E+00
    0.20570E-07         0.68262E-10         0.00000E+00
    0.20569E-07         0.66086E-10         0.00000E+00
    0.20569E-07         0.63701E-10         0.00000E+00
    0.20568E-07         0.61111E-10         0.00000E+00
    0.20568E-07         0.58319E-10         0.00000E+00
    0.20567E-07         0.55328E-10         0.00000E+00
    0.20567E-07         0.52144E-10         0.00000E+00
    0.20566E-07         0.48768E-10         0.00000E+00
    0.20566E-07         0.45206E-10         0.00000E+00
    0.20566E-07         0.41459E-10         0.00000E+00
    0.20565E-07         0.37532E-10         0.00000E+00
    0.20565E-07         0.33428E-10         0.00000E+00
    0.20565E-07         0.29150E-10         0.00000E+00
    0.20565E-07         0.24700E-10         0.00000E+00
    0.20565E-07         0.20082E-10         0.00000E+00
    0.20564E-07         0.15300E-10         0.00000E+00
    0.20564E-07         0.10354E-10         0.00000E+00
    0.20564E-07         0.52492E-11         0.00000E+00
    0.20564E-07         0.26571E-11         0.00000E+00
    0.20979E-07         0.38444E-11         0.00000E+00
    0.20979E-07         0.75479E-11         0.00000E+00
    0.20979E-07         0.14746E-10         0.00000E+00
    0.20978E-07         0.21531E-10         0.00000E+00
    0.20978E-07         0.27911E-10         0.00000E+00
    0.20978E-07         0.33894E-10         0.00000E+00
    0.20977E-07         0.39486E-10         0.00000E+00
    0.20977E-07         0.44696E-10         0.00000E+00
    0.20976E-07         0.49531E-10         0.00000E+00
    0.20975E-07         0.53999E-10         0.00000E+00
    0.20975E-07         0.58107E-10         0.00000E+00
    0.20974E-07         0.61863E-10         0.00000E+00
    0.20973E-07         0.65273E-10         0.00000E+00
    0.20972E-07         0.68345E-10         0.00000E+00
    0.20971E-07         0.71085E-10         0.00000E+00
    0.20971E-07         0.73502E-10         0.00000E+00
    0.20970E-07         0.75601E-10         0.00000E+00
    0.20969E-07         0.77389E-10         0.00000E+00
    0.20968E-07         0.78873E-10         0.00000E+00
    0.20967E-07         0.80060E-10         0.00000E+00
    0.20967E-07         0.80956E-10         0.00000E+00
    0.20966E-07         0.81567E-10         0.00000E+00
    0.20965E-07         0.81900E-10         0.00000E+00
    0.20964E-07         0.81961E-10         0.00000E+00
    0.20963E-07         0.81755E-10         0.00000E+00
    0.20963E-07         0.81289E-10         0.00000E+00
    0.20962E-07         0.80568E-10         0.00000E+00
    0.20961E-07         0.79599E-10         0.00000E+00
    0.20961E-07         0.78386E-10         0.00000E+00
    0.20960E-07         0.76935E-10         0.00000E+00
    0.20959E-07         0.75252E-10         0.00000E+00
    0.20959E-07         0.73341E-10         0.00000E+00
    0.20958E-07         0.71209E-10         0.00000E+00
    0.20958E-07         0.68859E-10         0.00000E+00
    0.20957E-07         0.66297E-10         0.00000E+00
    0.20957E-07         0.63527E-10         0.00000E+00
    0.20957E-07         0.60555E-10         0.00000E+00
    0.20956E-07         0.57385E-10         0.00000E+00
    0.20956E-07         0.54020E-10         0.00000E+00
    0.20956E-07         0.50466E-10         0.00000E+00
    0.20955E-07         0.46727E-10         0.00000E+00
    0.20955E-07         0.42807E-10         0.00000E+00
    0.20955E-07         0.38709E-10         0.00000E+00
    0.20955E-07         0.34438E-10         0.00000E+00
    0.20955E-07         0.29998E-10         0.00000E+00
    0.20954E-07         0.25391E-10         0.00000E+00
    0.20954E-07         0.20622E-10         0.00000E+00
    0.20954E-07         0.15694E-10         0.00000E+00
    0.20954E-07         0.10610E-10         0.00000E+00
    0.20954E-07         0.53738E-11         0.00000E+00
    0.20954E-07         0.27178E-11         0.00000E+00
    0.21430E-07         0.41132E-11         0.00000E+00
    0.21430E-07         0.80692E-11         0.00000E+00
    0.21430E-07         0.15749E-10         0.00000E+00
    0.21430E-07         0.22969E-10         0.00000E+00
    0.21429E-07         0.29740E-10         0.00000E+00
    0.21429E-07         0.36071E-10         0.00000E+00
    0.21429E-07         0.41972E-10         0.00000E+00
    0.21428E-07         0.47453E-10         0.00000E+00
    0.21428E-07         0.52524E-10         0.00000E+00
    0.21427E-07         0.57193E-10         0.00000E+00
    0.21426E-07         0.61469E-10         0.00000E+00
    0.21426E-07         0.65363E-10         0.00000E+00
    0.21425E-07         0.68883E-10         0.00000E+00
    0.21425E-07         0.72038E-10         0.00000E+00
    0.21424E-07         0.74837E-10         0.00000E+00
    0.21423E-07         0.77287E-10         0.00000E+00
    0.21423E-07         0.79399E-10         0.00000E+00
    0.21422E-07         0.81179E-10         0.00000E+00
    0.21421E-07         0.82637E-10         0.00000E+00
    0.21421E-07         0.83780E-10         0.00000E+00
    0.21420E-07         0.84616E-10         0.00000E+00
    0.21419E-07         0.85153E-10         0.00000E+00
    0.21419E-07         0.85398E-10         0.00000E+00
    0.21418E-07         0.85359E-10         0.00000E+00
    0.21418E-07         0.85043E-10         0.00000E+00
    0.21417E-07         0.84458E-10         0.00000E+00
    0.21416E-07         0.83609E-10         0.00000E+00
    0.21416E-07         0.82505E-10         0.00000E+00
    0.21416E-07         0.81152E-10         0.00000E+00
    0.21415E-07         0.79556E-10         0.00000E+00
    0.21415E-07         0.77724E-10         0.00000E+00
    0.21414E-07         0.75662E-10         0.00000E+00
    0.21414E-07         0.73375E-10         0.00000E+00
    0.21414E-07         0.70871E-10         0.00000E+00
    0.21413E-07         0.68155E-10         0.00000E+00
    0.21413E-07         0.65232E-10         0.00000E+00
    0.21413E-07         0.62108E-10         0.00000E+00
    0.21413E-07         0.58788E-10         0.00000E+00
    0.21412E-07         0.55278E-10         0.00000E+00
    0.21412E-07         0.51583E-10         0.00000E+00
    0.21412E-07         0.47706E-10         0.00000E+00
    0.21412E-07         0.43654E-10         0.00000E+00
    0.21412E-07         0.39431E-10         0.00000E+00
    0.21412E-07         0.35041E-10         0.00000E+00
    0.21412E-07         0.30489E-10         0.00000E+00
    0.21412E-07         0.25778E-10         0.00000E+00
    0.21412E-07         0.20914E-10         0.00000E+00
    0.21412E-07         0.15899E-10         0.00000E+00
    0.21412E-07         0.10737E-10         0.00000E+00
    0.21412E-07         0.54325E-11         0.00000E+00
    0.21412E-07         0.27450E-11         0.00000E+00
    0.21949E-07         0.43421E-11         0.00000E+00
    0.21949E-07         0.85113E-11         0.00000E+00
    0.21949E-07         0.16595E-10         0.00000E+00
    0.21949E-07         0.24176E-10         0.00000E+00
    0.21948E-07         0.31266E-10         0.00000E+00
    0.21948E-07         0.37876E-10         0.00000E+00
    0.21948E-07         0.44020E-10         0.00000E+00
    0.21947E-07         0.49709E-10         0.00000E+00
    0.21947E-07         0.54954E-10         0.00000E+00
    0.21947E-07         0.59766E-10         0.00000E+00
    0.21946E-07         0.64158E-10         0.00000E+00
    0.21946E-07         0.68139E-10         0.00000E+00
    0.21945E-07         0.71721E-10         0.00000E+00
    0.21945E-07         0.74915E-10         0.00000E+00
    0.21944E-07         0.77730E-10         0.00000E+00
    0.21944E-07         0.80177E-10         0.00000E+00
    0.21943E-07         0.82267E-10         0.00000E+00
    0.21943E-07         0.84009E-10         0.00000E+00
    0.21943E-07         0.85412E-10         0.00000E+00
    0.21942E-07         0.86487E-10         0.00000E+00
    0.21942E-07         0.87243E-10         0.00000E+00
    0.21941E-07         0.87688E-10         0.00000E+00
    0.21941E-07         0.87833E-10         0.00000E+00
    0.21941E-07         0.87685E-10         0.00000E+00
    0.21940E-07         0.87253E-10         0.00000E+00
    0.21940E-07         0.86546E-10         0.00000E+00
    0.21940E-07         0.85571E-10         0.00000E+00
    0.21939E-07         0.84337E-10         0.00000E+00
    0.21939E-07         0.82852E-10         0.00000E+00
    0.21939E-07         0.81123E-10         0.00000E+00
    0.21939E-07         0.79157E-10         0.00000E+00
    0.21939E-07         0.76962E-10         0.00000E+00
    0.21939E-07         0.74545E-10         0.00000E+00
    0.21939E-07         0.71913E-10         0.00000E+00
    0.21938E-07         0.69072E-10         0.00000E+00
    0.21938E-07         0.66029E-10         0.00000E+00
    0.21938E-07         0.62791E-10         0.00000E+00
    0.21938E-07         0.59362E-10         0.00000E+00
    0.21938E-07         0.55750E-10         0.00000E+00
    0.21938E-07         0.51960E-10         0.00000E+00
    0.21938E-07         0.47997E-10         0.00000E+00
    0.21938E-07         0.43868E-10         0.00000E+00
    0.21938E-07         0.39576E-10         0.00000E+00
    0.21938E-07         0.35128E-10         0.00000E+00
    0.21938E-07         0.30528E-10         0.00000E+00
    0.21939E-07         0.25781E-10         0.00000E+00
    0.21939E-07         0.20891E-10         0.00000E+00
    0.21939E-07         0.15863E-10         0.00000E+00
    0.21939E-07         0.10701E-10         0.00000E+00
    0.21939E-07         0.54083E-11         0.00000E+00
    0.21939E-07         0.27301E-11         0.00000E+00
    0.22538E-07         0.45200E-11         0.00000E+00
    0.22538E-07         0.88528E-11         0.00000E+00
    0.22538E-07         0.17243E-10         0.00000E+00
    0.22538E-07         0.25090E-10         0.00000E+00
    0.22537E-07         0.32408E-10         0.00000E+00
    0.22537E-07         0.39212E-10         0.00000E+00
    0.22537E-07         0.45515E-10         0.00000E+00
    0.22537E-07         0.51332E-10         0.00000E+00
    0.22537E-07         0.56676E-10         0.00000E+00
    0.22536E-07         0.61561E-10         0.00000E+00
    0.22536E-07         0.66000E-10         0.00000E+00
    0.22536E-07         0.70006E-10         0.00000E+00
    0.22535E-07         0.73591E-10         0.00000E+00
    0.22535E-07         0.76768E-10         0.00000E+00
    0.22535E-07         0.79550E-10         0.00000E+00
    0.22535E-07         0.81948E-10         0.00000E+00
    0.22535E-07         0.83974E-10         0.00000E+00
    0.22534E-07         0.85640E-10         0.00000E+00
    0.22534E-07         0.86957E-10         0.00000E+00
    0.22534E-07         0.87936E-10         0.00000E+00
    0.22534E-07         0.88587E-10         0.00000E+00
    0.22534E-07         0.88922E-10         0.00000E+00
    0.22534E-07         0.88951E-10         0.00000E+00
    0.22534E-07         0.88683E-10         0.00000E+00
    0.22534E-07         0.88129E-10         0.00000E+00
    0.22534E-07         0.87298E-10         0.00000E+00
    0.22534E-07         0.86200E-10         0.00000E+00
    0.22534E-07         0.84844E-10         0.00000E+00
    0.22534E-07         0.83238E-10         0.00000E+00
    0.22534E-07         0.81391E-10         0.00000E+00
    0.22534E-07         0.79313E-10         0.00000E+00
    0.22534E-07         0.77010E-10         0.00000E+00
    0.22534E-07         0.74491E-10         0.00000E+00
    0.22534E-07         0.71764E-10         0.00000E+00
    0.22535E-07         0.68836E-10         0.00000E+00
    0.22535E-07         0.65715E-10         0.00000E+00
    0.22535E-07         0.62407E-10         0.00000E+00
    0.22535E-07         0.58920E-10         0.00000E+00
    0.22535E-07         0.55260E-10         0.00000E+00
    0.22536E-07         0.51434E-10         0.00000E+00
    0.22536E-07         0.47447E-10         0.00000E+00
    0.22536E-07         0.43306E-10         0.00000E+00
    0.22536E-07         0.39017E-10         0.00000E+00
    0.22536E-07         0.34586E-10         0.00000E+00
    0.22537E-07         0.30016E-10         0.00000E+00
    0.22537E-07         0.25315E-10         0.00000E+00
    0.22537E-07         0.20486E-10         0.00000E+00
    0.22537E-07         0.15535E-10         0.00000E+00
    0.22537E-07         0.10466E-10         0.00000E+00
    0.22537E-07         0.52832E-11         0.00000E+00
    0.22537E-07         0.26640E-11         0.00000E+00
    0.23199E-07         0.46352E-11         0.00000E+00
    0.23199E-07         0.90702E-11         0.00000E+00
    0.23199E-07         0.17647E-10         0.00000E+00
    0.23198E-07         0.25644E-10         0.00000E+00
    0.23198E-07         0.33080E-10         0.00000E+00
    0.23198E-07         0.39970E-10         0.00000E+00
    0.23198E-07         0.46332E-10         0.00000E+00
    0.23198E-07         0.52181E-10         0.00000E+00
    0.23198E-07         0.57534E-10         0.00000E+00
    0.23198E-07         0.62406E-10         0.00000E+00
    0.23198E-07         0.66811E-10         0.00000E+00
    0.23198E-07         0.70766E-10         0.00000E+00
    0.23198E-07         0.74284E-10         0.00000E+00
    0.23198E-07         0.77381E-10         0.00000E+00
    0.23198E-07         0.80070E-10         0.00000E+00
    0.23198E-07         0.82364E-10         0.00000E+00
    0.23198E-07         0.84278E-10         0.00000E+00
    0.23198E-07         0.85824E-10         0.00000E+00
    0.23198E-07         0.87016E-10         0.00000E+00
    0.23199E-07         0.87866E-10         0.00000E+00
    0.23199E-07         0.88386E-10         0.00000E+00
    0.23199E-07         0.88588E-10         0.00000E+00
    0.23199E-07         0.88484E-10         0.00000E+00
    0.23200E-07         0.88085E-10         0.00000E+00
    0.23200E-07         0.87403E-10         0.00000E+00
    0.23200E-07         0.86447E-10         0.00000E+00
    0.23201E-07         0.85230E-10         0.00000E+00
    0.23201E-07         0.83761E-10         0.00000E+00
    0.23201E-07         0.82049E-10         0.00000E+00
    0.23202E-07         0.80105E-10         0.00000E+00
    0.23202E-07         0.77939E-10         0.00000E+00
    0.23203E-07         0.75558E-10         0.00000E+00
    0.23203E-07         0.72973E-10         0.00000E+00
    0.23204E-07         0.70192E-10         0.00000E+00
    0.23204E-07         0.67222E-10         0.00000E+00
    0.23205E-07         0.64073E-10         0.00000E+00
    0.23205E-07         0.60752E-10         0.00000E+00
    0.23206E-07         0.57267E-10         0.00000E+00
    0.23206E-07         0.53625E-10         0.00000E+00
    0.23207E-07         0.49832E-10         0.00000E+00
    0.23207E-07         0.45897E-10         0.00000E+00
    0.23207E-07         0.41825E-10         0.00000E+00
    0.23208E-07         0.37622E-10         0.00000E+00
    0.23208E-07         0.33296E-10         0.00000E+00
    0.23208E-07         0.28851E-10         0.00000E+00
    0.23209E-07         0.24293E-10         0.00000E+00
    0.23209E-07         0.19628E-10         0.00000E+00
    0.23209E-07         0.14861E-10         0.00000E+00
    0.23209E-07         0.99959E-11         0.00000E+00
    0.23209E-07         0.50385E-11         0.00000E+00
    0.23209E-07         0.25373E-11         0.00000E+00
    0.23934E-07         0.46748E-11         0.00000E+00
    0.23934E-07         0.91385E-11         0.00000E+00
    0.23934E-07         0.17757E-10         0.00000E+00
    0.23934E-07         0.25767E-10         0.00000E+00
    0.23934E-07         0.33188E-10         0.00000E+00
    0.23934E-07         0.40039E-10         0.00000E+00
    0.23934E-07         0.46339E-10         0.00000E+00
    0.23934E-07         0.52107E-10         0.00000E+00
    0.23934E-07         0.57360E-10         0.00000E+00
    0.23934E-07         0.62117E-10         0.00000E+00
    0.23935E-07         0.66395E-10         0.00000E+00
    0.23935E-07         0.70210E-10         0.00000E+00
    0.23935E-07         0.73580E-10         0.00000E+00
    0.23935E-07         0.76520E-10         0.00000E+00
    0.23936E-07         0.79046E-10         0.00000E+00
    0.23936E-07         0.81174E-10         0.00000E+00
    0.23937E-07         0.82919E-10         0.00000E+00
    0.23937E-07         0.84296E-10         0.00000E+00
    0.23938E-07         0.85319E-10         0.00000E+00
    0.23938E-07         0.86003E-10         0.00000E+00
    0.23939E-07         0.86360E-10         0.00000E+00
    0.23939E-07         0.86405E-10         0.00000E+00
    0.23940E-07         0.86150E-10         0.00000E+00
    0.23941E-07         0.85608E-10         0.00000E+00
    0.23942E-07         0.84791E-10         0.00000E+00
    0.23942E-07         0.83712E-10         0.00000E+00
    0.23943E-07         0.82382E-10         0.00000E+00
    0.23944E-07         0.80812E-10         0.00000E+00
    0.23945E-07         0.79014E-10         0.00000E+00
    0.23946E-07         0.76997E-10         0.00000E+00
    0.23946E-07         0.74774E-10         0.00000E+00
    0.23947E-07         0.72352E-10         0.00000E+00
    0.23948E-07         0.69743E-10         0.00000E+00
    0.23949E-07         0.66956E-10         0.00000E+00
    0.23950E-07         0.63999E-10         0.00000E+00
    0.23951E-07         0.60883E-10         0.00000E+00
    0.23951E-07         0.57614E-10         0.00000E+00
    0.23952E-07         0.54202E-10         0.00000E+00
    0.23953E-07         0.50654E-10         0.00000E+00
    0.23954E-07         0.46978E-10         0.00000E+00
    0.23954E-07         0.43181E-10         0.00000E+00
    0.23955E-07         0.39270E-10         0.00000E+00
    0.23956E-07         0.35253E-10         0.00000E+00
    0.23956E-07         0.31136E-10         0.00000E+00
    0.23957E-07         0.26924E-10         0.00000E+00
    0.23957E-07         0.22625E-10         0.00000E+00
    0.23957E-07         0.18243E-10         0.00000E+00
    0.23958E-07         0.13784E-10         0.00000E+00
    0.23958E-07         0.92528E-11         0.00000E+00
    0.23958E-07         0.46551E-11         0.00000E+00
    0.23958E-07         0.23401E-11         0.00000E+00
    0.24746E-07         0.46252E-11         0.00000E+00
    0.24746E-07         0.90307E-11         0.00000E+00
    0.24746E-07         0.17521E-10         0.00000E+00
    0.24746E-07         0.25380E-10         0.00000E+00
    0.24746E-07         0.32632E-10         0.00000E+00
    0.24747E-07         0.39296E-10         0.00000E+00
    0.24747E-07         0.45395E-10         0.00000E+00
    0.24747E-07         0.50949E-10         0.00000E+00
    0.24748E-07         0.55978E-10         0.00000E+00
    0.24748E-07         0.60503E-10         0.00000E+00
    0.24749E-07         0.64543E-10         0.00000E+00
    0.24749E-07         0.68117E-10         0.00000E+00
    0.24750E-07         0.71244E-10         0.00000E+00
    0.24751E-07         0.73940E-10         0.00000E+00
    0.24751E-07         0.76225E-10         0.00000E+00
    0.24752E-07         0.78115E-10         0.00000E+00
    0.24753E-07         0.79628E-10         0.00000E+00
    0.24754E-07         0.80779E-10         0.00000E+00
    0.24755E-07         0.81584E-10         0.00000E+00
    0.24756E-07         0.82059E-10         0.00000E+00
    0.24757E-07         0.82220E-10         0.00000E+00
    0.24758E-07         0.82080E-10         0.00000E+00
    0.24759E-07         0.81654E-10         0.00000E+00
    0.24760E-07         0.80957E-10         0.00000E+00
    0.24761E-07         0.80001E-10         0.00000E+00
    0.24763E-07         0.78800E-10         0.00000E+00
    0.24764E-07         0.77366E-10         0.00000E+00
    0.24765E-07         0.75712E-10         0.00000E+00
    0.24766E-07         0.73849E-10         0.00000E+00
    0.24768E-07         0.71790E-10         0.00000E+00
    0.24769E-07         0.69546E-10         0.00000E+00
    0.24770E-07         0.67127E-10         0.00000E+00
    0.24771E-07         0.64544E-10         0.00000E+00
    0.24773E-07         0.61808E-10         0.00000E+00
    0.24774E-07         0.58927E-10         0.00000E+00
    0.24775E-07         0.55912E-10         0.00000E+00
    0.24776E-07         0.52772E-10         0.00000E+00
    0.24778E-07         0.49515E-10         0.00000E+00
    0.24779E-07         0.46150E-10         0.00000E+00
    0.24780E-07         0.42686E-10         0.00000E+00
    0.24781E-07         0.39129E-10         0.00000E+00
    0.24782E-07         0.35488E-10         0.00000E+00
    0.24782E-07         0.31769E-10         0.00000E+00
    0.24783E-07         0.27980E-10         0.00000E+00
    0.24784E-07         0.24127E-10         0.00000E+00
    0.24785E-07         0.20217E-10         0.00000E+00
    0.24785E-07         0.16255E-10         0.00000E+00
    0.24785E-07         0.12246E-10         0.00000E+00
    0.24786E-07         0.81974E-11         0.00000E+00
    0.24786E-07         0.41130E-11         0.00000E+00
    0.24786E-07         0.20625E-11         0.00000E+00
    0.25639E-07         0.44716E-11         0.00000E+00
    0.25639E-07         0.87182E-11         0.00000E+00
    0.25639E-07         0.16883E-10         0.00000E+00
    0.25639E-07         0.24404E-10         0.00000E+00
    0.25639E-07         0.31307E-10         0.00000E+00
    0.25640E-07         0.37614E-10         0.00000E+00
    0.25640E-07         0.43350E-10         0.00000E+00
    0.25641E-07         0.48539E-10         0.00000E+00
    0.25641E-07         0.53202E-10         0.00000E+00
    0.25642E-07         0.57362E-10         0.00000E+00
    0.25643E-07         0.61039E-10         0.00000E+00
    0.25644E-07         0.64256E-10         0.00000E+00
    0.25645E-07         0.67033E-10         0.00000E+00
    0.25646E-07         0.69388E-10         0.00000E+00
    0.25647E-07         0.71343E-10         0.00000E+00
    0.25648E-07         0.72915E-10         0.00000E+00
    0.25650E-07         0.74123E-10         0.00000E+00
    0.25651E-07         0.74985E-10         0.00000E+00
    0.25653E-07         0.75518E-10         0.00000E+00
    0.25654E-07         0.75740E-10         0.00000E+00
    0.25656E-07         0.75666E-10         0.00000E+00
    0.25657E-07         0.75313E-10         0.00000E+00
    0.25659E-07         0.74696E-10         0.00000E+00
    0.25661E-07         0.73830E-10         0.00000E+00
    0.25662E-07         0.72731E-10         0.00000E+00
    0.25664E-07         0.71411E-10         0.00000E+00
    0.25666E-07         0.69885E-10         0.00000E+00
    0.25668E-07         0.68166E-10         0.00000E+00
    0.25669E-07         0.66267E-10         0.00000E+00
    0.25671E-07         0.64200E-10         0.00000E+00
    0.25673E-07         0.61978E-10         0.00000E+00
    0.25675E-07         0.59612E-10         0.00000E+00
    0.25677E-07         0.57113E-10         0.00000E+00
    0.25678E-07         0.54493E-10         0.00000E+00
    0.25680E-07         0.51761E-10         0.00000E+00
    0.25682E-07         0.48928E-10         0.00000E+00
    0.25683E-07         0.46003E-10         0.00000E+00
    0.25685E-07         0.42996E-10         0.00000E+00
    0.25686E-07         0.39915E-10         0.00000E+00
    0.25688E-07         0.36770E-10         0.00000E+00
    0.25689E-07         0.33569E-10         0.00000E+00
    0.25690E-07         0.30318E-10         0.00000E+00
    0.25691E-07         0.27027E-10         0.00000E+00
    0.25692E-07         0.23701E-10         0.00000E+00
    0.25693E-07         0.20348E-10         0.00000E+00
    0.25694E-07         0.16975E-10         0.00000E+00
    0.25695E-07         0.13587E-10         0.00000E+00
    0.25695E-07         0.10190E-10         0.00000E+00
    0.25696E-07         0.67901E-11         0.00000E+00
    0.25696E-07         0.33921E-11         0.00000E+00
    0.25696E-07         0.16943E-11         0.00000E+00
    0.26614E-07         0.41989E-11         0.00000E+00
    0.26614E-07         0.81709E-11         0.00000E+00
    0.26615E-07         0.15785E-10         0.00000E+00
    0.26615E-07         0.22753E-10         0.00000E+00
    0.26615E-07         0.29103E-10         0.00000E+00
    0.26616E-07         0.34860E-10         0.00000E+00
    0.26617E-07         0.40052E-10         0.00000E+00
    0.26618E-07         0.44704E-10         0.00000E+00
    0.26619E-07         0.48839E-10         0.00000E+00
    0.26620E-07         0.52483E-10         0.00000E+00
    0.26621E-07         0.55659E-10         0.00000E+00
    0.26622E-07         0.58389E-10         0.00000E+00
    0.26624E-07         0.60697E-10         0.00000E+00
    0.26625E-07         0.62602E-10         0.00000E+00
    0.26627E-07         0.64128E-10         0.00000E+00
    0.26629E-07         0.65293E-10         0.00000E+00
    0.26631E-07         0.66118E-10         0.00000E+00
    0.26632E-07         0.66622E-10         0.00000E+00
    0.26634E-07         0.66824E-10         0.00000E+00
    0.26637E-07         0.66743E-10         0.00000E+00
    0.26639E-07         0.66395E-10         0.00000E+00
    0.26641E-07         0.65797E-10         0.00000E+00
    0.26643E-07         0.64968E-10         0.00000E+00
    0.26645E-07         0.63922E-10         0.00000E+00
    0.26648E-07         0.62675E-10         0.00000E+00
    0.26650E-07         0.61243E-10         0.00000E+00
    0.26652E-07         0.59640E-10         0.00000E+00
    0.26655E-07         0.57880E-10         0.00000E+00
    0.26657E-07         0.55976E-10         0.00000E+00
    0.26659E-07         0.53943E-10         0.00000E+00
    0.26662E-07         0.51792E-10         0.00000E+00
    0.26664E-07         0.49536E-10         0.00000E+00
    0.26666E-07         0.47187E-10         0.00000E+00
    0.26669E-07         0.44757E-10         0.00000E+00
    0.26671E-07         0.42256E-10         0.00000E+00
    0.26673E-07         0.39694E-10         0.00000E+00
    0.26675E-07         0.37083E-10         0.00000E+00
    0.26677E-07         0.34431E-10         0.00000E+00
    0.26679E-07         0.31749E-10         0.00000E+00
    0.26681E-07         0.29044E-10         0.00000E+00
    0.26682E-07         0.26326E-10         0.00000E+00
    0.26684E-07         0.23603E-10         0.00000E+00
    0.26685E-07         0.20881E-10         0.00000E+00
    0.26687E-07         0.18170E-10         0.00000E+00
    0.26688E-07         0.15475E-10         0.00000E+00
    0.26689E-07         0.12804E-10         0.00000E+00
    0.26690E-07         0.10163E-10         0.00000E+00
    0.26690E-07         0.75564E-11         0.00000E+00
    0.26691E-07         0.49913E-11         0.00000E+00
    0.26691E-07         0.24725E-11         0.00000E+00
    0.26691E-07         0.12252E-11         0.00000E+00
    0.27677E-07         0.37913E-11         0.00000E+00
    0.27677E-07         0.73581E-11         0.00000E+00
    0.27677E-07         0.14167E-10         0.00000E+00
    0.27678E-07         0.20340E-10         0.00000E+00
    0.27678E-07         0.25908E-10         0.00000E+00
    0.27679E-07         0.30899E-10         0.00000E+00
    0.27680E-07         0.35343E-10         0.00000E+00
    0.27681E-07         0.39266E-10         0.00000E+00
    0.27683E-07         0.42695E-10         0.00000E+00
    0.27684E-07         0.45656E-10         0.00000E+00
    0.27686E-07         0.48175E-10         0.00000E+00
    0.27688E-07         0.50276E-10         0.00000E+00
    0.27690E-07         0.51983E-10         0.00000E+00
    0.27692E-07         0.53320E-10         0.00000E+00
    0.27694E-07         0.54308E-10         0.00000E+00
    0.27696E-07         0.54969E-10         0.00000E+00
    0.27699E-07         0.55326E-10         0.00000E+00
    0.27701E-07         0.55398E-10         0.00000E+00
    0.27704E-07         0.55205E-10         0.00000E+00
    0.27706E-07         0.54767E-10         0.00000E+00
    0.27709E-07         0.54102E-10         0.00000E+00
    0.27712E-07         0.53229E-10         0.00000E+00
    0.27715E-07         0.52166E-10         0.00000E+00
    0.27718E-07         0.50928E-10         0.00000E+00
    0.27721E-07         0.49533E-10         0.00000E+00
    0.27724E-07         0.47997E-10         0.00000E+00
    0.27727E-07         0.46334E-10         0.00000E+00
    0.27730E-07         0.44560E-10         0.00000E+00
    0.27733E-07         0.42690E-10         0.00000E+00
    0.27736E-07         0.40736E-10         0.00000E+00
    0.27739E-07         0.38713E-10         0.00000E+00
    0.27741E-07         0.36632E-10         0.00000E+00
    0.27744E-07         0.34508E-10         0.00000E+00
    0.27747E-07         0.32350E-10         0.00000E+00
    0.27750E-07         0.30171E-10         0.00000E+00
    0.27753E-07         0.27982E-10         0.00000E+00
    0.27755E-07         0.25793E-10         0.00000E+00
    0.27758E-07         0.23614E-10         0.00000E+00
    0.27760E-07         0.21455E-10         0.00000E+00
    0.27762E-07         0.19325E-10         0.00000E+00
    0.27764E-07         0.17233E-10         0.00000E+00
    0.27766E-07         0.15186E-10         0.00000E+00
    0.27768E-07         0.13194E-10         0.00000E+00
    0.27770E-07         0.11263E-10         0.00000E+00
    0.27771E-07         0.94002E-11         0.00000E+00
    0.27772E-07         0.76128E-11         0.00000E+00
    0.27773E-07         0.59068E-11         0.00000E+00
    0.27774E-07         0.42881E-11         0.00000E+00
    0.27775E-07         0.27622E-11         0.00000E+00
    0.27775E-07         0.13343E-11         0.00000E+00
    0.27775E-07         0.64537E-12         0.00000E+00
    0.28829E-07         0.32327E-11         0.00000E+00
    0.28829E-07         0.62486E-11         0.00000E+00
    0.28830E-07         0.11967E-10         0.00000E+00
    0.28830E-07         0.17077E-10         0.00000E+00
    0.28831E-07         0.21609E-10         0.00000E+00
    0.28832E-07         0.25595E-10         0.00000E+00
    0.28834E-07         0.29065E-10         0.00000E+00
    0.28835E-07         0.32049E-10         0.00000E+00
    0.28837E-07         0.34575E-10         0.00000E+00
    0.28839E-07         0.36671E-10         0.00000E+00
    0.28841E-07         0.38365E-10         0.00000E+00
    0.28843E-07         0.39681E-10         0.00000E+00
    0.28846E-07         0.40645E-10         0.00000E+00
    0.28848E-07         0.41283E-10         0.00000E+00
    0.28851E-07         0.41617E-10         0.00000E+00
    0.28854E-07         0.41671E-10         0.00000E+00
    0.28857E-07         0.41467E-10         0.00000E+00
    0.28860E-07         0.41028E-10         0.00000E+00
    0.28864E-07         0.40372E-10         0.00000E+00
    0.28867E-07         0.39522E-10         0.00000E+00
    0.28870E-07         0.38497E-10         0.00000E+00
    0.28874E-07         0.37316E-10         0.00000E+00
    0.28877E-07         0.35996E-10         0.00000E+00
    0.28881E-07         0.34556E-10         0.00000E+00
    0.28885E-07         0.33014E-10         0.00000E+00
    0.28888E-07         0.31384E-10         0.00000E+00
    0.28892E-07         0.29684E-10         0.00000E+00
    0.28896E-07         0.27929E-10         0.00000E+00
    0.28900E-07         0.26134E-10         0.00000E+00
    0.28903E-07         0.24313E-10         0.00000E+00
    0.28907E-07         0.22479E-10         0.00000E+00
    0.28910E-07         0.20646E-10         0.00000E+00
    0.28914E-07         0.18827E-10         0.00000E+00
    0.28917E-07         0.17034E-10         0.00000E+00
    0.28921E-07         0.15278E-10         0.00000E+00
    0.28924E-07         0.13571E-10         0.00000E+00
    0.28927E-07         0.11924E-10         0.00000E+00
    0.28930E-07         0.10346E-10         0.00000E+00
    0.28933E-07         0.88481E-11         0.00000E+00
    0.28935E-07         0.74388E-11         0.00000E+00
    0.28938E-07         0.61272E-11         0.00000E+00
    0.28940E-07         0.49217E-11         0.00000E+00
    0.28942E-07         0.38301E-11         0.00000E+00
    0.28944E-07         0.28602E-11         0.00000E+00
    0.28946E-07         0.20188E-11         0.00000E+00
    0.28948E-07         0.13127E-11         0.00000E+00
    0.28949E-07         0.74810E-12         0.00000E+00
    0.28950E-07         0.33074E-12         0.00000E+00
    0.28951E-07         0.66010E-13         0.00000E+00
    0.28951E-07        -0.41130E-13         0.00000E+00
    0.28951E-07        -0.54709E-13         0.00000E+00
    0.30076E-07         0.25077E-11         0.00000E+00
    0.30076E-07         0.48120E-11         0.00000E+00
    0.30076E-07         0.91288E-11         0.00000E+00
    0.30077E-07         0.12879E-10         0.00000E+00
    0.30078E-07         0.16098E-10         0.00000E+00
    0.30079E-07         0.18817E-10         0.00000E+00
    0.30081E-07         0.21069E-10         0.00000E+00
    0.30083E-07         0.22885E-10         0.00000E+00
    0.30085E-07         0.24295E-10         0.00000E+00
    0.30088E-07         0.25329E-10         0.00000E+00
    0.30090E-07         0.26014E-10         0.00000E+00
    0.30093E-07         0.26378E-10         0.00000E+00
    0.30096E-07         0.26448E-10         0.00000E+00
    0.30099E-07         0.26248E-10         0.00000E+00
    0.30103E-07         0.25805E-10         0.00000E+00
    0.30106E-07         0.25141E-10         0.00000E+00
    0.30110E-07         0.24280E-10         0.00000E+00
    0.30114E-07         0.23245E-10         0.00000E+00
    0.30118E-07         0.22058E-10         0.00000E+00
    0.30122E-07         0.20738E-10         0.00000E+00
    0.30126E-07         0.19307E-10         0.00000E+00
    0.30130E-07         0.17784E-10         0.00000E+00
    0.30135E-07         0.16188E-10         0.00000E+00
    0.30139E-07         0.14538E-10         0.00000E+00
    0.30144E-07         0.12850E-10         0.00000E+00
    0.30148E-07         0.11142E-10         0.00000E+00
    0.30152E-07         0.94306E-11         0.00000E+00
    0.30157E-07         0.77308E-11         0.00000E+00
    0.30161E-07         0.60582E-11         0.00000E+00
    0.30166E-07         0.44272E-11         0.00000E+00
    0.30170E-07         0.28519E-11         0.00000E+00
    0.30174E-07         0.13459E-11         0.00000E+00
    0.30178E-07        -0.78059E-13         0.00000E+00
    0.30182E-07        -0.14075E-11         0.00000E+00
    0.30186E-07        -0.26306E-11         0.00000E+00
    0.30190E-07        -0.37360E-11         0.00000E+00
    0.30194E-07        -0.47128E-11         0.00000E+00
    0.30198E-07        -0.55508E-11         0.00000E+00
    0.30201E-07        -0.62401E-11         0.00000E+00
    0.30204E-07        -0.67713E-11         0.00000E+00
    0.30207E-07        -0.71355E-11         0.00000E+00
    0.30210E-07        -0.73245E-11         0.00000E+00
    0.30212E-07        -0.73302E-11         0.00000E+00
    0.30215E-07        -0.71452E-11         0.00000E+00
    0.30217E-07        -0.67625E-11         0.00000E+00
    0.30219E-07        -0.61756E-11         0.00000E+00
    0.30220E-07        -0.53783E-11         0.00000E+00
    0.30221E-07        -0.43652E-11         0.00000E+00
    0.30222E-07        -0.31309E-11         0.00000E+00
    0.30223E-07        -0.16708E-11         0.00000E+00
    0.30223E-07        -0.88368E-12         0.00000E+00
    0.31419E-07         0.16014E-11         0.00000E+00
    0.31420E-07         0.30197E-11         0.00000E+00
    0.31420E-07         0.55955E-11         0.00000E+00
    0.31421E-07         0.76677E-11         0.00000E+00
    0.31423E-07         0.92721E-11         0.00000E+00
    0.31424E-07         0.10443E-10         0.00000E+00
    0.31426E-07         0.11215E-10         0.00000E+00
    0.31429E-07         0.11618E-10         0.00000E+00
    0.31431E-07         0.11685E-10         0.00000E+00
    0.31434E-07         0.11446E-10         0.00000E+00
    0.31437E-07         0.10930E-10         0.00000E+00
    0.31441E-07         0.10166E-10         0.00000E+00
    0.31444E-07         0.91794E-11         0.00000E+00
    0.31448E-07         0.79980E-11         0.00000E+00
    0.31452E-07         0.66468E-11         0.00000E+00
    0.31457E-07         0.51505E-11         0.00000E+00
    0.31461E-07         0.35329E-11         0.00000E+00
    0.31466E-07         0.18167E-11         0.00000E+00
    0.31470E-07         0.24295E-13         0.00000E+00
    0.31475E-07        -0.18231E-11         0.00000E+00
    0.31480E-07        -0.37048E-11         0.00000E+00
    0.31485E-07        -0.56010E-11         0.00000E+00
    0.31490E-07        -0.74924E-11         0.00000E+00
    0.31496E-07        -0.93606E-11         0.00000E+00
    0.31501E-07        -0.11188E-10         0.00000E+00
    0.31506E-07        -0.12957E-10         0.00000E+00
    0.31511E-07        -0.14651E-10         0.00000E+00
    0.31516E-07        -0.16254E-10         0.00000E+00
    0.31522E-07        -0.17752E-10         0.00000E+00
    0.31527E-07        -0.19129E-10         0.00000E+00
    0.31532E-07        -0.20371E-10         0.00000E+00
    0.31537E-07        -0.21466E-10         0.00000E+00
    0.31542E-07        -0.22398E-10         0.00000E+00
    0.31546E-07        -0.23158E-10         0.00000E+00
    0.31551E-07        -0.23731E-10         0.00000E+00
    0.31556E-07        -0.24108E-10         0.00000E+00
    0.31560E-07        -0.24278E-10         0.00000E+00
    0.31564E-07        -0.24229E-10         0.00000E+00
    0.31568E-07        -0.23952E-10         0.00000E+00
    0.31572E-07        -0.23439E-10         0.00000E+00
    0.31575E-07        -0.22679E-10         0.00000E+00
    0.31578E-07        -0.21665E-10         0.00000E+00
    0.31581E-07        -0.20390E-10         0.00000E+00
    0.31584E-07        -0.18845E-10         0.00000E+00
    0.31586E-07        -0.17023E-10         0.00000E+00
    0.31588E-07        -0.14920E-10         0.00000E+00
    0.31590E-07        -0.12528E-10         0.00000E+00
    0.31591E-07        -0.98418E-11         0.00000E+00
    0.31592E-07        -0.68571E-11         0.00000E+00
    0.31593E-07        -0.35692E-11         0.00000E+00
    0.31593E-07        -0.18490E-11         0.00000E+00
    0.32865E-07         0.50089E-12         0.00000E+00
    0.32865E-07         0.84651E-12         0.00000E+00
    0.32866E-07         0.13191E-11         0.00000E+00
    0.32867E-07         0.13730E-11         0.00000E+00
    0.32868E-07         0.10450E-11         0.00000E+00
    0.32870E-07         0.37039E-12         0.00000E+00
    0.32873E-07        -0.61666E-12         0.00000E+00
    0.32875E-07        -0.18832E-11         0.00000E+00
    0.32879E-07        -0.33973E-11         0.00000E+00
    0.32882E-07        -0.51285E-11         0.00000E+00
    0.32886E-07        -0.70470E-11         0.00000E+00
    0.32890E-07        -0.91243E-11         0.00000E+00
    0.32894E-07        -0.11333E-10         0.00000E+00
    0.32899E-07        -0.13646E-10         0.00000E+00
    0.32903E-07        -0.16038E-10         0.00000E+00
    0.32908E-07        -0.18485E-10         0.00000E+00
    0.32914E-07        -0.20961E-10         0.00000E+00
    0.32919E-07        -0.23446E-10         0.00000E+00
    0.32925E-07        -0.25915E-10         0.00000E+00
    0.32930E-07        -0.28348E-10         0.00000E+00
    0.32936E-07        -0.30725E-10         0.00000E+00
    0.32942E-07        -0.33025E-10         0.00000E+00
    0.32948E-07        -0.35229E-10         0.00000E+00
    0.32954E-07        -0.37319E-10         0.00000E+00
    0.32960E-07        -0.39277E-10         0.00000E+00
    0.32966E-07        -0.41086E-10         0.00000E+00
    0.32972E-07        -0.42730E-10         0.00000E+00
    0.32978E-07        -0.44193E-10         0.00000E+00
    0.32984E-07        -0.45459E-10         0.00000E+00
    0.32990E-07        -0.46514E-10         0.00000E+00
    0.32996E-07        -0.47344E-10         0.00000E+00
    0.33001E-07        -0.47936E-10         0.00000E+00
    0.33007E-07        -0.48277E-10         0.00000E+00
    0.33012E-07        -0.48354E-10         0.00000E+00
    0.33018E-07        -0.48156E-10         0.00000E+00
    0.33023E-07        -0.47671E-10         0.00000E+00
    0.33028E-07        -0.46889E-10         0.00000E+00
    0.33033E-07        -0.45800E-10         0.00000E+00
    0.33037E-07        -0.44394E-10         0.00000E+00
    0.33041E-07        -0.42662E-10         0.00000E+00
    0.33045E-07        -0.40595E-10         0.00000E+00
    0.33049E-07        -0.38185E-10         0.00000E+00
    0.33052E-07        -0.35424E-10         0.00000E+00
    0.33055E-07        -0.32306E-10         0.00000E+00
    0.33058E-07        -0.28824E-10         0.00000E+00
    0.33060E-07        -0.24971E-10         0.00000E+00
    0.33062E-07        -0.20742E-10         0.00000E+00
    0.33064E-07        -0.16131E-10         0.00000E+00
    0.33065E-07        -0.11134E-10         0.00000E+00
    0.33066E-07        -0.57476E-11         0.00000E+00
    0.33066E-07        -0.29562E-11         0.00000E+00
    0.34415E-07        -0.80431E-12         0.00000E+00
    0.34415E-07        -0.17276E-11         0.00000E+00
    0.34416E-07        -0.37384E-11         0.00000E+00
    0.34417E-07        -0.60587E-11         0.00000E+00
    0.34419E-07        -0.86516E-11         0.00000E+00
    0.34422E-07        -0.11482E-10         0.00000E+00
    0.34424E-07        -0.14514E-10         0.00000E+00
    0.34427E-07        -0.17717E-10         0.00000E+00
    0.34431E-07        -0.21058E-10         0.00000E+00
    0.34435E-07        -0.24507E-10         0.00000E+00
    0.34439E-07        -0.28034E-10         0.00000E+00
    0.34444E-07        -0.31611E-10         0.00000E+00
    0.34449E-07        -0.35210E-10         0.00000E+00
    0.34454E-07        -0.38806E-10         0.00000E+00
    0.34460E-07        -0.42374E-10         0.00000E+00
    0.34466E-07        -0.45888E-10         0.00000E+00
    0.34472E-07        -0.49325E-10         0.00000E+00
    0.34478E-07        -0.52663E-10         0.00000E+00
    0.34484E-07        -0.55881E-10         0.00000E+00
    0.34491E-07        -0.58956E-10         0.00000E+00
    0.34497E-07        -0.61869E-10         0.00000E+00
    0.34504E-07        -0.64601E-10         0.00000E+00
    0.34511E-07        -0.67132E-10         0.00000E+00
    0.34517E-07        -0.69445E-10         0.00000E+00
    0.34524E-07        -0.71523E-10         0.00000E+00
    0.34531E-07        -0.73348E-10         0.00000E+00
    0.34538E-07        -0.74905E-10         0.00000E+00
    0.34545E-07        -0.76178E-10         0.00000E+00
    0.34552E-07        -0.77153E-10         0.00000E+00
    0.34558E-07        -0.77815E-10         0.00000E+00
    0.34565E-07        -0.78150E-10         0.00000E+00
    0.34571E-07        -0.78146E-10         0.00000E+00
    0.34578E-07        -0.77790E-10         0.00000E+00
    0.34584E-07        -0.77070E-10         0.00000E+00
    0.34590E-07        -0.75974E-10         0.00000E+00
    0.34596E-07        -0.74491E-10         0.00000E+00
    0.34601E-07        -0.72612E-10         0.00000E+00
    0.34607E-07        -0.70326E-10         0.00000E+00
    0.34612E-07        -0.67623E-10         0.00000E+00
    0.34616E-07        -0.64495E-10         0.00000E+00
    0.34621E-07        -0.60933E-10         0.00000E+00
    0.34625E-07        -0.56929E-10         0.00000E+00
    0.34629E-07        -0.52477E-10         0.00000E+00
    0.34632E-07        -0.47568E-10         0.00000E+00
    0.34635E-07        -0.42197E-10         0.00000E+00
    0.34638E-07        -0.36357E-10         0.00000E+00
    0.34640E-07        -0.30044E-10         0.00000E+00
    0.34642E-07        -0.23251E-10         0.00000E+00
    0.34643E-07        -0.15975E-10         0.00000E+00
    0.34644E-07        -0.82125E-11         0.00000E+00
    0.34644E-07        -0.42087E-11         0.00000E+00
    0.36074E-07        -0.23209E-11         0.00000E+00
    0.36074E-07        -0.47155E-11         0.00000E+00
    0.36075E-07        -0.96008E-11         0.00000E+00
    0.36077E-07        -0.14660E-10         0.00000E+00
    0.36079E-07        -0.19857E-10         0.00000E+00
    0.36081E-07        -0.25158E-10         0.00000E+00
    0.36085E-07        -0.30528E-10         0.00000E+00
    0.36088E-07        -0.35935E-10         0.00000E+00
    0.36092E-07        -0.41350E-10         0.00000E+00
    0.36097E-07        -0.46742E-10         0.00000E+00
    0.36102E-07        -0.52083E-10         0.00000E+00
    0.36107E-07        -0.57345E-10         0.00000E+00
    0.36113E-07        -0.62503E-10         0.00000E+00
    0.36119E-07        -0.67531E-10         0.00000E+00
    0.36125E-07        -0.72404E-10         0.00000E+00
    0.36131E-07        -0.77100E-10         0.00000E+00
    0.36138E-07        -0.81596E-10         0.00000E+00
    0.36145E-07        -0.85871E-10         0.00000E+00
    0.36152E-07        -0.89903E-10         0.00000E+00
    0.36159E-07        -0.93673E-10         0.00000E+00
    0.36167E-07        -0.97160E-10         0.00000E+00
    0.36174E-07        -0.10035E-09         0.00000E+00
    0.36182E-07        -0.10322E-09         0.00000E+00
    0.36190E-07        -0.10575E-09         0.00000E+00
    0.36197E-07        -0.10793E-09         0.00000E+00
    0.36205E-07        -0.10975E-09         0.00000E+00
    0.36213E-07        -0.11118E-09         0.00000E+00
    0.36220E-07        -0.11221E-09         0.00000E+00
    0.36228E-07        -0.11283E-09         0.00000E+00
    0.36235E-07        -0.11303E-09         0.00000E+00
    0.36243E-07        -0.11279E-09         0.00000E+00
    0.36250E-07        -0.11209E-09         0.00000E+00
    0.36257E-07        -0.11093E-09         0.00000E+00
    0.36264E-07        -0.10930E-09         0.00000E+00
    0.36271E-07        -0.10718E-09         0.00000E+00
    0.36277E-07        -0.10456E-09         0.00000E+00
    0.36283E-07        -0.10144E-09         0.00000E+00
    0.36289E-07        -0.97799E-10         0.00000E+00
    0.36295E-07        -0.93632E-10         0.00000E+00
    0.36300E-07        -0.88932E-10         0.00000E+00
    0.36305E-07        -0.83688E-10         0.00000E+00
    0.36310E-07        -0.77895E-10         0.00000E+00
    0.36314E-07        -0.71544E-10         0.00000E+00
    0.36318E-07        -0.64628E-10         0.00000E+00
    0.36321E-07        -0.57141E-10         0.00000E+00
    0.36324E-07        -0.49079E-10         0.00000E+00
    0.36326E-07        -0.40434E-10         0.00000E+00
    0.36328E-07        -0.31203E-10         0.00000E+00
    0.36330E-07        -0.21381E-10         0.00000E+00
    0.36331E-07        -0.10964E-10         0.00000E+00
    0.36331E-07        -0.56070E-11         0.00000E+00
    0.37845E-07        -0.40508E-11         0.00000E+00
    0.37845E-07        -0.81200E-11         0.00000E+00
    0.37846E-07        -0.16272E-10         0.00000E+00
    0.37848E-07        -0.24436E-10         0.00000E+00
    0.37850E-07        -0.32575E-10         0.00000E+00
    0.37853E-07        -0.40658E-10         0.00000E+00
    0.37857E-07        -0.48652E-10         0.00000E+00
    0.37861E-07        -0.56529E-10         0.00000E+00
    0.37866E-07        -0.64258E-10         0.00000E+00
    0.37871E-07        -0.71813E-10         0.00000E+00
    0.37876E-07        -0.79167E-10         0.00000E+00
    0.37882E-07        -0.86293E-10         0.00000E+00
    0.37888E-07        -0.93169E-10         0.00000E+00
    0.37895E-07        -0.99770E-10         0.00000E+00
    0.37902E-07        -0.10607E-09         0.00000E+00
    0.37909E-07        -0.11206E-09         0.00000E+00
    0.37917E-07        -0.11771E-09         0.00000E+00
    0.37924E-07        -0.12299E-09         0.00000E+00
    0.37932E-07        -0.12790E-09         0.00000E+00
    0.37940E-07        -0.13241E-09         0.00000E+00
    0.37948E-07        -0.13650E-09         0.00000E+00
    0.37957E-07        -0.14017E-09         0.00000E+00
    0.37965E-07        -0.14338E-09         0.00000E+00
    0.37974E-07        -0.14613E-09         0.00000E+00
    0.37982E-07        -0.14840E-09         0.00000E+00
    0.37991E-07        -0.15017E-09         0.00000E+00
    0.37999E-07        -0.15144E-09         0.00000E+00
    0.38007E-07        -0.15218E-09         0.00000E+00
    0.38016E-07        -0.15239E-09         0.00000E+00
    0.38024E-07        -0.15204E-09         0.00000E+00
    0.38032E-07        -0.15114E-09         0.00000E+00
    0.38040E-07        -0.14966E-09         0.00000E+00
    0.38048E-07        -0.14759E-09         0.00000E+00
    0.38055E-07        -0.14493E-09         0.00000E+00
    0.38063E-07        -0.14167E-09         0.00000E+00
    0.38070E-07        -0.13778E-09         0.00000E+00
    0.38076E-07        -0.13327E-09         0.00000E+00
    0.38083E-07        -0.12813E-09         0.00000E+00
    0.38089E-07        -0.12234E-09         0.00000E+00
    0.38095E-07        -0.11589E-09         0.00000E+00
    0.38100E-07        -0.10879E-09         0.00000E+00
    0.38105E-07        -0.10102E-09         0.00000E+00
    0.38110E-07        -0.92566E-10         0.00000E+00
    0.38114E-07        -0.83434E-10         0.00000E+00
    0.38118E-07        -0.73614E-10         0.00000E+00
    0.38121E-07        -0.63099E-10         0.00000E+00
    0.38124E-07        -0.51884E-10         0.00000E+00
    0.38126E-07        -0.39965E-10         0.00000E+00
    0.38127E-07        -0.27337E-10         0.00000E+00
    0.38128E-07        -0.13996E-10         0.00000E+00
    0.38129E-07        -0.71475E-11         0.00000E+00
    0.39731E-07        -0.59894E-11         0.00000E+00
    0.39731E-07        -0.11932E-10         0.00000E+00
    0.39732E-07        -0.23733E-10         0.00000E+00
    0.39734E-07        -0.35353E-10         0.00000E+00
    0.39737E-07        -0.46759E-10         0.00000E+00
    0.39740E-07        -0.57924E-10         0.00000E+00
    0.39744E-07        -0.68817E-10         0.00000E+00
    0.39749E-07        -0.79412E-10         0.00000E+00
    0.39754E-07        -0.89683E-10         0.00000E+00
    0.39759E-07        -0.99606E-10         0.00000E+00
    0.39765E-07        -0.10916E-09         0.00000E+00
    0.39772E-07        -0.11831E-09         0.00000E+00
    0.39779E-07        -0.12705E-09         0.00000E+00
    0.39786E-07        -0.13536E-09         0.00000E+00
    0.39794E-07        -0.14320E-09         0.00000E+00
    0.39802E-07        -0.15057E-09         0.00000E+00
    0.39810E-07        -0.15745E-09         0.00000E+00
    0.39818E-07        -0.16381E-09         0.00000E+00
    0.39827E-07        -0.16964E-09         0.00000E+00
    0.39835E-07        -0.17493E-09         0.00000E+00
    0.39844E-07        -0.17966E-09         0.00000E+00
    0.39853E-07        -0.18381E-09         0.00000E+00
    0.39863E-07        -0.18737E-09         0.00000E+00
    0.39872E-07        -0.19033E-09         0.00000E+00
    0.39881E-07        -0.19266E-09         0.00000E+00
    0.39890E-07        -0.19436E-09         0.00000E+00
    0.39899E-07        -0.19542E-09         0.00000E+00
    0.39908E-07        -0.19582E-09         0.00000E+00
    0.39917E-07        -0.19555E-09         0.00000E+00
    0.39926E-07        -0.19460E-09         0.00000E+00
    0.39935E-07        -0.19295E-09         0.00000E+00
    0.39944E-07        -0.19060E-09         0.00000E+00
    0.39952E-07        -0.18753E-09         0.00000E+00
    0.39960E-07        -0.18374E-09         0.00000E+00
    0.39968E-07        -0.17921E-09         0.00000E+00
    0.39976E-07        -0.17394E-09         0.00000E+00
    0.39983E-07        -0.16791E-09         0.00000E+00
    0.39990E-07        -0.16112E-09         0.00000E+00
    0.39997E-07        -0.15356E-09         0.00000E+00
    0.40003E-07        -0.14521E-09         0.00000E+00
    0.40009E-07        -0.13608E-09         0.00000E+00
    0.40014E-07        -0.12615E-09         0.00000E+00
    0.40019E-07        -0.11542E-09         0.00000E+00
    0.40024E-07        -0.10388E-09         0.00000E+00
    0.40028E-07        -0.91517E-10         0.00000E+00
    0.40031E-07        -0.78337E-10         0.00000E+00
    0.40034E-07        -0.64329E-10         0.00000E+00
    0.40036E-07        -0.49489E-10         0.00000E+00
    0.40038E-07        -0.33811E-10         0.00000E+00
    0.40039E-07        -0.17292E-10         0.00000E+00
    0.40039E-07        -0.88224E-11         0.00000E+00
    0.41735E-07        -0.81241E-11         0.00000E+00
    0.41735E-07        -0.16125E-10         0.00000E+00
    0.41737E-07        -0.31932E-10         0.00000E+00
    0.41739E-07        -0.47335E-10         0.00000E+00
    0.41742E-07        -0.62309E-10         0.00000E+00
    0.41745E-07        -0.76827E-10         0.00000E+00
    0.41749E-07        -0.90866E-10         0.00000E+00
    0.41754E-07        -0.10440E-09         0.00000E+00
    0.41760E-07        -0.11742E-09         0.00000E+00
    0.41766E-07        -0.12989E-09         0.00000E+00
    0.41772E-07        -0.14180E-09         0.00000E+00
    0.41779E-07        -0.15313E-09         0.00000E+00
    0.41787E-07        -0.16386E-09         0.00000E+00
    0.41794E-07        -0.17397E-09         0.00000E+00
    0.41803E-07        -0.18345E-09         0.00000E+00
    0.41811E-07        -0.19228E-09         0.00000E+00
    0.41820E-07        -0.20045E-09         0.00000E+00
    0.41829E-07        -0.20794E-09         0.00000E+00
    0.41838E-07        -0.21474E-09         0.00000E+00
    0.41847E-07        -0.22084E-09         0.00000E+00
    0.41857E-07        -0.22621E-09         0.00000E+00
    0.41867E-07        -0.23086E-09         0.00000E+00
    0.41876E-07        -0.23476E-09         0.00000E+00
    0.41886E-07        -0.23790E-09         0.00000E+00
    0.41896E-07        -0.24028E-09         0.00000E+00
    0.41906E-07        -0.24188E-09         0.00000E+00
    0.41915E-07        -0.24269E-09         0.00000E+00
    0.41925E-07        -0.24270E-09         0.00000E+00
    0.41935E-07        -0.24189E-09         0.00000E+00
    0.41944E-07        -0.24026E-09         0.00000E+00
    0.41954E-07        -0.23780E-09         0.00000E+00
    0.41963E-07        -0.23450E-09         0.00000E+00
    0.41972E-07        -0.23035E-09         0.00000E+00
    0.41980E-07        -0.22533E-09         0.00000E+00
    0.41989E-07        -0.21944E-09         0.00000E+00
    0.41997E-07        -0.21267E-09         0.00000E+00
    0.42005E-07        -0.20501E-09         0.00000E+00
    0.42012E-07        -0.19645E-09         0.00000E+00
    0.42019E-07        -0.18699E-09         0.00000E+00
    0.42026E-07        -0.17660E-09         0.00000E+00
    0.42032E-07        -0.16530E-09         0.00000E+00
    0.42038E-07        -0.15306E-09         0.00000E+00
    0.42043E-07        -0.13989E-09         0.00000E+00
    0.42048E-07        -0.12577E-09         0.00000E+00
    0.42052E-07        -0.11069E-09         0.00000E+00
    0.42056E-07        -0.94659E-10         0.00000E+00
    0.42059E-07        -0.77661E-10         0.00000E+00
    0.42061E-07        -0.59693E-10         0.00000E+00
    0.42063E-07        -0.40749E-10         0.00000E+00
    0.42064E-07        -0.20826E-10         0.00000E+00
    0.42064E-07        -0.10618E-10         0.00000E+00
    0.43859E-07        -0.10433E-10         0.00000E+00
    0.43859E-07        -0.20657E-10         0.00000E+00
    0.43860E-07        -0.40782E-10         0.00000E+00
    0.43863E-07        -0.60253E-10         0.00000E+00
    0.43866E-07        -0.79050E-10         0.00000E+00
    0.43870E-07        -0.97155E-10         0.00000E+00
    0.43874E-07        -0.11455E-09         0.00000E+00
    0.43879E-07        -0.13122E-09         0.00000E+00
    0.43885E-07        -0.14714E-09         0.00000E+00
    0.43892E-07        -0.16231E-09         0.00000E+00
    0.43898E-07        -0.17670E-09         0.00000E+00
    0.43906E-07        -0.19032E-09         0.00000E+00
    0.43914E-07        -0.20313E-09         0.00000E+00
    0.43922E-07        -0.21513E-09         0.00000E+00
    0.43931E-07        -0.22631E-09         0.00000E+00
    0.43939E-07        -0.23666E-09         0.00000E+00
    0.43949E-07        -0.24617E-09         0.00000E+00
    0.43958E-07        -0.25482E-09         0.00000E+00
    0.43968E-07        -0.26260E-09         0.00000E+00
    0.43978E-07        -0.26952E-09         0.00000E+00
    0.43988E-07        -0.27554E-09         0.00000E+00
    0.43998E-07        -0.28067E-09         0.00000E+00
    0.44008E-07        -0.28490E-09         0.00000E+00
    0.44018E-07        -0.28822E-09         0.00000E+00
    0.44028E-07        -0.29061E-09         0.00000E+00
    0.44039E-07        -0.29207E-09         0.00000E+00
    0.44049E-07        -0.29259E-09         0.00000E+00
    0.44059E-07        -0.29216E-09         0.00000E+00
    0.44069E-07        -0.29078E-09         0.00000E+00
    0.44079E-07        -0.28842E-09         0.00000E+00
    0.44089E-07        -0.28509E-09         0.00000E+00
    0.44098E-07        -0.28077E-09         0.00000E+00
    0.44107E-07        -0.27546E-09         0.00000E+00
    0.44116E-07        -0.26914E-09         0.00000E+00
    0.44125E-07        -0.26181E-09         0.00000E+00
    0.44134E-07        -0.25346E-09         0.00000E+00
    0.44142E-07        -0.24408E-09         0.00000E+00
    0.44150E-07        -0.23366E-09         0.00000E+00
    0.44157E-07        -0.22219E-09         0.00000E+00
    0.44164E-07        -0.20966E-09         0.00000E+00
    0.44170E-07        -0.19607E-09         0.00000E+00
    0.44176E-07        -0.18141E-09         0.00000E+00
    0.44182E-07        -0.16566E-09         0.00000E+00
    0.44187E-07        -0.14883E-09         0.00000E+00
    0.44191E-07        -0.13090E-09         0.00000E+00
    0.44195E-07        -0.11187E-09         0.00000E+00
    0.44198E-07        -0.91720E-10         0.00000E+00
    0.44201E-07        -0.70457E-10         0.00000E+00
    0.44203E-07        -0.48071E-10         0.00000E+00
    0.44204E-07        -0.24555E-10         0.00000E+00
    0.44204E-07        -0.12514E-10         0.00000E+00
    0.46104E-07        -0.12883E-10         0.00000E+00
    0.46104E-07        -0.25461E-10         0.00000E+00
    0.46106E-07        -0.50154E-10         0.00000E+00
    0.46108E-07        -0.73915E-10         0.00000E+00
    0.46111E-07        -0.96734E-10         0.00000E+00
    0.46115E-07        -0.11860E-09         0.00000E+00
    0.46120E-07        -0.13950E-09         0.00000E+00
    0.46125E-07        -0.15943E-09         0.00000E+00
    0.46131E-07        -0.17838E-09         0.00000E+00
    0.46138E-07        -0.19634E-09         0.00000E+00
    0.46145E-07        -0.21330E-09         0.00000E+00
    0.46153E-07        -0.22927E-09         0.00000E+00
    0.46161E-07        -0.24422E-09         0.00000E+00
    0.46169E-07        -0.25816E-09         0.00000E+00
    0.46178E-07        -0.27107E-09         0.00000E+00
    0.46188E-07        -0.28296E-09         0.00000E+00
    0.46197E-07        -0.29381E-09         0.00000E+00
    0.46207E-07        -0.30363E-09         0.00000E+00
    0.46217E-07        -0.31240E-09         0.00000E+00
    0.46227E-07        -0.32012E-09         0.00000E+00
    0.46237E-07        -0.32678E-09         0.00000E+00
    0.46248E-07        -0.33239E-09         0.00000E+00
    0.46258E-07        -0.33692E-09         0.00000E+00
    0.46268E-07        -0.34038E-09         0.00000E+00
    0.46279E-07        -0.34276E-09         0.00000E+00
    0.46289E-07        -0.34405E-09         0.00000E+00
    0.46300E-07        -0.34425E-09         0.00000E+00
    0.46310E-07        -0.34334E-09         0.00000E+00
    0.46320E-07        -0.34133E-09         0.00000E+00
    0.46331E-07        -0.33821E-09         0.00000E+00
    0.46340E-07        -0.33396E-09         0.00000E+00
    0.46350E-07        -0.32858E-09         0.00000E+00
    0.46360E-07        -0.32206E-09         0.00000E+00
    0.46369E-07        -0.31440E-09         0.00000E+00
    0.46378E-07        -0.30557E-09         0.00000E+00
    0.46387E-07        -0.29559E-09         0.00000E+00
    0.46395E-07        -0.28443E-09         0.00000E+00
    0.46403E-07        -0.27209E-09         0.00000E+00
    0.46410E-07        -0.25856E-09         0.00000E+00
    0.46417E-07        -0.24382E-09         0.00000E+00
    0.46424E-07        -0.22788E-09         0.00000E+00
    0.46430E-07        -0.21071E-09         0.00000E+00
    0.46436E-07        -0.19232E-09         0.00000E+00
    0.46441E-07        -0.17269E-09         0.00000E+00
    0.46445E-07        -0.15181E-09         0.00000E+00
    0.46449E-07        -0.12968E-09         0.00000E+00
    0.46453E-07        -0.10628E-09         0.00000E+00
    0.46455E-07        -0.81615E-10         0.00000E+00
    0.46457E-07        -0.55664E-10         0.00000E+00
    0.46458E-07        -0.28426E-10         0.00000E+00
    0.46459E-07        -0.14483E-10         0.00000E+00
    0.48470E-07        -0.15429E-10         0.00000E+00
    0.48471E-07        -0.30449E-10         0.00000E+00
    0.48472E-07        -0.59872E-10         0.00000E+00
    0.48475E-07        -0.88063E-10         0.00000E+00
    0.48478E-07        -0.11502E-09         0.00000E+00
    0.48482E-07        -0.14074E-09         0.00000E+00
    0.48487E-07        -0.16523E-09         0.00000E+00
    0.48492E-07        -0.18849E-09         0.00000E+00
    0.48499E-07        -0.21051E-09         0.00000E+00
    0.48505E-07        -0.23130E-09         0.00000E+00
    0.48513E-07        -0.25086E-09         0.00000E+00
    0.48520E-07        -0.26918E-09         0.00000E+00
    0.48529E-07        -0.28628E-09         0.00000E+00
    0.48537E-07        -0.30215E-09         0.00000E+00
    0.48546E-07        -0.31678E-09         0.00000E+00
    0.48555E-07        -0.33019E-09         0.00000E+00
    0.48565E-07        -0.34237E-09         0.00000E+00
    0.48575E-07        -0.35333E-09         0.00000E+00
    0.48585E-07        -0.36305E-09         0.00000E+00
    0.48595E-07        -0.37155E-09         0.00000E+00
    0.48605E-07        -0.37881E-09         0.00000E+00
    0.48616E-07        -0.38485E-09         0.00000E+00
    0.48626E-07        -0.38965E-09         0.00000E+00
    0.48637E-07        -0.39322E-09         0.00000E+00
    0.48647E-07        -0.39555E-09         0.00000E+00
    0.48658E-07        -0.39664E-09         0.00000E+00
    0.48668E-07        -0.39648E-09         0.00000E+00
    0.48678E-07        -0.39508E-09         0.00000E+00
    0.48688E-07        -0.39242E-09         0.00000E+00
    0.48698E-07        -0.38849E-09         0.00000E+00
    0.48708E-07        -0.38331E-09         0.00000E+00
    0.48718E-07        -0.37685E-09         0.00000E+00
    0.48727E-07        -0.36910E-09         0.00000E+00
    0.48737E-07        -0.36007E-09         0.00000E+00
    0.48746E-07        -0.34975E-09         0.00000E+00
    0.48754E-07        -0.33811E-09         0.00000E+00
    0.48762E-07        -0.32517E-09         0.00000E+00
    0.48770E-07        -0.31089E-09         0.00000E+00
    0.48778E-07        -0.29529E-09         0.00000E+00
    0.48785E-07        -0.27833E-09         0.00000E+00
    0.48791E-07        -0.26002E-09         0.00000E+00
    0.48798E-07        -0.24035E-09         0.00000E+00
    0.48803E-07        -0.21929E-09         0.00000E+00
    0.48808E-07        -0.19685E-09         0.00000E+00
    0.48813E-07        -0.17300E-09         0.00000E+00
    0.48817E-07        -0.14774E-09         0.00000E+00
    0.48820E-07        -0.12106E-09         0.00000E+00
    0.48823E-07        -0.92943E-10         0.00000E+00
    0.48825E-07        -0.63381E-10         0.00000E+00
    0.48826E-07        -0.32362E-10         0.00000E+00
    0.48826E-07        -0.16487E-10         0.00000E+00
    0.50958E-07        -0.18014E-10         0.00000E+00
    0.50959E-07        -0.35506E-10         0.00000E+00
    0.50960E-07        -0.69712E-10         0.00000E+00
    0.50963E-07        -0.10237E-09         0.00000E+00
    0.50966E-07        -0.13348E-09         0.00000E+00
    0.50970E-07        -0.16307E-09         0.00000E+00
    0.50975E-07        -0.19113E-09         0.00000E+00
    0.50980E-07        -0.21769E-09         0.00000E+00
    0.50986E-07        -0.24275E-09         0.00000E+00
    0.50993E-07        -0.26633E-09         0.00000E+00
    0.51000E-07        -0.28843E-09         0.00000E+00
    0.51008E-07        -0.30907E-09         0.00000E+00
    0.51016E-07        -0.32824E-09         0.00000E+00
    0.51024E-07        -0.34597E-09         0.00000E+00
    0.51033E-07        -0.36227E-09         0.00000E+00
    0.51042E-07        -0.37713E-09         0.00000E+00
    0.51051E-07        -0.39056E-09         0.00000E+00
    0.51061E-07        -0.40259E-09         0.00000E+00
    0.51071E-07        -0.41320E-09         0.00000E+00
    0.51081E-07        -0.42241E-09         0.00000E+00
    0.51091E-07        -0.43021E-09         0.00000E+00
    0.51101E-07        -0.43663E-09         0.00000E+00
    0.51111E-07        -0.44165E-09         0.00000E+00
    0.51121E-07        -0.44527E-09         0.00000E+00
    0.51131E-07        -0.44751E-09         0.00000E+00
    0.51141E-07        -0.44836E-09         0.00000E+00
    0.51151E-07        -0.44782E-09         0.00000E+00
    0.51161E-07        -0.44589E-09         0.00000E+00
    0.51171E-07        -0.44256E-09         0.00000E+00
    0.51181E-07        -0.43784E-09         0.00000E+00
    0.51190E-07        -0.43172E-09         0.00000E+00
    0.51200E-07        -0.42418E-09         0.00000E+00
    0.51209E-07        -0.41523E-09         0.00000E+00
    0.51218E-07        -0.40486E-09         0.00000E+00
    0.51226E-07        -0.39306E-09         0.00000E+00
    0.51234E-07        -0.37982E-09         0.00000E+00
    0.51242E-07        -0.36513E-09         0.00000E+00
    0.51250E-07        -0.34897E-09         0.00000E+00
    0.51257E-07        -0.33135E-09         0.00000E+00
    0.51264E-07        -0.31223E-09         0.00000E+00
    0.51270E-07        -0.29162E-09         0.00000E+00
    0.51276E-07        -0.26949E-09         0.00000E+00
    0.51282E-07        -0.24584E-09         0.00000E+00
    0.51287E-07        -0.22065E-09         0.00000E+00
    0.51291E-07        -0.19390E-09         0.00000E+00
    0.51295E-07        -0.16557E-09         0.00000E+00
    0.51298E-07        -0.13567E-09         0.00000E+00
    0.51300E-07        -0.10415E-09         0.00000E+00
    0.51302E-07        -0.71027E-10         0.00000E+00
    0.51303E-07        -0.36267E-10         0.00000E+00
    0.51304E-07        -0.18478E-10         0.00000E+00
    0.53565E-07        -0.20565E-10         0.00000E+00
    0.53566E-07        -0.40493E-10         0.00000E+00
    0.53567E-07        -0.79401E-10         0.00000E+00
    0.53570E-07        -0.11643E-09         0.00000E+00
    0.53573E-07        -0.15160E-09         0.00000E+00
    0.53577E-07        -0.18493E-09         0.00000E+00
    0.53581E-07        -0.21645E-09         0.00000E+00
    0.53587E-07        -0.24619E-09         0.00000E+00
    0.53592E-07        -0.27416E-09         0.00000E+00
    0.53599E-07        -0.30039E-09         0.00000E+00
    0.53606E-07        -0.32490E-09         0.00000E+00
    0.53613E-07        -0.34770E-09         0.00000E+00
    0.53621E-07        -0.36882E-09         0.00000E+00
    0.53629E-07        -0.38828E-09         0.00000E+00
    0.53637E-07        -0.40609E-09         0.00000E+00
    0.53645E-07        -0.42227E-09         0.00000E+00
    0.53654E-07        -0.43684E-09         0.00000E+00
    0.53663E-07        -0.44981E-09         0.00000E+00
    0.53672E-07        -0.46120E-09         0.00000E+00
    0.53682E-07        -0.47101E-09         0.00000E+00
    0.53691E-07        -0.47926E-09         0.00000E+00
    0.53700E-07        -0.48596E-09         0.00000E+00
    0.53710E-07        -0.49111E-09         0.00000E+00
    0.53719E-07        -0.49473E-09         0.00000E+00
    0.53729E-07        -0.49682E-09         0.00000E+00
    0.53738E-07        -0.49739E-09         0.00000E+00
    0.53747E-07        -0.49644E-09         0.00000E+00
    0.53756E-07        -0.49396E-09         0.00000E+00
    0.53765E-07        -0.48997E-09         0.00000E+00
    0.53774E-07        -0.48446E-09         0.00000E+00
    0.53783E-07        -0.47742E-09         0.00000E+00
    0.53792E-07        -0.46886E-09         0.00000E+00
    0.53800E-07        -0.45876E-09         0.00000E+00
    0.53808E-07        -0.44712E-09         0.00000E+00
    0.53816E-07        -0.43392E-09         0.00000E+00
    0.53824E-07        -0.41917E-09         0.00000E+00
    0.53831E-07        -0.40285E-09         0.00000E+00
    0.53838E-07        -0.38493E-09         0.00000E+00
    0.53844E-07        -0.36542E-09         0.00000E+00
    0.53851E-07        -0.34429E-09         0.00000E+00
    0.53857E-07        -0.32153E-09         0.00000E+00
    0.53862E-07        -0.29712E-09         0.00000E+00
    0.53867E-07        -0.27103E-09         0.00000E+00
    0.53872E-07        -0.24326E-09         0.00000E+00
    0.53876E-07        -0.21378E-09         0.00000E+00
    0.53879E-07        -0.18257E-09         0.00000E+00
    0.53882E-07        -0.14961E-09         0.00000E+00
    0.53885E-07        -0.11488E-09         0.00000E+00
    0.53886E-07        -0.78355E-10         0.00000E+00
    0.53887E-07        -0.40017E-10         0.00000E+00
    0.53888E-07        -0.20393E-10         0.00000E+00
    0.56289E-07        -0.23004E-10         0.00000E+00
    0.56289E-07        -0.45252E-10         0.00000E+00
    0.56290E-07        -0.88629E-10         0.00000E+00
    0.56293E-07        -0.12979E-09         0.00000E+00
    0.56296E-07        -0.16877E-09         0.00000E+00
    0.56299E-07        -0.20561E-09         0.00000E+00
    0.56303E-07        -0.24035E-09         0.00000E+00
    0.56308E-07        -0.27302E-09         0.00000E+00
    0.56314E-07        -0.30366E-09         0.00000E+00
    0.56319E-07        -0.33230E-09         0.00000E+00
    0.56326E-07        -0.35897E-09         0.00000E+00
    0.56332E-07        -0.38371E-09         0.00000E+00
    0.56339E-07        -0.40654E-09         0.00000E+00
    0.56347E-07        -0.42750E-09         0.00000E+00
    0.56354E-07        -0.44661E-09         0.00000E+00
    0.56362E-07        -0.46391E-09         0.00000E+00
    0.56370E-07        -0.47940E-09         0.00000E+00
    0.56378E-07        -0.49313E-09         0.00000E+00
    0.56386E-07        -0.50511E-09         0.00000E+00
    0.56394E-07        -0.51536E-09         0.00000E+00
    0.56402E-07        -0.52390E-09         0.00000E+00
    0.56410E-07        -0.53075E-09         0.00000E+00
    0.56419E-07        -0.53592E-09         0.00000E+00
    0.56427E-07        -0.53944E-09         0.00000E+00
    0.56435E-07        -0.54130E-09         0.00000E+00
    0.56443E-07        -0.54153E-09         0.00000E+00
    0.56451E-07        -0.54012E-09         0.00000E+00
    0.56459E-07        -0.53709E-09         0.00000E+00
    0.56467E-07        -0.53243E-09         0.00000E+00
    0.56475E-07        -0.52615E-09         0.00000E+00
    0.56482E-07        -0.51826E-09         0.00000E+00
    0.56489E-07        -0.50873E-09         0.00000E+00
    0.56497E-07        -0.49758E-09         0.00000E+00
    0.56504E-07        -0.48479E-09         0.00000E+00
    0.56510E-07        -0.47035E-09         0.00000E+00
    0.56517E-07        -0.45426E-09         0.00000E+00
    0.56523E-07        -0.43649E-09         0.00000E+00
    0.56529E-07        -0.41703E-09         0.00000E+00
    0.56535E-07        -0.39586E-09         0.00000E+00
    0.56540E-07        -0.37297E-09         0.00000E+00
    0.56545E-07        -0.34832E-09         0.00000E+00
    0.56550E-07        -0.32190E-09         0.00000E+00
    0.56554E-07        -0.29368E-09         0.00000E+00
    0.56558E-07        -0.26364E-09         0.00000E+00
    0.56561E-07        -0.23174E-09         0.00000E+00
    0.56565E-07        -0.19797E-09         0.00000E+00
    0.56567E-07        -0.16228E-09         0.00000E+00
    0.56569E-07        -0.12465E-09         0.00000E+00
    0.56571E-07        -0.85053E-10         0.00000E+00
    0.56572E-07        -0.43455E-10         0.00000E+00
    0.56572E-07        -0.22153E-10         0.00000E+00
    0.59123E-07        -0.25241E-10         0.00000E+00
    0.59124E-07        -0.49610E-10         0.00000E+00
    0.59125E-07        -0.97059E-10         0.00000E+00
    0.59127E-07        -0.14196E-09         0.00000E+00
    0.59129E-07        -0.18437E-09         0.00000E+00
    0.59133E-07        -0.22433E-09         0.00000E+00
    0.59136E-07        -0.26190E-09         0.00000E+00
    0.59141E-07        -0.29713E-09         0.00000E+00
    0.59145E-07        -0.33006E-09         0.00000E+00
    0.59150E-07        -0.36075E-09         0.00000E+00
    0.59156E-07        -0.38923E-09         0.00000E+00
    0.59161E-07        -0.41555E-09         0.00000E+00
    0.59167E-07        -0.43976E-09         0.00000E+00
    0.59173E-07        -0.46189E-09         0.00000E+00
    0.59180E-07        -0.48199E-09         0.00000E+00
    0.59186E-07        -0.50008E-09         0.00000E+00
    0.59193E-07        -0.51622E-09         0.00000E+00
    0.59199E-07        -0.53043E-09         0.00000E+00
    0.59206E-07        -0.54274E-09         0.00000E+00
    0.59213E-07        -0.55319E-09         0.00000E+00
    0.59219E-07        -0.56180E-09         0.00000E+00
    0.59226E-07        -0.56860E-09         0.00000E+00
    0.59232E-07        -0.57362E-09         0.00000E+00
    0.59239E-07        -0.57688E-09         0.00000E+00
    0.59245E-07        -0.57839E-09         0.00000E+00
    0.59252E-07        -0.57817E-09         0.00000E+00
    0.59258E-07        -0.57625E-09         0.00000E+00
    0.59264E-07        -0.57262E-09         0.00000E+00
    0.59270E-07        -0.56729E-09         0.00000E+00
    0.59276E-07        -0.56029E-09         0.00000E+00
    0.59282E-07        -0.55159E-09         0.00000E+00
    0.59287E-07        -0.54121E-09         0.00000E+00
    0.59292E-07        -0.52914E-09         0.00000E+00
    0.59298E-07        -0.51537E-09         0.00000E+00
    0.59303E-07        -0.49989E-09         0.00000E+00
    0.59307E-07        -0.48270E-09         0.00000E+00
    0.59312E-07        -0.46376E-09         0.00000E+00
    0.59317E-07        -0.44306E-09         0.00000E+00
    0.59321E-07        -0.42059E-09         0.00000E+00
    0.59325E-07        -0.39630E-09         0.00000E+00
    0.59328E-07        -0.37017E-09         0.00000E+00
    0.59332E-07        -0.34217E-09         0.00000E+00
    0.59335E-07        -0.31227E-09         0.00000E+00
    0.59338E-07        -0.28043E-09         0.00000E+00
    0.59341E-07        -0.24661E-09         0.00000E+00
    0.59343E-07        -0.21077E-09         0.00000E+00
    0.59345E-07        -0.17287E-09         0.00000E+00
    0.59347E-07        -0.13287E-09         0.00000E+00
    0.59348E-07        -0.90716E-10         0.00000E+00
    0.59349E-07        -0.46379E-10         0.00000E+00
    0.59349E-07        -0.23658E-10         0.00000E+00
    0.62063E-07        -0.27191E-10         0.00000E+00
    0.62063E-07        -0.53396E-10         0.00000E+00
    0.62064E-07        -0.10435E-09         0.00000E+00
    0.62066E-07        -0.15245E-09         0.00000E+00
    0.62068E-07        -0.19773E-09         0.00000E+00
    0.62070E-07        -0.24029E-09         0.00000E+00
    0.62073E-07        -0.28017E-09         0.00000E+00
    0.62077E-07        -0.31744E-09         0.00000E+00
    0.62081E-07        -0.35217E-09         0.00000E+00
    0.62085E-07        -0.38441E-09         0.00000E+00
    0.62089E-07        -0.41422E-09         0.00000E+00
    0.62093E-07        -0.44165E-09         0.00000E+00
    0.62098E-07        -0.46677E-09         0.00000E+00
    0.62103E-07        -0.48963E-09         0.00000E+00
    0.62107E-07        -0.51027E-09         0.00000E+00
    0.62112E-07        -0.52876E-09         0.00000E+00
    0.62117E-07        -0.54513E-09         0.00000E+00
    0.62122E-07        -0.55943E-09         0.00000E+00
    0.62126E-07        -0.57172E-09         0.00000E+00
    0.62131E-07        -0.58202E-09         0.00000E+00
    0.62136E-07        -0.59039E-09         0.00000E+00
    0.62140E-07        -0.59685E-09         0.00000E+00
    0.62144E-07        -0.60145E-09         0.00000E+00
    0.62149E-07        -0.60422E-09         0.00000E+00
    0.62153E-07        -0.60518E-09         0.00000E+00
    0.62157E-07        -0.60436E-09         0.00000E+00
    0.62160E-07        -0.60179E-09         0.00000E+00
    0.62164E-07        -0.59748E-09         0.00000E+00
    0.62167E-07        -0.59145E-09         0.00000E+00
    0.62171E-07        -0.58371E-09         0.00000E+00
    0.62174E-07        -0.57427E-09         0.00000E+00
    0.62177E-07        -0.56314E-09         0.00000E+00
    0.62180E-07        -0.55030E-09         0.00000E+00
    0.62183E-07        -0.53576E-09         0.00000E+00
    0.62185E-07        -0.51951E-09         0.00000E+00
    0.62188E-07        -0.50152E-09         0.00000E+00
    0.62190E-07        -0.48178E-09         0.00000E+00
    0.62192E-07        -0.46027E-09         0.00000E+00
    0.62194E-07        -0.43695E-09         0.00000E+00
    0.62197E-07        -0.41179E-09         0.00000E+00
    0.62198E-07        -0.38475E-09         0.00000E+00
    0.62200E-07        -0.35578E-09         0.00000E+00
    0.62202E-07        -0.32485E-09         0.00000E+00
    0.62204E-07        -0.29189E-09         0.00000E+00
    0.62205E-07        -0.25686E-09         0.00000E+00
    0.62206E-07        -0.21970E-09         0.00000E+00
    0.62208E-07        -0.18035E-09         0.00000E+00
    0.62208E-07        -0.13874E-09         0.00000E+00
    0.62209E-07        -0.94823E-10         0.00000E+00
    0.62210E-07        -0.48526E-10         0.00000E+00
    0.62210E-07        -0.24776E-10         0.00000E+00
    0.65098E-07        -0.28774E-10         0.00000E+00
    0.65099E-07        -0.56456E-10         0.00000E+00
    0.65099E-07        -0.11021E-09         0.00000E+00
    0.65101E-07        -0.16080E-09         0.00000E+00
    0.65102E-07        -0.20829E-09         0.00000E+00
    0.65104E-07        -0.25276E-09         0.00000E+00
    0.65106E-07        -0.29429E-09         0.00000E+00
    0.65109E-07        -0.33296E-09         0.00000E+00
    0.65111E-07        -0.36885E-09         0.00000E+00
    0.65114E-07        -0.40201E-09         0.00000E+00
    0.65117E-07        -0.43253E-09         0.00000E+00
    0.65120E-07        -0.46048E-09         0.00000E+00
    0.65123E-07        -0.48591E-09         0.00000E+00
    0.65126E-07        -0.50892E-09         0.00000E+00
    0.65129E-07        -0.52954E-09         0.00000E+00
    0.65131E-07        -0.54786E-09         0.00000E+00
    0.65134E-07        -0.56394E-09         0.00000E+00
    0.65136E-07        -0.57782E-09         0.00000E+00
    0.65139E-07        -0.58958E-09         0.00000E+00
    0.65141E-07        -0.59928E-09         0.00000E+00
    0.65143E-07        -0.60695E-09         0.00000E+00
    0.65145E-07        -0.61266E-09         0.00000E+00
    0.65146E-07        -0.61645E-09         0.00000E+00
    0.65147E-07        -0.61838E-09         0.00000E+00
    0.65149E-07        -0.61848E-09         0.00000E+00
    0.65149E-07        -0.61679E-09         0.00000E+00
    0.65150E-07        -0.61334E-09         0.00000E+00
    0.65151E-07        -0.60818E-09         0.00000E+00
    0.65151E-07        -0.60132E-09         0.00000E+00
    0.65151E-07        -0.59279E-09         0.00000E+00
    0.65151E-07        -0.58260E-09         0.00000E+00
    0.65150E-07        -0.57077E-09         0.00000E+00
    0.65150E-07        -0.55730E-09         0.00000E+00
    0.65150E-07        -0.54219E-09         0.00000E+00
    0.65149E-07        -0.52544E-09         0.00000E+00
    0.65148E-07        -0.50702E-09         0.00000E+00
    0.65148E-07        -0.48691E-09         0.00000E+00
    0.65147E-07        -0.46510E-09         0.00000E+00
    0.65146E-07        -0.44154E-09         0.00000E+00
    0.65145E-07        -0.41618E-09         0.00000E+00
    0.65145E-07        -0.38898E-09         0.00000E+00
    0.65144E-07        -0.35987E-09         0.00000E+00
    0.65144E-07        -0.32880E-09         0.00000E+00
    0.65143E-07        -0.29569E-09         0.00000E+00
    0.65143E-07        -0.26046E-09         0.00000E+00
    0.65143E-07        -0.22303E-09         0.00000E+00
    0.65143E-07        -0.18331E-09         0.00000E+00
    0.65143E-07        -0.14122E-09         0.00000E+00
    0.65143E-07        -0.96659E-10         0.00000E+00
    0.65143E-07        -0.49543E-10         0.00000E+00
    0.65143E-07        -0.25334E-10         0.00000E+00
    0.68220E-07        -0.29931E-10         0.00000E+00
    0.68220E-07        -0.58671E-10         0.00000E+00
    0.68220E-07        -0.11440E-09         0.00000E+00
    0.68221E-07        -0.16666E-09         0.00000E+00
    0.68222E-07        -0.21555E-09         0.00000E+00
    0.68223E-07        -0.26115E-09         0.00000E+00
    0.68225E-07        -0.30356E-09         0.00000E+00
    0.68226E-07        -0.34286E-09         0.00000E+00
    0.68227E-07        -0.37913E-09         0.00000E+00
    0.68229E-07        -0.41247E-09         0.00000E+00
    0.68230E-07        -0.44296E-09         0.00000E+00
    0.68231E-07        -0.47068E-09         0.00000E+00
    0.68232E-07        -0.49572E-09         0.00000E+00
    0.68233E-07        -0.51815E-09         0.00000E+00
    0.68234E-07        -0.53806E-09         0.00000E+00
    0.68234E-07        -0.55553E-09         0.00000E+00
    0.68234E-07        -0.57063E-09         0.00000E+00
    0.68234E-07        -0.58345E-09         0.00000E+00
    0.68233E-07        -0.59405E-09         0.00000E+00
    0.68233E-07        -0.60250E-09         0.00000E+00
    0.68231E-07        -0.60889E-09         0.00000E+00
    0.68230E-07        -0.61327E-09         0.00000E+00
    0.68228E-07        -0.61571E-09         0.00000E+00
    0.68226E-07        -0.61628E-09         0.00000E+00
    0.68224E-07        -0.61504E-09         0.00000E+00
    0.68221E-07        -0.61203E-09         0.00000E+00
    0.68218E-07        -0.60733E-09         0.00000E+00
    0.68214E-07        -0.60096E-09         0.00000E+00
    0.68210E-07        -0.59299E-09         0.00000E+00
    0.68206E-07        -0.58345E-09         0.00000E+00
    0.68202E-07        -0.57236E-09         0.00000E+00
    0.68198E-07        -0.55977E-09         0.00000E+00
    0.68193E-07        -0.54568E-09         0.00000E+00
    0.68188E-07        -0.53012E-09         0.00000E+00
    0.68184E-07        -0.51308E-09         0.00000E+00
    0.68179E-07        -0.49455E-09         0.00000E+00
    0.68174E-07        -0.47453E-09         0.00000E+00
    0.68169E-07        -0.45298E-09         0.00000E+00
    0.68164E-07        -0.42986E-09         0.00000E+00
    0.68160E-07        -0.40513E-09         0.00000E+00
    0.68156E-07        -0.37872E-09         0.00000E+00
    0.68152E-07        -0.35054E-09         0.00000E+00
    0.68148E-07        -0.32052E-09         0.00000E+00
    0.68145E-07        -0.28855E-09         0.00000E+00
    0.68142E-07        -0.25451E-09         0.00000E+00
    0.68140E-07        -0.21829E-09         0.00000E+00
    0.68138E-07        -0.17977E-09         0.00000E+00
    0.68136E-07        -0.13880E-09         0.00000E+00
    0.68135E-07        -0.95235E-10         0.00000E+00
    0.68135E-07        -0.48925E-10         0.00000E+00
    0.68135E-07        -0.25065E-10         0.00000E+00
    0.71414E-07        -0.30631E-10         0.00000E+00
    0.71414E-07        -0.59973E-10         0.00000E+00
    0.71414E-07        -0.11676E-09         0.00000E+00
    0.71414E-07        -0.16981E-09         0.00000E+00
    0.71415E-07        -0.21921E-09         0.00000E+00
    0.71415E-07        -0.26506E-09         0.00000E+00
    0.71415E-07        -0.30747E-09         0.00000E+00
    0.71416E-07        -0.34653E-09         0.00000E+00
    0.71416E-07        -0.38234E-09         0.00000E+00
    0.71415E-07        -0.41500E-09         0.00000E+00
    0.71415E-07        -0.44461E-09         0.00000E+00
    0.71414E-07        -0.47127E-09         0.00000E+00
    0.71413E-07        -0.49507E-09         0.00000E+00
    0.71412E-07        -0.51611E-09         0.00000E+00
    0.71410E-07        -0.53449E-09         0.00000E+00
    0.71408E-07        -0.55029E-09         0.00000E+00
    0.71405E-07        -0.56363E-09         0.00000E+00
    0.71402E-07        -0.57457E-09         0.00000E+00
    0.71398E-07        -0.58323E-09         0.00000E+00
    0.71394E-07        -0.58968E-09         0.00000E+00
    0.71390E-07        -0.59402E-09         0.00000E+00
    0.71385E-07        -0.59634E-09         0.00000E+00
    0.71379E-07        -0.59671E-09         0.00000E+00
    0.71373E-07        -0.59522E-09         0.00000E+00
    0.71367E-07        -0.59195E-09         0.00000E+00
    0.71360E-07        -0.58699E-09         0.00000E+00
    0.71352E-07        -0.58039E-09         0.00000E+00
    0.71344E-07        -0.57225E-09         0.00000E+00
    0.71336E-07        -0.56262E-09         0.00000E+00
    0.71327E-07        -0.55158E-09         0.00000E+00
    0.71318E-07        -0.53918E-09         0.00000E+00
    0.71309E-07        -0.52547E-09         0.00000E+00
    0.71299E-07        -0.51052E-09         0.00000E+00
    0.71289E-07        -0.49434E-09         0.00000E+00
    0.71279E-07        -0.47699E-09         0.00000E+00
    0.71269E-07        -0.45847E-09         0.00000E+00
    0.71258E-07        -0.43879E-09         0.00000E+00
    0.71248E-07        -0.41796E-09         0.00000E+00
    0.71238E-07        -0.39593E-09         0.00000E+00
    0.71229E-07        -0.37266E-09         0.00000E+00
    0.71219E-07        -0.34809E-09         0.00000E+00
    0.71211E-07        -0.32213E-09         0.00000E+00
    0.71202E-07        -0.29467E-09         0.00000E+00
    0.71195E-07        -0.26556E-09         0.00000E+00
    0.71188E-07        -0.23465E-09         0.00000E+00
    0.71183E-07        -0.20174E-09         0.00000E+00
    0.71178E-07        -0.16661E-09         0.00000E+00
    0.71175E-07        -0.12905E-09         0.00000E+00
    0.71172E-07        -0.88882E-10         0.00000E+00
    0.71171E-07        -0.45877E-10         0.00000E+00
    0.71170E-07        -0.23636E-10         0.00000E+00
    0.74665E-07        -0.30862E-10         0.00000E+00
    0.74665E-07        -0.60339E-10         0.00000E+00
    0.74665E-07        -0.11725E-09         0.00000E+00
    0.74665E-07        -0.17014E-09         0.00000E+00
    0.74664E-07        -0.21912E-09         0.00000E+00
    0.74664E-07        -0.26428E-09         0.00000E+00
    0.74663E-07        -0.30575E-09         0.00000E+00
    0.74662E-07        -0.34364E-09         0.00000E+00
    0.74661E-07        -0.37806E-09         0.00000E+00
    0.74659E-07        -0.40912E-09         0.00000E+00
    0.74657E-07        -0.43694E-09         0.00000E+00
    0.74654E-07        -0.46162E-09         0.00000E+00
    0.74651E-07        -0.48328E-09         0.00000E+00
    0.74647E-07        -0.50204E-09         0.00000E+00
    0.74642E-07        -0.51799E-09         0.00000E+00
    0.74638E-07        -0.53126E-09         0.00000E+00
    0.74632E-07        -0.54195E-09         0.00000E+00
    0.74626E-07        -0.55017E-09         0.00000E+00
    0.74619E-07        -0.55602E-09         0.00000E+00
    0.74612E-07        -0.55962E-09         0.00000E+00
    0.74604E-07        -0.56106E-09         0.00000E+00
    0.74595E-07        -0.56045E-09         0.00000E+00
    0.74585E-07        -0.55790E-09         0.00000E+00
    0.74575E-07        -0.55350E-09         0.00000E+00
    0.74565E-07        -0.54736E-09         0.00000E+00
    0.74553E-07        -0.53958E-09         0.00000E+00
    0.74541E-07        -0.53025E-09         0.00000E+00
    0.74529E-07        -0.51947E-09         0.00000E+00
    0.74515E-07        -0.50735E-09         0.00000E+00
    0.74501E-07        -0.49397E-09         0.00000E+00
    0.74487E-07        -0.47944E-09         0.00000E+00
    0.74472E-07        -0.46384E-09         0.00000E+00
    0.74457E-07        -0.44727E-09         0.00000E+00
    0.74441E-07        -0.42982E-09         0.00000E+00
    0.74424E-07        -0.41156E-09         0.00000E+00
    0.74408E-07        -0.39258E-09         0.00000E+00
    0.74391E-07        -0.37293E-09         0.00000E+00
    0.74374E-07        -0.35268E-09         0.00000E+00
    0.74358E-07        -0.33187E-09         0.00000E+00
    0.74341E-07        -0.31052E-09         0.00000E+00
    0.74325E-07        -0.28861E-09         0.00000E+00
    0.74309E-07        -0.26607E-09         0.00000E+00
    0.74294E-07        -0.24280E-09         0.00000E+00
    0.74281E-07        -0.21862E-09         0.00000E+00
    0.74268E-07        -0.19334E-09         0.00000E+00
    0.74257E-07        -0.16669E-09         0.00000E+00
    0.74248E-07        -0.13838E-09         0.00000E+00
    0.74240E-07        -0.10799E-09         0.00000E+00
    0.74235E-07        -0.75011E-10         0.00000E+00
    0.74232E-07        -0.38969E-10         0.00000E+00
    0.74231E-07        -0.20138E-10         0.00000E+00
    0.77954E-07        -0.30628E-10         0.00000E+00
    0.77954E-07        -0.59766E-10         0.00000E+00
    0.77954E-07        -0.11585E-09         0.00000E+00
    0.77953E-07        -0.16762E-09         0.00000E+00
    0.77952E-07        -0.21519E-09         0.00000E+00
    0.77951E-07        -0.25869E-09         0.00000E+00
    0.77949E-07        -0.29825E-09         0.00000E+00
    0.77947E-07        -0.33400E-09         0.00000E+00
    0.77944E-07        -0.36606E-09         0.00000E+00
    0.77940E-07        -0.39457E-09         0.00000E+00
    0.77936E-07        -0.41966E-09         0.00000E+00
    0.77931E-07        -0.44144E-09         0.00000E+00
    0.77926E-07        -0.46006E-09         0.00000E+00
    0.77920E-07        -0.47564E-09         0.00000E+00
    0.77913E-07        -0.48830E-09         0.00000E+00
    0.77905E-07        -0.49817E-09         0.00000E+00
    0.77897E-07        -0.50537E-09         0.00000E+00
    0.77888E-07        -0.51002E-09         0.00000E+00
    0.77878E-07        -0.51225E-09         0.00000E+00
    0.77867E-07        -0.51217E-09         0.00000E+00
    0.77855E-07        -0.50989E-09         0.00000E+00
    0.77843E-07        -0.50555E-09         0.00000E+00
    0.77830E-07        -0.49924E-09         0.00000E+00
    0.77816E-07        -0.49110E-09         0.00000E+00
    0.77801E-07        -0.48122E-09         0.00000E+00
    0.77786E-07        -0.46973E-09         0.00000E+00
    0.77769E-07        -0.45674E-09         0.00000E+00
    0.77752E-07        -0.44237E-09         0.00000E+00
    0.77734E-07        -0.42674E-09         0.00000E+00
    0.77715E-07        -0.40997E-09         0.00000E+00
    0.77696E-07        -0.39217E-09         0.00000E+00
    0.77676E-07        -0.37349E-09         0.00000E+00
    0.77655E-07        -0.35404E-09         0.00000E+00
    0.77633E-07        -0.33397E-09         0.00000E+00
    0.77611E-07        -0.31343E-09         0.00000E+00
    0.77588E-07        -0.29256E-09         0.00000E+00
    0.77565E-07        -0.27153E-09         0.00000E+00
    0.77541E-07        -0.25047E-09         0.00000E+00
    0.77517E-07        -0.22956E-09         0.00000E+00
    0.77492E-07        -0.20895E-09         0.00000E+00
    0.77468E-07        -0.18882E-09         0.00000E+00
    0.77443E-07        -0.16935E-09         0.00000E+00
    0.77419E-07        -0.15072E-09         0.00000E+00
    0.77395E-07        -0.13301E-09         0.00000E+00
    0.77373E-07        -0.11609E-09         0.00000E+00
    0.77352E-07        -0.99597E-10         0.00000E+00
    0.77333E-07        -0.82932E-10         0.00000E+00
    0.77317E-07        -0.65462E-10         0.00000E+00
    0.77305E-07        -0.46547E-10         0.00000E+00
    0.77298E-07        -0.25130E-10         0.00000E+00
    0.77295E-07        -0.13617E-10         0.00000E+00
    0.81260E-07        -0.29910E-10         0.00000E+00
    0.81260E-07        -0.58214E-10         0.00000E+00
    0.81260E-07        -0.11247E-09         0.00000E+00
    0.81258E-07        -0.16210E-09         0.00000E+00
    0.81257E-07        -0.20724E-09         0.00000E+00
    0.81254E-07        -0.24805E-09         0.00000E+00
    0.81251E-07        -0.28468E-09         0.00000E+00
    0.81247E-07        -0.31728E-09         0.00000E+00
    0.81243E-07        -0.34601E-09         0.00000E+00
    0.81238E-07        -0.37101E-09         0.00000E+00
    0.81232E-07        -0.39244E-09         0.00000E+00
    0.81225E-07        -0.41044E-09         0.00000E+00
    0.81217E-07        -0.42516E-09         0.00000E+00
    0.81208E-07        -0.43674E-09         0.00000E+00
    0.81199E-07        -0.44532E-09         0.00000E+00
    0.81188E-07        -0.45105E-09         0.00000E+00
    0.81177E-07        -0.45405E-09         0.00000E+00
    0.81165E-07        -0.45447E-09         0.00000E+00
    0.81152E-07        -0.45243E-09         0.00000E+00
    0.81138E-07        -0.44805E-09         0.00000E+00
    0.81123E-07        -0.44148E-09         0.00000E+00
    0.81107E-07        -0.43282E-09         0.00000E+00
    0.81091E-07        -0.42221E-09         0.00000E+00
    0.81073E-07        -0.40975E-09         0.00000E+00
    0.81055E-07        -0.39558E-09         0.00000E+00
    0.81035E-07        -0.37980E-09         0.00000E+00
    0.81015E-07        -0.36253E-09         0.00000E+00
    0.80995E-07        -0.34391E-09         0.00000E+00
    0.80973E-07        -0.32404E-09         0.00000E+00
    0.80950E-07        -0.30305E-09         0.00000E+00
    0.80927E-07        -0.28108E-09         0.00000E+00
    0.80903E-07        -0.25826E-09         0.00000E+00
    0.80877E-07        -0.23473E-09         0.00000E+00
    0.80852E-07        -0.21063E-09         0.00000E+00
    0.80825E-07        -0.18612E-09         0.00000E+00
    0.80797E-07        -0.16138E-09         0.00000E+00
    0.80769E-07        -0.13664E-09         0.00000E+00
    0.80740E-07        -0.11216E-09         0.00000E+00
    0.80710E-07        -0.88241E-10         0.00000E+00
    0.80679E-07        -0.65196E-10         0.00000E+00
    0.80647E-07        -0.43318E-10         0.00000E+00
    0.80615E-07        -0.22868E-10         0.00000E+00
    0.80581E-07        -0.41494E-11         0.00000E+00
    0.80548E-07         0.12233E-10         0.00000E+00
    0.80515E-07         0.25176E-10         0.00000E+00
    0.80481E-07         0.33270E-10         0.00000E+00
    0.80448E-07         0.35199E-10         0.00000E+00
    0.80416E-07         0.30829E-10         0.00000E+00
    0.80386E-07         0.21728E-10         0.00000E+00
    0.80363E-07         0.10289E-10         0.00000E+00
    0.80354E-07         0.43015E-11         0.00000E+00
    0.84557E-07        -0.28629E-10         0.00000E+00
    0.84557E-07        -0.55530E-10         0.00000E+00
    0.84556E-07        -0.10681E-09         0.00000E+00
    0.84554E-07        -0.15314E-09         0.00000E+00
    0.84551E-07        -0.19470E-09         0.00000E+00
    0.84548E-07        -0.23169E-09         0.00000E+00
    0.84543E-07        -0.26429E-09         0.00000E+00
    0.84538E-07        -0.29268E-09         0.00000E+00
    0.84532E-07        -0.31706E-09         0.00000E+00
    0.84524E-07        -0.33759E-09         0.00000E+00
    0.84516E-07        -0.35445E-09         0.00000E+00
    0.84507E-07        -0.36781E-09         0.00000E+00
    0.84496E-07        -0.37785E-09         0.00000E+00
    0.84485E-07        -0.38472E-09         0.00000E+00
    0.84472E-07        -0.38859E-09         0.00000E+00
    0.84459E-07        -0.38960E-09         0.00000E+00
    0.84445E-07        -0.38791E-09         0.00000E+00
    0.84429E-07        -0.38366E-09         0.00000E+00
    0.84413E-07        -0.37699E-09         0.00000E+00
    0.84396E-07        -0.36804E-09         0.00000E+00
    0.84378E-07        -0.35693E-09         0.00000E+00
    0.84359E-07        -0.34381E-09         0.00000E+00
    0.84339E-07        -0.32877E-09         0.00000E+00
    0.84318E-07        -0.31196E-09         0.00000E+00
    0.84297E-07        -0.29348E-09         0.00000E+00
    0.84275E-07        -0.27346E-09         0.00000E+00
    0.84251E-07        -0.25200E-09         0.00000E+00
    0.84228E-07        -0.22921E-09         0.00000E+00
    0.84203E-07        -0.20519E-09         0.00000E+00
    0.84178E-07        -0.18005E-09         0.00000E+00
    0.84152E-07        -0.15390E-09         0.00000E+00
    0.84125E-07        -0.12686E-09         0.00000E+00
    0.84098E-07        -0.99071E-10         0.00000E+00
    0.84070E-07        -0.70701E-10         0.00000E+00
    0.84041E-07        -0.41916E-10         0.00000E+00
    0.84011E-07        -0.12851E-10         0.00000E+00
    0.83981E-07         0.16380E-10         0.00000E+00
    0.83949E-07         0.45741E-10         0.00000E+00
    0.83917E-07         0.75131E-10         0.00000E+00
    0.83884E-07         0.10420E-09         0.00000E+00
    0.83851E-07         0.13233E-09         0.00000E+00
    0.83816E-07         0.15857E-09         0.00000E+00
    0.83780E-07         0.18178E-09         0.00000E+00
    0.83742E-07         0.20155E-09         0.00000E+00
    0.83701E-07         0.21852E-09         0.00000E+00
    0.83661E-07         0.23305E-09         0.00000E+00
    0.83622E-07         0.24404E-09         0.00000E+00
    0.83587E-07         0.24523E-09         0.00000E+00
    0.83561E-07         0.21760E-09         0.00000E+00
    0.83545E-07         0.13472E-09         0.00000E+00
    0.83540E-07         0.76325E-10         0.00000E+00
    0.87815E-07        -0.26617E-10         0.00000E+00
    0.87814E-07        -0.51384E-10         0.00000E+00
    0.87813E-07        -0.98235E-10         0.00000E+00
    0.87810E-07        -0.13984E-09         0.00000E+00
    0.87806E-07        -0.17645E-09         0.00000E+00
    0.87801E-07        -0.20829E-09         0.00000E+00
    0.87795E-07        -0.23559E-09         0.00000E+00
    0.87788E-07        -0.25858E-09         0.00000E+00
    0.87779E-07        -0.27749E-09         0.00000E+00
    0.87769E-07        -0.29252E-09         0.00000E+00
    0.87758E-07        -0.30388E-09         0.00000E+00
    0.87746E-07        -0.31177E-09         0.00000E+00
    0.87733E-07        -0.31639E-09         0.00000E+00
    0.87718E-07        -0.31791E-09         0.00000E+00
    0.87702E-07        -0.31652E-09         0.00000E+00
    0.87685E-07        -0.31239E-09         0.00000E+00
    0.87668E-07        -0.30568E-09         0.00000E+00
    0.87649E-07        -0.29655E-09         0.00000E+00
    0.87629E-07        -0.28515E-09         0.00000E+00
    0.87608E-07        -0.27163E-09         0.00000E+00
    0.87587E-07        -0.25613E-09         0.00000E+00
    0.87564E-07        -0.23876E-09         0.00000E+00
    0.87541E-07        -0.21967E-09         0.00000E+00
    0.87517E-07        -0.19896E-09         0.00000E+00
    0.87492E-07        -0.17673E-09         0.00000E+00
    0.87467E-07        -0.15310E-09         0.00000E+00
    0.87441E-07        -0.12816E-09         0.00000E+00
    0.87415E-07        -0.10204E-09         0.00000E+00
    0.87388E-07        -0.74858E-10         0.00000E+00
    0.87360E-07        -0.46728E-10         0.00000E+00
    0.87333E-07        -0.17730E-10         0.00000E+00
    0.87304E-07         0.12080E-10         0.00000E+00
    0.87275E-07         0.42709E-10         0.00000E+00
    0.87246E-07         0.74218E-10         0.00000E+00
    0.87217E-07         0.10656E-09         0.00000E+00
    0.87187E-07         0.13948E-09         0.00000E+00
    0.87157E-07         0.17262E-09         0.00000E+00
    0.87127E-07         0.20527E-09         0.00000E+00
    0.87096E-07         0.23689E-09         0.00000E+00
    0.87064E-07         0.26784E-09         0.00000E+00
    0.87031E-07         0.29900E-09         0.00000E+00
    0.86997E-07         0.33150E-09         0.00000E+00
    0.86966E-07         0.36680E-09         0.00000E+00
    0.86939E-07         0.40332E-09         0.00000E+00
    0.86919E-07         0.43005E-09         0.00000E+00
    0.86907E-07         0.43185E-09         0.00000E+00
    0.86905E-07         0.40102E-09         0.00000E+00
    0.86911E-07         0.33423E-09         0.00000E+00
    0.86924E-07         0.23342E-09         0.00000E+00
    0.86937E-07         0.11617E-09         0.00000E+00
    0.86943E-07         0.56827E-10         0.00000E+00
    0.91000E-07        -0.23599E-10         0.00000E+00
    0.90999E-07        -0.45252E-10         0.00000E+00
    0.90997E-07        -0.85755E-10         0.00000E+00
    0.90993E-07        -0.12081E-09         0.00000E+00
    0.90988E-07        -0.15071E-09         0.00000E+00
    0.90981E-07        -0.17577E-09         0.00000E+00
    0.90973E-07        -0.19625E-09         0.00000E+00
    0.90963E-07        -0.21244E-09         0.00000E+00
    0.90951E-07        -0.22459E-09         0.00000E+00
    0.90938E-07        -0.23296E-09         0.00000E+00
    0.90924E-07        -0.23778E-09         0.00000E+00
    0.90908E-07        -0.23929E-09         0.00000E+00
    0.90890E-07        -0.23770E-09         0.00000E+00
    0.90872E-07        -0.23323E-09         0.00000E+00
    0.90852E-07        -0.22607E-09         0.00000E+00
    0.90831E-07        -0.21642E-09         0.00000E+00
    0.90809E-07        -0.20446E-09         0.00000E+00
    0.90786E-07        -0.19035E-09         0.00000E+00
    0.90762E-07        -0.17425E-09         0.00000E+00
    0.90737E-07        -0.15631E-09         0.00000E+00
    0.90711E-07        -0.13667E-09         0.00000E+00
    0.90685E-07        -0.11547E-09         0.00000E+00
    0.90657E-07        -0.92847E-10         0.00000E+00
    0.90630E-07        -0.68947E-10         0.00000E+00
    0.90601E-07        -0.43902E-10         0.00000E+00
    0.90572E-07        -0.17797E-10         0.00000E+00
    0.90543E-07         0.92979E-11         0.00000E+00
    0.90513E-07         0.37357E-10         0.00000E+00
    0.90483E-07         0.66433E-10         0.00000E+00
    0.90454E-07         0.96502E-10         0.00000E+00
    0.90424E-07         0.12741E-09         0.00000E+00
    0.90394E-07         0.15895E-09         0.00000E+00
    0.90364E-07         0.19071E-09         0.00000E+00
    0.90334E-07         0.22208E-09         0.00000E+00
    0.90304E-07         0.25305E-09         0.00000E+00
    0.90274E-07         0.28428E-09         0.00000E+00
    0.90243E-07         0.31648E-09         0.00000E+00
    0.90214E-07         0.35158E-09         0.00000E+00
    0.90188E-07         0.39087E-09         0.00000E+00
    0.90166E-07         0.43169E-09         0.00000E+00
    0.90152E-07         0.46538E-09         0.00000E+00
    0.90147E-07         0.48073E-09         0.00000E+00
    0.90151E-07         0.47307E-09         0.00000E+00
    0.90165E-07         0.43955E-09         0.00000E+00
    0.90189E-07         0.37912E-09         0.00000E+00
    0.90220E-07         0.30215E-09         0.00000E+00
    0.90254E-07         0.22295E-09         0.00000E+00
    0.90286E-07         0.14985E-09         0.00000E+00
    0.90313E-07         0.87498E-10         0.00000E+00
    0.90330E-07         0.38889E-10         0.00000E+00
    0.90335E-07         0.18220E-10         0.00000E+00
    0.94075E-07        -0.19226E-10         0.00000E+00
    0.94074E-07        -0.36459E-10         0.00000E+00
    0.94071E-07        -0.68086E-10         0.00000E+00
    0.94065E-07        -0.94222E-10         0.00000E+00
    0.94058E-07        -0.11524E-09         0.00000E+00
    0.94049E-07        -0.13148E-09         0.00000E+00
    0.94037E-07        -0.14329E-09         0.00000E+00
    0.94024E-07        -0.15098E-09         0.00000E+00
    0.94009E-07        -0.15485E-09         0.00000E+00
    0.93992E-07        -0.15520E-09         0.00000E+00
    0.93974E-07        -0.15229E-09         0.00000E+00
    0.93953E-07        -0.14638E-09         0.00000E+00
    0.93931E-07        -0.13771E-09         0.00000E+00
    0.93908E-07        -0.12650E-09         0.00000E+00
    0.93883E-07        -0.11298E-09         0.00000E+00
    0.93858E-07        -0.97365E-10         0.00000E+00
    0.93830E-07        -0.79836E-10         0.00000E+00
    0.93802E-07        -0.60585E-10         0.00000E+00
    0.93773E-07        -0.39810E-10         0.00000E+00
    0.93743E-07        -0.17675E-10         0.00000E+00
    0.93712E-07         0.56990E-11         0.00000E+00
    0.93680E-07         0.30182E-10         0.00000E+00
    0.93647E-07         0.55680E-10         0.00000E+00
    0.93615E-07         0.82188E-10         0.00000E+00
    0.93581E-07         0.10964E-09         0.00000E+00
    0.93548E-07         0.13785E-09         0.00000E+00
    0.93515E-07         0.16666E-09         0.00000E+00
    0.93482E-07         0.19570E-09         0.00000E+00
    0.93448E-07         0.22439E-09         0.00000E+00
    0.93415E-07         0.25261E-09         0.00000E+00
    0.93381E-07         0.28076E-09         0.00000E+00
    0.93346E-07         0.30918E-09         0.00000E+00
    0.93314E-07         0.33929E-09         0.00000E+00
    0.93283E-07         0.37337E-09         0.00000E+00
    0.93256E-07         0.41111E-09         0.00000E+00
    0.93234E-07         0.44675E-09         0.00000E+00
    0.93220E-07         0.47171E-09         0.00000E+00
    0.93214E-07         0.48139E-09         0.00000E+00
    0.93217E-07         0.47406E-09         0.00000E+00
    0.93230E-07         0.44611E-09         0.00000E+00
    0.93252E-07         0.39712E-09         0.00000E+00
    0.93282E-07         0.33578E-09         0.00000E+00
    0.93316E-07         0.27280E-09         0.00000E+00
    0.93353E-07         0.21268E-09         0.00000E+00
    0.93389E-07         0.15732E-09         0.00000E+00
    0.93420E-07         0.10938E-09         0.00000E+00
    0.93446E-07         0.69842E-10         0.00000E+00
    0.93465E-07         0.38941E-10         0.00000E+00
    0.93478E-07         0.17206E-10         0.00000E+00
    0.93486E-07         0.49350E-11         0.00000E+00
    0.93488E-07         0.12033E-11         0.00000E+00
    0.96998E-07        -0.13101E-10         0.00000E+00
    0.96996E-07        -0.24268E-10         0.00000E+00
    0.96992E-07        -0.43859E-10         0.00000E+00
    0.96985E-07        -0.58180E-10         0.00000E+00
    0.96976E-07        -0.67652E-10         0.00000E+00
    0.96963E-07        -0.72673E-10         0.00000E+00
    0.96949E-07        -0.73617E-10         0.00000E+00
    0.96932E-07        -0.70830E-10         0.00000E+00
    0.96912E-07        -0.64645E-10         0.00000E+00
    0.96891E-07        -0.55386E-10         0.00000E+00
    0.96867E-07        -0.43347E-10         0.00000E+00
    0.96842E-07        -0.28798E-10         0.00000E+00
    0.96815E-07        -0.12016E-10         0.00000E+00
    0.96786E-07         0.67357E-11         0.00000E+00
    0.96755E-07         0.27249E-10         0.00000E+00
    0.96724E-07         0.49335E-10         0.00000E+00
    0.96690E-07         0.72768E-10         0.00000E+00
    0.96656E-07         0.97377E-10         0.00000E+00
    0.96621E-07         0.12308E-09         0.00000E+00
    0.96584E-07         0.14973E-09         0.00000E+00
    0.96547E-07         0.17709E-09         0.00000E+00
    0.96510E-07         0.20501E-09         0.00000E+00
    0.96472E-07         0.23318E-09         0.00000E+00
    0.96434E-07         0.26102E-09         0.00000E+00
    0.96395E-07         0.28833E-09         0.00000E+00
    0.96354E-07         0.31526E-09         0.00000E+00
    0.96314E-07         0.34193E-09         0.00000E+00
    0.96274E-07         0.36964E-09         0.00000E+00
    0.96236E-07         0.40082E-09         0.00000E+00
    0.96201E-07         0.43558E-09         0.00000E+00
    0.96169E-07         0.46910E-09         0.00000E+00
    0.96143E-07         0.49444E-09         0.00000E+00
    0.96123E-07         0.50813E-09         0.00000E+00
    0.96112E-07         0.50995E-09         0.00000E+00
    0.96108E-07         0.49647E-09         0.00000E+00
    0.96114E-07         0.46473E-09         0.00000E+00
    0.96127E-07         0.41857E-09         0.00000E+00
    0.96148E-07         0.36524E-09         0.00000E+00
    0.96173E-07         0.31132E-09         0.00000E+00
    0.96202E-07         0.25830E-09         0.00000E+00
    0.96231E-07         0.20662E-09         0.00000E+00
    0.96258E-07         0.15855E-09         0.00000E+00
    0.96283E-07         0.11482E-09         0.00000E+00
    0.96304E-07         0.76139E-10         0.00000E+00
    0.96322E-07         0.43551E-10         0.00000E+00
    0.96337E-07         0.17489E-10         0.00000E+00
    0.96348E-07        -0.15328E-11         0.00000E+00
    0.96357E-07        -0.12960E-10         0.00000E+00
    0.96363E-07        -0.16389E-10         0.00000E+00
    0.96366E-07        -0.11398E-10         0.00000E+00
    0.96367E-07        -0.67436E-11         0.00000E+00
    0.99725E-07        -0.49478E-11         0.00000E+00
    0.99723E-07        -0.81072E-11         0.00000E+00
    0.99718E-07        -0.11956E-10         0.00000E+00
    0.99709E-07        -0.11103E-10         0.00000E+00
    0.99697E-07        -0.60012E-11         0.00000E+00
    0.99681E-07         0.29298E-11         0.00000E+00
    0.99663E-07         0.15297E-10         0.00000E+00
    0.99642E-07         0.30719E-10         0.00000E+00
    0.99618E-07         0.48859E-10         0.00000E+00
    0.99591E-07         0.69428E-10         0.00000E+00
    0.99563E-07         0.92108E-10         0.00000E+00
    0.99532E-07         0.11658E-09         0.00000E+00
    0.99498E-07         0.14262E-09         0.00000E+00
    0.99464E-07         0.17006E-09         0.00000E+00
    0.99427E-07         0.19861E-09         0.00000E+00
    0.99389E-07         0.22803E-09         0.00000E+00
    0.99349E-07         0.25818E-09         0.00000E+00
    0.99309E-07         0.28872E-09         0.00000E+00
    0.99267E-07         0.31900E-09         0.00000E+00
    0.99224E-07         0.34871E-09         0.00000E+00
    0.99179E-07         0.37791E-09         0.00000E+00
    0.99133E-07         0.40668E-09         0.00000E+00
    0.99087E-07         0.43633E-09         0.00000E+00
    0.99042E-07         0.46928E-09         0.00000E+00
    0.98998E-07         0.50576E-09         0.00000E+00
    0.98956E-07         0.54067E-09         0.00000E+00
    0.98918E-07         0.56733E-09         0.00000E+00
    0.98886E-07         0.58417E-09         0.00000E+00
    0.98859E-07         0.59245E-09         0.00000E+00
    0.98839E-07         0.58960E-09         0.00000E+00
    0.98827E-07         0.57131E-09         0.00000E+00
    0.98822E-07         0.53747E-09         0.00000E+00
    0.98824E-07         0.49403E-09         0.00000E+00
    0.98831E-07         0.44821E-09         0.00000E+00
    0.98843E-07         0.40111E-09         0.00000E+00
    0.98859E-07         0.35149E-09         0.00000E+00
    0.98875E-07         0.30116E-09         0.00000E+00
    0.98891E-07         0.25164E-09         0.00000E+00
    0.98906E-07         0.20327E-09         0.00000E+00
    0.98920E-07         0.15732E-09         0.00000E+00
    0.98933E-07         0.11505E-09         0.00000E+00
    0.98944E-07         0.76978E-10         0.00000E+00
    0.98954E-07         0.43794E-10         0.00000E+00
    0.98962E-07         0.16044E-10         0.00000E+00
    0.98969E-07        -0.59208E-11         0.00000E+00
    0.98975E-07        -0.21713E-10         0.00000E+00
    0.98979E-07        -0.31026E-10         0.00000E+00
    0.98982E-07        -0.33599E-10         0.00000E+00
    0.98984E-07        -0.29137E-10         0.00000E+00
    0.98985E-07        -0.17397E-10         0.00000E+00
    0.98985E-07        -0.96837E-11         0.00000E+00
    0.10221E-06         0.55147E-11         0.00000E+00
    0.10221E-06         0.12418E-10         0.00000E+00
    0.10220E-06         0.28208E-10         0.00000E+00
    0.10219E-06         0.47746E-10         0.00000E+00
    0.10218E-06         0.70584E-10         0.00000E+00
    0.10216E-06         0.96278E-10         0.00000E+00
    0.10214E-06         0.12443E-09         0.00000E+00
    0.10211E-06         0.15473E-09         0.00000E+00
    0.10208E-06         0.18689E-09         0.00000E+00
    0.10205E-06         0.22055E-09         0.00000E+00
    0.10202E-06         0.25550E-09         0.00000E+00
    0.10198E-06         0.29156E-09         0.00000E+00
    0.10194E-06         0.32819E-09         0.00000E+00
    0.10190E-06         0.36468E-09         0.00000E+00
    0.10186E-06         0.40073E-09         0.00000E+00
    0.10181E-06         0.43630E-09         0.00000E+00
    0.10176E-06         0.47166E-09         0.00000E+00
    0.10172E-06         0.50844E-09         0.00000E+00
    0.10167E-06         0.54908E-09         0.00000E+00
    0.10162E-06         0.59222E-09         0.00000E+00
    0.10157E-06         0.63161E-09         0.00000E+00
    0.10153E-06         0.66312E-09         0.00000E+00
    0.10148E-06         0.68765E-09         0.00000E+00
    0.10144E-06         0.70630E-09         0.00000E+00
    0.10141E-06         0.71670E-09         0.00000E+00
    0.10138E-06         0.71374E-09         0.00000E+00
    0.10136E-06         0.69528E-09         0.00000E+00
    0.10135E-06         0.66612E-09         0.00000E+00
    0.10134E-06         0.63277E-09         0.00000E+00
    0.10133E-06         0.59653E-09         0.00000E+00
    0.10133E-06         0.55554E-09         0.00000E+00
    0.10133E-06         0.51014E-09         0.00000E+00
    0.10133E-06         0.46194E-09         0.00000E+00
    0.10133E-06         0.41141E-09         0.00000E+00
    0.10134E-06         0.35968E-09         0.00000E+00
    0.10134E-06         0.30841E-09         0.00000E+00
    0.10134E-06         0.25842E-09         0.00000E+00
    0.10135E-06         0.21043E-09         0.00000E+00
    0.10135E-06         0.16533E-09         0.00000E+00
    0.10135E-06         0.12367E-09         0.00000E+00
    0.10135E-06         0.85878E-10         0.00000E+00
    0.10136E-06         0.52453E-10         0.00000E+00
    0.10136E-06         0.23739E-10         0.00000E+00
    0.10136E-06         0.70261E-13         0.00000E+00
    0.10136E-06        -0.18189E-10         0.00000E+00
    0.10136E-06        -0.30709E-10         0.00000E+00
    0.10136E-06        -0.37189E-10         0.00000E+00
    0.10136E-06        -0.37372E-10         0.00000E+00
    0.10136E-06        -0.31073E-10         0.00000E+00
    0.10136E-06        -0.18129E-10         0.00000E+00
    0.10136E-06        -0.99748E-11         0.00000E+00
    0.10441E-06         0.17923E-10         0.00000E+00
    0.10441E-06         0.36886E-10         0.00000E+00
    0.10440E-06         0.76050E-10         0.00000E+00
    0.10439E-06         0.11750E-09         0.00000E+00
    0.10437E-06         0.16094E-09         0.00000E+00
    0.10435E-06         0.20613E-09         0.00000E+00
    0.10432E-06         0.25271E-09         0.00000E+00
    0.10429E-06         0.29990E-09         0.00000E+00
    0.10426E-06         0.34700E-09         0.00000E+00
    0.10423E-06         0.39396E-09         0.00000E+00
    0.10419E-06         0.44082E-09         0.00000E+00
    0.10414E-06         0.48820E-09         0.00000E+00
    0.10410E-06         0.53822E-09         0.00000E+00
    0.10405E-06         0.59239E-09         0.00000E+00
    0.10401E-06         0.64645E-09         0.00000E+00
    0.10396E-06         0.69402E-09         0.00000E+00
    0.10391E-06         0.73494E-09         0.00000E+00
    0.10387E-06         0.77178E-09         0.00000E+00
    0.10382E-06         0.80470E-09         0.00000E+00
    0.10378E-06         0.83155E-09         0.00000E+00
    0.10375E-06         0.84797E-09         0.00000E+00
    0.10371E-06         0.85032E-09         0.00000E+00
    0.10368E-06         0.84119E-09         0.00000E+00
    0.10366E-06         0.82711E-09         0.00000E+00
    0.10364E-06         0.80963E-09         0.00000E+00
    0.10362E-06         0.78586E-09         0.00000E+00
    0.10361E-06         0.75481E-09         0.00000E+00
    0.10360E-06         0.71776E-09         0.00000E+00
    0.10359E-06         0.67542E-09         0.00000E+00
    0.10358E-06         0.62856E-09         0.00000E+00
    0.10357E-06         0.57868E-09         0.00000E+00
    0.10356E-06         0.52683E-09         0.00000E+00
    0.10356E-06         0.47375E-09         0.00000E+00
    0.10355E-06         0.42041E-09         0.00000E+00
    0.10355E-06         0.36761E-09         0.00000E+00
    0.10354E-06         0.31593E-09         0.00000E+00
    0.10354E-06         0.26605E-09         0.00000E+00
    0.10353E-06         0.21854E-09         0.00000E+00
    0.10353E-06         0.17387E-09         0.00000E+00
    0.10352E-06         0.13250E-09         0.00000E+00
    0.10352E-06         0.94918E-10         0.00000E+00
    0.10352E-06         0.61531E-10         0.00000E+00
    0.10351E-06         0.32752E-10         0.00000E+00
    0.10351E-06         0.89347E-11         0.00000E+00
    0.10351E-06        -0.96351E-11         0.00000E+00
    0.10350E-06        -0.22706E-10         0.00000E+00
    0.10350E-06        -0.30056E-10         0.00000E+00
    0.10350E-06        -0.31483E-10         0.00000E+00
    0.10350E-06        -0.26801E-10         0.00000E+00
    0.10350E-06        -0.15849E-10         0.00000E+00
    0.10350E-06        -0.87882E-11         0.00000E+00
    0.10628E-06         0.32725E-10         0.00000E+00
    0.10627E-06         0.65155E-10         0.00000E+00
    0.10626E-06         0.12983E-09         0.00000E+00
    0.10625E-06         0.19425E-09         0.00000E+00
    0.10623E-06         0.25867E-09         0.00000E+00
    0.10621E-06         0.32365E-09         0.00000E+00
    0.10618E-06         0.39058E-09         0.00000E+00
    0.10615E-06         0.46131E-09         0.00000E+00
    0.10612E-06         0.53359E-09         0.00000E+00
    0.10608E-06         0.60131E-09         0.00000E+00
    0.10604E-06         0.66305E-09         0.00000E+00
    0.10600E-06         0.72119E-09         0.00000E+00
    0.10596E-06         0.77667E-09         0.00000E+00
    0.10592E-06         0.82888E-09         0.00000E+00
    0.10588E-06         0.87570E-09         0.00000E+00
    0.10585E-06         0.91324E-09         0.00000E+00
    0.10581E-06         0.93806E-09         0.00000E+00
    0.10578E-06         0.95355E-09         0.00000E+00
    0.10575E-06         0.96609E-09         0.00000E+00
    0.10572E-06         0.97519E-09         0.00000E+00
    0.10569E-06         0.97684E-09         0.00000E+00
    0.10567E-06         0.96975E-09         0.00000E+00
    0.10565E-06         0.95452E-09         0.00000E+00
    0.10563E-06         0.93166E-09         0.00000E+00
    0.10561E-06         0.90175E-09         0.00000E+00
    0.10560E-06         0.86605E-09         0.00000E+00
    0.10558E-06         0.82547E-09         0.00000E+00
    0.10557E-06         0.78056E-09         0.00000E+00
    0.10556E-06         0.73208E-09         0.00000E+00
    0.10554E-06         0.68088E-09         0.00000E+00
    0.10553E-06         0.62762E-09         0.00000E+00
    0.10552E-06         0.57303E-09         0.00000E+00
    0.10551E-06         0.51785E-09         0.00000E+00
    0.10550E-06         0.46267E-09         0.00000E+00
    0.10549E-06         0.40807E-09         0.00000E+00
    0.10549E-06         0.35466E-09         0.00000E+00
    0.10548E-06         0.30298E-09         0.00000E+00
    0.10547E-06         0.25358E-09         0.00000E+00
    0.10546E-06         0.20698E-09         0.00000E+00
    0.10545E-06         0.16365E-09         0.00000E+00
    0.10545E-06         0.12401E-09         0.00000E+00
    0.10544E-06         0.88449E-10         0.00000E+00
    0.10544E-06         0.57320E-10         0.00000E+00
    0.10543E-06         0.30952E-10         0.00000E+00
    0.10543E-06         0.96505E-11         0.00000E+00
    0.10542E-06        -0.63110E-11         0.00000E+00
    0.10542E-06        -0.16691E-10         0.00000E+00
    0.10542E-06        -0.21273E-10         0.00000E+00
    0.10542E-06        -0.19872E-10         0.00000E+00
    0.10541E-06        -0.12329E-10         0.00000E+00
    0.10541E-06        -0.70052E-11         0.00000E+00
    0.10778E-06         0.47396E-10         0.00000E+00
    0.10778E-06         0.95138E-10         0.00000E+00
    0.10777E-06         0.18979E-09         0.00000E+00
    0.10776E-06         0.28185E-09         0.00000E+00
    0.10775E-06         0.37074E-09         0.00000E+00
    0.10773E-06         0.45725E-09         0.00000E+00
    0.10770E-06         0.54196E-09         0.00000E+00
    0.10768E-06         0.62456E-09         0.00000E+00
    0.10765E-06         0.70347E-09         0.00000E+00
    0.10762E-06         0.77560E-09         0.00000E+00
    0.10759E-06         0.83674E-09         0.00000E+00
    0.10757E-06         0.88823E-09         0.00000E+00
    0.10754E-06         0.93669E-09         0.00000E+00
    0.10751E-06         0.98300E-09         0.00000E+00
    0.10748E-06         0.10234E-08         0.00000E+00
    0.10746E-06         0.10553E-08         0.00000E+00
    0.10743E-06         0.10782E-08         0.00000E+00
    0.10741E-06         0.10923E-08         0.00000E+00
    0.10739E-06         0.10977E-08         0.00000E+00
    0.10737E-06         0.10948E-08         0.00000E+00
    0.10735E-06         0.10846E-08         0.00000E+00
    0.10733E-06         0.10675E-08         0.00000E+00
    0.10732E-06         0.10438E-08         0.00000E+00
    0.10730E-06         0.10140E-08         0.00000E+00
    0.10729E-06         0.97866E-09         0.00000E+00
    0.10728E-06         0.93838E-09         0.00000E+00
    0.10727E-06         0.89381E-09         0.00000E+00
    0.10726E-06         0.84565E-09         0.00000E+00
    0.10725E-06         0.79452E-09         0.00000E+00
    0.10724E-06         0.74100E-09         0.00000E+00
    0.10723E-06         0.68571E-09         0.00000E+00
    0.10722E-06         0.62923E-09         0.00000E+00
    0.10721E-06         0.57214E-09         0.00000E+00
    0.10720E-06         0.51502E-09         0.00000E+00
    0.10719E-06         0.45845E-09         0.00000E+00
    0.10718E-06         0.40296E-09         0.00000E+00
    0.10717E-06         0.34906E-09         0.00000E+00
    0.10717E-06         0.29725E-09         0.00000E+00
    0.10716E-06         0.24803E-09         0.00000E+00
    0.10715E-06         0.20184E-09         0.00000E+00
    0.10714E-06         0.15913E-09         0.00000E+00
    0.10714E-06         0.12031E-09         0.00000E+00
    0.10713E-06         0.85786E-10         0.00000E+00
    0.10713E-06         0.55906E-10         0.00000E+00
    0.10712E-06         0.31007E-10         0.00000E+00
    0.10712E-06         0.11399E-10         0.00000E+00
    0.10712E-06        -0.26295E-11         0.00000E+00
    0.10712E-06        -0.10823E-10         0.00000E+00
    0.10711E-06        -0.12968E-10         0.00000E+00
    0.10711E-06        -0.88835E-11         0.00000E+00
    0.10711E-06        -0.52637E-11         0.00000E+00
    0.10897E-06         0.52599E-10         0.00000E+00
    0.10896E-06         0.10839E-09         0.00000E+00
    0.10896E-06         0.22070E-09         0.00000E+00
    0.10895E-06         0.33055E-09         0.00000E+00
    0.10893E-06         0.43386E-09         0.00000E+00
    0.10892E-06         0.53283E-09         0.00000E+00
    0.10890E-06         0.62965E-09         0.00000E+00
    0.10888E-06         0.72253E-09         0.00000E+00
    0.10886E-06         0.80871E-09         0.00000E+00
    0.10884E-06         0.88633E-09         0.00000E+00
    0.10882E-06         0.95462E-09         0.00000E+00
    0.10880E-06         0.10134E-08         0.00000E+00
    0.10878E-06         0.10626E-08         0.00000E+00
    0.10876E-06         0.11025E-08         0.00000E+00
    0.10875E-06         0.11338E-08         0.00000E+00
    0.10873E-06         0.11565E-08         0.00000E+00
    0.10872E-06         0.11708E-08         0.00000E+00
    0.10871E-06         0.11769E-08         0.00000E+00
    0.10870E-06         0.11751E-08         0.00000E+00
    0.10869E-06         0.11658E-08         0.00000E+00
    0.10869E-06         0.11494E-08         0.00000E+00
    0.10868E-06         0.11267E-08         0.00000E+00
    0.10868E-06         0.10981E-08         0.00000E+00
    0.10868E-06         0.10643E-08         0.00000E+00
    0.10867E-06         0.10258E-08         0.00000E+00
    0.10867E-06         0.98299E-09         0.00000E+00
    0.10867E-06         0.93655E-09         0.00000E+00
    0.10867E-06         0.88698E-09         0.00000E+00
    0.10866E-06         0.83482E-09         0.00000E+00
    0.10866E-06         0.78061E-09         0.00000E+00
    0.10866E-06         0.72483E-09         0.00000E+00
    0.10866E-06         0.66800E-09         0.00000E+00
    0.10865E-06         0.61058E-09         0.00000E+00
    0.10865E-06         0.55305E-09         0.00000E+00
    0.10865E-06         0.49588E-09         0.00000E+00
    0.10864E-06         0.43954E-09         0.00000E+00
    0.10864E-06         0.38450E-09         0.00000E+00
    0.10864E-06         0.33124E-09         0.00000E+00
    0.10863E-06         0.28020E-09         0.00000E+00
    0.10863E-06         0.23186E-09         0.00000E+00
    0.10862E-06         0.18669E-09         0.00000E+00
    0.10862E-06         0.14515E-09         0.00000E+00
    0.10862E-06         0.10770E-09         0.00000E+00
    0.10861E-06         0.74776E-10         0.00000E+00
    0.10861E-06         0.46807E-10         0.00000E+00
    0.10861E-06         0.24177E-10         0.00000E+00
    0.10861E-06         0.72231E-11         0.00000E+00
    0.10861E-06        -0.37532E-11         0.00000E+00
    0.10861E-06        -0.84757E-11         0.00000E+00
    0.10861E-06        -0.67097E-11         0.00000E+00
    0.10861E-06        -0.41791E-11         0.00000E+00
    0.10975E-06         0.68800E-10         0.00000E+00
    0.10975E-06         0.13702E-09         0.00000E+00
    0.10974E-06         0.27075E-09         0.00000E+00
    0.10972E-06         0.39844E-09         0.00000E+00
    0.10971E-06         0.51856E-09         0.00000E+00
    0.10969E-06         0.62971E-09         0.00000E+00
    0.10967E-06         0.73124E-09         0.00000E+00
    0.10966E-06         0.82283E-09         0.00000E+00
    0.10964E-06         0.90406E-09         0.00000E+00
    0.10963E-06         0.97473E-09         0.00000E+00
    0.10963E-06         0.10348E-08         0.00000E+00
    0.10962E-06         0.10844E-08         0.00000E+00
    0.10962E-06         0.11240E-08         0.00000E+00
    0.10962E-06         0.11539E-08         0.00000E+00
    0.10962E-06         0.11747E-08         0.00000E+00
    0.10963E-06         0.11870E-08         0.00000E+00
    0.10964E-06         0.11913E-08         0.00000E+00
    0.10965E-06         0.11882E-08         0.00000E+00
    0.10966E-06         0.11783E-08         0.00000E+00
    0.10967E-06         0.11621E-08         0.00000E+00
    0.10969E-06         0.11401E-08         0.00000E+00
    0.10971E-06         0.11129E-08         0.00000E+00
    0.10972E-06         0.10809E-08         0.00000E+00
    0.10974E-06         0.10446E-08         0.00000E+00
    0.10975E-06         0.10046E-08         0.00000E+00
    0.10977E-06         0.96143E-09         0.00000E+00
    0.10979E-06         0.91540E-09         0.00000E+00
    0.10980E-06         0.86699E-09         0.00000E+00
    0.10982E-06         0.81661E-09         0.00000E+00
    0.10983E-06         0.76464E-09         0.00000E+00
    0.10984E-06         0.71147E-09         0.00000E+00
    0.10985E-06         0.65747E-09         0.00000E+00
    0.10986E-06         0.60301E-09         0.00000E+00
    0.10987E-06         0.54843E-09         0.00000E+00
    0.10988E-06         0.49410E-09         0.00000E+00
    0.10989E-06         0.44036E-09         0.00000E+00
    0.10989E-06         0.38758E-09         0.00000E+00
    0.10989E-06         0.33613E-09         0.00000E+00
    0.10990E-06         0.28641E-09         0.00000E+00
    0.10990E-06         0.23886E-09         0.00000E+00
    0.10990E-06         0.19394E-09         0.00000E+00
    0.10990E-06         0.15213E-09         0.00000E+00
    0.10991E-06         0.11396E-09         0.00000E+00
    0.10991E-06         0.79986E-10         0.00000E+00
    0.10991E-06         0.50747E-10         0.00000E+00
    0.10991E-06         0.26794E-10         0.00000E+00
    0.10991E-06         0.86382E-11         0.00000E+00
    0.10991E-06        -0.32716E-11         0.00000E+00
    0.10991E-06        -0.85573E-11         0.00000E+00
    0.10991E-06        -0.68544E-11         0.00000E+00
    0.10991E-06        -0.42073E-11         0.00000E+00
    0.10987E-06         0.90074E-10         0.00000E+00
    0.10987E-06         0.17497E-09         0.00000E+00
    0.10986E-06         0.33503E-09         0.00000E+00
    0.10986E-06         0.47547E-09         0.00000E+00
    0.10985E-06         0.59795E-09         0.00000E+00
    0.10985E-06         0.70459E-09         0.00000E+00
    0.10985E-06         0.79501E-09         0.00000E+00
    0.10986E-06         0.86970E-09         0.00000E+00
    0.10988E-06         0.93066E-09         0.00000E+00
    0.10990E-06         0.97959E-09         0.00000E+00
    0.10993E-06         0.10179E-08         0.00000E+00
    0.10996E-06         0.10466E-08         0.00000E+00
    0.10999E-06         0.10667E-08         0.00000E+00
    0.11003E-06         0.10788E-08         0.00000E+00
    0.11007E-06         0.10838E-08         0.00000E+00
    0.11012E-06         0.10823E-08         0.00000E+00
    0.11016E-06         0.10749E-08         0.00000E+00
    0.11021E-06         0.10622E-08         0.00000E+00
    0.11026E-06         0.10446E-08         0.00000E+00
    0.11031E-06         0.10227E-08         0.00000E+00
    0.11036E-06         0.99701E-09         0.00000E+00
    0.11041E-06         0.96783E-09         0.00000E+00
    0.11046E-06         0.93561E-09         0.00000E+00
    0.11051E-06         0.90070E-09         0.00000E+00
    0.11056E-06         0.86345E-09         0.00000E+00
    0.11060E-06         0.82419E-09         0.00000E+00
    0.11064E-06         0.78322E-09         0.00000E+00
    0.11069E-06         0.74083E-09         0.00000E+00
    0.11073E-06         0.69728E-09         0.00000E+00
    0.11076E-06         0.65284E-09         0.00000E+00
    0.11080E-06         0.60774E-09         0.00000E+00
    0.11083E-06         0.56219E-09         0.00000E+00
    0.11086E-06         0.51643E-09         0.00000E+00
    0.11089E-06         0.47067E-09         0.00000E+00
    0.11091E-06         0.42512E-09         0.00000E+00
    0.11093E-06         0.37999E-09         0.00000E+00
    0.11095E-06         0.33551E-09         0.00000E+00
    0.11097E-06         0.29191E-09         0.00000E+00
    0.11098E-06         0.24944E-09         0.00000E+00
    0.11099E-06         0.20843E-09         0.00000E+00
    0.11100E-06         0.16920E-09         0.00000E+00
    0.11101E-06         0.13217E-09         0.00000E+00
    0.11102E-06         0.97821E-10         0.00000E+00
    0.11102E-06         0.66708E-10         0.00000E+00
    0.11103E-06         0.39478E-10         0.00000E+00
    0.11103E-06         0.16884E-10         0.00000E+00
    0.11103E-06        -0.19722E-12         0.00000E+00
    0.11103E-06        -0.10842E-10         0.00000E+00
    0.11104E-06        -0.14228E-10         0.00000E+00
    0.11104E-06        -0.99128E-11         0.00000E+00
    0.11104E-06        -0.58104E-11         0.00000E+00
    0.10905E-06         0.98852E-10         0.00000E+00
    0.10906E-06         0.18412E-09         0.00000E+00
    0.10908E-06         0.33967E-09         0.00000E+00
    0.10913E-06         0.46710E-09         0.00000E+00
    0.10918E-06         0.56270E-09         0.00000E+00
    0.10925E-06         0.62471E-09         0.00000E+00
    0.10932E-06         0.66592E-09         0.00000E+00
    0.10940E-06         0.69687E-09         0.00000E+00
    0.10949E-06         0.71979E-09         0.00000E+00
    0.10959E-06         0.73587E-09         0.00000E+00
    0.10969E-06         0.74593E-09         0.00000E+00
    0.10979E-06         0.75069E-09         0.00000E+00
    0.10990E-06         0.75084E-09         0.00000E+00
    0.11001E-06         0.74699E-09         0.00000E+00
    0.11012E-06         0.73964E-09         0.00000E+00
    0.11022E-06         0.72920E-09         0.00000E+00
    0.11033E-06         0.71603E-09         0.00000E+00
    0.11044E-06         0.70045E-09         0.00000E+00
    0.11054E-06         0.68275E-09         0.00000E+00
    0.11065E-06         0.66316E-09         0.00000E+00
    0.11075E-06         0.64194E-09         0.00000E+00
    0.11085E-06         0.61928E-09         0.00000E+00
    0.11094E-06         0.59539E-09         0.00000E+00
    0.11103E-06         0.57044E-09         0.00000E+00
    0.11112E-06         0.54459E-09         0.00000E+00
    0.11121E-06         0.51799E-09         0.00000E+00
    0.11129E-06         0.49078E-09         0.00000E+00
    0.11136E-06         0.46308E-09         0.00000E+00
    0.11144E-06         0.43501E-09         0.00000E+00
    0.11150E-06         0.40668E-09         0.00000E+00
    0.11157E-06         0.37818E-09         0.00000E+00
    0.11163E-06         0.34962E-09         0.00000E+00
    0.11168E-06         0.32107E-09         0.00000E+00
    0.11173E-06         0.29263E-09         0.00000E+00
    0.11177E-06         0.26437E-09         0.00000E+00
    0.11181E-06         0.23638E-09         0.00000E+00
    0.11185E-06         0.20875E-09         0.00000E+00
    0.11188E-06         0.18157E-09         0.00000E+00
    0.11191E-06         0.15492E-09         0.00000E+00
    0.11193E-06         0.12894E-09         0.00000E+00
    0.11195E-06         0.10377E-09         0.00000E+00
    0.11196E-06         0.79606E-10         0.00000E+00
    0.11198E-06         0.56699E-10         0.00000E+00
    0.11198E-06         0.35391E-10         0.00000E+00
    0.11199E-06         0.16146E-10         0.00000E+00
    0.11199E-06        -0.40639E-12         0.00000E+00
    0.11199E-06        -0.13406E-10         0.00000E+00
    0.11199E-06        -0.21595E-10         0.00000E+00
    0.11199E-06        -0.23074E-10         0.00000E+00
    0.11199E-06        -0.15052E-10         0.00000E+00
    0.11199E-06        -0.82520E-11         0.00000E+00
    0.10836E-06         0.00000E+00         0.00000E+00
    0.10838E-06         0.00000E+00         0.00000E+00
    0.10843E-06         0.00000E+00         0.00000E+00
    0.10852E-06         0.00000E+00         0.00000E+00
    0.10862E-06         0.00000E+00         0.00000E+00
    0.10874E-06         0.00000E+00         0.00000E+00
    0.10887E-06         0.00000E+00         0.00000E+00
    0.10901E-06         0.00000E+00         0.00000E+00
    0.10915E-06         0.00000E+00         0.00000E+00
    0.10930E-06        -0.27940E-20         0.00000E+00
    0.10944E-06         0.00000E+00         0.00000E+00
    0.10959E-06         0.27940E-20         0.00000E+00
    0.10974E-06         0.00000E+00         0.00000E+00
    0.10989E-06         0.00000E+00         0.00000E+00
    0.11004E-06         0.00000E+00         0.00000E+00
    0.11019E-06         0.00000E+00         0.00000E+00
    0.11033E-06         0.00000E+00         0.00000E+00
    0.11048E-06         0.27940E-20         0.00000E+00
    0.11061E-06         0.00000E+00         0.00000E+00
    0.11075E-06        -0.27940E-20         0.00000E+00
    0.11088E-06         0.00000E+00         0.00000E+00
    0.11101E-06         0.00000E+00         0.00000E+00
    0.11113E-06         0.00000E+00         0.00000E+00
    0.11124E-06         0.00000E+00         0.00000E+00
    0.11136E-06         0.00000E+00         0.00000E+00
    0.11146E-06         0.00000E+00         0.00000E+00
    0.11156E-06         0.00000E+00         0.00000E+00
    0.11166E-06         0.00000E+00         0.00000E+00
    0.11175E-06         0.00000E+00         0.00000E+00
    0.11183E-06         0.00000E+00         0.00000E+00
    0.11191E-06         0.00000E+00         0.00000E+00
    0.11198E-06         0.00000E+00         0.00000E+00
    0.11205E-06         0.00000E+00         0.00000E+00
    0.11211E-06         0.00000E+00         0.00000E+00
    0.11217E-06         0.00000E+00         0.00000E+00
    0.11222E-06         0.00000E+00         0.00000E+00
    0.11226E-06         0.00000E+00         0.00000E+00
    0.11230E-06         0.00000E+00         0.00000E+00
    0.11234E-06         0.00000E+00         0.00000E+00
    0.11236E-06        -0.37253E-20         0.00000E+00
    0.11239E-06        -0.27940E-20         0.00000E+00
    0.11241E-06         0.27940E-20         0.00000E+00
    0.11242E-06         0.27940E-20         0.00000E+00
    0.11243E-06         0.00000E+00         0.00000E+00
    0.11243E-06         0.00000E+00         0.00000E+00
    0.11243E-06         0.00000E+00         0.00000E+00
    0.11243E-06         0.00000E+00         0.00000E+00
    0.11243E-06         0.27940E-20         0.00000E+00
    0.11242E-06         0.93132E-21         0.00000E+00
    0.11242E-06         0.00000E+00         0.00000E+00
    0.11242E-06         0.55879E-20         0.00000E+00
CELL_DATA       5000
TENSORS stressef double 
    0.12237E+08         0.91525E+04         0.00000E+00
    0.91525E+04         0.19773E+08         0.00000E+00
    0.00000E+00         0.00000E+00         0.10628E+08
 
    0.12486E+08         0.73749E+05         0.00000E+00
    0.73749E+05         0.19801E+08         0.00000E+00
    0.00000E+00         0.00000E+00         0.94321E+07
 
    0.12441E+08         0.62253E+05         0.00000E+00
    0.62253E+05         0.19818E+08         0.00000E+00
    0.00000E+00         0.00000E+00         0.84257E+07
 
    0.12167E+08        -0.20846E+05         0.00000E+00
   -0.20846E+05         0.19766E+08         0.00000E+00
    0.00000E+00         0.00000E+00         0.77656E+07
 
    0.11768E+08        -0.12984E+06         0.00000E+00
   -0.12984E+06         0.19706E+08         0.00000E+00
    0.00000E+00         0.00000E+00         0.74248E+07
 
    0.11295E+08        -0.19499E+06         0.00000E+00
   -0.19499E+06         0.19635E+08         0.00000E+00
    0.00000E+00         0.00000E+00         0.73323E+07
 
    0.10849E+08        -0.23311E+06         0.00000E+00
   -0.23311E+06         0.19551E+08         0.00000E+00
    0.00000E+00         0.00000E+00         0.72286E+07
 
    0.10424E+08        -0.25561E+06         0.00000E+00
   -0.25561E+06         0.19456E+08         0.00000E+00
    0.00000E+00         0.00000E+00         0.71174E+07
 
    0.10032E+08        -0.26834E+06         0.00000E+00
   -0.26834E+06         0.19354E+08         0.00000E+00
    0.00000E+00         0.00000E+00         0.69980E+07
 
    0.96716E+07        -0.27539E+06         0.00000E+00
   -0.27539E+06         0.19248E+08         0.00000E+00
    0.00000E+00         0.00000E+00         0.68715E+07
 
    0.93396E+07        -0.27796E+06         0.00000E+00
   -0.27796E+06         0.19139E+08         0.00000E+00
    0.00000E+00         0.00000E+00         0.67386E+07
 
    0.90320E+07        -0.27645E+06         0.00000E+00
   -0.27645E+06         0.19030E+08         0.00000E+00
    0.00000E+00         0.00000E+00         0.66014E+07
 
    0.87463E+07        -0.27179E+06         0.00000E+00
   -0.27179E+06         0.18922E+08         0.00000E+00
    0.00000E+00         0.00000E+00         0.64616E+07
 
    0.84794E+07        -0.26702E+06         0.00000E+00
   -0.26702E+06         0.18814E+08         0.00000E+00
    0.00000E+00         0.00000E+00         0.63211E+07
 
    0.82346E+07        -0.25954E+06         0.00000E+00
   -0.25954E+06         0.18710E+08         0.00000E+00
    0.00000E+00         0.00000E+00         0.61791E+07
 
    0.80067E+07        -0.25034E+06         0.00000E+00
   -0.25034E+06         0.18608E+08         0.00000E+00
    0.00000E+00         0.00000E+00         0.60387E+07
 
    0.77953E+07        -0.23995E+06         0.00000E+00
   -0.23995E+06         0.18511E+08         0.00000E+00
    0.00000E+00         0.00000E+00         0.59010E+07
 
    0.75997E+07        -0.22857E+06         0.00000E+00
   -0.22857E+06         0.18418E+08         0.00000E+00
    0.00000E+00         0.00000E+00         0.57671E+07
 
    0.74184E+07        -0.21656E+06         0.00000E+00
   -0.21656E+06         0.18329E+08         0.00000E+00
    0.00000E+00         0.00000E+00         0.56380E+07
 
    0.72516E+07        -0.20387E+06         0.00000E+00
   -0.20387E+06         0.18245E+08         0.00000E+00
    0.00000E+00         0.00000E+00         0.55139E+07
 
    0.71001E+07        -0.19179E+06         0.00000E+00
   -0.19179E+06         0.18166E+08         0.00000E+00
    0.00000E+00         0.00000E+00         0.53946E+07
 
    0.69550E+07        -0.18018E+06         0.00000E+00
   -0.18018E+06         0.18092E+08         0.00000E+00
    0.00000E+00         0.00000E+00         0.52843E+07
 
    0.68198E+07        -0.16865E+06         0.00000E+00
   -0.16865E+06         0.18022E+08         0.00000E+00
    0.00000E+00         0.00000E+00         0.51812E+07
 
    0.66965E+07        -0.15737E+06         0.00000E+00
   -0.15737E+06         0.17958E+08         0.00000E+00
    0.00000E+00         0.00000E+00         0.50837E+07
 
    0.65834E+07        -0.14655E+06         0.00000E+00
   -0.14655E+06         0.17898E+08         0.00000E+00
    0.00000E+00         0.00000E+00         0.49924E+07
 
    0.64789E+07        -0.13621E+06         0.00000E+00
   -0.13621E+06         0.17842E+08         0.00000E+00
    0.00000E+00         0.00000E+00         0.49077E+07
 
    0.63790E+07        -0.12627E+06         0.00000E+00
   -0.12627E+06         0.17790E+08         0.00000E+00
    0.00000E+00         0.00000E+00         0.48312E+07
 
    0.62878E+07        -0.11668E+06         0.00000E+00
   -0.11668E+06         0.17742E+08         0.00000E+00
    0.00000E+00         0.00000E+00         0.47600E+07
 
    0.62045E+07        -0.10748E+06         0.00000E+00
   -0.10748E+06         0.17698E+08         0.00000E+00
    0.00000E+00         0.00000E+00         0.46940E+07
 
    0.61281E+07        -0.98530E+05         0.00000E+00
   -0.98530E+05         0.17658E+08         0.00000E+00
    0.00000E+00         0.00000E+00         0.46334E+07
 
    0.60576E+07        -0.90037E+05         0.00000E+00
   -0.90037E+05         0.17621E+08         0.00000E+00
    0.00000E+00         0.00000E+00         0.45784E+07
 
    0.59919E+07        -0.81782E+05         0.00000E+00
   -0.81782E+05         0.17587E+08         0.00000E+00
    0.00000E+00         0.00000E+00         0.45292E+07
 
    0.59306E+07        -0.73626E+05         0.00000E+00
   -0.73626E+05         0.17557E+08         0.00000E+00
    0.00000E+00         0.00000E+00         0.44860E+07
 
    0.58729E+07        -0.65492E+05         0.00000E+00
   -0.65492E+05         0.17530E+08         0.00000E+00
    0.00000E+00         0.00000E+00         0.44493E+07
 
    0.58187E+07        -0.57217E+05         0.00000E+00
   -0.57217E+05         0.17506E+08         0.00000E+00
    0.00000E+00         0.00000E+00         0.44199E+07
 
    0.57668E+07        -0.48793E+05         0.00000E+00
   -0.48793E+05         0.17485E+08         0.00000E+00
    0.00000E+00         0.00000E+00         0.43969E+07
 
    0.57175E+07        -0.40164E+05         0.00000E+00
   -0.40164E+05         0.17468E+08         0.00000E+00
    0.00000E+00         0.00000E+00         0.43820E+07
 
    0.56704E+07        -0.31145E+05         0.00000E+00
   -0.31145E+05         0.17454E+08         0.00000E+00
    0.00000E+00         0.00000E+00         0.43756E+07
 
    0.56247E+07        -0.21871E+05         0.00000E+00
   -0.21871E+05         0.17444E+08         0.00000E+00
    0.00000E+00         0.00000E+00         0.43767E+07
 
    0.55815E+07        -0.12420E+05         0.00000E+00
   -0.12420E+05         0.17438E+08         0.00000E+00
    0.00000E+00         0.00000E+00         0.43878E+07
 
    0.55403E+07        -0.26597E+04         0.00000E+00
   -0.26597E+04         0.17435E+08         0.00000E+00
    0.00000E+00         0.00000E+00         0.44087E+07
 
    0.55013E+07         0.74180E+04         0.00000E+00
    0.74180E+04         0.17437E+08         0.00000E+00
    0.00000E+00         0.00000E+00         0.44400E+07
 
    0.54645E+07         0.17873E+05         0.00000E+00
    0.17873E+05         0.17443E+08         0.00000E+00
    0.00000E+00         0.00000E+00         0.44822E+07
 
    0.54302E+07         0.28804E+05         0.00000E+00
    0.28804E+05         0.17453E+08         0.00000E+00
    0.00000E+00         0.00000E+00         0.45359E+07
 
    0.53988E+07         0.40448E+05         0.00000E+00
    0.40448E+05         0.17468E+08         0.00000E+00
    0.00000E+00         0.00000E+00         0.46017E+07
 
    0.53700E+07         0.53826E+05         0.00000E+00
    0.53826E+05         0.17487E+08         0.00000E+00
    0.00000E+00         0.00000E+00         0.46809E+07
 
    0.53300E+07         0.69788E+05         0.00000E+00
    0.69788E+05         0.17512E+08         0.00000E+00
    0.00000E+00         0.00000E+00         0.47874E+07
 
    0.52944E+07         0.88272E+05         0.00000E+00
    0.88272E+05         0.17543E+08         0.00000E+00
    0.00000E+00         0.00000E+00         0.49110E+07
 
    0.52655E+07         0.10950E+06         0.00000E+00
    0.10950E+06         0.17578E+08         0.00000E+00
    0.00000E+00         0.00000E+00         0.50492E+07
 
    0.52438E+07         0.13836E+06         0.00000E+00
    0.13836E+06         0.17611E+08         0.00000E+00
    0.00000E+00         0.00000E+00         0.51888E+07
 
    0.11670E+08         0.23095E+06         0.00000E+00
    0.23095E+06         0.18639E+08         0.00000E+00
    0.00000E+00         0.00000E+00         0.57336E+07
 
    0.11476E+08         0.88493E+05         0.00000E+00
    0.88493E+05         0.18610E+08         0.00000E+00
    0.00000E+00         0.00000E+00         0.56414E+07
 
    0.11191E+08        -0.80405E+05         0.00000E+00
   -0.80405E+05         0.18563E+08         0.00000E+00
    0.00000E+00         0.00000E+00         0.55252E+07
 
    0.10837E+08        -0.22996E+06         0.00000E+00
   -0.22996E+06         0.18565E+08         0.00000E+00
    0.00000E+00         0.00000E+00         0.55007E+07
 
    0.10470E+08        -0.34824E+06         0.00000E+00
   -0.34824E+06         0.18547E+08         0.00000E+00
    0.00000E+00         0.00000E+00         0.54701E+07
 
    0.10111E+08        -0.45123E+06         0.00000E+00
   -0.45123E+06         0.18515E+08         0.00000E+00
    0.00000E+00         0.00000E+00         0.54331E+07
 
    0.97534E+07        -0.53604E+06         0.00000E+00
   -0.53604E+06         0.18477E+08         0.00000E+00
    0.00000E+00         0.00000E+00         0.54002E+07
 
    0.94077E+07        -0.60051E+06         0.00000E+00
   -0.60051E+06         0.18432E+08         0.00000E+00
    0.00000E+00         0.00000E+00         0.53652E+07
 
    0.90773E+07        -0.64657E+06         0.00000E+00
   -0.64657E+06         0.18381E+08         0.00000E+00
    0.00000E+00         0.00000E+00         0.53253E+07
 
    0.87623E+07        -0.67681E+06         0.00000E+00
   -0.67681E+06         0.18325E+08         0.00000E+00
    0.00000E+00         0.00000E+00         0.52797E+07
 
    0.84693E+07        -0.69390E+06         0.00000E+00
   -0.69390E+06         0.18265E+08         0.00000E+00
    0.00000E+00         0.00000E+00         0.52271E+07
 
    0.81932E+07        -0.70044E+06         0.00000E+00
   -0.70044E+06         0.18203E+08         0.00000E+00
    0.00000E+00         0.00000E+00         0.51687E+07
 
    0.79317E+07        -0.69785E+06         0.00000E+00
   -0.69785E+06         0.18138E+08         0.00000E+00
    0.00000E+00         0.00000E+00         0.51059E+07
 
    0.76857E+07        -0.68694E+06         0.00000E+00
   -0.68694E+06         0.18073E+08         0.00000E+00
    0.00000E+00         0.00000E+00         0.50397E+07
 
    0.74582E+07        -0.67078E+06         0.00000E+00
   -0.67078E+06         0.18009E+08         0.00000E+00
    0.00000E+00         0.00000E+00         0.49707E+07
 
    0.72438E+07        -0.65000E+06         0.00000E+00
   -0.65000E+06         0.17945E+08         0.00000E+00
    0.00000E+00         0.00000E+00         0.49010E+07
 
    0.70415E+07        -0.62546E+06         0.00000E+00
   -0.62546E+06         0.17883E+08         0.00000E+00
    0.00000E+00         0.00000E+00         0.48317E+07
 
    0.68521E+07        -0.59847E+06         0.00000E+00
   -0.59847E+06         0.17822E+08         0.00000E+00
    0.00000E+00         0.00000E+00         0.47628E+07
 
    0.66743E+07        -0.56957E+06         0.00000E+00
   -0.56957E+06         0.17764E+08         0.00000E+00
    0.00000E+00         0.00000E+00         0.46958E+07
 
    0.65075E+07        -0.53995E+06         0.00000E+00
   -0.53995E+06         0.17707E+08         0.00000E+00
    0.00000E+00         0.00000E+00         0.46310E+07
 
    0.63516E+07        -0.51017E+06         0.00000E+00
   -0.51017E+06         0.17653E+08         0.00000E+00
    0.00000E+00         0.00000E+00         0.45681E+07
 
    0.62056E+07        -0.48060E+06         0.00000E+00
   -0.48060E+06         0.17602E+08         0.00000E+00
    0.00000E+00         0.00000E+00         0.45081E+07
 
    0.60684E+07        -0.45115E+06         0.00000E+00
   -0.45115E+06         0.17553E+08         0.00000E+00
    0.00000E+00         0.00000E+00         0.44513E+07
 
    0.59409E+07        -0.42247E+06         0.00000E+00
   -0.42247E+06         0.17506E+08         0.00000E+00
    0.00000E+00         0.00000E+00         0.43969E+07
 
    0.58226E+07        -0.39491E+06         0.00000E+00
   -0.39491E+06         0.17462E+08         0.00000E+00
    0.00000E+00         0.00000E+00         0.43453E+07
 
    0.57129E+07        -0.36856E+06         0.00000E+00
   -0.36856E+06         0.17420E+08         0.00000E+00
    0.00000E+00         0.00000E+00         0.42962E+07
 
    0.56114E+07        -0.34317E+06         0.00000E+00
   -0.34317E+06         0.17381E+08         0.00000E+00
    0.00000E+00         0.00000E+00         0.42497E+07
 
    0.55177E+07        -0.31842E+06         0.00000E+00
   -0.31842E+06         0.17344E+08         0.00000E+00
    0.00000E+00         0.00000E+00         0.42060E+07
 
    0.54316E+07        -0.29438E+06         0.00000E+00
   -0.29438E+06         0.17310E+08         0.00000E+00
    0.00000E+00         0.00000E+00         0.41653E+07
 
    0.53525E+07        -0.27108E+06         0.00000E+00
   -0.27108E+06         0.17278E+08         0.00000E+00
    0.00000E+00         0.00000E+00         0.41277E+07
 
    0.52795E+07        -0.24828E+06         0.00000E+00
   -0.24828E+06         0.17249E+08         0.00000E+00
    0.00000E+00         0.00000E+00         0.40938E+07
 
    0.52124E+07        -0.22586E+06         0.00000E+00
   -0.22586E+06         0.17223E+08         0.00000E+00
    0.00000E+00         0.00000E+00         0.40637E+07
 
    0.51504E+07        -0.20364E+06         0.00000E+00
   -0.20364E+06         0.17199E+08         0.00000E+00
    0.00000E+00         0.00000E+00         0.40377E+07
 
    0.50929E+07        -0.18135E+06         0.00000E+00
   -0.18135E+06         0.17178E+08         0.00000E+00
    0.00000E+00         0.00000E+00         0.40161E+07
 
    0.50395E+07        -0.15885E+06         0.00000E+00
   -0.15885E+06         0.17159E+08         0.00000E+00
    0.00000E+00         0.00000E+00         0.39993E+07
 
    0.49895E+07        -0.13587E+06         0.00000E+00
   -0.13587E+06         0.17143E+08         0.00000E+00
    0.00000E+00         0.00000E+00         0.39877E+07
 
    0.49427E+07        -0.11218E+06         0.00000E+00
   -0.11218E+06         0.17129E+08         0.00000E+00
    0.00000E+00         0.00000E+00         0.39818E+07
 
    0.48985E+07        -0.87737E+05         0.00000E+00
   -0.87737E+05         0.17119E+08         0.00000E+00
    0.00000E+00         0.00000E+00         0.39822E+07
 
    0.48564E+07        -0.62320E+05         0.00000E+00
   -0.62320E+05         0.17111E+08         0.00000E+00
    0.00000E+00         0.00000E+00         0.39897E+07
 
    0.48168E+07        -0.35687E+05         0.00000E+00
   -0.35687E+05         0.17106E+08         0.00000E+00
    0.00000E+00         0.00000E+00         0.40049E+07
 
    0.47800E+07        -0.77498E+04         0.00000E+00
   -0.77498E+04         0.17104E+08         0.00000E+00
    0.00000E+00         0.00000E+00         0.40280E+07
 
    0.47460E+07         0.21681E+05         0.00000E+00
    0.21681E+05         0.17106E+08         0.00000E+00
    0.00000E+00         0.00000E+00         0.40599E+07
 
    0.47155E+07         0.52711E+05         0.00000E+00
    0.52711E+05         0.17111E+08         0.00000E+00
    0.00000E+00         0.00000E+00         0.41012E+07
 
    0.46892E+07         0.85681E+05         0.00000E+00
    0.85681E+05         0.17121E+08         0.00000E+00
    0.00000E+00         0.00000E+00         0.41525E+07
 
    0.46686E+07         0.12100E+06         0.00000E+00
    0.12100E+06         0.17135E+08         0.00000E+00
    0.00000E+00         0.00000E+00         0.42142E+07
 
    0.46548E+07         0.15897E+06         0.00000E+00
    0.15897E+06         0.17153E+08         0.00000E+00
    0.00000E+00         0.00000E+00         0.42864E+07
 
    0.46423E+07         0.20240E+06         0.00000E+00
    0.20240E+06         0.17176E+08         0.00000E+00
    0.00000E+00         0.00000E+00         0.43729E+07
 
    0.46386E+07         0.25435E+06         0.00000E+00
    0.25435E+06         0.17203E+08         0.00000E+00
    0.00000E+00         0.00000E+00         0.44677E+07
 
    0.46542E+07         0.31624E+06         0.00000E+00
    0.31624E+06         0.17237E+08         0.00000E+00
    0.00000E+00         0.00000E+00         0.45738E+07
 
    0.47296E+07         0.38765E+06         0.00000E+00
    0.38765E+06         0.17290E+08         0.00000E+00
    0.00000E+00         0.00000E+00         0.47088E+07
 
    0.10618E+08        -0.88776E+05         0.00000E+00
   -0.88776E+05         0.17885E+08         0.00000E+00
    0.00000E+00         0.00000E+00         0.44353E+07
 
    0.10149E+08        -0.18525E+06         0.00000E+00
   -0.18525E+06         0.17840E+08         0.00000E+00
    0.00000E+00         0.00000E+00         0.43019E+07
 
    0.97658E+07        -0.29607E+06         0.00000E+00
   -0.29607E+06         0.17800E+08         0.00000E+00
    0.00000E+00         0.00000E+00         0.42133E+07
 
    0.94305E+07        -0.41335E+06         0.00000E+00
   -0.41335E+06         0.17754E+08         0.00000E+00
    0.00000E+00         0.00000E+00         0.41343E+07
 
    0.91235E+07        -0.52922E+06         0.00000E+00
   -0.52922E+06         0.17713E+08         0.00000E+00
    0.00000E+00         0.00000E+00         0.40813E+07
 
    0.88327E+07        -0.63222E+06         0.00000E+00
   -0.63222E+06         0.17676E+08         0.00000E+00
    0.00000E+00         0.00000E+00         0.40454E+07
 
    0.85580E+07        -0.72013E+06         0.00000E+00
   -0.72013E+06         0.17640E+08         0.00000E+00
    0.00000E+00         0.00000E+00         0.40200E+07
 
    0.82956E+07        -0.79229E+06         0.00000E+00
   -0.79229E+06         0.17606E+08         0.00000E+00
    0.00000E+00         0.00000E+00         0.40022E+07
 
    0.80440E+07        -0.84835E+06         0.00000E+00
   -0.84835E+06         0.17573E+08         0.00000E+00
    0.00000E+00         0.00000E+00         0.39883E+07
 
    0.78026E+07        -0.88870E+06         0.00000E+00
   -0.88870E+06         0.17540E+08         0.00000E+00
    0.00000E+00         0.00000E+00         0.39754E+07
 
    0.75710E+07        -0.91492E+06         0.00000E+00
   -0.91492E+06         0.17506E+08         0.00000E+00
    0.00000E+00         0.00000E+00         0.39616E+07
 
    0.73486E+07        -0.92854E+06         0.00000E+00
   -0.92854E+06         0.17472E+08         0.00000E+00
    0.00000E+00         0.00000E+00         0.39455E+07
 
    0.71346E+07        -0.93133E+06         0.00000E+00
   -0.93133E+06         0.17437E+08         0.00000E+00
    0.00000E+00         0.00000E+00         0.39265E+07
 
    0.69282E+07        -0.92422E+06         0.00000E+00
   -0.92422E+06         0.17401E+08         0.00000E+00
    0.00000E+00         0.00000E+00         0.39041E+07
 
    0.67296E+07        -0.90877E+06         0.00000E+00
   -0.90877E+06         0.17364E+08         0.00000E+00
    0.00000E+00         0.00000E+00         0.38782E+07
 
    0.65388E+07        -0.88671E+06         0.00000E+00
   -0.88671E+06         0.17326E+08         0.00000E+00
    0.00000E+00         0.00000E+00         0.38499E+07
 
    0.63555E+07        -0.85948E+06         0.00000E+00
   -0.85948E+06         0.17288E+08         0.00000E+00
    0.00000E+00         0.00000E+00         0.38198E+07
 
    0.61796E+07        -0.82805E+06         0.00000E+00
   -0.82805E+06         0.17250E+08         0.00000E+00
    0.00000E+00         0.00000E+00         0.37886E+07
 
    0.60110E+07        -0.79380E+06         0.00000E+00
   -0.79380E+06         0.17213E+08         0.00000E+00
    0.00000E+00         0.00000E+00         0.37570E+07
 
    0.58495E+07        -0.75735E+06         0.00000E+00
   -0.75735E+06         0.17175E+08         0.00000E+00
    0.00000E+00         0.00000E+00         0.37259E+07
 
    0.56954E+07        -0.71942E+06         0.00000E+00
   -0.71942E+06         0.17139E+08         0.00000E+00
    0.00000E+00         0.00000E+00         0.36961E+07
 
    0.55488E+07        -0.68078E+06         0.00000E+00
   -0.68078E+06         0.17103E+08         0.00000E+00
    0.00000E+00         0.00000E+00         0.36685E+07
 
    0.54098E+07        -0.64197E+06         0.00000E+00
   -0.64197E+06         0.17070E+08         0.00000E+00
    0.00000E+00         0.00000E+00         0.36434E+07
 
    0.52785E+07        -0.60339E+06         0.00000E+00
   -0.60339E+06         0.17038E+08         0.00000E+00
    0.00000E+00         0.00000E+00         0.36209E+07
 
    0.51554E+07        -0.56547E+06         0.00000E+00
   -0.56547E+06         0.17007E+08         0.00000E+00
    0.00000E+00         0.00000E+00         0.36013E+07
 
    0.50407E+07        -0.52839E+06         0.00000E+00
   -0.52839E+06         0.16979E+08         0.00000E+00
    0.00000E+00         0.00000E+00         0.35846E+07
 
    0.49343E+07        -0.49223E+06         0.00000E+00
   -0.49223E+06         0.16953E+08         0.00000E+00
    0.00000E+00         0.00000E+00         0.35708E+07
 
    0.48362E+07        -0.45710E+06         0.00000E+00
   -0.45710E+06         0.16929E+08         0.00000E+00
    0.00000E+00         0.00000E+00         0.35596E+07
 
    0.47461E+07        -0.42282E+06         0.00000E+00
   -0.42282E+06         0.16907E+08         0.00000E+00
    0.00000E+00         0.00000E+00         0.35506E+07
 
    0.46636E+07        -0.38924E+06         0.00000E+00
   -0.38924E+06         0.16887E+08         0.00000E+00
    0.00000E+00         0.00000E+00         0.35438E+07
 
    0.45882E+07        -0.35625E+06         0.00000E+00
   -0.35625E+06         0.16869E+08         0.00000E+00
    0.00000E+00         0.00000E+00         0.35390E+07
 
    0.45196E+07        -0.32361E+06         0.00000E+00
   -0.32361E+06         0.16853E+08         0.00000E+00
    0.00000E+00         0.00000E+00         0.35364E+07
 
    0.44572E+07        -0.29108E+06         0.00000E+00
   -0.29108E+06         0.16839E+08         0.00000E+00
    0.00000E+00         0.00000E+00         0.35362E+07
 
    0.44007E+07        -0.25846E+06         0.00000E+00
   -0.25846E+06         0.16827E+08         0.00000E+00
    0.00000E+00         0.00000E+00         0.35387E+07
 
    0.43494E+07        -0.22533E+06         0.00000E+00
   -0.22533E+06         0.16817E+08         0.00000E+00
    0.00000E+00         0.00000E+00         0.35443E+07
 
    0.43029E+07        -0.19147E+06         0.00000E+00
   -0.19147E+06         0.16809E+08         0.00000E+00
    0.00000E+00         0.00000E+00         0.35532E+07
 
    0.42610E+07        -0.15658E+06         0.00000E+00
   -0.15658E+06         0.16803E+08         0.00000E+00
    0.00000E+00         0.00000E+00         0.35659E+07
 
    0.42233E+07        -0.12019E+06         0.00000E+00
   -0.12019E+06         0.16799E+08         0.00000E+00
    0.00000E+00         0.00000E+00         0.35827E+07
 
    0.41893E+07        -0.81807E+05         0.00000E+00
   -0.81807E+05         0.16798E+08         0.00000E+00
    0.00000E+00         0.00000E+00         0.36044E+07
 
    0.41588E+07        -0.41163E+05         0.00000E+00
   -0.41163E+05         0.16799E+08         0.00000E+00
    0.00000E+00         0.00000E+00         0.36317E+07
 
    0.41324E+07         0.20218E+04         0.00000E+00
    0.20218E+04         0.16803E+08         0.00000E+00
    0.00000E+00         0.00000E+00         0.36649E+07
 
    0.41107E+07         0.48257E+05         0.00000E+00
    0.48257E+05         0.16810E+08         0.00000E+00
    0.00000E+00         0.00000E+00         0.37048E+07
 
    0.40944E+07         0.98233E+05         0.00000E+00
    0.98233E+05         0.16820E+08         0.00000E+00
    0.00000E+00         0.00000E+00         0.37516E+07
 
    0.40843E+07         0.15223E+06         0.00000E+00
    0.15223E+06         0.16833E+08         0.00000E+00
    0.00000E+00         0.00000E+00         0.38058E+07
 
    0.40819E+07         0.21061E+06         0.00000E+00
    0.21061E+06         0.16850E+08         0.00000E+00
    0.00000E+00         0.00000E+00         0.38677E+07
 
    0.40886E+07         0.27357E+06         0.00000E+00
    0.27357E+06         0.16871E+08         0.00000E+00
    0.00000E+00         0.00000E+00         0.39372E+07
 
    0.41092E+07         0.34028E+06         0.00000E+00
    0.34028E+06         0.16897E+08         0.00000E+00
    0.00000E+00         0.00000E+00         0.40156E+07
 
    0.41481E+07         0.41217E+06         0.00000E+00
    0.41217E+06         0.16929E+08         0.00000E+00
    0.00000E+00         0.00000E+00         0.40995E+07
 
    0.42068E+07         0.49043E+06         0.00000E+00
    0.49043E+06         0.16965E+08         0.00000E+00
    0.00000E+00         0.00000E+00         0.41862E+07
 
    0.42795E+07         0.57241E+06         0.00000E+00
    0.57241E+06         0.16999E+08         0.00000E+00
    0.00000E+00         0.00000E+00         0.42740E+07
 
    0.89558E+07        -0.15315E+06         0.00000E+00
   -0.15315E+06         0.17130E+08         0.00000E+00
    0.00000E+00         0.00000E+00         0.30750E+07
 
    0.86214E+07        -0.34451E+06         0.00000E+00
   -0.34451E+06         0.17122E+08         0.00000E+00
    0.00000E+00         0.00000E+00         0.30571E+07
 
    0.83169E+07        -0.49925E+06         0.00000E+00
   -0.49925E+06         0.17095E+08         0.00000E+00
    0.00000E+00         0.00000E+00         0.30265E+07
 
    0.80489E+07        -0.62654E+06         0.00000E+00
   -0.62654E+06         0.17061E+08         0.00000E+00
    0.00000E+00         0.00000E+00         0.29963E+07
 
    0.78086E+07        -0.73128E+06         0.00000E+00
   -0.73128E+06         0.17025E+08         0.00000E+00
    0.00000E+00         0.00000E+00         0.29674E+07
 
    0.75919E+07        -0.81928E+06         0.00000E+00
   -0.81928E+06         0.16990E+08         0.00000E+00
    0.00000E+00         0.00000E+00         0.29433E+07
 
    0.73917E+07        -0.89174E+06         0.00000E+00
   -0.89174E+06         0.16958E+08         0.00000E+00
    0.00000E+00         0.00000E+00         0.29248E+07
 
    0.72030E+07        -0.94989E+06         0.00000E+00
   -0.94989E+06         0.16928E+08         0.00000E+00
    0.00000E+00         0.00000E+00         0.29112E+07
 
    0.70223E+07        -0.99497E+06         0.00000E+00
   -0.99497E+06         0.16901E+08         0.00000E+00
    0.00000E+00         0.00000E+00         0.29016E+07
 
    0.68474E+07        -0.10281E+07         0.00000E+00
   -0.10281E+07         0.16877E+08         0.00000E+00
    0.00000E+00         0.00000E+00         0.28946E+07
 
    0.66764E+07        -0.10499E+07         0.00000E+00
   -0.10499E+07         0.16854E+08         0.00000E+00
    0.00000E+00         0.00000E+00         0.28889E+07
 
    0.65081E+07        -0.10614E+07         0.00000E+00
   -0.10614E+07         0.16832E+08         0.00000E+00
    0.00000E+00         0.00000E+00         0.28836E+07
 
    0.63424E+07        -0.10634E+07         0.00000E+00
   -0.10634E+07         0.16810E+08         0.00000E+00
    0.00000E+00         0.00000E+00         0.28782E+07
 
    0.61785E+07        -0.10568E+07         0.00000E+00
   -0.10568E+07         0.16789E+08         0.00000E+00
    0.00000E+00         0.00000E+00         0.28724E+07
 
    0.60166E+07        -0.10425E+07         0.00000E+00
   -0.10425E+07         0.16768E+08         0.00000E+00
    0.00000E+00         0.00000E+00         0.28660E+07
 
    0.58566E+07        -0.10216E+07         0.00000E+00
   -0.10216E+07         0.16747E+08         0.00000E+00
    0.00000E+00         0.00000E+00         0.28588E+07
 
    0.56991E+07        -0.99464E+06         0.00000E+00
   -0.99464E+06         0.16726E+08         0.00000E+00
    0.00000E+00         0.00000E+00         0.28509E+07
 
    0.55437E+07        -0.96270E+06         0.00000E+00
   -0.96270E+06         0.16705E+08         0.00000E+00
    0.00000E+00         0.00000E+00         0.28431E+07
 
    0.53910E+07        -0.92655E+06         0.00000E+00
   -0.92655E+06         0.16684E+08         0.00000E+00
    0.00000E+00         0.00000E+00         0.28361E+07
 
    0.52414E+07        -0.88703E+06         0.00000E+00
   -0.88703E+06         0.16663E+08         0.00000E+00
    0.00000E+00         0.00000E+00         0.28306E+07
 
    0.50954E+07        -0.84497E+06         0.00000E+00
   -0.84497E+06         0.16642E+08         0.00000E+00
    0.00000E+00         0.00000E+00         0.28272E+07
 
    0.49535E+07        -0.80106E+06         0.00000E+00
   -0.80106E+06         0.16622E+08         0.00000E+00
    0.00000E+00         0.00000E+00         0.28263E+07
 
    0.48164E+07        -0.75603E+06         0.00000E+00
   -0.75603E+06         0.16603E+08         0.00000E+00
    0.00000E+00         0.00000E+00         0.28285E+07
 
    0.46848E+07        -0.71040E+06         0.00000E+00
   -0.71040E+06         0.16585E+08         0.00000E+00
    0.00000E+00         0.00000E+00         0.28341E+07
 
    0.45593E+07        -0.66458E+06         0.00000E+00
   -0.66458E+06         0.16568E+08         0.00000E+00
    0.00000E+00         0.00000E+00         0.28434E+07
 
    0.44405E+07        -0.61919E+06         0.00000E+00
   -0.61919E+06         0.16553E+08         0.00000E+00
    0.00000E+00         0.00000E+00         0.28563E+07
 
    0.43294E+07        -0.57464E+06         0.00000E+00
   -0.57464E+06         0.16539E+08         0.00000E+00
    0.00000E+00         0.00000E+00         0.28725E+07
 
    0.42263E+07        -0.53096E+06         0.00000E+00
   -0.53096E+06         0.16527E+08         0.00000E+00
    0.00000E+00         0.00000E+00         0.28920E+07
 
    0.41315E+07        -0.48832E+06         0.00000E+00
   -0.48832E+06         0.16517E+08         0.00000E+00
    0.00000E+00         0.00000E+00         0.29142E+07
 
    0.40452E+07        -0.44668E+06         0.00000E+00
   -0.44668E+06         0.16508E+08         0.00000E+00
    0.00000E+00         0.00000E+00         0.29388E+07
 
    0.39673E+07        -0.40577E+06         0.00000E+00
   -0.40577E+06         0.16501E+08         0.00000E+00
    0.00000E+00         0.00000E+00         0.29652E+07
 
    0.38975E+07        -0.36520E+06         0.00000E+00
   -0.36520E+06         0.16496E+08         0.00000E+00
    0.00000E+00         0.00000E+00         0.29931E+07
 
    0.38355E+07        -0.32462E+06         0.00000E+00
   -0.32462E+06         0.16493E+08         0.00000E+00
    0.00000E+00         0.00000E+00         0.30224E+07
 
    0.37808E+07        -0.28365E+06         0.00000E+00
   -0.28365E+06         0.16492E+08         0.00000E+00
    0.00000E+00         0.00000E+00         0.30530E+07
 
    0.37330E+07        -0.24204E+06         0.00000E+00
   -0.24204E+06         0.16492E+08         0.00000E+00
    0.00000E+00         0.00000E+00         0.30851E+07
 
    0.36921E+07        -0.19925E+06         0.00000E+00
   -0.19925E+06         0.16494E+08         0.00000E+00
    0.00000E+00         0.00000E+00         0.31189E+07
 
    0.36575E+07        -0.15487E+06         0.00000E+00
   -0.15487E+06         0.16498E+08         0.00000E+00
    0.00000E+00         0.00000E+00         0.31550E+07
 
    0.36292E+07        -0.10860E+06         0.00000E+00
   -0.10860E+06         0.16504E+08         0.00000E+00
    0.00000E+00         0.00000E+00         0.31935E+07
 
    0.36077E+07        -0.60197E+05         0.00000E+00
   -0.60197E+05         0.16512E+08         0.00000E+00
    0.00000E+00         0.00000E+00         0.32344E+07
 
    0.35927E+07        -0.87277E+04         0.00000E+00
   -0.87277E+04         0.16522E+08         0.00000E+00
    0.00000E+00         0.00000E+00         0.32783E+07
 
    0.35836E+07         0.46763E+05         0.00000E+00
    0.46763E+05         0.16534E+08         0.00000E+00
    0.00000E+00         0.00000E+00         0.33257E+07
 
    0.35807E+07         0.10616E+06         0.00000E+00
    0.10616E+06         0.16549E+08         0.00000E+00
    0.00000E+00         0.00000E+00         0.33767E+07
 
    0.35850E+07         0.16956E+06         0.00000E+00
    0.16956E+06         0.16565E+08         0.00000E+00
    0.00000E+00         0.00000E+00         0.34307E+07
 
    0.35971E+07         0.23788E+06         0.00000E+00
    0.23788E+06         0.16584E+08         0.00000E+00
    0.00000E+00         0.00000E+00         0.34873E+07
 
    0.36176E+07         0.31142E+06         0.00000E+00
    0.31142E+06         0.16605E+08         0.00000E+00
    0.00000E+00         0.00000E+00         0.35472E+07
 
    0.36464E+07         0.39000E+06         0.00000E+00
    0.39000E+06         0.16628E+08         0.00000E+00
    0.00000E+00         0.00000E+00         0.36112E+07
 
    0.36830E+07         0.47375E+06         0.00000E+00
    0.47375E+06         0.16652E+08         0.00000E+00
    0.00000E+00         0.00000E+00         0.36775E+07
 
    0.37321E+07         0.55784E+06         0.00000E+00
    0.55784E+06         0.16679E+08         0.00000E+00
    0.00000E+00         0.00000E+00         0.37441E+07
 
    0.37971E+07         0.63872E+06         0.00000E+00
    0.63872E+06         0.16708E+08         0.00000E+00
    0.00000E+00         0.00000E+00         0.38102E+07
 
    0.38800E+07         0.71890E+06         0.00000E+00
    0.71890E+06         0.16739E+08         0.00000E+00
    0.00000E+00         0.00000E+00         0.38841E+07
 
    0.69846E+07        -0.17655E+06         0.00000E+00
   -0.17655E+06         0.16350E+08         0.00000E+00
    0.00000E+00         0.00000E+00         0.17165E+07
 
    0.68684E+07        -0.41438E+06         0.00000E+00
   -0.41438E+06         0.16334E+08         0.00000E+00
    0.00000E+00         0.00000E+00         0.17175E+07
 
    0.67575E+07        -0.59760E+06         0.00000E+00
   -0.59760E+06         0.16322E+08         0.00000E+00
    0.00000E+00         0.00000E+00         0.17362E+07
 
    0.66458E+07        -0.73761E+06         0.00000E+00
   -0.73761E+06         0.16313E+08         0.00000E+00
    0.00000E+00         0.00000E+00         0.17610E+07
 
    0.65323E+07        -0.84525E+06         0.00000E+00
   -0.84525E+06         0.16304E+08         0.00000E+00
    0.00000E+00         0.00000E+00         0.17863E+07
 
    0.64164E+07        -0.92723E+06         0.00000E+00
   -0.92723E+06         0.16297E+08         0.00000E+00
    0.00000E+00         0.00000E+00         0.18103E+07
 
    0.62992E+07        -0.99062E+06         0.00000E+00
   -0.99062E+06         0.16289E+08         0.00000E+00
    0.00000E+00         0.00000E+00         0.18324E+07
 
    0.61820E+07        -0.10395E+07         0.00000E+00
   -0.10395E+07         0.16282E+08         0.00000E+00
    0.00000E+00         0.00000E+00         0.18528E+07
 
    0.60640E+07        -0.10760E+07         0.00000E+00
   -0.10760E+07         0.16275E+08         0.00000E+00
    0.00000E+00         0.00000E+00         0.18706E+07
 
    0.59451E+07        -0.11015E+07         0.00000E+00
   -0.11015E+07         0.16268E+08         0.00000E+00
    0.00000E+00         0.00000E+00         0.18873E+07
 
    0.58252E+07        -0.11174E+07         0.00000E+00
   -0.11174E+07         0.16262E+08         0.00000E+00
    0.00000E+00         0.00000E+00         0.19031E+07
 
    0.57041E+07        -0.11245E+07         0.00000E+00
   -0.11245E+07         0.16256E+08         0.00000E+00
    0.00000E+00         0.00000E+00         0.19175E+07
 
    0.55807E+07        -0.11235E+07         0.00000E+00
   -0.11235E+07         0.16250E+08         0.00000E+00
    0.00000E+00         0.00000E+00         0.19307E+07
 
    0.54553E+07        -0.11154E+07         0.00000E+00
   -0.11154E+07         0.16243E+08         0.00000E+00
    0.00000E+00         0.00000E+00         0.19429E+07
 
    0.53282E+07        -0.11006E+07         0.00000E+00
   -0.11006E+07         0.16236E+08         0.00000E+00
    0.00000E+00         0.00000E+00         0.19539E+07
 
    0.51993E+07        -0.10795E+07         0.00000E+00
   -0.10795E+07         0.16229E+08         0.00000E+00
    0.00000E+00         0.00000E+00         0.19644E+07
 
    0.50698E+07        -0.10526E+07         0.00000E+00
   -0.10526E+07         0.16222E+08         0.00000E+00
    0.00000E+00         0.00000E+00         0.19746E+07
 
    0.49382E+07        -0.10204E+07         0.00000E+00
   -0.10204E+07         0.16214E+08         0.00000E+00
    0.00000E+00         0.00000E+00         0.19856E+07
 
    0.48053E+07        -0.98370E+06         0.00000E+00
   -0.98370E+06         0.16207E+08         0.00000E+00
    0.00000E+00         0.00000E+00         0.19974E+07
 
    0.46722E+07        -0.94323E+06         0.00000E+00
   -0.94323E+06         0.16199E+08         0.00000E+00
    0.00000E+00         0.00000E+00         0.20106E+07
 
    0.45392E+07        -0.89942E+06         0.00000E+00
   -0.89942E+06         0.16190E+08         0.00000E+00
    0.00000E+00         0.00000E+00         0.20259E+07
 
    0.44070E+07        -0.85278E+06         0.00000E+00
   -0.85278E+06         0.16182E+08         0.00000E+00
    0.00000E+00         0.00000E+00         0.20437E+07
 
    0.42764E+07        -0.80382E+06         0.00000E+00
   -0.80382E+06         0.16175E+08         0.00000E+00
    0.00000E+00         0.00000E+00         0.20648E+07
 
    0.41483E+07        -0.75331E+06         0.00000E+00
   -0.75331E+06         0.16168E+08         0.00000E+00
    0.00000E+00         0.00000E+00         0.20900E+07
 
    0.40238E+07        -0.70187E+06         0.00000E+00
   -0.70187E+06         0.16162E+08         0.00000E+00
    0.00000E+00         0.00000E+00         0.21197E+07
 
    0.39041E+07        -0.64991E+06         0.00000E+00
   -0.64991E+06         0.16157E+08         0.00000E+00
    0.00000E+00         0.00000E+00         0.21542E+07
 
    0.37898E+07        -0.59769E+06         0.00000E+00
   -0.59769E+06         0.16153E+08         0.00000E+00
    0.00000E+00         0.00000E+00         0.21937E+07
 
    0.36822E+07        -0.54617E+06         0.00000E+00
   -0.54617E+06         0.16151E+08         0.00000E+00
    0.00000E+00         0.00000E+00         0.22378E+07
 
    0.35826E+07        -0.49552E+06         0.00000E+00
   -0.49552E+06         0.16151E+08         0.00000E+00
    0.00000E+00         0.00000E+00         0.22864E+07
 
    0.34918E+07        -0.44579E+06         0.00000E+00
   -0.44579E+06         0.16152E+08         0.00000E+00
    0.00000E+00         0.00000E+00         0.23389E+07
 
    0.34104E+07        -0.39694E+06         0.00000E+00
   -0.39694E+06         0.16156E+08         0.00000E+00
    0.00000E+00         0.00000E+00         0.23947E+07
 
    0.33389E+07        -0.34891E+06         0.00000E+00
   -0.34891E+06         0.16161E+08         0.00000E+00
    0.00000E+00         0.00000E+00         0.24528E+07
 
    0.32772E+07        -0.30130E+06         0.00000E+00
   -0.30130E+06         0.16169E+08         0.00000E+00
    0.00000E+00         0.00000E+00         0.25122E+07
 
    0.32253E+07        -0.25345E+06         0.00000E+00
   -0.25345E+06         0.16178E+08         0.00000E+00
    0.00000E+00         0.00000E+00         0.25721E+07
 
    0.31830E+07        -0.20458E+06         0.00000E+00
   -0.20458E+06         0.16189E+08         0.00000E+00
    0.00000E+00         0.00000E+00         0.26321E+07
 
    0.31496E+07        -0.15435E+06         0.00000E+00
   -0.15435E+06         0.16201E+08         0.00000E+00
    0.00000E+00         0.00000E+00         0.26919E+07
 
    0.31247E+07        -0.10218E+06         0.00000E+00
   -0.10218E+06         0.16215E+08         0.00000E+00
    0.00000E+00         0.00000E+00         0.27517E+07
 
    0.31083E+07        -0.47545E+05         0.00000E+00
   -0.47545E+05         0.16230E+08         0.00000E+00
    0.00000E+00         0.00000E+00         0.28114E+07
 
    0.30995E+07         0.10144E+05         0.00000E+00
    0.10144E+05         0.16247E+08         0.00000E+00
    0.00000E+00         0.00000E+00         0.28720E+07
 
    0.30993E+07         0.70580E+05         0.00000E+00
    0.70580E+05         0.16266E+08         0.00000E+00
    0.00000E+00         0.00000E+00         0.29330E+07
 
    0.31077E+07         0.13377E+06         0.00000E+00
    0.13377E+06         0.16286E+08         0.00000E+00
    0.00000E+00         0.00000E+00         0.29940E+07
 
    0.31247E+07         0.20079E+06         0.00000E+00
    0.20079E+06         0.16308E+08         0.00000E+00
    0.00000E+00         0.00000E+00         0.30549E+07
 
    0.31504E+07         0.27138E+06         0.00000E+00
    0.27138E+06         0.16331E+08         0.00000E+00
    0.00000E+00         0.00000E+00         0.31156E+07
 
    0.31847E+07         0.34532E+06         0.00000E+00
    0.34532E+06         0.16356E+08         0.00000E+00
    0.00000E+00         0.00000E+00         0.31765E+07
 
    0.32255E+07         0.42314E+06         0.00000E+00
    0.42314E+06         0.16381E+08         0.00000E+00
    0.00000E+00         0.00000E+00         0.32367E+07
 
    0.32723E+07         0.50350E+06         0.00000E+00
    0.50350E+06         0.16406E+08         0.00000E+00
    0.00000E+00         0.00000E+00         0.32950E+07
 
    0.33232E+07         0.58673E+06         0.00000E+00
    0.58673E+06         0.16430E+08         0.00000E+00
    0.00000E+00         0.00000E+00         0.33528E+07
 
    0.33760E+07         0.67399E+06         0.00000E+00
    0.67399E+06         0.16453E+08         0.00000E+00
    0.00000E+00         0.00000E+00         0.34094E+07
 
    0.34350E+07         0.76645E+06         0.00000E+00
    0.76645E+06         0.16474E+08         0.00000E+00
    0.00000E+00         0.00000E+00         0.34635E+07
 
    0.35121E+07         0.85655E+06         0.00000E+00
    0.85655E+06         0.16498E+08         0.00000E+00
    0.00000E+00         0.00000E+00         0.35240E+07
 
    0.49255E+07        -0.23090E+06         0.00000E+00
   -0.23090E+06         0.15603E+08         0.00000E+00
    0.00000E+00         0.00000E+00         0.53379E+06
 
    0.50935E+07        -0.42102E+06         0.00000E+00
   -0.42102E+06         0.15615E+08         0.00000E+00
    0.00000E+00         0.00000E+00         0.55463E+06
 
    0.52007E+07        -0.57720E+06         0.00000E+00
   -0.57720E+06         0.15634E+08         0.00000E+00
    0.00000E+00         0.00000E+00         0.60681E+06
 
    0.52595E+07        -0.70677E+06         0.00000E+00
   -0.70677E+06         0.15655E+08         0.00000E+00
    0.00000E+00         0.00000E+00         0.66956E+06
 
    0.52818E+07        -0.81322E+06         0.00000E+00
   -0.81322E+06         0.15674E+08         0.00000E+00
    0.00000E+00         0.00000E+00         0.73405E+06
 
    0.52756E+07        -0.89957E+06         0.00000E+00
   -0.89957E+06         0.15691E+08         0.00000E+00
    0.00000E+00         0.00000E+00         0.79493E+06
 
    0.52483E+07        -0.96731E+06         0.00000E+00
   -0.96731E+06         0.15705E+08         0.00000E+00
    0.00000E+00         0.00000E+00         0.84997E+06
 
    0.52042E+07        -0.10189E+07         0.00000E+00
   -0.10189E+07         0.15717E+08         0.00000E+00
    0.00000E+00         0.00000E+00         0.89954E+06
 
    0.51485E+07        -0.10572E+07         0.00000E+00
   -0.10572E+07         0.15730E+08         0.00000E+00
    0.00000E+00         0.00000E+00         0.94867E+06
 
    0.50832E+07        -0.10841E+07         0.00000E+00
   -0.10841E+07         0.15741E+08         0.00000E+00
    0.00000E+00         0.00000E+00         0.99291E+06
 
    0.50096E+07        -0.11013E+07         0.00000E+00
   -0.11013E+07         0.15751E+08         0.00000E+00
    0.00000E+00         0.00000E+00         0.10331E+07
 
    0.49301E+07        -0.11108E+07         0.00000E+00
   -0.11108E+07         0.15760E+08         0.00000E+00
    0.00000E+00         0.00000E+00         0.10703E+07
 
    0.48455E+07        -0.11134E+07         0.00000E+00
   -0.11134E+07         0.15767E+08         0.00000E+00
    0.00000E+00         0.00000E+00         0.11036E+07
 
    0.47563E+07        -0.11078E+07         0.00000E+00
   -0.11078E+07         0.15772E+08         0.00000E+00
    0.00000E+00         0.00000E+00         0.11325E+07
 
    0.46626E+07        -0.10944E+07         0.00000E+00
   -0.10944E+07         0.15777E+08         0.00000E+00
    0.00000E+00         0.00000E+00         0.11601E+07
 
    0.45641E+07        -0.10744E+07         0.00000E+00
   -0.10744E+07         0.15781E+08         0.00000E+00
    0.00000E+00         0.00000E+00         0.11867E+07
 
    0.44611E+07        -0.10490E+07         0.00000E+00
   -0.10490E+07         0.15785E+08         0.00000E+00
    0.00000E+00         0.00000E+00         0.12125E+07
 
    0.43540E+07        -0.10187E+07         0.00000E+00
   -0.10187E+07         0.15788E+08         0.00000E+00
    0.00000E+00         0.00000E+00         0.12377E+07
 
    0.42437E+07        -0.98399E+06         0.00000E+00
   -0.98399E+06         0.15790E+08         0.00000E+00
    0.00000E+00         0.00000E+00         0.12630E+07
 
    0.41302E+07        -0.94461E+06         0.00000E+00
   -0.94461E+06         0.15791E+08         0.00000E+00
    0.00000E+00         0.00000E+00         0.12884E+07
 
    0.40146E+07        -0.90096E+06         0.00000E+00
   -0.90096E+06         0.15792E+08         0.00000E+00
    0.00000E+00         0.00000E+00         0.13152E+07
 
    0.38975E+07        -0.85353E+06         0.00000E+00
   -0.85353E+06         0.15792E+08         0.00000E+00
    0.00000E+00         0.00000E+00         0.13445E+07
 
    0.37794E+07        -0.80269E+06         0.00000E+00
   -0.80269E+06         0.15793E+08         0.00000E+00
    0.00000E+00         0.00000E+00         0.13768E+07
 
    0.36607E+07        -0.74859E+06         0.00000E+00
   -0.74859E+06         0.15794E+08         0.00000E+00
    0.00000E+00         0.00000E+00         0.14129E+07
 
    0.35423E+07        -0.69222E+06         0.00000E+00
   -0.69222E+06         0.15795E+08         0.00000E+00
    0.00000E+00         0.00000E+00         0.14540E+07
 
    0.34256E+07        -0.63442E+06         0.00000E+00
   -0.63442E+06         0.15797E+08         0.00000E+00
    0.00000E+00         0.00000E+00         0.15004E+07
 
    0.33122E+07        -0.57566E+06         0.00000E+00
   -0.57566E+06         0.15801E+08         0.00000E+00
    0.00000E+00         0.00000E+00         0.15531E+07
 
    0.32033E+07        -0.51604E+06         0.00000E+00
   -0.51604E+06         0.15806E+08         0.00000E+00
    0.00000E+00         0.00000E+00         0.16128E+07
 
    0.31007E+07        -0.45610E+06         0.00000E+00
   -0.45610E+06         0.15813E+08         0.00000E+00
    0.00000E+00         0.00000E+00         0.16790E+07
 
    0.30056E+07        -0.39664E+06         0.00000E+00
   -0.39664E+06         0.15821E+08         0.00000E+00
    0.00000E+00         0.00000E+00         0.17515E+07
 
    0.29197E+07        -0.33834E+06         0.00000E+00
   -0.33834E+06         0.15832E+08         0.00000E+00
    0.00000E+00         0.00000E+00         0.18292E+07
 
    0.28445E+07        -0.28104E+06         0.00000E+00
   -0.28104E+06         0.15846E+08         0.00000E+00
    0.00000E+00         0.00000E+00         0.19114E+07
 
    0.27813E+07        -0.22462E+06         0.00000E+00
   -0.22462E+06         0.15862E+08         0.00000E+00
    0.00000E+00         0.00000E+00         0.19968E+07
 
    0.27306E+07        -0.16889E+06         0.00000E+00
   -0.16889E+06         0.15880E+08         0.00000E+00
    0.00000E+00         0.00000E+00         0.20840E+07
 
    0.26920E+07        -0.11352E+06         0.00000E+00
   -0.11352E+06         0.15900E+08         0.00000E+00
    0.00000E+00         0.00000E+00         0.21715E+07
 
    0.26652E+07        -0.57324E+05         0.00000E+00
   -0.57324E+05         0.15922E+08         0.00000E+00
    0.00000E+00         0.00000E+00         0.22580E+07
 
    0.26500E+07         0.13574E+03         0.00000E+00
    0.13574E+03         0.15945E+08         0.00000E+00
    0.00000E+00         0.00000E+00         0.23422E+07
 
    0.26456E+07         0.59754E+05         0.00000E+00
    0.59754E+05         0.15970E+08         0.00000E+00
    0.00000E+00         0.00000E+00         0.24235E+07
 
    0.26504E+07         0.12179E+06         0.00000E+00
    0.12179E+06         0.15995E+08         0.00000E+00
    0.00000E+00         0.00000E+00         0.25020E+07
 
    0.26646E+07         0.18700E+06         0.00000E+00
    0.18700E+06         0.16021E+08         0.00000E+00
    0.00000E+00         0.00000E+00         0.25771E+07
 
    0.26873E+07         0.25529E+06         0.00000E+00
    0.25529E+06         0.16047E+08         0.00000E+00
    0.00000E+00         0.00000E+00         0.26498E+07
 
    0.27186E+07         0.32553E+06         0.00000E+00
    0.32553E+06         0.16075E+08         0.00000E+00
    0.00000E+00         0.00000E+00         0.27202E+07
 
    0.27568E+07         0.39846E+06         0.00000E+00
    0.39846E+06         0.16102E+08         0.00000E+00
    0.00000E+00         0.00000E+00         0.27885E+07
 
    0.28020E+07         0.47301E+06         0.00000E+00
    0.47301E+06         0.16129E+08         0.00000E+00
    0.00000E+00         0.00000E+00         0.28534E+07
 
    0.28546E+07         0.54869E+06         0.00000E+00
    0.54869E+06         0.16157E+08         0.00000E+00
    0.00000E+00         0.00000E+00         0.29151E+07
 
    0.29144E+07         0.62701E+06         0.00000E+00
    0.62701E+06         0.16184E+08         0.00000E+00
    0.00000E+00         0.00000E+00         0.29737E+07
 
    0.29798E+07         0.70696E+06         0.00000E+00
    0.70696E+06         0.16211E+08         0.00000E+00
    0.00000E+00         0.00000E+00         0.30302E+07
 
    0.30499E+07         0.78983E+06         0.00000E+00
    0.78983E+06         0.16237E+08         0.00000E+00
    0.00000E+00         0.00000E+00         0.30853E+07
 
    0.31194E+07         0.87221E+06         0.00000E+00
    0.87221E+06         0.16261E+08         0.00000E+00
    0.00000E+00         0.00000E+00         0.31395E+07
 
    0.31861E+07         0.95714E+06         0.00000E+00
    0.95714E+06         0.16281E+08         0.00000E+00
    0.00000E+00         0.00000E+00         0.31930E+07
 
    0.31722E+07        -0.42040E+05         0.00000E+00
   -0.42040E+05         0.14909E+08         0.00000E+00
    0.00000E+00         0.00000E+00         0.00000E+00
 
    0.34829E+07        -0.22191E+06         0.00000E+00
   -0.22191E+06         0.14957E+08         0.00000E+00
    0.00000E+00         0.00000E+00         0.64078E+04
 
    0.37192E+07        -0.38645E+06         0.00000E+00
   -0.38645E+06         0.15011E+08         0.00000E+00
    0.00000E+00         0.00000E+00         0.31052E+05
 
    0.38961E+07        -0.53099E+06         0.00000E+00
   -0.53099E+06         0.15068E+08         0.00000E+00
    0.00000E+00         0.00000E+00         0.60062E+05
 
    0.40258E+07        -0.65517E+06         0.00000E+00
   -0.65517E+06         0.15126E+08         0.00000E+00
    0.00000E+00         0.00000E+00         0.90047E+05
 
    0.41170E+07        -0.75960E+06         0.00000E+00
   -0.75960E+06         0.15181E+08         0.00000E+00
    0.00000E+00         0.00000E+00         0.11929E+06
 
    0.41768E+07        -0.84559E+06         0.00000E+00
   -0.84559E+06         0.15233E+08         0.00000E+00
    0.00000E+00         0.00000E+00         0.14645E+06
 
    0.42092E+07        -0.91422E+06         0.00000E+00
   -0.91422E+06         0.15279E+08         0.00000E+00
    0.00000E+00         0.00000E+00         0.17267E+06
 
    0.42240E+07        -0.96560E+06         0.00000E+00
   -0.96560E+06         0.15300E+08         0.00000E+00
    0.00000E+00         0.00000E+00         0.22936E+06
 
    0.42193E+07        -0.10037E+07         0.00000E+00
   -0.10037E+07         0.15318E+08         0.00000E+00
    0.00000E+00         0.00000E+00         0.28042E+06
 
    0.41985E+07        -0.10294E+07         0.00000E+00
   -0.10294E+07         0.15332E+08         0.00000E+00
    0.00000E+00         0.00000E+00         0.32524E+06
 
    0.41634E+07        -0.10428E+07         0.00000E+00
   -0.10428E+07         0.15345E+08         0.00000E+00
    0.00000E+00         0.00000E+00         0.36465E+06
 
    0.41178E+07        -0.10459E+07         0.00000E+00
   -0.10459E+07         0.15360E+08         0.00000E+00
    0.00000E+00         0.00000E+00         0.40813E+06
 
    0.40651E+07        -0.10431E+07         0.00000E+00
   -0.10431E+07         0.15379E+08         0.00000E+00
    0.00000E+00         0.00000E+00         0.45879E+06
 
    0.40043E+07        -0.10354E+07         0.00000E+00
   -0.10354E+07         0.15394E+08         0.00000E+00
    0.00000E+00         0.00000E+00         0.50285E+06
 
    0.39363E+07        -0.10222E+07         0.00000E+00
   -0.10222E+07         0.15406E+08         0.00000E+00
    0.00000E+00         0.00000E+00         0.54149E+06
 
    0.38617E+07        -0.10028E+07         0.00000E+00
   -0.10028E+07         0.15416E+08         0.00000E+00
    0.00000E+00         0.00000E+00         0.57594E+06
 
    0.37812E+07        -0.97720E+06         0.00000E+00
   -0.97720E+06         0.15424E+08         0.00000E+00
    0.00000E+00         0.00000E+00         0.60741E+06
 
    0.36961E+07        -0.94530E+06         0.00000E+00
   -0.94530E+06         0.15431E+08         0.00000E+00
    0.00000E+00         0.00000E+00         0.63698E+06
 
    0.36067E+07        -0.90772E+06         0.00000E+00
   -0.90772E+06         0.15438E+08         0.00000E+00
    0.00000E+00         0.00000E+00         0.66972E+06
 
    0.35136E+07        -0.86487E+06         0.00000E+00
   -0.86487E+06         0.15446E+08         0.00000E+00
    0.00000E+00         0.00000E+00         0.70377E+06
 
    0.34163E+07        -0.81728E+06         0.00000E+00
   -0.81728E+06         0.15453E+08         0.00000E+00
    0.00000E+00         0.00000E+00         0.73923E+06
 
    0.33158E+07        -0.76604E+06         0.00000E+00
   -0.76604E+06         0.15459E+08         0.00000E+00
    0.00000E+00         0.00000E+00         0.77749E+06
 
    0.32136E+07        -0.71201E+06         0.00000E+00
   -0.71201E+06         0.15466E+08         0.00000E+00
    0.00000E+00         0.00000E+00         0.81905E+06
 
    0.31095E+07        -0.65357E+06         0.00000E+00
   -0.65357E+06         0.15471E+08         0.00000E+00
    0.00000E+00         0.00000E+00         0.86206E+06
 
    0.30046E+07        -0.59011E+06         0.00000E+00
   -0.59011E+06         0.15478E+08         0.00000E+00
    0.00000E+00         0.00000E+00         0.91146E+06
 
    0.28994E+07        -0.52359E+06         0.00000E+00
   -0.52359E+06         0.15486E+08         0.00000E+00
    0.00000E+00         0.00000E+00         0.96789E+06
 
    0.27948E+07        -0.45540E+06         0.00000E+00
   -0.45540E+06         0.15495E+08         0.00000E+00
    0.00000E+00         0.00000E+00         0.10321E+07
 
    0.26928E+07        -0.38681E+06         0.00000E+00
   -0.38681E+06         0.15506E+08         0.00000E+00
    0.00000E+00         0.00000E+00         0.11046E+07
 
    0.25959E+07        -0.31795E+06         0.00000E+00
   -0.31795E+06         0.15517E+08         0.00000E+00
    0.00000E+00         0.00000E+00         0.11839E+07
 
    0.25066E+07        -0.24837E+06         0.00000E+00
   -0.24837E+06         0.15532E+08         0.00000E+00
    0.00000E+00         0.00000E+00         0.12713E+07
 
    0.24265E+07        -0.17877E+06         0.00000E+00
   -0.17877E+06         0.15549E+08         0.00000E+00
    0.00000E+00         0.00000E+00         0.13657E+07
 
    0.23576E+07        -0.11028E+06         0.00000E+00
   -0.11028E+06         0.15568E+08         0.00000E+00
    0.00000E+00         0.00000E+00         0.14667E+07
 
    0.23013E+07        -0.43749E+05         0.00000E+00
   -0.43749E+05         0.15591E+08         0.00000E+00
    0.00000E+00         0.00000E+00         0.15722E+07
 
    0.22597E+07         0.21211E+05         0.00000E+00
    0.21211E+05         0.15616E+08         0.00000E+00
    0.00000E+00         0.00000E+00         0.16802E+07
 
    0.22337E+07         0.84987E+05         0.00000E+00
    0.84987E+05         0.15644E+08         0.00000E+00
    0.00000E+00         0.00000E+00         0.17890E+07
 
    0.22216E+07         0.14820E+06         0.00000E+00
    0.14820E+06         0.15675E+08         0.00000E+00
    0.00000E+00         0.00000E+00         0.18969E+07
 
    0.22234E+07         0.21050E+06         0.00000E+00
    0.21050E+06         0.15707E+08         0.00000E+00
    0.00000E+00         0.00000E+00         0.20014E+07
 
    0.22379E+07         0.27320E+06         0.00000E+00
    0.27320E+06         0.15739E+08         0.00000E+00
    0.00000E+00         0.00000E+00         0.21008E+07
 
    0.22633E+07         0.33702E+06         0.00000E+00
    0.33702E+06         0.15773E+08         0.00000E+00
    0.00000E+00         0.00000E+00         0.21944E+07
 
    0.22965E+07         0.40296E+06         0.00000E+00
    0.40296E+06         0.15805E+08         0.00000E+00
    0.00000E+00         0.00000E+00         0.22815E+07
 
    0.23369E+07         0.47123E+06         0.00000E+00
    0.47123E+06         0.15836E+08         0.00000E+00
    0.00000E+00         0.00000E+00         0.23616E+07
 
    0.23837E+07         0.54175E+06         0.00000E+00
    0.54175E+06         0.15867E+08         0.00000E+00
    0.00000E+00         0.00000E+00         0.24369E+07
 
    0.24372E+07         0.61484E+06         0.00000E+00
    0.61484E+06         0.15896E+08         0.00000E+00
    0.00000E+00         0.00000E+00         0.25076E+07
 
    0.24972E+07         0.68945E+06         0.00000E+00
    0.68945E+06         0.15926E+08         0.00000E+00
    0.00000E+00         0.00000E+00         0.25746E+07
 
    0.25635E+07         0.76373E+06         0.00000E+00
    0.76373E+06         0.15955E+08         0.00000E+00
    0.00000E+00         0.00000E+00         0.26385E+07
 
    0.26337E+07         0.83872E+06         0.00000E+00
    0.83872E+06         0.15984E+08         0.00000E+00
    0.00000E+00         0.00000E+00         0.26994E+07
 
    0.27075E+07         0.91350E+06         0.00000E+00
    0.91350E+06         0.16011E+08         0.00000E+00
    0.00000E+00         0.00000E+00         0.27570E+07
 
    0.27829E+07         0.98982E+06         0.00000E+00
    0.98982E+06         0.16037E+08         0.00000E+00
    0.00000E+00         0.00000E+00         0.28124E+07
 
    0.28592E+07         0.10674E+07         0.00000E+00
    0.10674E+07         0.16061E+08         0.00000E+00
    0.00000E+00         0.00000E+00         0.28688E+07
 
    0.19826E+07        -0.95282E+04         0.00000E+00
   -0.95282E+04         0.14187E+08         0.00000E+00
    0.00000E+00         0.00000E+00         0.00000E+00
 
    0.22255E+07        -0.72184E+05         0.00000E+00
   -0.72184E+05         0.14189E+08         0.00000E+00
    0.00000E+00         0.00000E+00         0.00000E+00
 
    0.24483E+07        -0.15141E+06         0.00000E+00
   -0.15141E+06         0.14205E+08         0.00000E+00
    0.00000E+00         0.00000E+00         0.00000E+00
 
    0.26446E+07        -0.23977E+06         0.00000E+00
   -0.23977E+06         0.14236E+08         0.00000E+00
    0.00000E+00         0.00000E+00         0.00000E+00
 
    0.28126E+07        -0.33118E+06         0.00000E+00
   -0.33118E+06         0.14278E+08         0.00000E+00
    0.00000E+00         0.00000E+00         0.00000E+00
 
    0.29531E+07        -0.42149E+06         0.00000E+00
   -0.42149E+06         0.14330E+08         0.00000E+00
    0.00000E+00         0.00000E+00         0.00000E+00
 
    0.30681E+07        -0.50802E+06         0.00000E+00
   -0.50802E+06         0.14387E+08         0.00000E+00
    0.00000E+00         0.00000E+00         0.00000E+00
 
    0.31602E+07        -0.58908E+06         0.00000E+00
   -0.58908E+06         0.14450E+08         0.00000E+00
    0.00000E+00         0.00000E+00         0.00000E+00
 
    0.32310E+07        -0.66412E+06         0.00000E+00
   -0.66412E+06         0.14536E+08         0.00000E+00
    0.00000E+00         0.00000E+00         0.00000E+00
 
    0.32815E+07        -0.72922E+06         0.00000E+00
   -0.72922E+06         0.14621E+08         0.00000E+00
    0.00000E+00         0.00000E+00         0.00000E+00
 
    0.33142E+07        -0.78491E+06         0.00000E+00
   -0.78491E+06         0.14702E+08         0.00000E+00
    0.00000E+00         0.00000E+00         0.00000E+00
 
    0.33307E+07        -0.83214E+06         0.00000E+00
   -0.83214E+06         0.14776E+08         0.00000E+00
    0.00000E+00         0.00000E+00         0.00000E+00
 
    0.33357E+07        -0.87016E+06         0.00000E+00
   -0.87016E+06         0.14843E+08         0.00000E+00
    0.00000E+00         0.00000E+00         0.12754E+05
 
    0.33308E+07        -0.89582E+06         0.00000E+00
   -0.89582E+06         0.14901E+08         0.00000E+00
    0.00000E+00         0.00000E+00         0.41375E+05
 
    0.33120E+07        -0.90893E+06         0.00000E+00
   -0.90893E+06         0.14954E+08         0.00000E+00
    0.00000E+00         0.00000E+00         0.64790E+05
 
    0.32826E+07        -0.91167E+06         0.00000E+00
   -0.91167E+06         0.15002E+08         0.00000E+00
    0.00000E+00         0.00000E+00         0.84589E+05
 
    0.32442E+07        -0.90540E+06         0.00000E+00
   -0.90540E+06         0.15047E+08         0.00000E+00
    0.00000E+00         0.00000E+00         0.10172E+06
 
    0.31976E+07        -0.89093E+06         0.00000E+00
   -0.89093E+06         0.15087E+08         0.00000E+00
    0.00000E+00         0.00000E+00         0.11683E+06
 
    0.31429E+07        -0.86898E+06         0.00000E+00
   -0.86898E+06         0.15123E+08         0.00000E+00
    0.00000E+00         0.00000E+00         0.13034E+06
 
    0.30864E+07        -0.83917E+06         0.00000E+00
   -0.83917E+06         0.15141E+08         0.00000E+00
    0.00000E+00         0.00000E+00         0.16336E+06
 
    0.30240E+07        -0.80271E+06         0.00000E+00
   -0.80271E+06         0.15153E+08         0.00000E+00
    0.00000E+00         0.00000E+00         0.19994E+06
 
    0.29546E+07        -0.75974E+06         0.00000E+00
   -0.75974E+06         0.15162E+08         0.00000E+00
    0.00000E+00         0.00000E+00         0.23392E+06
 
    0.28783E+07        -0.70948E+06         0.00000E+00
   -0.70948E+06         0.15170E+08         0.00000E+00
    0.00000E+00         0.00000E+00         0.26641E+06
 
    0.27968E+07        -0.65193E+06         0.00000E+00
   -0.65193E+06         0.15178E+08         0.00000E+00
    0.00000E+00         0.00000E+00         0.30288E+06
 
    0.27164E+07        -0.59046E+06         0.00000E+00
   -0.59046E+06         0.15192E+08         0.00000E+00
    0.00000E+00         0.00000E+00         0.35489E+06
 
    0.26307E+07        -0.52662E+06         0.00000E+00
   -0.52662E+06         0.15203E+08         0.00000E+00
    0.00000E+00         0.00000E+00         0.40590E+06
 
    0.25408E+07        -0.45898E+06         0.00000E+00
   -0.45898E+06         0.15213E+08         0.00000E+00
    0.00000E+00         0.00000E+00         0.45774E+06
 
    0.24478E+07        -0.38705E+06         0.00000E+00
   -0.38705E+06         0.15221E+08         0.00000E+00
    0.00000E+00         0.00000E+00         0.51262E+06
 
    0.23537E+07        -0.31085E+06         0.00000E+00
   -0.31085E+06         0.15229E+08         0.00000E+00
    0.00000E+00         0.00000E+00         0.57309E+06
 
    0.22636E+07        -0.23090E+06         0.00000E+00
   -0.23090E+06         0.15241E+08         0.00000E+00
    0.00000E+00         0.00000E+00         0.64666E+06
 
    0.21762E+07        -0.14906E+06         0.00000E+00
   -0.14906E+06         0.15255E+08         0.00000E+00
    0.00000E+00         0.00000E+00         0.72909E+06
 
    0.20948E+07        -0.68140E+05         0.00000E+00
   -0.68140E+05         0.15271E+08         0.00000E+00
    0.00000E+00         0.00000E+00         0.82166E+06
 
    0.20202E+07         0.12772E+05         0.00000E+00
    0.12772E+05         0.15288E+08         0.00000E+00
    0.00000E+00         0.00000E+00         0.91965E+06
 
    0.19563E+07         0.95090E+05         0.00000E+00
    0.95090E+05         0.15309E+08         0.00000E+00
    0.00000E+00         0.00000E+00         0.10279E+07
 
    0.19053E+07         0.17562E+06         0.00000E+00
    0.17562E+06         0.15334E+08         0.00000E+00
    0.00000E+00         0.00000E+00         0.11452E+07
 
    0.18679E+07         0.25170E+06         0.00000E+00
    0.25170E+06         0.15363E+08         0.00000E+00
    0.00000E+00         0.00000E+00         0.12680E+07
 
    0.18456E+07         0.32350E+06         0.00000E+00
    0.32350E+06         0.15394E+08         0.00000E+00
    0.00000E+00         0.00000E+00         0.13928E+07
 
    0.18395E+07         0.39286E+06         0.00000E+00
    0.39286E+06         0.15428E+08         0.00000E+00
    0.00000E+00         0.00000E+00         0.15170E+07
 
    0.18493E+07         0.45912E+06         0.00000E+00
    0.45912E+06         0.15464E+08         0.00000E+00
    0.00000E+00         0.00000E+00         0.16384E+07
 
    0.18732E+07         0.52210E+06         0.00000E+00
    0.52210E+06         0.15502E+08         0.00000E+00
    0.00000E+00         0.00000E+00         0.17541E+07
 
    0.19114E+07         0.58352E+06         0.00000E+00
    0.58352E+06         0.15541E+08         0.00000E+00
    0.00000E+00         0.00000E+00         0.18620E+07
 
    0.19602E+07         0.64619E+06         0.00000E+00
    0.64619E+06         0.15580E+08         0.00000E+00
    0.00000E+00         0.00000E+00         0.19631E+07
 
    0.20166E+07         0.70909E+06         0.00000E+00
    0.70909E+06         0.15617E+08         0.00000E+00
    0.00000E+00         0.00000E+00         0.20559E+07
 
    0.20793E+07         0.77329E+06         0.00000E+00
    0.77329E+06         0.15653E+08         0.00000E+00
    0.00000E+00         0.00000E+00         0.21403E+07
 
    0.21450E+07         0.83993E+06         0.00000E+00
    0.83993E+06         0.15686E+08         0.00000E+00
    0.00000E+00         0.00000E+00         0.22172E+07
 
    0.22127E+07         0.90961E+06         0.00000E+00
    0.90961E+06         0.15717E+08         0.00000E+00
    0.00000E+00         0.00000E+00         0.22874E+07
 
    0.22841E+07         0.98054E+06         0.00000E+00
    0.98054E+06         0.15746E+08         0.00000E+00
    0.00000E+00         0.00000E+00         0.23538E+07
 
    0.23602E+07         0.10529E+07         0.00000E+00
    0.10529E+07         0.15774E+08         0.00000E+00
    0.00000E+00         0.00000E+00         0.24180E+07
 
    0.24423E+07         0.11261E+07         0.00000E+00
    0.11261E+07         0.15804E+08         0.00000E+00
    0.00000E+00         0.00000E+00         0.24828E+07
 
    0.25311E+07         0.11999E+07         0.00000E+00
    0.11999E+07         0.15833E+08         0.00000E+00
    0.00000E+00         0.00000E+00         0.25468E+07
 
    0.11000E+07        -0.75550E+04         0.00000E+00
   -0.75550E+04         0.13510E+08         0.00000E+00
    0.00000E+00         0.00000E+00         0.00000E+00
 
    0.12937E+07        -0.37761E+05         0.00000E+00
   -0.37761E+05         0.13514E+08         0.00000E+00
    0.00000E+00         0.00000E+00         0.00000E+00
 
    0.14763E+07        -0.72850E+05         0.00000E+00
   -0.72850E+05         0.13522E+08         0.00000E+00
    0.00000E+00         0.00000E+00         0.00000E+00
 
    0.16463E+07        -0.11294E+06         0.00000E+00
   -0.11294E+06         0.13535E+08         0.00000E+00
    0.00000E+00         0.00000E+00         0.00000E+00
 
    0.18022E+07        -0.15706E+06         0.00000E+00
   -0.15706E+06         0.13556E+08         0.00000E+00
    0.00000E+00         0.00000E+00         0.00000E+00
 
    0.19428E+07        -0.20362E+06         0.00000E+00
   -0.20362E+06         0.13585E+08         0.00000E+00
    0.00000E+00         0.00000E+00         0.00000E+00
 
    0.20676E+07        -0.25081E+06         0.00000E+00
   -0.25081E+06         0.13621E+08         0.00000E+00
    0.00000E+00         0.00000E+00         0.00000E+00
 
    0.21768E+07        -0.29700E+06         0.00000E+00
   -0.29700E+06         0.13665E+08         0.00000E+00
    0.00000E+00         0.00000E+00         0.00000E+00
 
    0.22709E+07        -0.34144E+06         0.00000E+00
   -0.34144E+06         0.13709E+08         0.00000E+00
    0.00000E+00         0.00000E+00         0.00000E+00
 
    0.23503E+07        -0.38424E+06         0.00000E+00
   -0.38424E+06         0.13761E+08         0.00000E+00
    0.00000E+00         0.00000E+00         0.00000E+00
 
    0.24153E+07        -0.42365E+06         0.00000E+00
   -0.42365E+06         0.13819E+08         0.00000E+00
    0.00000E+00         0.00000E+00         0.00000E+00
 
    0.24671E+07        -0.45804E+06         0.00000E+00
   -0.45804E+06         0.13883E+08         0.00000E+00
    0.00000E+00         0.00000E+00         0.00000E+00
 
    0.25076E+07        -0.48700E+06         0.00000E+00
   -0.48700E+06         0.13950E+08         0.00000E+00
    0.00000E+00         0.00000E+00         0.00000E+00
 
    0.25376E+07        -0.51202E+06         0.00000E+00
   -0.51202E+06         0.14018E+08         0.00000E+00
    0.00000E+00         0.00000E+00         0.00000E+00
 
    0.25566E+07        -0.53347E+06         0.00000E+00
   -0.53347E+06         0.14088E+08         0.00000E+00
    0.00000E+00         0.00000E+00         0.00000E+00
 
    0.25646E+07        -0.55006E+06         0.00000E+00
   -0.55006E+06         0.14160E+08         0.00000E+00
    0.00000E+00         0.00000E+00         0.00000E+00
 
    0.25627E+07        -0.56135E+06         0.00000E+00
   -0.56135E+06         0.14232E+08         0.00000E+00
    0.00000E+00         0.00000E+00         0.00000E+00
 
    0.25518E+07        -0.56732E+06         0.00000E+00
   -0.56732E+06         0.14302E+08         0.00000E+00
    0.00000E+00         0.00000E+00         0.00000E+00
 
    0.25336E+07        -0.56809E+06         0.00000E+00
   -0.56809E+06         0.14371E+08         0.00000E+00
    0.00000E+00         0.00000E+00         0.00000E+00
 
    0.25087E+07        -0.56431E+06         0.00000E+00
   -0.56431E+06         0.14454E+08         0.00000E+00
    0.00000E+00         0.00000E+00         0.00000E+00
 
    0.24769E+07        -0.55443E+06         0.00000E+00
   -0.55443E+06         0.14536E+08         0.00000E+00
    0.00000E+00         0.00000E+00         0.00000E+00
 
    0.24386E+07        -0.53858E+06         0.00000E+00
   -0.53858E+06         0.14614E+08         0.00000E+00
    0.00000E+00         0.00000E+00         0.00000E+00
 
    0.23938E+07        -0.51769E+06         0.00000E+00
   -0.51769E+06         0.14686E+08         0.00000E+00
    0.00000E+00         0.00000E+00         0.00000E+00
 
    0.23449E+07        -0.49182E+06         0.00000E+00
   -0.49182E+06         0.14751E+08         0.00000E+00
    0.00000E+00         0.00000E+00         0.58038E+04
 
    0.22984E+07        -0.45745E+06         0.00000E+00
   -0.45745E+06         0.14808E+08         0.00000E+00
    0.00000E+00         0.00000E+00         0.32880E+05
 
    0.22441E+07        -0.41275E+06         0.00000E+00
   -0.41275E+06         0.14860E+08         0.00000E+00
    0.00000E+00         0.00000E+00         0.55948E+05
 
    0.21842E+07        -0.35929E+06         0.00000E+00
   -0.35929E+06         0.14907E+08         0.00000E+00
    0.00000E+00         0.00000E+00         0.76799E+05
 
    0.21187E+07        -0.29772E+06         0.00000E+00
   -0.29772E+06         0.14951E+08         0.00000E+00
    0.00000E+00         0.00000E+00         0.96819E+05
 
    0.20480E+07        -0.22822E+06         0.00000E+00
   -0.22822E+06         0.14989E+08         0.00000E+00
    0.00000E+00         0.00000E+00         0.11991E+06
 
    0.19864E+07        -0.15128E+06         0.00000E+00
   -0.15128E+06         0.15000E+08         0.00000E+00
    0.00000E+00         0.00000E+00         0.17594E+06
 
    0.19179E+07        -0.67336E+05         0.00000E+00
   -0.67336E+05         0.15009E+08         0.00000E+00
    0.00000E+00         0.00000E+00         0.23331E+06
 
    0.18435E+07         0.24974E+05         0.00000E+00
    0.24974E+05         0.15015E+08         0.00000E+00
    0.00000E+00         0.00000E+00         0.29416E+06
 
    0.17785E+07         0.12185E+06         0.00000E+00
    0.12185E+06         0.15031E+08         0.00000E+00
    0.00000E+00         0.00000E+00         0.38264E+06
 
    0.17128E+07         0.21781E+06         0.00000E+00
    0.21781E+06         0.15048E+08         0.00000E+00
    0.00000E+00         0.00000E+00         0.47985E+06
 
    0.16475E+07         0.31282E+06         0.00000E+00
    0.31282E+06         0.15063E+08         0.00000E+00
    0.00000E+00         0.00000E+00         0.58241E+06
 
    0.15905E+07         0.40662E+06         0.00000E+00
    0.40662E+06         0.15082E+08         0.00000E+00
    0.00000E+00         0.00000E+00         0.69519E+06
 
    0.15483E+07         0.49752E+06         0.00000E+00
    0.49752E+06         0.15106E+08         0.00000E+00
    0.00000E+00         0.00000E+00         0.82163E+06
 
    0.15211E+07         0.58097E+06         0.00000E+00
    0.58097E+06         0.15135E+08         0.00000E+00
    0.00000E+00         0.00000E+00         0.95585E+06
 
    0.15088E+07         0.65755E+06         0.00000E+00
    0.65755E+06         0.15167E+08         0.00000E+00
    0.00000E+00         0.00000E+00         0.10902E+07
 
    0.15157E+07         0.73045E+06         0.00000E+00
    0.73045E+06         0.15204E+08         0.00000E+00
    0.00000E+00         0.00000E+00         0.12276E+07
 
    0.15415E+07         0.79649E+06         0.00000E+00
    0.79649E+06         0.15246E+08         0.00000E+00
    0.00000E+00         0.00000E+00         0.13645E+07
 
    0.15812E+07         0.85567E+06         0.00000E+00
    0.85567E+06         0.15289E+08         0.00000E+00
    0.00000E+00         0.00000E+00         0.14940E+07
 
    0.16351E+07         0.91312E+06         0.00000E+00
    0.91312E+06         0.15333E+08         0.00000E+00
    0.00000E+00         0.00000E+00         0.16146E+07
 
    0.17000E+07         0.96942E+06         0.00000E+00
    0.96942E+06         0.15377E+08         0.00000E+00
    0.00000E+00         0.00000E+00         0.17257E+07
 
    0.17734E+07         0.10245E+07         0.00000E+00
    0.10245E+07         0.15420E+08         0.00000E+00
    0.00000E+00         0.00000E+00         0.18254E+07
 
    0.18549E+07         0.10825E+07         0.00000E+00
    0.10825E+07         0.15461E+08         0.00000E+00
    0.00000E+00         0.00000E+00         0.19163E+07
 
    0.19399E+07         0.11441E+07         0.00000E+00
    0.11441E+07         0.15499E+08         0.00000E+00
    0.00000E+00         0.00000E+00         0.19999E+07
 
    0.20273E+07         0.12073E+07         0.00000E+00
    0.12073E+07         0.15535E+08         0.00000E+00
    0.00000E+00         0.00000E+00         0.20771E+07
 
    0.21149E+07         0.12748E+07         0.00000E+00
    0.12748E+07         0.15567E+08         0.00000E+00
    0.00000E+00         0.00000E+00         0.21486E+07
 
    0.22022E+07         0.13447E+07         0.00000E+00
    0.13447E+07         0.15596E+08         0.00000E+00
    0.00000E+00         0.00000E+00         0.22152E+07
 
    0.35613E+06         0.14373E+03         0.00000E+00
    0.14373E+03         0.12849E+08         0.00000E+00
    0.00000E+00         0.00000E+00         0.00000E+00
 
    0.53020E+06        -0.75638E+04         0.00000E+00
   -0.75638E+04         0.12852E+08         0.00000E+00
    0.00000E+00         0.00000E+00         0.00000E+00
 
    0.69481E+06        -0.18067E+05         0.00000E+00
   -0.18067E+05         0.12860E+08         0.00000E+00
    0.00000E+00         0.00000E+00         0.00000E+00
 
    0.84942E+06        -0.30873E+05         0.00000E+00
   -0.30873E+05         0.12872E+08         0.00000E+00
    0.00000E+00         0.00000E+00         0.00000E+00
 
    0.99367E+06        -0.45624E+05         0.00000E+00
   -0.45624E+05         0.12888E+08         0.00000E+00
    0.00000E+00         0.00000E+00         0.00000E+00
 
    0.11273E+07        -0.61959E+05         0.00000E+00
   -0.61959E+05         0.12909E+08         0.00000E+00
    0.00000E+00         0.00000E+00         0.00000E+00
 
    0.12499E+07        -0.79466E+05         0.00000E+00
   -0.79466E+05         0.12935E+08         0.00000E+00
    0.00000E+00         0.00000E+00         0.00000E+00
 
    0.13612E+07        -0.97689E+05         0.00000E+00
   -0.97689E+05         0.12966E+08         0.00000E+00
    0.00000E+00         0.00000E+00         0.00000E+00
 
    0.14612E+07        -0.11579E+06         0.00000E+00
   -0.11579E+06         0.13002E+08         0.00000E+00
    0.00000E+00         0.00000E+00         0.00000E+00
 
    0.15500E+07        -0.13282E+06         0.00000E+00
   -0.13282E+06         0.13043E+08         0.00000E+00
    0.00000E+00         0.00000E+00         0.00000E+00
 
    0.16281E+07        -0.14856E+06         0.00000E+00
   -0.14856E+06         0.13088E+08         0.00000E+00
    0.00000E+00         0.00000E+00         0.00000E+00
 
    0.16957E+07        -0.16284E+06         0.00000E+00
   -0.16284E+06         0.13137E+08         0.00000E+00
    0.00000E+00         0.00000E+00         0.00000E+00
 
    0.17529E+07        -0.17536E+06         0.00000E+00
   -0.17536E+06         0.13189E+08         0.00000E+00
    0.00000E+00         0.00000E+00         0.00000E+00
 
    0.18000E+07        -0.18539E+06         0.00000E+00
   -0.18539E+06         0.13245E+08         0.00000E+00
    0.00000E+00         0.00000E+00         0.00000E+00
 
    0.18376E+07        -0.19247E+06         0.00000E+00
   -0.19247E+06         0.13305E+08         0.00000E+00
    0.00000E+00         0.00000E+00         0.00000E+00
 
    0.18662E+07        -0.19653E+06         0.00000E+00
   -0.19653E+06         0.13367E+08         0.00000E+00
    0.00000E+00         0.00000E+00         0.00000E+00
 
    0.18862E+07        -0.19718E+06         0.00000E+00
   -0.19718E+06         0.13433E+08         0.00000E+00
    0.00000E+00         0.00000E+00         0.00000E+00
 
    0.18981E+07        -0.19397E+06         0.00000E+00
   -0.19397E+06         0.13502E+08         0.00000E+00
    0.00000E+00         0.00000E+00         0.00000E+00
 
    0.19029E+07        -0.18653E+06         0.00000E+00
   -0.18653E+06         0.13573E+08         0.00000E+00
    0.00000E+00         0.00000E+00         0.00000E+00
 
    0.19012E+07        -0.17497E+06         0.00000E+00
   -0.17497E+06         0.13644E+08         0.00000E+00
    0.00000E+00         0.00000E+00         0.00000E+00
 
    0.18937E+07        -0.16006E+06         0.00000E+00
   -0.16006E+06         0.13715E+08         0.00000E+00
    0.00000E+00         0.00000E+00         0.00000E+00
 
    0.18806E+07        -0.14135E+06         0.00000E+00
   -0.14135E+06         0.13790E+08         0.00000E+00
    0.00000E+00         0.00000E+00         0.00000E+00
 
    0.18629E+07        -0.11797E+06         0.00000E+00
   -0.11797E+06         0.13867E+08         0.00000E+00
    0.00000E+00         0.00000E+00         0.00000E+00
 
    0.18421E+07        -0.89515E+05         0.00000E+00
   -0.89515E+05         0.13945E+08         0.00000E+00
    0.00000E+00         0.00000E+00         0.00000E+00
 
    0.18191E+07        -0.58170E+05         0.00000E+00
   -0.58170E+05         0.14021E+08         0.00000E+00
    0.00000E+00         0.00000E+00         0.00000E+00
 
    0.17930E+07        -0.25503E+05         0.00000E+00
   -0.25503E+05         0.14097E+08         0.00000E+00
    0.00000E+00         0.00000E+00         0.00000E+00
 
    0.17631E+07         0.96450E+04         0.00000E+00
    0.96450E+04         0.14174E+08         0.00000E+00
    0.00000E+00         0.00000E+00         0.00000E+00
 
    0.17296E+07         0.47602E+05         0.00000E+00
    0.47602E+05         0.14248E+08         0.00000E+00
    0.00000E+00         0.00000E+00         0.00000E+00
 
    0.16934E+07         0.88361E+05         0.00000E+00
    0.88361E+05         0.14322E+08         0.00000E+00
    0.00000E+00         0.00000E+00         0.00000E+00
 
    0.16548E+07         0.13234E+06         0.00000E+00
    0.13234E+06         0.14418E+08         0.00000E+00
    0.00000E+00         0.00000E+00         0.00000E+00
 
    0.16122E+07         0.18026E+06         0.00000E+00
    0.18026E+06         0.14508E+08         0.00000E+00
    0.00000E+00         0.00000E+00         0.00000E+00
 
    0.15627E+07         0.23090E+06         0.00000E+00
    0.23090E+06         0.14591E+08         0.00000E+00
    0.00000E+00         0.00000E+00         0.00000E+00
 
    0.15249E+07         0.28835E+06         0.00000E+00
    0.28835E+06         0.14664E+08         0.00000E+00
    0.00000E+00         0.00000E+00         0.32772E+05
 
    0.14820E+07         0.35784E+06         0.00000E+00
    0.35784E+06         0.14728E+08         0.00000E+00
    0.00000E+00         0.00000E+00         0.69227E+05
 
    0.14298E+07         0.43857E+06         0.00000E+00
    0.43857E+06         0.14787E+08         0.00000E+00
    0.00000E+00         0.00000E+00         0.10424E+06
 
    0.13801E+07         0.52812E+06         0.00000E+00
    0.52812E+06         0.14827E+08         0.00000E+00
    0.00000E+00         0.00000E+00         0.15918E+06
 
    0.13414E+07         0.62368E+06         0.00000E+00
    0.62368E+06         0.14839E+08         0.00000E+00
    0.00000E+00         0.00000E+00         0.24777E+06
 
    0.12959E+07         0.72635E+06         0.00000E+00
    0.72635E+06         0.14847E+08         0.00000E+00
    0.00000E+00         0.00000E+00         0.34092E+06
 
    0.12671E+07         0.83127E+06         0.00000E+00
    0.83127E+06         0.14867E+08         0.00000E+00
    0.00000E+00         0.00000E+00         0.46800E+06
 
    0.12434E+07         0.92848E+06         0.00000E+00
    0.92848E+06         0.14893E+08         0.00000E+00
    0.00000E+00         0.00000E+00         0.60936E+06
 
    0.12273E+07         0.10159E+07         0.00000E+00
    0.10159E+07         0.14920E+08         0.00000E+00
    0.00000E+00         0.00000E+00         0.75386E+06
 
    0.12373E+07         0.10935E+07         0.00000E+00
    0.10935E+07         0.14959E+08         0.00000E+00
    0.00000E+00         0.00000E+00         0.91187E+06
 
    0.12680E+07         0.11568E+07         0.00000E+00
    0.11568E+07         0.15005E+08         0.00000E+00
    0.00000E+00         0.00000E+00         0.10701E+07
 
    0.13159E+07         0.12097E+07         0.00000E+00
    0.12097E+07         0.15054E+08         0.00000E+00
    0.00000E+00         0.00000E+00         0.12164E+07
 
    0.13861E+07         0.12599E+07         0.00000E+00
    0.12599E+07         0.15107E+08         0.00000E+00
    0.00000E+00         0.00000E+00         0.13568E+07
 
    0.14686E+07         0.13052E+07         0.00000E+00
    0.13052E+07         0.15160E+08         0.00000E+00
    0.00000E+00         0.00000E+00         0.14841E+07
 
    0.15585E+07         0.13504E+07         0.00000E+00
    0.13504E+07         0.15210E+08         0.00000E+00
    0.00000E+00         0.00000E+00         0.15956E+07
 
    0.16546E+07         0.14015E+07         0.00000E+00
    0.14015E+07         0.15256E+08         0.00000E+00
    0.00000E+00         0.00000E+00         0.16932E+07
 
    0.17515E+07         0.14532E+07         0.00000E+00
    0.14532E+07         0.15297E+08         0.00000E+00
    0.00000E+00         0.00000E+00         0.17801E+07
 
    0.18522E+07         0.15076E+07         0.00000E+00
    0.15076E+07         0.15338E+08         0.00000E+00
    0.00000E+00         0.00000E+00         0.18631E+07
 
   -0.26617E+06         0.86430E+04         0.00000E+00
    0.86430E+04         0.12209E+08         0.00000E+00
    0.00000E+00         0.00000E+00         0.00000E+00
 
   -0.10343E+06         0.20823E+05         0.00000E+00
    0.20823E+05         0.12212E+08         0.00000E+00
    0.00000E+00         0.00000E+00         0.00000E+00
 
    0.50823E+05         0.31200E+05         0.00000E+00
    0.31200E+05         0.12219E+08         0.00000E+00
    0.00000E+00         0.00000E+00         0.00000E+00
 
    0.19642E+06         0.39884E+05         0.00000E+00
    0.39884E+05         0.12230E+08         0.00000E+00
    0.00000E+00         0.00000E+00         0.00000E+00
 
    0.33321E+06         0.47096E+05         0.00000E+00
    0.47096E+05         0.12245E+08         0.00000E+00
    0.00000E+00         0.00000E+00         0.00000E+00
 
    0.46108E+06         0.53107E+05         0.00000E+00
    0.53107E+05         0.12263E+08         0.00000E+00
    0.00000E+00         0.00000E+00         0.00000E+00
 
    0.57995E+06         0.58228E+05         0.00000E+00
    0.58228E+05         0.12286E+08         0.00000E+00
    0.00000E+00         0.00000E+00         0.00000E+00
 
    0.68984E+06         0.62814E+05         0.00000E+00
    0.62814E+05         0.12312E+08         0.00000E+00
    0.00000E+00         0.00000E+00         0.00000E+00
 
    0.79079E+06         0.67116E+05         0.00000E+00
    0.67116E+05         0.12343E+08         0.00000E+00
    0.00000E+00         0.00000E+00         0.00000E+00
 
    0.88281E+06         0.71365E+05         0.00000E+00
    0.71365E+05         0.12377E+08         0.00000E+00
    0.00000E+00         0.00000E+00         0.00000E+00
 
    0.96594E+06         0.75989E+05         0.00000E+00
    0.75989E+05         0.12415E+08         0.00000E+00
    0.00000E+00         0.00000E+00         0.00000E+00
 
    0.10403E+07         0.81398E+05         0.00000E+00
    0.81398E+05         0.12456E+08         0.00000E+00
    0.00000E+00         0.00000E+00         0.00000E+00
 
    0.11062E+07         0.87956E+05         0.00000E+00
    0.87956E+05         0.12502E+08         0.00000E+00
    0.00000E+00         0.00000E+00         0.00000E+00
 
    0.11639E+07         0.95908E+05         0.00000E+00
    0.95908E+05         0.12550E+08         0.00000E+00
    0.00000E+00         0.00000E+00         0.00000E+00
 
    0.12136E+07         0.10555E+06         0.00000E+00
    0.10555E+06         0.12602E+08         0.00000E+00
    0.00000E+00         0.00000E+00         0.00000E+00
 
    0.12557E+07         0.11720E+06         0.00000E+00
    0.11720E+06         0.12657E+08         0.00000E+00
    0.00000E+00         0.00000E+00         0.00000E+00
 
    0.12905E+07         0.13109E+06         0.00000E+00
    0.13109E+06         0.12715E+08         0.00000E+00
    0.00000E+00         0.00000E+00         0.00000E+00
 
    0.13185E+07         0.14734E+06         0.00000E+00
    0.14734E+06         0.12776E+08         0.00000E+00
    0.00000E+00         0.00000E+00         0.00000E+00
 
    0.13399E+07         0.16605E+06         0.00000E+00
    0.16605E+06         0.12839E+08         0.00000E+00
    0.00000E+00         0.00000E+00         0.00000E+00
 
    0.13552E+07         0.18747E+06         0.00000E+00
    0.18747E+06         0.12904E+08         0.00000E+00
    0.00000E+00         0.00000E+00         0.00000E+00
 
    0.13648E+07         0.21201E+06         0.00000E+00
    0.21201E+06         0.12972E+08         0.00000E+00
    0.00000E+00         0.00000E+00         0.00000E+00
 
    0.13694E+07         0.23960E+06         0.00000E+00
    0.23960E+06         0.13042E+08         0.00000E+00
    0.00000E+00         0.00000E+00         0.00000E+00
 
    0.13694E+07         0.26996E+06         0.00000E+00
    0.26996E+06         0.13113E+08         0.00000E+00
    0.00000E+00         0.00000E+00         0.00000E+00
 
    0.13649E+07         0.30281E+06         0.00000E+00
    0.30281E+06         0.13185E+08         0.00000E+00
    0.00000E+00         0.00000E+00         0.00000E+00
 
    0.13563E+07         0.33851E+06         0.00000E+00
    0.33851E+06         0.13260E+08         0.00000E+00
    0.00000E+00         0.00000E+00         0.00000E+00
 
    0.13439E+07         0.37734E+06         0.00000E+00
    0.37734E+06         0.13336E+08         0.00000E+00
    0.00000E+00         0.00000E+00         0.00000E+00
 
    0.13283E+07         0.41906E+06         0.00000E+00
    0.41906E+06         0.13413E+08         0.00000E+00
    0.00000E+00         0.00000E+00         0.00000E+00
 
    0.13101E+07         0.46387E+06         0.00000E+00
    0.46387E+06         0.13493E+08         0.00000E+00
    0.00000E+00         0.00000E+00         0.00000E+00
 
    0.12897E+07         0.51205E+06         0.00000E+00
    0.51205E+06         0.13574E+08         0.00000E+00
    0.00000E+00         0.00000E+00         0.00000E+00
 
    0.12679E+07         0.56282E+06         0.00000E+00
    0.56282E+06         0.13651E+08         0.00000E+00
    0.00000E+00         0.00000E+00         0.00000E+00
 
    0.12453E+07         0.61570E+06         0.00000E+00
    0.61570E+06         0.13730E+08         0.00000E+00
    0.00000E+00         0.00000E+00         0.00000E+00
 
    0.12232E+07         0.67229E+06         0.00000E+00
    0.67229E+06         0.13813E+08         0.00000E+00
    0.00000E+00         0.00000E+00         0.00000E+00
 
    0.12031E+07         0.72961E+06         0.00000E+00
    0.72961E+06         0.13891E+08         0.00000E+00
    0.00000E+00         0.00000E+00         0.00000E+00
 
    0.11832E+07         0.78395E+06         0.00000E+00
    0.78395E+06         0.13969E+08         0.00000E+00
    0.00000E+00         0.00000E+00         0.00000E+00
 
    0.11611E+07         0.83615E+06         0.00000E+00
    0.83615E+06         0.14046E+08         0.00000E+00
    0.00000E+00         0.00000E+00         0.00000E+00
 
    0.11356E+07         0.88821E+06         0.00000E+00
    0.88821E+06         0.14136E+08         0.00000E+00
    0.00000E+00         0.00000E+00         0.00000E+00
 
    0.11051E+07         0.94194E+06         0.00000E+00
    0.94194E+06         0.14248E+08         0.00000E+00
    0.00000E+00         0.00000E+00         0.00000E+00
 
    0.10636E+07         0.99551E+06         0.00000E+00
    0.99551E+06         0.14354E+08         0.00000E+00
    0.00000E+00         0.00000E+00         0.00000E+00
 
    0.10376E+07         0.10539E+07         0.00000E+00
    0.10539E+07         0.14448E+08         0.00000E+00
    0.00000E+00         0.00000E+00         0.40799E+05
 
    0.10089E+07         0.11256E+07         0.00000E+00
    0.11256E+07         0.14532E+08         0.00000E+00
    0.00000E+00         0.00000E+00         0.93811E+05
 
    0.96912E+06         0.12101E+07         0.00000E+00
    0.12101E+07         0.14607E+08         0.00000E+00
    0.00000E+00         0.00000E+00         0.14988E+06
 
    0.96440E+06         0.12967E+07         0.00000E+00
    0.12967E+07         0.14626E+08         0.00000E+00
    0.00000E+00         0.00000E+00         0.27050E+06
 
    0.95400E+06         0.13884E+07         0.00000E+00
    0.13884E+07         0.14641E+08         0.00000E+00
    0.00000E+00         0.00000E+00         0.39397E+06
 
    0.97747E+06         0.14778E+07         0.00000E+00
    0.14778E+07         0.14678E+08         0.00000E+00
    0.00000E+00         0.00000E+00         0.56353E+06
 
    0.10074E+07         0.15484E+07         0.00000E+00
    0.15484E+07         0.14723E+08         0.00000E+00
    0.00000E+00         0.00000E+00         0.73833E+06
 
    0.10619E+07         0.16013E+07         0.00000E+00
    0.16013E+07         0.14779E+08         0.00000E+00
    0.00000E+00         0.00000E+00         0.91605E+06
 
    0.11467E+07         0.16378E+07         0.00000E+00
    0.16378E+07         0.14848E+08         0.00000E+00
    0.00000E+00         0.00000E+00         0.10886E+07
 
    0.12461E+07         0.16618E+07         0.00000E+00
    0.16618E+07         0.14916E+08         0.00000E+00
    0.00000E+00         0.00000E+00         0.12376E+07
 
    0.13622E+07         0.16913E+07         0.00000E+00
    0.16913E+07         0.14983E+08         0.00000E+00
    0.00000E+00         0.00000E+00         0.13716E+07
 
    0.14781E+07         0.17335E+07         0.00000E+00
    0.17335E+07         0.15038E+08         0.00000E+00
    0.00000E+00         0.00000E+00         0.14845E+07
 
   -0.77347E+06         0.17696E+05         0.00000E+00
    0.17696E+05         0.11590E+08         0.00000E+00
    0.00000E+00         0.00000E+00         0.00000E+00
 
   -0.61944E+06         0.48116E+05         0.00000E+00
    0.48116E+05         0.11593E+08         0.00000E+00
    0.00000E+00         0.00000E+00         0.00000E+00
 
   -0.47325E+06         0.76882E+05         0.00000E+00
    0.76882E+05         0.11600E+08         0.00000E+00
    0.00000E+00         0.00000E+00         0.00000E+00
 
   -0.33487E+06         0.10415E+06         0.00000E+00
    0.10415E+06         0.11610E+08         0.00000E+00
    0.00000E+00         0.00000E+00         0.00000E+00
 
   -0.20424E+06         0.13010E+06         0.00000E+00
    0.13010E+06         0.11623E+08         0.00000E+00
    0.00000E+00         0.00000E+00         0.00000E+00
 
   -0.81332E+05         0.15492E+06         0.00000E+00
    0.15492E+06         0.11640E+08         0.00000E+00
    0.00000E+00         0.00000E+00         0.00000E+00
 
    0.33897E+05         0.17882E+06         0.00000E+00
    0.17882E+06         0.11660E+08         0.00000E+00
    0.00000E+00         0.00000E+00         0.00000E+00
 
    0.14149E+06         0.20201E+06         0.00000E+00
    0.20201E+06         0.11683E+08         0.00000E+00
    0.00000E+00         0.00000E+00         0.00000E+00
 
    0.24151E+06         0.22476E+06         0.00000E+00
    0.22476E+06         0.11710E+08         0.00000E+00
    0.00000E+00         0.00000E+00         0.00000E+00
 
    0.33406E+06         0.24733E+06         0.00000E+00
    0.24733E+06         0.11739E+08         0.00000E+00
    0.00000E+00         0.00000E+00         0.00000E+00
 
    0.41925E+06         0.26995E+06         0.00000E+00
    0.26995E+06         0.11772E+08         0.00000E+00
    0.00000E+00         0.00000E+00         0.00000E+00
 
    0.49722E+06         0.29287E+06         0.00000E+00
    0.29287E+06         0.11808E+08         0.00000E+00
    0.00000E+00         0.00000E+00         0.00000E+00
 
    0.56811E+06         0.31634E+06         0.00000E+00
    0.31634E+06         0.11848E+08         0.00000E+00
    0.00000E+00         0.00000E+00         0.00000E+00
 
    0.63210E+06         0.34060E+06         0.00000E+00
    0.34060E+06         0.11890E+08         0.00000E+00
    0.00000E+00         0.00000E+00         0.00000E+00
 
    0.68940E+06         0.36588E+06         0.00000E+00
    0.36588E+06         0.11935E+08         0.00000E+00
    0.00000E+00         0.00000E+00         0.00000E+00
 
    0.74021E+06         0.39239E+06         0.00000E+00
    0.39239E+06         0.11983E+08         0.00000E+00
    0.00000E+00         0.00000E+00         0.00000E+00
 
    0.78477E+06         0.42034E+06         0.00000E+00
    0.42034E+06         0.12033E+08         0.00000E+00
    0.00000E+00         0.00000E+00         0.00000E+00
 
    0.82334E+06         0.44993E+06         0.00000E+00
    0.44993E+06         0.12086E+08         0.00000E+00
    0.00000E+00         0.00000E+00         0.00000E+00
 
    0.85622E+06         0.48135E+06         0.00000E+00
    0.48135E+06         0.12142E+08         0.00000E+00
    0.00000E+00         0.00000E+00         0.00000E+00
 
    0.88371E+06         0.51472E+06         0.00000E+00
    0.51472E+06         0.12199E+08         0.00000E+00
    0.00000E+00         0.00000E+00         0.00000E+00
 
    0.90608E+06         0.55006E+06         0.00000E+00
    0.55006E+06         0.12259E+08         0.00000E+00
    0.00000E+00         0.00000E+00         0.00000E+00
 
    0.92357E+06         0.58751E+06         0.00000E+00
    0.58751E+06         0.12321E+08         0.00000E+00
    0.00000E+00         0.00000E+00         0.00000E+00
 
    0.93647E+06         0.62722E+06         0.00000E+00
    0.62722E+06         0.12385E+08         0.00000E+00
    0.00000E+00         0.00000E+00         0.00000E+00
 
    0.94514E+06         0.66933E+06         0.00000E+00
    0.66933E+06         0.12451E+08         0.00000E+00
    0.00000E+00         0.00000E+00         0.00000E+00
 
    0.94996E+06         0.71381E+06         0.00000E+00
    0.71381E+06         0.12519E+08         0.00000E+00
    0.00000E+00         0.00000E+00         0.00000E+00
 
    0.95122E+06         0.76063E+06         0.00000E+00
    0.76063E+06         0.12588E+08         0.00000E+00
    0.00000E+00         0.00000E+00         0.00000E+00
 
    0.94926E+06         0.80987E+06         0.00000E+00
    0.80987E+06         0.12659E+08         0.00000E+00
    0.00000E+00         0.00000E+00         0.00000E+00
 
    0.94442E+06         0.86137E+06         0.00000E+00
    0.86137E+06         0.12731E+08         0.00000E+00
    0.00000E+00         0.00000E+00         0.00000E+00
 
    0.93692E+06         0.91492E+06         0.00000E+00
    0.91492E+06         0.12804E+08         0.00000E+00
    0.00000E+00         0.00000E+00         0.00000E+00
 
    0.92702E+06         0.97072E+06         0.00000E+00
    0.97072E+06         0.12879E+08         0.00000E+00
    0.00000E+00         0.00000E+00         0.00000E+00
 
    0.91517E+06         0.10288E+07         0.00000E+00
    0.10288E+07         0.12956E+08         0.00000E+00
    0.00000E+00         0.00000E+00         0.00000E+00
 
    0.90144E+06         0.10882E+07         0.00000E+00
    0.10882E+07         0.13032E+08         0.00000E+00
    0.00000E+00         0.00000E+00         0.00000E+00
 
    0.88562E+06         0.11491E+07         0.00000E+00
    0.11491E+07         0.13112E+08         0.00000E+00
    0.00000E+00         0.00000E+00         0.00000E+00
 
    0.86818E+06         0.12123E+07         0.00000E+00
    0.12123E+07         0.13193E+08         0.00000E+00
    0.00000E+00         0.00000E+00         0.00000E+00
 
    0.84988E+06         0.12777E+07         0.00000E+00
    0.12777E+07         0.13276E+08         0.00000E+00
    0.00000E+00         0.00000E+00         0.00000E+00
 
    0.83135E+06         0.13447E+07         0.00000E+00
    0.13447E+07         0.13359E+08         0.00000E+00
    0.00000E+00         0.00000E+00         0.00000E+00
 
    0.81303E+06         0.14122E+07         0.00000E+00
    0.14122E+07         0.13439E+08         0.00000E+00
    0.00000E+00         0.00000E+00         0.00000E+00
 
    0.79662E+06         0.14815E+07         0.00000E+00
    0.14815E+07         0.13523E+08         0.00000E+00
    0.00000E+00         0.00000E+00         0.00000E+00
 
    0.78329E+06         0.15484E+07         0.00000E+00
    0.15484E+07         0.13602E+08         0.00000E+00
    0.00000E+00         0.00000E+00         0.00000E+00
 
    0.76962E+06         0.16069E+07         0.00000E+00
    0.16069E+07         0.13681E+08         0.00000E+00
    0.00000E+00         0.00000E+00         0.00000E+00
 
    0.75005E+06         0.16578E+07         0.00000E+00
    0.16578E+07         0.13764E+08         0.00000E+00
    0.00000E+00         0.00000E+00         0.00000E+00
 
    0.72172E+06         0.17100E+07         0.00000E+00
    0.17100E+07         0.13903E+08         0.00000E+00
    0.00000E+00         0.00000E+00         0.00000E+00
 
    0.67505E+06         0.17570E+07         0.00000E+00
    0.17570E+07         0.14038E+08         0.00000E+00
    0.00000E+00         0.00000E+00         0.00000E+00
 
    0.65930E+06         0.18063E+07         0.00000E+00
    0.18063E+07         0.14161E+08         0.00000E+00
    0.00000E+00         0.00000E+00         0.62312E+05
 
    0.63815E+06         0.18706E+07         0.00000E+00
    0.18706E+07         0.14275E+08         0.00000E+00
    0.00000E+00         0.00000E+00         0.13220E+06
 
    0.65182E+06         0.19366E+07         0.00000E+00
    0.19366E+07         0.14340E+08         0.00000E+00
    0.00000E+00         0.00000E+00         0.25456E+06
 
    0.68974E+06         0.19984E+07         0.00000E+00
    0.19984E+07         0.14375E+08         0.00000E+00
    0.00000E+00         0.00000E+00         0.40530E+06
 
    0.77808E+06         0.20547E+07         0.00000E+00
    0.20547E+07         0.14442E+08         0.00000E+00
    0.00000E+00         0.00000E+00         0.60827E+06
 
    0.88398E+06         0.20811E+07         0.00000E+00
    0.20811E+07         0.14526E+08         0.00000E+00
    0.00000E+00         0.00000E+00         0.81170E+06
 
    0.10270E+07         0.20758E+07         0.00000E+00
    0.20758E+07         0.14633E+08         0.00000E+00
    0.00000E+00         0.00000E+00         0.10115E+07
 
   -0.11720E+07         0.26321E+05         0.00000E+00
    0.26321E+05         0.10993E+08         0.00000E+00
    0.00000E+00         0.00000E+00         0.00000E+00
 
   -0.10270E+07         0.73263E+05         0.00000E+00
    0.73263E+05         0.10996E+08         0.00000E+00
    0.00000E+00         0.00000E+00         0.00000E+00
 
   -0.88893E+06         0.11838E+06         0.00000E+00
    0.11838E+06         0.11002E+08         0.00000E+00
    0.00000E+00         0.00000E+00         0.00000E+00
 
   -0.75780E+06         0.16185E+06         0.00000E+00
    0.16185E+06         0.11010E+08         0.00000E+00
    0.00000E+00         0.00000E+00         0.00000E+00
 
   -0.63346E+06         0.20387E+06         0.00000E+00
    0.20387E+06         0.11022E+08         0.00000E+00
    0.00000E+00         0.00000E+00         0.00000E+00
 
   -0.51582E+06         0.24465E+06         0.00000E+00
    0.24465E+06         0.11037E+08         0.00000E+00
    0.00000E+00         0.00000E+00         0.00000E+00
 
   -0.40479E+06         0.28438E+06         0.00000E+00
    0.28438E+06         0.11054E+08         0.00000E+00
    0.00000E+00         0.00000E+00         0.00000E+00
 
   -0.30027E+06         0.32328E+06         0.00000E+00
    0.32328E+06         0.11074E+08         0.00000E+00
    0.00000E+00         0.00000E+00         0.00000E+00
 
   -0.20217E+06         0.36154E+06         0.00000E+00
    0.36154E+06         0.11097E+08         0.00000E+00
    0.00000E+00         0.00000E+00         0.00000E+00
 
   -0.11039E+06         0.39938E+06         0.00000E+00
    0.39938E+06         0.11122E+08         0.00000E+00
    0.00000E+00         0.00000E+00         0.00000E+00
 
   -0.24826E+05         0.43701E+06         0.00000E+00
    0.43701E+06         0.11150E+08         0.00000E+00
    0.00000E+00         0.00000E+00         0.00000E+00
 
    0.54649E+05         0.47463E+06         0.00000E+00
    0.47463E+06         0.11181E+08         0.00000E+00
    0.00000E+00         0.00000E+00         0.00000E+00
 
    0.12816E+06         0.51245E+06         0.00000E+00
    0.51245E+06         0.11214E+08         0.00000E+00
    0.00000E+00         0.00000E+00         0.00000E+00
 
    0.19586E+06         0.55066E+06         0.00000E+00
    0.55066E+06         0.11250E+08         0.00000E+00
    0.00000E+00         0.00000E+00         0.00000E+00
 
    0.25789E+06         0.58946E+06         0.00000E+00
    0.58946E+06         0.11288E+08         0.00000E+00
    0.00000E+00         0.00000E+00         0.00000E+00
 
    0.31442E+06         0.62904E+06         0.00000E+00
    0.62904E+06         0.11328E+08         0.00000E+00
    0.00000E+00         0.00000E+00         0.00000E+00
 
    0.36562E+06         0.66957E+06         0.00000E+00
    0.66957E+06         0.11371E+08         0.00000E+00
    0.00000E+00         0.00000E+00         0.00000E+00
 
    0.41168E+06         0.71121E+06         0.00000E+00
    0.71121E+06         0.11416E+08         0.00000E+00
    0.00000E+00         0.00000E+00         0.00000E+00
 
    0.45279E+06         0.75410E+06         0.00000E+00
    0.75410E+06         0.11463E+08         0.00000E+00
    0.00000E+00         0.00000E+00         0.00000E+00
 
    0.48913E+06         0.79839E+06         0.00000E+00
    0.79839E+06         0.11512E+08         0.00000E+00
    0.00000E+00         0.00000E+00         0.00000E+00
 
    0.52092E+06         0.84422E+06         0.00000E+00
    0.84422E+06         0.11563E+08         0.00000E+00
    0.00000E+00         0.00000E+00         0.00000E+00
 
    0.54839E+06         0.89171E+06         0.00000E+00
    0.89171E+06         0.11615E+08         0.00000E+00
    0.00000E+00         0.00000E+00         0.00000E+00
 
    0.57176E+06         0.94095E+06         0.00000E+00
    0.94095E+06         0.11670E+08         0.00000E+00
    0.00000E+00         0.00000E+00         0.00000E+00
 
    0.59123E+06         0.99199E+06         0.00000E+00
    0.99199E+06         0.11726E+08         0.00000E+00
    0.00000E+00         0.00000E+00         0.00000E+00
 
    0.60703E+06         0.10449E+07         0.00000E+00
    0.10449E+07         0.11784E+08         0.00000E+00
    0.00000E+00         0.00000E+00         0.00000E+00
 
    0.61937E+06         0.10998E+07         0.00000E+00
    0.10998E+07         0.11843E+08         0.00000E+00
    0.00000E+00         0.00000E+00         0.00000E+00
 
    0.62846E+06         0.11566E+07         0.00000E+00
    0.11566E+07         0.11904E+08         0.00000E+00
    0.00000E+00         0.00000E+00         0.00000E+00
 
    0.63449E+06         0.12154E+07         0.00000E+00
    0.12154E+07         0.11966E+08         0.00000E+00
    0.00000E+00         0.00000E+00         0.00000E+00
 
    0.63770E+06         0.12763E+07         0.00000E+00
    0.12763E+07         0.12029E+08         0.00000E+00
    0.00000E+00         0.00000E+00         0.00000E+00
 
    0.63830E+06         0.13391E+07         0.00000E+00
    0.13391E+07         0.12094E+08         0.00000E+00
    0.00000E+00         0.00000E+00         0.00000E+00
 
    0.63637E+06         0.14037E+07         0.00000E+00
    0.14037E+07         0.12160E+08         0.00000E+00
    0.00000E+00         0.00000E+00         0.00000E+00
 
    0.63213E+06         0.14704E+07         0.00000E+00
    0.14704E+07         0.12227E+08         0.00000E+00
    0.00000E+00         0.00000E+00         0.00000E+00
 
    0.62584E+06         0.15391E+07         0.00000E+00
    0.15391E+07         0.12296E+08         0.00000E+00
    0.00000E+00         0.00000E+00         0.00000E+00
 
    0.61767E+06         0.16093E+07         0.00000E+00
    0.16093E+07         0.12365E+08         0.00000E+00
    0.00000E+00         0.00000E+00         0.00000E+00
 
    0.60763E+06         0.16811E+07         0.00000E+00
    0.16811E+07         0.12436E+08         0.00000E+00
    0.00000E+00         0.00000E+00         0.00000E+00
 
    0.59571E+06         0.17543E+07         0.00000E+00
    0.17543E+07         0.12509E+08         0.00000E+00
    0.00000E+00         0.00000E+00         0.00000E+00
 
    0.58200E+06         0.18290E+07         0.00000E+00
    0.18290E+07         0.12584E+08         0.00000E+00
    0.00000E+00         0.00000E+00         0.00000E+00
 
    0.56625E+06         0.19044E+07         0.00000E+00
    0.19044E+07         0.12659E+08         0.00000E+00
    0.00000E+00         0.00000E+00         0.00000E+00
 
    0.54799E+06         0.19810E+07         0.00000E+00
    0.19810E+07         0.12739E+08         0.00000E+00
    0.00000E+00         0.00000E+00         0.00000E+00
 
    0.52775E+06         0.20600E+07         0.00000E+00
    0.20600E+07         0.12821E+08         0.00000E+00
    0.00000E+00         0.00000E+00         0.00000E+00
 
    0.50698E+06         0.21418E+07         0.00000E+00
    0.21418E+07         0.12908E+08         0.00000E+00
    0.00000E+00         0.00000E+00         0.00000E+00
 
    0.48628E+06         0.22232E+07         0.00000E+00
    0.22232E+07         0.12985E+08         0.00000E+00
    0.00000E+00         0.00000E+00         0.00000E+00
 
    0.46767E+06         0.23063E+07         0.00000E+00
    0.23063E+07         0.13070E+08         0.00000E+00
    0.00000E+00         0.00000E+00         0.00000E+00
 
    0.45120E+06         0.23821E+07         0.00000E+00
    0.23821E+07         0.13146E+08         0.00000E+00
    0.00000E+00         0.00000E+00         0.00000E+00
 
    0.42849E+06         0.24425E+07         0.00000E+00
    0.24425E+07         0.13228E+08         0.00000E+00
    0.00000E+00         0.00000E+00         0.00000E+00
 
    0.39120E+06         0.24989E+07         0.00000E+00
    0.24989E+07         0.13366E+08         0.00000E+00
    0.00000E+00         0.00000E+00         0.00000E+00
 
    0.32662E+06         0.25484E+07         0.00000E+00
    0.25484E+07         0.13537E+08         0.00000E+00
    0.00000E+00         0.00000E+00         0.00000E+00
 
    0.30934E+06         0.25931E+07         0.00000E+00
    0.25931E+07         0.13701E+08         0.00000E+00
    0.00000E+00         0.00000E+00         0.77145E+05
 
    0.30350E+06         0.26497E+07         0.00000E+00
    0.26497E+07         0.13862E+08         0.00000E+00
    0.00000E+00         0.00000E+00         0.16920E+06
 
    0.37984E+06         0.26918E+07         0.00000E+00
    0.26918E+07         0.13953E+08         0.00000E+00
    0.00000E+00         0.00000E+00         0.33829E+06
 
   -0.14713E+07         0.33830E+05         0.00000E+00
    0.33830E+05         0.10417E+08         0.00000E+00
    0.00000E+00         0.00000E+00         0.00000E+00
 
   -0.13366E+07         0.94928E+05         0.00000E+00
    0.94928E+05         0.10419E+08         0.00000E+00
    0.00000E+00         0.00000E+00         0.00000E+00
 
   -0.12078E+07         0.15395E+06         0.00000E+00
    0.15395E+06         0.10424E+08         0.00000E+00
    0.00000E+00         0.00000E+00         0.00000E+00
 
   -0.10848E+07         0.21111E+06         0.00000E+00
    0.21111E+06         0.10431E+08         0.00000E+00
    0.00000E+00         0.00000E+00         0.00000E+00
 
   -0.96761E+06         0.26663E+06         0.00000E+00
    0.26663E+06         0.10441E+08         0.00000E+00
    0.00000E+00         0.00000E+00         0.00000E+00
 
   -0.85605E+06         0.32071E+06         0.00000E+00
    0.32071E+06         0.10453E+08         0.00000E+00
    0.00000E+00         0.00000E+00         0.00000E+00
 
   -0.75007E+06         0.37356E+06         0.00000E+00
    0.37356E+06         0.10467E+08         0.00000E+00
    0.00000E+00         0.00000E+00         0.00000E+00
 
   -0.64957E+06         0.42537E+06         0.00000E+00
    0.42537E+06         0.10484E+08         0.00000E+00
    0.00000E+00         0.00000E+00         0.00000E+00
 
   -0.55447E+06         0.47635E+06         0.00000E+00
    0.47635E+06         0.10502E+08         0.00000E+00
    0.00000E+00         0.00000E+00         0.00000E+00
 
   -0.46467E+06         0.52669E+06         0.00000E+00
    0.52669E+06         0.10523E+08         0.00000E+00
    0.00000E+00         0.00000E+00         0.00000E+00
 
   -0.38009E+06         0.57657E+06         0.00000E+00
    0.57657E+06         0.10546E+08         0.00000E+00
    0.00000E+00         0.00000E+00         0.00000E+00
 
   -0.30061E+06         0.62619E+06         0.00000E+00
    0.62619E+06         0.10571E+08         0.00000E+00
    0.00000E+00         0.00000E+00         0.00000E+00
 
   -0.22613E+06         0.67572E+06         0.00000E+00
    0.67572E+06         0.10598E+08         0.00000E+00
    0.00000E+00         0.00000E+00         0.00000E+00
 
   -0.15655E+06         0.72533E+06         0.00000E+00
    0.72533E+06         0.10627E+08         0.00000E+00
    0.00000E+00         0.00000E+00         0.00000E+00
 
   -0.91733E+05         0.77520E+06         0.00000E+00
    0.77520E+06         0.10658E+08         0.00000E+00
    0.00000E+00         0.00000E+00         0.00000E+00
 
   -0.31567E+05         0.82549E+06         0.00000E+00
    0.82549E+06         0.10691E+08         0.00000E+00
    0.00000E+00         0.00000E+00         0.00000E+00
 
    0.24080E+05         0.87635E+06         0.00000E+00
    0.87635E+06         0.10725E+08         0.00000E+00
    0.00000E+00         0.00000E+00         0.00000E+00
 
    0.75344E+05         0.92793E+06         0.00000E+00
    0.92793E+06         0.10762E+08         0.00000E+00
    0.00000E+00         0.00000E+00         0.00000E+00
 
    0.12237E+06         0.98038E+06         0.00000E+00
    0.98038E+06         0.10800E+08         0.00000E+00
    0.00000E+00         0.00000E+00         0.00000E+00
 
    0.16530E+06         0.10338E+07         0.00000E+00
    0.10338E+07         0.10839E+08         0.00000E+00
    0.00000E+00         0.00000E+00         0.00000E+00
 
    0.20429E+06         0.10884E+07         0.00000E+00
    0.10884E+07         0.10880E+08         0.00000E+00
    0.00000E+00         0.00000E+00         0.00000E+00
 
    0.23949E+06         0.11441E+07         0.00000E+00
    0.11441E+07         0.10923E+08         0.00000E+00
    0.00000E+00         0.00000E+00         0.00000E+00
 
    0.27105E+06         0.12012E+07         0.00000E+00
    0.12012E+07         0.10967E+08         0.00000E+00
    0.00000E+00         0.00000E+00         0.00000E+00
 
    0.29912E+06         0.12597E+07         0.00000E+00
    0.12597E+07         0.11012E+08         0.00000E+00
    0.00000E+00         0.00000E+00         0.00000E+00
 
    0.32387E+06         0.13197E+07         0.00000E+00
    0.13197E+07         0.11058E+08         0.00000E+00
    0.00000E+00         0.00000E+00         0.00000E+00
 
    0.34544E+06         0.13813E+07         0.00000E+00
    0.13813E+07         0.11106E+08         0.00000E+00
    0.00000E+00         0.00000E+00         0.00000E+00
 
    0.36399E+06         0.14445E+07         0.00000E+00
    0.14445E+07         0.11154E+08         0.00000E+00
    0.00000E+00         0.00000E+00         0.00000E+00
 
    0.37967E+06         0.15094E+07         0.00000E+00
    0.15094E+07         0.11204E+08         0.00000E+00
    0.00000E+00         0.00000E+00         0.00000E+00
 
    0.39259E+06         0.15760E+07         0.00000E+00
    0.15760E+07         0.11254E+08         0.00000E+00
    0.00000E+00         0.00000E+00         0.00000E+00
 
    0.40290E+06         0.16444E+07         0.00000E+00
    0.16444E+07         0.11306E+08         0.00000E+00
    0.00000E+00         0.00000E+00         0.00000E+00
 
    0.41073E+06         0.17146E+07         0.00000E+00
    0.17146E+07         0.11358E+08         0.00000E+00
    0.00000E+00         0.00000E+00         0.00000E+00
 
    0.41621E+06         0.17865E+07         0.00000E+00
    0.17865E+07         0.11411E+08         0.00000E+00
    0.00000E+00         0.00000E+00         0.00000E+00
 
    0.41938E+06         0.18602E+07         0.00000E+00
    0.18602E+07         0.11464E+08         0.00000E+00
    0.00000E+00         0.00000E+00         0.00000E+00
 
    0.42033E+06         0.19358E+07         0.00000E+00
    0.19358E+07         0.11519E+08         0.00000E+00
    0.00000E+00         0.00000E+00         0.00000E+00
 
    0.41913E+06         0.20132E+07         0.00000E+00
    0.20132E+07         0.11574E+08         0.00000E+00
    0.00000E+00         0.00000E+00         0.00000E+00
 
    0.41585E+06         0.20924E+07         0.00000E+00
    0.20924E+07         0.11630E+08         0.00000E+00
    0.00000E+00         0.00000E+00         0.00000E+00
 
    0.41049E+06         0.21734E+07         0.00000E+00
    0.21734E+07         0.11686E+08         0.00000E+00
    0.00000E+00         0.00000E+00         0.00000E+00
 
    0.40310E+06         0.22564E+07         0.00000E+00
    0.22564E+07         0.11743E+08         0.00000E+00
    0.00000E+00         0.00000E+00         0.00000E+00
 
    0.39381E+06         0.23412E+07         0.00000E+00
    0.23412E+07         0.11801E+08         0.00000E+00
    0.00000E+00         0.00000E+00         0.00000E+00
 
    0.38253E+06         0.24277E+07         0.00000E+00
    0.24277E+07         0.11859E+08         0.00000E+00
    0.00000E+00         0.00000E+00         0.00000E+00
 
    0.36876E+06         0.25153E+07         0.00000E+00
    0.25153E+07         0.11917E+08         0.00000E+00
    0.00000E+00         0.00000E+00         0.00000E+00
 
    0.35219E+06         0.26050E+07         0.00000E+00
    0.26050E+07         0.11979E+08         0.00000E+00
    0.00000E+00         0.00000E+00         0.00000E+00
 
    0.33207E+06         0.26960E+07         0.00000E+00
    0.26960E+07         0.12040E+08         0.00000E+00
    0.00000E+00         0.00000E+00         0.00000E+00
 
    0.30775E+06         0.27900E+07         0.00000E+00
    0.27900E+07         0.12106E+08         0.00000E+00
    0.00000E+00         0.00000E+00         0.00000E+00
 
    0.28069E+06         0.28897E+07         0.00000E+00
    0.28897E+07         0.12174E+08         0.00000E+00
    0.00000E+00         0.00000E+00         0.00000E+00
 
    0.25223E+06         0.29922E+07         0.00000E+00
    0.29922E+07         0.12233E+08         0.00000E+00
    0.00000E+00         0.00000E+00         0.00000E+00
 
    0.22438E+06         0.30989E+07         0.00000E+00
    0.30989E+07         0.12290E+08         0.00000E+00
    0.00000E+00         0.00000E+00         0.00000E+00
 
    0.19441E+06         0.31966E+07         0.00000E+00
    0.31966E+07         0.12333E+08         0.00000E+00
    0.00000E+00         0.00000E+00         0.00000E+00
 
    0.14457E+06         0.32727E+07         0.00000E+00
    0.32727E+07         0.12379E+08         0.00000E+00
    0.00000E+00         0.00000E+00         0.00000E+00
 
    0.55722E+05         0.33498E+07         0.00000E+00
    0.33498E+07         0.12510E+08         0.00000E+00
    0.00000E+00         0.00000E+00         0.00000E+00
 
   -0.16848E+07         0.39774E+05         0.00000E+00
    0.39774E+05         0.98621E+07         0.00000E+00
    0.00000E+00         0.00000E+00         0.00000E+00
 
   -0.15615E+07         0.11221E+06         0.00000E+00
    0.11221E+06         0.98640E+07         0.00000E+00
    0.00000E+00         0.00000E+00         0.00000E+00
 
   -0.14430E+07         0.18238E+06         0.00000E+00
    0.18238E+06         0.98678E+07         0.00000E+00
    0.00000E+00         0.00000E+00         0.00000E+00
 
   -0.13292E+07         0.25052E+06         0.00000E+00
    0.25052E+06         0.98734E+07         0.00000E+00
    0.00000E+00         0.00000E+00         0.00000E+00
 
   -0.12200E+07         0.31685E+06         0.00000E+00
    0.31685E+06         0.98808E+07         0.00000E+00
    0.00000E+00         0.00000E+00         0.00000E+00
 
   -0.11155E+07         0.38157E+06         0.00000E+00
    0.38157E+06         0.98900E+07         0.00000E+00
    0.00000E+00         0.00000E+00         0.00000E+00
 
   -0.10155E+07         0.44487E+06         0.00000E+00
    0.44487E+06         0.99010E+07         0.00000E+00
    0.00000E+00         0.00000E+00         0.00000E+00
 
   -0.91998E+06         0.50697E+06         0.00000E+00
    0.50697E+06         0.99137E+07         0.00000E+00
    0.00000E+00         0.00000E+00         0.00000E+00
 
   -0.82892E+06         0.56804E+06         0.00000E+00
    0.56804E+06         0.99282E+07         0.00000E+00
    0.00000E+00         0.00000E+00         0.00000E+00
 
   -0.74223E+06         0.62825E+06         0.00000E+00
    0.62825E+06         0.99443E+07         0.00000E+00
    0.00000E+00         0.00000E+00         0.00000E+00
 
   -0.65983E+06         0.68780E+06         0.00000E+00
    0.68780E+06         0.99620E+07         0.00000E+00
    0.00000E+00         0.00000E+00         0.00000E+00
 
   -0.58165E+06         0.74684E+06         0.00000E+00
    0.74684E+06         0.99813E+07         0.00000E+00
    0.00000E+00         0.00000E+00         0.00000E+00
 
   -0.50762E+06         0.80554E+06         0.00000E+00
    0.80554E+06         0.10002E+08         0.00000E+00
    0.00000E+00         0.00000E+00         0.00000E+00
 
   -0.43765E+06         0.86405E+06         0.00000E+00
    0.86405E+06         0.10025E+08         0.00000E+00
    0.00000E+00         0.00000E+00         0.00000E+00
 
   -0.37165E+06         0.92253E+06         0.00000E+00
    0.92253E+06         0.10048E+08         0.00000E+00
    0.00000E+00         0.00000E+00         0.00000E+00
 
   -0.30954E+06         0.98112E+06         0.00000E+00
    0.98112E+06         0.10074E+08         0.00000E+00
    0.00000E+00         0.00000E+00         0.00000E+00
 
   -0.25123E+06         0.10400E+07         0.00000E+00
    0.10400E+07         0.10100E+08         0.00000E+00
    0.00000E+00         0.00000E+00         0.00000E+00
 
   -0.19660E+06         0.10992E+07         0.00000E+00
    0.10992E+07         0.10128E+08         0.00000E+00
    0.00000E+00         0.00000E+00         0.00000E+00
 
   -0.14556E+06         0.11589E+07         0.00000E+00
    0.11589E+07         0.10157E+08         0.00000E+00
    0.00000E+00         0.00000E+00         0.00000E+00
 
   -0.98002E+05         0.12192E+07         0.00000E+00
    0.12192E+07         0.10188E+08         0.00000E+00
    0.00000E+00         0.00000E+00         0.00000E+00
 
   -0.53823E+05         0.12803E+07         0.00000E+00
    0.12803E+07         0.10219E+08         0.00000E+00
    0.00000E+00         0.00000E+00         0.00000E+00
 
   -0.12910E+05         0.13422E+07         0.00000E+00
    0.13422E+07         0.10251E+08         0.00000E+00
    0.00000E+00         0.00000E+00         0.00000E+00
 
    0.24847E+05         0.14051E+07         0.00000E+00
    0.14051E+07         0.10285E+08         0.00000E+00
    0.00000E+00         0.00000E+00         0.00000E+00
 
    0.59559E+05         0.14689E+07         0.00000E+00
    0.14689E+07         0.10319E+08         0.00000E+00
    0.00000E+00         0.00000E+00         0.00000E+00
 
    0.91334E+05         0.15339E+07         0.00000E+00
    0.15339E+07         0.10354E+08         0.00000E+00
    0.00000E+00         0.00000E+00         0.00000E+00
 
    0.12028E+06         0.16000E+07         0.00000E+00
    0.16000E+07         0.10389E+08         0.00000E+00
    0.00000E+00         0.00000E+00         0.00000E+00
 
    0.14651E+06         0.16673E+07         0.00000E+00
    0.16673E+07         0.10426E+08         0.00000E+00
    0.00000E+00         0.00000E+00         0.00000E+00
 
    0.17012E+06         0.17359E+07         0.00000E+00
    0.17359E+07         0.10462E+08         0.00000E+00
    0.00000E+00         0.00000E+00         0.00000E+00
 
    0.19121E+06         0.18059E+07         0.00000E+00
    0.18059E+07         0.10500E+08         0.00000E+00
    0.00000E+00         0.00000E+00         0.00000E+00
 
    0.20987E+06         0.18772E+07         0.00000E+00
    0.18772E+07         0.10537E+08         0.00000E+00
    0.00000E+00         0.00000E+00         0.00000E+00
 
    0.22618E+06         0.19500E+07         0.00000E+00
    0.19500E+07         0.10575E+08         0.00000E+00
    0.00000E+00         0.00000E+00         0.00000E+00
 
    0.24021E+06         0.20241E+07         0.00000E+00
    0.20241E+07         0.10614E+08         0.00000E+00
    0.00000E+00         0.00000E+00         0.00000E+00
 
    0.25205E+06         0.20998E+07         0.00000E+00
    0.20998E+07         0.10652E+08         0.00000E+00
    0.00000E+00         0.00000E+00         0.00000E+00
 
    0.26173E+06         0.21768E+07         0.00000E+00
    0.21768E+07         0.10690E+08         0.00000E+00
    0.00000E+00         0.00000E+00         0.00000E+00
 
    0.26929E+06         0.22554E+07         0.00000E+00
    0.22554E+07         0.10729E+08         0.00000E+00
    0.00000E+00         0.00000E+00         0.00000E+00
 
    0.27476E+06         0.23354E+07         0.00000E+00
    0.23354E+07         0.10767E+08         0.00000E+00
    0.00000E+00         0.00000E+00         0.00000E+00
 
    0.27814E+06         0.24169E+07         0.00000E+00
    0.24169E+07         0.10805E+08         0.00000E+00
    0.00000E+00         0.00000E+00         0.00000E+00
 
    0.27940E+06         0.24997E+07         0.00000E+00
    0.24997E+07         0.10842E+08         0.00000E+00
    0.00000E+00         0.00000E+00         0.00000E+00
 
    0.27843E+06         0.25839E+07         0.00000E+00
    0.25839E+07         0.10880E+08         0.00000E+00
    0.00000E+00         0.00000E+00         0.00000E+00
 
    0.27512E+06         0.26695E+07         0.00000E+00
    0.26695E+07         0.10916E+08         0.00000E+00
    0.00000E+00         0.00000E+00         0.00000E+00
 
    0.26941E+06         0.27565E+07         0.00000E+00
    0.27565E+07         0.10952E+08         0.00000E+00
    0.00000E+00         0.00000E+00         0.00000E+00
 
    0.26113E+06         0.28446E+07         0.00000E+00
    0.28446E+07         0.10987E+08         0.00000E+00
    0.00000E+00         0.00000E+00         0.00000E+00
 
    0.25009E+06         0.29340E+07         0.00000E+00
    0.29340E+07         0.11021E+08         0.00000E+00
    0.00000E+00         0.00000E+00         0.00000E+00
 
    0.23608E+06         0.30243E+07         0.00000E+00
    0.30243E+07         0.11054E+08         0.00000E+00
    0.00000E+00         0.00000E+00         0.00000E+00
 
    0.21813E+06         0.31144E+07         0.00000E+00
    0.31144E+07         0.11084E+08         0.00000E+00
    0.00000E+00         0.00000E+00         0.00000E+00
 
    0.19494E+06         0.32047E+07         0.00000E+00
    0.32047E+07         0.11114E+08         0.00000E+00
    0.00000E+00         0.00000E+00         0.00000E+00
 
    0.16452E+06         0.32944E+07         0.00000E+00
    0.32944E+07         0.11144E+08         0.00000E+00
    0.00000E+00         0.00000E+00         0.00000E+00
 
    0.12524E+06         0.33863E+07         0.00000E+00
    0.33863E+07         0.11175E+08         0.00000E+00
    0.00000E+00         0.00000E+00         0.00000E+00
 
    0.78947E+05         0.34850E+07         0.00000E+00
    0.34850E+07         0.11207E+08         0.00000E+00
    0.00000E+00         0.00000E+00         0.00000E+00
 
    0.27280E+05         0.35855E+07         0.00000E+00
    0.35855E+07         0.11220E+08         0.00000E+00
    0.00000E+00         0.00000E+00         0.00000E+00
 
   -0.18274E+07         0.44019E+05         0.00000E+00
    0.44019E+05         0.93288E+07         0.00000E+00
    0.00000E+00         0.00000E+00         0.00000E+00
 
   -0.17161E+07         0.12484E+06         0.00000E+00
    0.12484E+06         0.93301E+07         0.00000E+00
    0.00000E+00         0.00000E+00         0.00000E+00
 
   -0.16085E+07         0.20333E+06         0.00000E+00
    0.20333E+06         0.93328E+07         0.00000E+00
    0.00000E+00         0.00000E+00         0.00000E+00
 
   -0.15045E+07         0.27972E+06         0.00000E+00
    0.27972E+06         0.93367E+07         0.00000E+00
    0.00000E+00         0.00000E+00         0.00000E+00
 
   -0.14041E+07         0.35420E+06         0.00000E+00
    0.35420E+06         0.93419E+07         0.00000E+00
    0.00000E+00         0.00000E+00         0.00000E+00
 
   -0.13073E+07         0.42697E+06         0.00000E+00
    0.42697E+06         0.93485E+07         0.00000E+00
    0.00000E+00         0.00000E+00         0.00000E+00
 
   -0.12141E+07         0.49821E+06         0.00000E+00
    0.49821E+06         0.93564E+07         0.00000E+00
    0.00000E+00         0.00000E+00         0.00000E+00
 
   -0.11245E+07         0.56811E+06         0.00000E+00
    0.56811E+06         0.93655E+07         0.00000E+00
    0.00000E+00         0.00000E+00         0.00000E+00
 
   -0.10383E+07         0.63682E+06         0.00000E+00
    0.63682E+06         0.93759E+07         0.00000E+00
    0.00000E+00         0.00000E+00         0.00000E+00
 
   -0.95573E+06         0.70452E+06         0.00000E+00
    0.70452E+06         0.93875E+07         0.00000E+00
    0.00000E+00         0.00000E+00         0.00000E+00
 
   -0.87659E+06         0.77137E+06         0.00000E+00
    0.77137E+06         0.94003E+07         0.00000E+00
    0.00000E+00         0.00000E+00         0.00000E+00
 
   -0.80086E+06         0.83750E+06         0.00000E+00
    0.83750E+06         0.94143E+07         0.00000E+00
    0.00000E+00         0.00000E+00         0.00000E+00
 
   -0.72851E+06         0.90308E+06         0.00000E+00
    0.90308E+06         0.94294E+07         0.00000E+00
    0.00000E+00         0.00000E+00         0.00000E+00
 
   -0.65948E+06         0.96823E+06         0.00000E+00
    0.96823E+06         0.94457E+07         0.00000E+00
    0.00000E+00         0.00000E+00         0.00000E+00
 
   -0.59372E+06         0.10331E+07         0.00000E+00
    0.10331E+07         0.94630E+07         0.00000E+00
    0.00000E+00         0.00000E+00         0.00000E+00
 
   -0.53116E+06         0.10978E+07         0.00000E+00
    0.10978E+07         0.94813E+07         0.00000E+00
    0.00000E+00         0.00000E+00         0.00000E+00
 
   -0.47176E+06         0.11625E+07         0.00000E+00
    0.11625E+07         0.95005E+07         0.00000E+00
    0.00000E+00         0.00000E+00         0.00000E+00
 
   -0.41543E+06         0.12272E+07         0.00000E+00
    0.12272E+07         0.95207E+07         0.00000E+00
    0.00000E+00         0.00000E+00         0.00000E+00
 
   -0.36211E+06         0.12921E+07         0.00000E+00
    0.12921E+07         0.95417E+07         0.00000E+00
    0.00000E+00         0.00000E+00         0.00000E+00
 
   -0.31174E+06         0.13573E+07         0.00000E+00
    0.13573E+07         0.95635E+07         0.00000E+00
    0.00000E+00         0.00000E+00         0.00000E+00
 
   -0.26423E+06         0.14229E+07         0.00000E+00
    0.14229E+07         0.95861E+07         0.00000E+00
    0.00000E+00         0.00000E+00         0.00000E+00
 
   -0.21951E+06         0.14889E+07         0.00000E+00
    0.14889E+07         0.96093E+07         0.00000E+00
    0.00000E+00         0.00000E+00         0.00000E+00
 
   -0.17752E+06         0.15555E+07         0.00000E+00
    0.15555E+07         0.96331E+07         0.00000E+00
    0.00000E+00         0.00000E+00         0.00000E+00
 
   -0.13817E+06         0.16228E+07         0.00000E+00
    0.16228E+07         0.96575E+07         0.00000E+00
    0.00000E+00         0.00000E+00         0.00000E+00
 
   -0.10139E+06         0.16907E+07         0.00000E+00
    0.16907E+07         0.96823E+07         0.00000E+00
    0.00000E+00         0.00000E+00         0.00000E+00
 
   -0.67117E+05         0.17594E+07         0.00000E+00
    0.17594E+07         0.97075E+07         0.00000E+00
    0.00000E+00         0.00000E+00         0.00000E+00
 
   -0.35273E+05         0.18289E+07         0.00000E+00
    0.18289E+07         0.97330E+07         0.00000E+00
    0.00000E+00         0.00000E+00         0.00000E+00
 
   -0.57966E+04         0.18992E+07         0.00000E+00
    0.18992E+07         0.97588E+07         0.00000E+00
    0.00000E+00         0.00000E+00         0.00000E+00
 
    0.21372E+05         0.19705E+07         0.00000E+00
    0.19705E+07         0.97847E+07         0.00000E+00
    0.00000E+00         0.00000E+00         0.00000E+00
 
    0.46287E+05         0.20427E+07         0.00000E+00
    0.20427E+07         0.98107E+07         0.00000E+00
    0.00000E+00         0.00000E+00         0.00000E+00
 
    0.68997E+05         0.21158E+07         0.00000E+00
    0.21158E+07         0.98367E+07         0.00000E+00
    0.00000E+00         0.00000E+00         0.00000E+00
 
    0.89539E+05         0.21900E+07         0.00000E+00
    0.21900E+07         0.98627E+07         0.00000E+00
    0.00000E+00         0.00000E+00         0.00000E+00
 
    0.10794E+06         0.22651E+07         0.00000E+00
    0.22651E+07         0.98885E+07         0.00000E+00
    0.00000E+00         0.00000E+00         0.00000E+00
 
    0.12421E+06         0.23412E+07         0.00000E+00
    0.23412E+07         0.99141E+07         0.00000E+00
    0.00000E+00         0.00000E+00         0.00000E+00
 
    0.13836E+06         0.24183E+07         0.00000E+00
    0.24183E+07         0.99394E+07         0.00000E+00
    0.00000E+00         0.00000E+00         0.00000E+00
 
    0.15036E+06         0.24964E+07         0.00000E+00
    0.24964E+07         0.99643E+07         0.00000E+00
    0.00000E+00         0.00000E+00         0.00000E+00
 
    0.16016E+06         0.25755E+07         0.00000E+00
    0.25755E+07         0.99887E+07         0.00000E+00
    0.00000E+00         0.00000E+00         0.00000E+00
 
    0.16772E+06         0.26555E+07         0.00000E+00
    0.26555E+07         0.10013E+08         0.00000E+00
    0.00000E+00         0.00000E+00         0.00000E+00
 
    0.17293E+06         0.27365E+07         0.00000E+00
    0.27365E+07         0.10036E+08         0.00000E+00
    0.00000E+00         0.00000E+00         0.00000E+00
 
    0.17569E+06         0.28183E+07         0.00000E+00
    0.28183E+07         0.10059E+08         0.00000E+00
    0.00000E+00         0.00000E+00         0.00000E+00
 
    0.17581E+06         0.29010E+07         0.00000E+00
    0.29010E+07         0.10081E+08         0.00000E+00
    0.00000E+00         0.00000E+00         0.00000E+00
 
    0.17308E+06         0.29846E+07         0.00000E+00
    0.29846E+07         0.10103E+08         0.00000E+00
    0.00000E+00         0.00000E+00         0.00000E+00
 
    0.16720E+06         0.30691E+07         0.00000E+00
    0.30691E+07         0.10124E+08         0.00000E+00
    0.00000E+00         0.00000E+00         0.00000E+00
 
    0.15781E+06         0.31544E+07         0.00000E+00
    0.31544E+07         0.10144E+08         0.00000E+00
    0.00000E+00         0.00000E+00         0.00000E+00
 
    0.14463E+06         0.32410E+07         0.00000E+00
    0.32410E+07         0.10165E+08         0.00000E+00
    0.00000E+00         0.00000E+00         0.00000E+00
 
    0.12743E+06         0.33291E+07         0.00000E+00
    0.33291E+07         0.10184E+08         0.00000E+00
    0.00000E+00         0.00000E+00         0.00000E+00
 
    0.10620E+06         0.34192E+07         0.00000E+00
    0.34192E+07         0.10204E+08         0.00000E+00
    0.00000E+00         0.00000E+00         0.00000E+00
 
    0.81081E+05         0.35116E+07         0.00000E+00
    0.35116E+07         0.10224E+08         0.00000E+00
    0.00000E+00         0.00000E+00         0.00000E+00
 
    0.51586E+05         0.36056E+07         0.00000E+00
    0.36056E+07         0.10243E+08         0.00000E+00
    0.00000E+00         0.00000E+00         0.00000E+00
 
    0.17811E+05         0.37037E+07         0.00000E+00
    0.37037E+07         0.10266E+08         0.00000E+00
    0.00000E+00         0.00000E+00         0.00000E+00
 
   -0.19142E+07         0.46676E+05         0.00000E+00
    0.46676E+05         0.88165E+07         0.00000E+00
    0.00000E+00         0.00000E+00         0.00000E+00
 
   -0.18150E+07         0.13311E+06         0.00000E+00
    0.13311E+06         0.88173E+07         0.00000E+00
    0.00000E+00         0.00000E+00         0.00000E+00
 
   -0.17183E+07         0.21728E+06         0.00000E+00
    0.21728E+06         0.88189E+07         0.00000E+00
    0.00000E+00         0.00000E+00         0.00000E+00
 
   -0.16243E+07         0.29938E+06         0.00000E+00
    0.29938E+06         0.88214E+07         0.00000E+00
    0.00000E+00         0.00000E+00         0.00000E+00
 
   -0.15329E+07         0.37957E+06         0.00000E+00
    0.37957E+06         0.88247E+07         0.00000E+00
    0.00000E+00         0.00000E+00         0.00000E+00
 
   -0.14442E+07         0.45803E+06         0.00000E+00
    0.45803E+06         0.88289E+07         0.00000E+00
    0.00000E+00         0.00000E+00         0.00000E+00
 
   -0.13582E+07         0.53492E+06         0.00000E+00
    0.53492E+06         0.88340E+07         0.00000E+00
    0.00000E+00         0.00000E+00         0.00000E+00
 
   -0.12750E+07         0.61039E+06         0.00000E+00
    0.61039E+06         0.88399E+07         0.00000E+00
    0.00000E+00         0.00000E+00         0.00000E+00
 
   -0.11945E+07         0.68460E+06         0.00000E+00
    0.68460E+06         0.88467E+07         0.00000E+00
    0.00000E+00         0.00000E+00         0.00000E+00
 
   -0.11167E+07         0.75767E+06         0.00000E+00
    0.75767E+06         0.88544E+07         0.00000E+00
    0.00000E+00         0.00000E+00         0.00000E+00
 
   -0.10416E+07         0.82976E+06         0.00000E+00
    0.82976E+06         0.88629E+07         0.00000E+00
    0.00000E+00         0.00000E+00         0.00000E+00
 
   -0.96930E+06         0.90100E+06         0.00000E+00
    0.90100E+06         0.88722E+07         0.00000E+00
    0.00000E+00         0.00000E+00         0.00000E+00
 
   -0.89966E+06         0.97150E+06         0.00000E+00
    0.97150E+06         0.88824E+07         0.00000E+00
    0.00000E+00         0.00000E+00         0.00000E+00
 
   -0.83270E+06         0.10414E+07         0.00000E+00
    0.10414E+07         0.88933E+07         0.00000E+00
    0.00000E+00         0.00000E+00         0.00000E+00
 
   -0.76838E+06         0.11108E+07         0.00000E+00
    0.11108E+07         0.89049E+07         0.00000E+00
    0.00000E+00         0.00000E+00         0.00000E+00
 
   -0.70669E+06         0.11798E+07         0.00000E+00
    0.11798E+07         0.89172E+07         0.00000E+00
    0.00000E+00         0.00000E+00         0.00000E+00
 
   -0.64757E+06         0.12485E+07         0.00000E+00
    0.12485E+07         0.89302E+07         0.00000E+00
    0.00000E+00         0.00000E+00         0.00000E+00
 
   -0.59101E+06         0.13171E+07         0.00000E+00
    0.13171E+07         0.89438E+07         0.00000E+00
    0.00000E+00         0.00000E+00         0.00000E+00
 
   -0.53695E+06         0.13855E+07         0.00000E+00
    0.13855E+07         0.89579E+07         0.00000E+00
    0.00000E+00         0.00000E+00         0.00000E+00
 
   -0.48536E+06         0.14540E+07         0.00000E+00
    0.14540E+07         0.89726E+07         0.00000E+00
    0.00000E+00         0.00000E+00         0.00000E+00
 
   -0.43620E+06         0.15225E+07         0.00000E+00
    0.15225E+07         0.89878E+07         0.00000E+00
    0.00000E+00         0.00000E+00         0.00000E+00
 
   -0.38943E+06         0.15912E+07         0.00000E+00
    0.15912E+07         0.90034E+07         0.00000E+00
    0.00000E+00         0.00000E+00         0.00000E+00
 
   -0.34499E+06         0.16602E+07         0.00000E+00
    0.16602E+07         0.90194E+07         0.00000E+00
    0.00000E+00         0.00000E+00         0.00000E+00
 
   -0.30285E+06         0.17294E+07         0.00000E+00
    0.17294E+07         0.90357E+07         0.00000E+00
    0.00000E+00         0.00000E+00         0.00000E+00
 
   -0.26296E+06         0.17990E+07         0.00000E+00
    0.17990E+07         0.90523E+07         0.00000E+00
    0.00000E+00         0.00000E+00         0.00000E+00
 
   -0.22529E+06         0.18690E+07         0.00000E+00
    0.18690E+07         0.90691E+07         0.00000E+00
    0.00000E+00         0.00000E+00         0.00000E+00
 
   -0.18979E+06         0.19395E+07         0.00000E+00
    0.19395E+07         0.90861E+07         0.00000E+00
    0.00000E+00         0.00000E+00         0.00000E+00
 
   -0.15645E+06         0.20104E+07         0.00000E+00
    0.20104E+07         0.91031E+07         0.00000E+00
    0.00000E+00         0.00000E+00         0.00000E+00
 
   -0.12521E+06         0.20820E+07         0.00000E+00
    0.20820E+07         0.91202E+07         0.00000E+00
    0.00000E+00         0.00000E+00         0.00000E+00
 
   -0.96064E+05         0.21541E+07         0.00000E+00
    0.21541E+07         0.91373E+07         0.00000E+00
    0.00000E+00         0.00000E+00         0.00000E+00
 
   -0.68991E+05         0.22268E+07         0.00000E+00
    0.22268E+07         0.91543E+07         0.00000E+00
    0.00000E+00         0.00000E+00         0.00000E+00
 
   -0.43980E+05         0.23002E+07         0.00000E+00
    0.23002E+07         0.91712E+07         0.00000E+00
    0.00000E+00         0.00000E+00         0.00000E+00
 
   -0.21031E+05         0.23742E+07         0.00000E+00
    0.23742E+07         0.91879E+07         0.00000E+00
    0.00000E+00         0.00000E+00         0.00000E+00
 
   -0.15002E+03         0.24489E+07         0.00000E+00
    0.24489E+07         0.92044E+07         0.00000E+00
    0.00000E+00         0.00000E+00         0.00000E+00
 
    0.18642E+05         0.25243E+07         0.00000E+00
    0.25243E+07         0.92207E+07         0.00000E+00
    0.00000E+00         0.00000E+00         0.00000E+00
 
    0.35315E+05         0.26005E+07         0.00000E+00
    0.26005E+07         0.92366E+07         0.00000E+00
    0.00000E+00         0.00000E+00         0.00000E+00
 
    0.49824E+05         0.26774E+07         0.00000E+00
    0.26774E+07         0.92523E+07         0.00000E+00
    0.00000E+00         0.00000E+00         0.00000E+00
 
    0.62114E+05         0.27550E+07         0.00000E+00
    0.27550E+07         0.92677E+07         0.00000E+00
    0.00000E+00         0.00000E+00         0.00000E+00
 
    0.72112E+05         0.28335E+07         0.00000E+00
    0.28335E+07         0.92827E+07         0.00000E+00
    0.00000E+00         0.00000E+00         0.00000E+00
 
    0.79731E+05         0.29128E+07         0.00000E+00
    0.29128E+07         0.92974E+07         0.00000E+00
    0.00000E+00         0.00000E+00         0.00000E+00
 
    0.84883E+05         0.29931E+07         0.00000E+00
    0.29931E+07         0.93118E+07         0.00000E+00
    0.00000E+00         0.00000E+00         0.00000E+00
 
    0.87471E+05         0.30744E+07         0.00000E+00
    0.30744E+07         0.93258E+07         0.00000E+00
    0.00000E+00         0.00000E+00         0.00000E+00
 
    0.87404E+05         0.31568E+07         0.00000E+00
    0.31568E+07         0.93396E+07         0.00000E+00
    0.00000E+00         0.00000E+00         0.00000E+00
 
    0.84629E+05         0.32405E+07         0.00000E+00
    0.32405E+07         0.93532E+07         0.00000E+00
    0.00000E+00         0.00000E+00         0.00000E+00
 
    0.79091E+05         0.33256E+07         0.00000E+00
    0.33256E+07         0.93665E+07         0.00000E+00
    0.00000E+00         0.00000E+00         0.00000E+00
 
    0.70772E+05         0.34124E+07         0.00000E+00
    0.34124E+07         0.93796E+07         0.00000E+00
    0.00000E+00         0.00000E+00         0.00000E+00
 
    0.59659E+05         0.35009E+07         0.00000E+00
    0.35009E+07         0.93924E+07         0.00000E+00
    0.00000E+00         0.00000E+00         0.00000E+00
 
    0.45739E+05         0.35915E+07         0.00000E+00
    0.35915E+07         0.94049E+07         0.00000E+00
    0.00000E+00         0.00000E+00         0.00000E+00
 
    0.29224E+05         0.36845E+07         0.00000E+00
    0.36845E+07         0.94171E+07         0.00000E+00
    0.00000E+00         0.00000E+00         0.00000E+00
 
    0.10183E+05         0.37796E+07         0.00000E+00
    0.37796E+07         0.94276E+07         0.00000E+00
    0.00000E+00         0.00000E+00         0.00000E+00
 
   -0.19589E+07         0.48006E+05         0.00000E+00
    0.48006E+05         0.83248E+07         0.00000E+00
    0.00000E+00         0.00000E+00         0.00000E+00
 
   -0.18710E+07         0.13769E+06         0.00000E+00
    0.13769E+06         0.83252E+07         0.00000E+00
    0.00000E+00         0.00000E+00         0.00000E+00
 
   -0.17848E+07         0.22526E+06         0.00000E+00
    0.22526E+06         0.83259E+07         0.00000E+00
    0.00000E+00         0.00000E+00         0.00000E+00
 
   -0.17004E+07         0.31088E+06         0.00000E+00
    0.31088E+06         0.83272E+07         0.00000E+00
    0.00000E+00         0.00000E+00         0.00000E+00
 
   -0.16179E+07         0.39469E+06         0.00000E+00
    0.39469E+06         0.83289E+07         0.00000E+00
    0.00000E+00         0.00000E+00         0.00000E+00
 
   -0.15373E+07         0.47681E+06         0.00000E+00
    0.47681E+06         0.83312E+07         0.00000E+00
    0.00000E+00         0.00000E+00         0.00000E+00
 
   -0.14587E+07         0.55739E+06         0.00000E+00
    0.55739E+06         0.83340E+07         0.00000E+00
    0.00000E+00         0.00000E+00         0.00000E+00
 
   -0.13821E+07         0.63656E+06         0.00000E+00
    0.63656E+06         0.83373E+07         0.00000E+00
    0.00000E+00         0.00000E+00         0.00000E+00
 
   -0.13075E+07         0.71442E+06         0.00000E+00
    0.71442E+06         0.83412E+07         0.00000E+00
    0.00000E+00         0.00000E+00         0.00000E+00
 
   -0.12350E+07         0.79112E+06         0.00000E+00
    0.79112E+06         0.83456E+07         0.00000E+00
    0.00000E+00         0.00000E+00         0.00000E+00
 
   -0.11647E+07         0.86675E+06         0.00000E+00
    0.86675E+06         0.83506E+07         0.00000E+00
    0.00000E+00         0.00000E+00         0.00000E+00
 
   -0.10964E+07         0.94144E+06         0.00000E+00
    0.94144E+06         0.83561E+07         0.00000E+00
    0.00000E+00         0.00000E+00         0.00000E+00
 
   -0.10302E+07         0.10153E+07         0.00000E+00
    0.10153E+07         0.83622E+07         0.00000E+00
    0.00000E+00         0.00000E+00         0.00000E+00
 
   -0.96618E+06         0.10884E+07         0.00000E+00
    0.10884E+07         0.83687E+07         0.00000E+00
    0.00000E+00         0.00000E+00         0.00000E+00
 
   -0.90425E+06         0.11609E+07         0.00000E+00
    0.11609E+07         0.83757E+07         0.00000E+00
    0.00000E+00         0.00000E+00         0.00000E+00
 
   -0.84444E+06         0.12328E+07         0.00000E+00
    0.12328E+07         0.83832E+07         0.00000E+00
    0.00000E+00         0.00000E+00         0.00000E+00
 
   -0.78672E+06         0.13042E+07         0.00000E+00
    0.13042E+07         0.83911E+07         0.00000E+00
    0.00000E+00         0.00000E+00         0.00000E+00
 
   -0.73109E+06         0.13753E+07         0.00000E+00
    0.13753E+07         0.83994E+07         0.00000E+00
    0.00000E+00         0.00000E+00         0.00000E+00
 
   -0.67753E+06         0.14461E+07         0.00000E+00
    0.14461E+07         0.84081E+07         0.00000E+00
    0.00000E+00         0.00000E+00         0.00000E+00
 
   -0.62604E+06         0.15167E+07         0.00000E+00
    0.15167E+07         0.84171E+07         0.00000E+00
    0.00000E+00         0.00000E+00         0.00000E+00
 
   -0.57658E+06         0.15872E+07         0.00000E+00
    0.15872E+07         0.84265E+07         0.00000E+00
    0.00000E+00         0.00000E+00         0.00000E+00
 
   -0.52915E+06         0.16576E+07         0.00000E+00
    0.16576E+07         0.84361E+07         0.00000E+00
    0.00000E+00         0.00000E+00         0.00000E+00
 
   -0.48372E+06         0.17279E+07         0.00000E+00
    0.17279E+07         0.84459E+07         0.00000E+00
    0.00000E+00         0.00000E+00         0.00000E+00
 
   -0.44027E+06         0.17984E+07         0.00000E+00
    0.17984E+07         0.84560E+07         0.00000E+00
    0.00000E+00         0.00000E+00         0.00000E+00
 
   -0.39878E+06         0.18689E+07         0.00000E+00
    0.18689E+07         0.84662E+07         0.00000E+00
    0.00000E+00         0.00000E+00         0.00000E+00
 
   -0.35924E+06         0.19396E+07         0.00000E+00
    0.19396E+07         0.84766E+07         0.00000E+00
    0.00000E+00         0.00000E+00         0.00000E+00
 
   -0.32164E+06         0.20105E+07         0.00000E+00
    0.20105E+07         0.84870E+07         0.00000E+00
    0.00000E+00         0.00000E+00         0.00000E+00
 
   -0.28595E+06         0.20817E+07         0.00000E+00
    0.20817E+07         0.84975E+07         0.00000E+00
    0.00000E+00         0.00000E+00         0.00000E+00
 
   -0.25217E+06         0.21532E+07         0.00000E+00
    0.21532E+07         0.85080E+07         0.00000E+00
    0.00000E+00         0.00000E+00         0.00000E+00
 
   -0.22029E+06         0.22251E+07         0.00000E+00
    0.22251E+07         0.85185E+07         0.00000E+00
    0.00000E+00         0.00000E+00         0.00000E+00
 
   -0.19030E+06         0.22973E+07         0.00000E+00
    0.22973E+07         0.85289E+07         0.00000E+00
    0.00000E+00         0.00000E+00         0.00000E+00
 
   -0.16221E+06         0.23700E+07         0.00000E+00
    0.23700E+07         0.85392E+07         0.00000E+00
    0.00000E+00         0.00000E+00         0.00000E+00
 
   -0.13602E+06         0.24431E+07         0.00000E+00
    0.24431E+07         0.85494E+07         0.00000E+00
    0.00000E+00         0.00000E+00         0.00000E+00
 
   -0.11174E+06         0.25168E+07         0.00000E+00
    0.25168E+07         0.85595E+07         0.00000E+00
    0.00000E+00         0.00000E+00         0.00000E+00
 
   -0.89382E+05         0.25910E+07         0.00000E+00
    0.25910E+07         0.85694E+07         0.00000E+00
    0.00000E+00         0.00000E+00         0.00000E+00
 
   -0.68969E+05         0.26658E+07         0.00000E+00
    0.26658E+07         0.85792E+07         0.00000E+00
    0.00000E+00         0.00000E+00         0.00000E+00
 
   -0.50521E+05         0.27413E+07         0.00000E+00
    0.27413E+07         0.85887E+07         0.00000E+00
    0.00000E+00         0.00000E+00         0.00000E+00
 
   -0.34062E+05         0.28175E+07         0.00000E+00
    0.28175E+07         0.85980E+07         0.00000E+00
    0.00000E+00         0.00000E+00         0.00000E+00
 
   -0.19619E+05         0.28945E+07         0.00000E+00
    0.28945E+07         0.86072E+07         0.00000E+00
    0.00000E+00         0.00000E+00         0.00000E+00
 
   -0.72156E+04         0.29724E+07         0.00000E+00
    0.29724E+07         0.86161E+07         0.00000E+00
    0.00000E+00         0.00000E+00         0.00000E+00
 
    0.31257E+04         0.30511E+07         0.00000E+00
    0.30511E+07         0.86247E+07         0.00000E+00
    0.00000E+00         0.00000E+00         0.00000E+00
 
    0.11390E+05         0.31309E+07         0.00000E+00
    0.31309E+07         0.86332E+07         0.00000E+00
    0.00000E+00         0.00000E+00         0.00000E+00
 
    0.17571E+05         0.32118E+07         0.00000E+00
    0.32118E+07         0.86413E+07         0.00000E+00
    0.00000E+00         0.00000E+00         0.00000E+00
 
    0.21667E+05         0.32940E+07         0.00000E+00
    0.32940E+07         0.86492E+07         0.00000E+00
    0.00000E+00         0.00000E+00         0.00000E+00
 
    0.23691E+05         0.33775E+07         0.00000E+00
    0.33775E+07         0.86568E+07         0.00000E+00
    0.00000E+00         0.00000E+00         0.00000E+00
 
    0.23669E+05         0.34625E+07         0.00000E+00
    0.34625E+07         0.86640E+07         0.00000E+00
    0.00000E+00         0.00000E+00         0.00000E+00
 
    0.21644E+05         0.35491E+07         0.00000E+00
    0.35491E+07         0.86709E+07         0.00000E+00
    0.00000E+00         0.00000E+00         0.00000E+00
 
    0.17689E+05         0.36374E+07         0.00000E+00
    0.36374E+07         0.86773E+07         0.00000E+00
    0.00000E+00         0.00000E+00         0.00000E+00
 
    0.11845E+05         0.37275E+07         0.00000E+00
    0.37275E+07         0.86832E+07         0.00000E+00
    0.00000E+00         0.00000E+00         0.00000E+00
 
    0.42248E+04         0.38197E+07         0.00000E+00
    0.38197E+07         0.86888E+07         0.00000E+00
    0.00000E+00         0.00000E+00         0.00000E+00
 
   -0.19727E+07         0.48327E+05         0.00000E+00
    0.48327E+05         0.78532E+07         0.00000E+00
    0.00000E+00         0.00000E+00         0.00000E+00
 
   -0.18950E+07         0.13938E+06         0.00000E+00
    0.13938E+06         0.78532E+07         0.00000E+00
    0.00000E+00         0.00000E+00         0.00000E+00
 
   -0.18185E+07         0.22855E+06         0.00000E+00
    0.22855E+06         0.78534E+07         0.00000E+00
    0.00000E+00         0.00000E+00         0.00000E+00
 
   -0.17431E+07         0.31594E+06         0.00000E+00
    0.31594E+06         0.78537E+07         0.00000E+00
    0.00000E+00         0.00000E+00         0.00000E+00
 
   -0.16689E+07         0.40165E+06         0.00000E+00
    0.40165E+06         0.78543E+07         0.00000E+00
    0.00000E+00         0.00000E+00         0.00000E+00
 
   -0.15961E+07         0.48580E+06         0.00000E+00
    0.48580E+06         0.78551E+07         0.00000E+00
    0.00000E+00         0.00000E+00         0.00000E+00
 
   -0.15246E+07         0.56849E+06         0.00000E+00
    0.56849E+06         0.78561E+07         0.00000E+00
    0.00000E+00         0.00000E+00         0.00000E+00
 
   -0.14546E+07         0.64981E+06         0.00000E+00
    0.64981E+06         0.78574E+07         0.00000E+00
    0.00000E+00         0.00000E+00         0.00000E+00
 
   -0.13861E+07         0.72988E+06         0.00000E+00
    0.72988E+06         0.78591E+07         0.00000E+00
    0.00000E+00         0.00000E+00         0.00000E+00
 
   -0.13191E+07         0.80877E+06         0.00000E+00
    0.80877E+06         0.78610E+07         0.00000E+00
    0.00000E+00         0.00000E+00         0.00000E+00
 
   -0.12536E+07         0.88660E+06         0.00000E+00
    0.88660E+06         0.78632E+07         0.00000E+00
    0.00000E+00         0.00000E+00         0.00000E+00
 
   -0.11898E+07         0.96344E+06         0.00000E+00
    0.96344E+06         0.78658E+07         0.00000E+00
    0.00000E+00         0.00000E+00         0.00000E+00
 
   -0.11276E+07         0.10394E+07         0.00000E+00
    0.10394E+07         0.78686E+07         0.00000E+00
    0.00000E+00         0.00000E+00         0.00000E+00
 
   -0.10670E+07         0.11145E+07         0.00000E+00
    0.11145E+07         0.78718E+07         0.00000E+00
    0.00000E+00         0.00000E+00         0.00000E+00
 
   -0.10081E+07         0.11890E+07         0.00000E+00
    0.11890E+07         0.78752E+07         0.00000E+00
    0.00000E+00         0.00000E+00         0.00000E+00
 
   -0.95088E+06         0.12627E+07         0.00000E+00
    0.12627E+07         0.78789E+07         0.00000E+00
    0.00000E+00         0.00000E+00         0.00000E+00
 
   -0.89533E+06         0.13360E+07         0.00000E+00
    0.13360E+07         0.78829E+07         0.00000E+00
    0.00000E+00         0.00000E+00         0.00000E+00
 
   -0.84148E+06         0.14087E+07         0.00000E+00
    0.14087E+07         0.78872E+07         0.00000E+00
    0.00000E+00         0.00000E+00         0.00000E+00
 
   -0.78932E+06         0.14810E+07         0.00000E+00
    0.14810E+07         0.78917E+07         0.00000E+00
    0.00000E+00         0.00000E+00         0.00000E+00
 
   -0.73886E+06         0.15529E+07         0.00000E+00
    0.15529E+07         0.78963E+07         0.00000E+00
    0.00000E+00         0.00000E+00         0.00000E+00
 
   -0.69009E+06         0.16246E+07         0.00000E+00
    0.16246E+07         0.79012E+07         0.00000E+00
    0.00000E+00         0.00000E+00         0.00000E+00
 
   -0.64302E+06         0.16960E+07         0.00000E+00
    0.16960E+07         0.79063E+07         0.00000E+00
    0.00000E+00         0.00000E+00         0.00000E+00
 
   -0.59764E+06         0.17673E+07         0.00000E+00
    0.17673E+07         0.79115E+07         0.00000E+00
    0.00000E+00         0.00000E+00         0.00000E+00
 
   -0.55394E+06         0.18384E+07         0.00000E+00
    0.18384E+07         0.79168E+07         0.00000E+00
    0.00000E+00         0.00000E+00         0.00000E+00
 
   -0.51193E+06         0.19095E+07         0.00000E+00
    0.19095E+07         0.79223E+07         0.00000E+00
    0.00000E+00         0.00000E+00         0.00000E+00
 
   -0.47160E+06         0.19806E+07         0.00000E+00
    0.19806E+07         0.79278E+07         0.00000E+00
    0.00000E+00         0.00000E+00         0.00000E+00
 
   -0.43295E+06         0.20518E+07         0.00000E+00
    0.20518E+07         0.79333E+07         0.00000E+00
    0.00000E+00         0.00000E+00         0.00000E+00
 
   -0.39597E+06         0.21231E+07         0.00000E+00
    0.21231E+07         0.79389E+07         0.00000E+00
    0.00000E+00         0.00000E+00         0.00000E+00
 
   -0.36066E+06         0.21945E+07         0.00000E+00
    0.21945E+07         0.79445E+07         0.00000E+00
    0.00000E+00         0.00000E+00         0.00000E+00
 
   -0.32702E+06         0.22661E+07         0.00000E+00
    0.22661E+07         0.79500E+07         0.00000E+00
    0.00000E+00         0.00000E+00         0.00000E+00
 
   -0.29505E+06         0.23380E+07         0.00000E+00
    0.23380E+07         0.79556E+07         0.00000E+00
    0.00000E+00         0.00000E+00         0.00000E+00
 
   -0.26475E+06         0.24102E+07         0.00000E+00
    0.24102E+07         0.79610E+07         0.00000E+00
    0.00000E+00         0.00000E+00         0.00000E+00
 
   -0.23612E+06         0.24827E+07         0.00000E+00
    0.24827E+07         0.79664E+07         0.00000E+00
    0.00000E+00         0.00000E+00         0.00000E+00
 
   -0.20916E+06         0.25557E+07         0.00000E+00
    0.25557E+07         0.79716E+07         0.00000E+00
    0.00000E+00         0.00000E+00         0.00000E+00
 
   -0.18388E+06         0.26291E+07         0.00000E+00
    0.26291E+07         0.79768E+07         0.00000E+00
    0.00000E+00         0.00000E+00         0.00000E+00
 
   -0.16028E+06         0.27030E+07         0.00000E+00
    0.27030E+07         0.79818E+07         0.00000E+00
    0.00000E+00         0.00000E+00         0.00000E+00
 
   -0.13836E+06         0.27775E+07         0.00000E+00
    0.27775E+07         0.79867E+07         0.00000E+00
    0.00000E+00         0.00000E+00         0.00000E+00
 
   -0.11812E+06         0.28526E+07         0.00000E+00
    0.28526E+07         0.79913E+07         0.00000E+00
    0.00000E+00         0.00000E+00         0.00000E+00
 
   -0.99563E+05         0.29285E+07         0.00000E+00
    0.29285E+07         0.79958E+07         0.00000E+00
    0.00000E+00         0.00000E+00         0.00000E+00
 
   -0.82678E+05         0.30051E+07         0.00000E+00
    0.30051E+07         0.80001E+07         0.00000E+00
    0.00000E+00         0.00000E+00         0.00000E+00
 
   -0.67459E+05         0.30826E+07         0.00000E+00
    0.30826E+07         0.80042E+07         0.00000E+00
    0.00000E+00         0.00000E+00         0.00000E+00
 
   -0.53890E+05         0.31610E+07         0.00000E+00
    0.31610E+07         0.80080E+07         0.00000E+00
    0.00000E+00         0.00000E+00         0.00000E+00
 
   -0.41952E+05         0.32404E+07         0.00000E+00
    0.32404E+07         0.80115E+07         0.00000E+00
    0.00000E+00         0.00000E+00         0.00000E+00
 
   -0.31618E+05         0.33209E+07         0.00000E+00
    0.33209E+07         0.80147E+07         0.00000E+00
    0.00000E+00         0.00000E+00         0.00000E+00
 
   -0.22851E+05         0.34026E+07         0.00000E+00
    0.34026E+07         0.80176E+07         0.00000E+00
    0.00000E+00         0.00000E+00         0.00000E+00
 
   -0.15608E+05         0.34856E+07         0.00000E+00
    0.34856E+07         0.80201E+07         0.00000E+00
    0.00000E+00         0.00000E+00         0.00000E+00
 
   -0.98317E+04         0.35700E+07         0.00000E+00
    0.35700E+07         0.80221E+07         0.00000E+00
    0.00000E+00         0.00000E+00         0.00000E+00
 
   -0.54628E+04         0.36558E+07         0.00000E+00
    0.36558E+07         0.80237E+07         0.00000E+00
    0.00000E+00         0.00000E+00         0.00000E+00
 
   -0.24138E+04         0.37432E+07         0.00000E+00
    0.37432E+07         0.80247E+07         0.00000E+00
    0.00000E+00         0.00000E+00         0.00000E+00
 
   -0.60300E+03         0.38322E+07         0.00000E+00
    0.38322E+07         0.80251E+07         0.00000E+00
    0.00000E+00         0.00000E+00         0.00000E+00
 
   -0.19642E+07         0.47940E+05         0.00000E+00
    0.47940E+05         0.74012E+07         0.00000E+00
    0.00000E+00         0.00000E+00         0.00000E+00
 
   -0.18957E+07         0.13900E+06         0.00000E+00
    0.13900E+06         0.74010E+07         0.00000E+00
    0.00000E+00         0.00000E+00         0.00000E+00
 
   -0.18277E+07         0.22840E+06         0.00000E+00
    0.22840E+06         0.74007E+07         0.00000E+00
    0.00000E+00         0.00000E+00         0.00000E+00
 
   -0.17605E+07         0.31622E+06         0.00000E+00
    0.31622E+06         0.74004E+07         0.00000E+00
    0.00000E+00         0.00000E+00         0.00000E+00
 
   -0.16940E+07         0.40255E+06         0.00000E+00
    0.40255E+06         0.74001E+07         0.00000E+00
    0.00000E+00         0.00000E+00         0.00000E+00
 
   -0.16283E+07         0.48746E+06         0.00000E+00
    0.48746E+06         0.73999E+07         0.00000E+00
    0.00000E+00         0.00000E+00         0.00000E+00
 
   -0.15636E+07         0.57103E+06         0.00000E+00
    0.57103E+06         0.73996E+07         0.00000E+00
    0.00000E+00         0.00000E+00         0.00000E+00
 
   -0.14998E+07         0.65333E+06         0.00000E+00
    0.65333E+06         0.73995E+07         0.00000E+00
    0.00000E+00         0.00000E+00         0.00000E+00
 
   -0.14371E+07         0.73444E+06         0.00000E+00
    0.73444E+06         0.73995E+07         0.00000E+00
    0.00000E+00         0.00000E+00         0.00000E+00
 
   -0.13755E+07         0.81444E+06         0.00000E+00
    0.81444E+06         0.73995E+07         0.00000E+00
    0.00000E+00         0.00000E+00         0.00000E+00
 
   -0.13150E+07         0.89341E+06         0.00000E+00
    0.89341E+06         0.73998E+07         0.00000E+00
    0.00000E+00         0.00000E+00         0.00000E+00
 
   -0.12557E+07         0.97140E+06         0.00000E+00
    0.97140E+06         0.74001E+07         0.00000E+00
    0.00000E+00         0.00000E+00         0.00000E+00
 
   -0.11976E+07         0.10485E+07         0.00000E+00
    0.10485E+07         0.74006E+07         0.00000E+00
    0.00000E+00         0.00000E+00         0.00000E+00
 
   -0.11408E+07         0.11248E+07         0.00000E+00
    0.11248E+07         0.74013E+07         0.00000E+00
    0.00000E+00         0.00000E+00         0.00000E+00
 
   -0.10853E+07         0.12003E+07         0.00000E+00
    0.12003E+07         0.74021E+07         0.00000E+00
    0.00000E+00         0.00000E+00         0.00000E+00
 
   -0.10310E+07         0.12752E+07         0.00000E+00
    0.12752E+07         0.74030E+07         0.00000E+00
    0.00000E+00         0.00000E+00         0.00000E+00
 
   -0.97813E+06         0.13494E+07         0.00000E+00
    0.13494E+07         0.74041E+07         0.00000E+00
    0.00000E+00         0.00000E+00         0.00000E+00
 
   -0.92657E+06         0.14230E+07         0.00000E+00
    0.14230E+07         0.74053E+07         0.00000E+00
    0.00000E+00         0.00000E+00         0.00000E+00
 
   -0.87638E+06         0.14962E+07         0.00000E+00
    0.14962E+07         0.74066E+07         0.00000E+00
    0.00000E+00         0.00000E+00         0.00000E+00
 
   -0.82756E+06         0.15689E+07         0.00000E+00
    0.15689E+07         0.74081E+07         0.00000E+00
    0.00000E+00         0.00000E+00         0.00000E+00
 
   -0.78013E+06         0.16413E+07         0.00000E+00
    0.16413E+07         0.74096E+07         0.00000E+00
    0.00000E+00         0.00000E+00         0.00000E+00
 
   -0.73409E+06         0.17133E+07         0.00000E+00
    0.17133E+07         0.74113E+07         0.00000E+00
    0.00000E+00         0.00000E+00         0.00000E+00
 
   -0.68946E+06         0.17851E+07         0.00000E+00
    0.17851E+07         0.74130E+07         0.00000E+00
    0.00000E+00         0.00000E+00         0.00000E+00
 
   -0.64622E+06         0.18567E+07         0.00000E+00
    0.18567E+07         0.74148E+07         0.00000E+00
    0.00000E+00         0.00000E+00         0.00000E+00
 
   -0.60441E+06         0.19281E+07         0.00000E+00
    0.19281E+07         0.74166E+07         0.00000E+00
    0.00000E+00         0.00000E+00         0.00000E+00
 
   -0.56400E+06         0.19994E+07         0.00000E+00
    0.19994E+07         0.74185E+07         0.00000E+00
    0.00000E+00         0.00000E+00         0.00000E+00
 
   -0.52501E+06         0.20706E+07         0.00000E+00
    0.20706E+07         0.74204E+07         0.00000E+00
    0.00000E+00         0.00000E+00         0.00000E+00
 
   -0.48744E+06         0.21419E+07         0.00000E+00
    0.21419E+07         0.74223E+07         0.00000E+00
    0.00000E+00         0.00000E+00         0.00000E+00
 
   -0.45129E+06         0.22132E+07         0.00000E+00
    0.22132E+07         0.74241E+07         0.00000E+00
    0.00000E+00         0.00000E+00         0.00000E+00
 
   -0.41655E+06         0.22846E+07         0.00000E+00
    0.22846E+07         0.74260E+07         0.00000E+00
    0.00000E+00         0.00000E+00         0.00000E+00
 
   -0.38324E+06         0.23562E+07         0.00000E+00
    0.23562E+07         0.74277E+07         0.00000E+00
    0.00000E+00         0.00000E+00         0.00000E+00
 
   -0.35134E+06         0.24279E+07         0.00000E+00
    0.24279E+07         0.74295E+07         0.00000E+00
    0.00000E+00         0.00000E+00         0.00000E+00
 
   -0.32085E+06         0.25000E+07         0.00000E+00
    0.25000E+07         0.74311E+07         0.00000E+00
    0.00000E+00         0.00000E+00         0.00000E+00
 
   -0.29177E+06         0.25723E+07         0.00000E+00
    0.25723E+07         0.74326E+07         0.00000E+00
    0.00000E+00         0.00000E+00         0.00000E+00
 
   -0.26410E+06         0.26450E+07         0.00000E+00
    0.26450E+07         0.74340E+07         0.00000E+00
    0.00000E+00         0.00000E+00         0.00000E+00
 
   -0.23782E+06         0.27182E+07         0.00000E+00
    0.27182E+07         0.74353E+07         0.00000E+00
    0.00000E+00         0.00000E+00         0.00000E+00
 
   -0.21293E+06         0.27918E+07         0.00000E+00
    0.27918E+07         0.74364E+07         0.00000E+00
    0.00000E+00         0.00000E+00         0.00000E+00
 
   -0.18941E+06         0.28660E+07         0.00000E+00
    0.28660E+07         0.74374E+07         0.00000E+00
    0.00000E+00         0.00000E+00         0.00000E+00
 
   -0.16726E+06         0.29407E+07         0.00000E+00
    0.29407E+07         0.74381E+07         0.00000E+00
    0.00000E+00         0.00000E+00         0.00000E+00
 
   -0.14644E+06         0.30162E+07         0.00000E+00
    0.30162E+07         0.74386E+07         0.00000E+00
    0.00000E+00         0.00000E+00         0.00000E+00
 
   -0.12695E+06         0.30924E+07         0.00000E+00
    0.30924E+07         0.74389E+07         0.00000E+00
    0.00000E+00         0.00000E+00         0.00000E+00
 
   -0.10875E+06         0.31693E+07         0.00000E+00
    0.31693E+07         0.74389E+07         0.00000E+00
    0.00000E+00         0.00000E+00         0.00000E+00
 
   -0.91803E+05         0.32472E+07         0.00000E+00
    0.32472E+07         0.74386E+07         0.00000E+00
    0.00000E+00         0.00000E+00         0.00000E+00
 
   -0.76083E+05         0.33259E+07         0.00000E+00
    0.33259E+07         0.74379E+07         0.00000E+00
    0.00000E+00         0.00000E+00         0.00000E+00
 
   -0.61542E+05         0.34057E+07         0.00000E+00
    0.34057E+07         0.74369E+07         0.00000E+00
    0.00000E+00         0.00000E+00         0.00000E+00
 
   -0.48130E+05         0.34866E+07         0.00000E+00
    0.34866E+07         0.74354E+07         0.00000E+00
    0.00000E+00         0.00000E+00         0.00000E+00
 
   -0.35792E+05         0.35686E+07         0.00000E+00
    0.35686E+07         0.74335E+07         0.00000E+00
    0.00000E+00         0.00000E+00         0.00000E+00
 
   -0.24463E+05         0.36518E+07         0.00000E+00
    0.36518E+07         0.74310E+07         0.00000E+00
    0.00000E+00         0.00000E+00         0.00000E+00
 
   -0.14077E+05         0.37363E+07         0.00000E+00
    0.37363E+07         0.74280E+07         0.00000E+00
    0.00000E+00         0.00000E+00         0.00000E+00
 
   -0.45557E+04         0.38222E+07         0.00000E+00
    0.38222E+07         0.74244E+07         0.00000E+00
    0.00000E+00         0.00000E+00         0.00000E+00
 
   -0.19400E+07         0.47098E+05         0.00000E+00
    0.47098E+05         0.69682E+07         0.00000E+00
    0.00000E+00         0.00000E+00         0.00000E+00
 
   -0.18793E+07         0.13721E+06         0.00000E+00
    0.13721E+06         0.69679E+07         0.00000E+00
    0.00000E+00         0.00000E+00         0.00000E+00
 
   -0.18189E+07         0.22589E+06         0.00000E+00
    0.22589E+06         0.69673E+07         0.00000E+00
    0.00000E+00         0.00000E+00         0.00000E+00
 
   -0.17587E+07         0.31321E+06         0.00000E+00
    0.31321E+06         0.69666E+07         0.00000E+00
    0.00000E+00         0.00000E+00         0.00000E+00
 
   -0.16991E+07         0.39921E+06         0.00000E+00
    0.39921E+06         0.69657E+07         0.00000E+00
    0.00000E+00         0.00000E+00         0.00000E+00
 
   -0.16399E+07         0.48395E+06         0.00000E+00
    0.48395E+06         0.69647E+07         0.00000E+00
    0.00000E+00         0.00000E+00         0.00000E+00
 
   -0.15813E+07         0.56748E+06         0.00000E+00
    0.56748E+06         0.69636E+07         0.00000E+00
    0.00000E+00         0.00000E+00         0.00000E+00
 
   -0.15233E+07         0.64987E+06         0.00000E+00
    0.64987E+06         0.69625E+07         0.00000E+00
    0.00000E+00         0.00000E+00         0.00000E+00
 
   -0.14660E+07         0.73117E+06         0.00000E+00
    0.73117E+06         0.69613E+07         0.00000E+00
    0.00000E+00         0.00000E+00         0.00000E+00
 
   -0.14095E+07         0.81145E+06         0.00000E+00
    0.81145E+06         0.69601E+07         0.00000E+00
    0.00000E+00         0.00000E+00         0.00000E+00
 
   -0.13538E+07         0.89074E+06         0.00000E+00
    0.89074E+06         0.69589E+07         0.00000E+00
    0.00000E+00         0.00000E+00         0.00000E+00
 
   -0.12990E+07         0.96913E+06         0.00000E+00
    0.96913E+06         0.69577E+07         0.00000E+00
    0.00000E+00         0.00000E+00         0.00000E+00
 
   -0.12450E+07         0.10466E+07         0.00000E+00
    0.10466E+07         0.69565E+07         0.00000E+00
    0.00000E+00         0.00000E+00         0.00000E+00
 
   -0.11920E+07         0.11234E+07         0.00000E+00
    0.11234E+07         0.69554E+07         0.00000E+00
    0.00000E+00         0.00000E+00         0.00000E+00
 
   -0.11399E+07         0.11993E+07         0.00000E+00
    0.11993E+07         0.69543E+07         0.00000E+00
    0.00000E+00         0.00000E+00         0.00000E+00
 
   -0.10889E+07         0.12746E+07         0.00000E+00
    0.12746E+07         0.69532E+07         0.00000E+00
    0.00000E+00         0.00000E+00         0.00000E+00
 
   -0.10388E+07         0.13493E+07         0.00000E+00
    0.13493E+07         0.69522E+07         0.00000E+00
    0.00000E+00         0.00000E+00         0.00000E+00
 
   -0.98985E+06         0.14234E+07         0.00000E+00
    0.14234E+07         0.69512E+07         0.00000E+00
    0.00000E+00         0.00000E+00         0.00000E+00
 
   -0.94194E+06         0.14969E+07         0.00000E+00
    0.14969E+07         0.69502E+07         0.00000E+00
    0.00000E+00         0.00000E+00         0.00000E+00
 
   -0.89512E+06         0.15700E+07         0.00000E+00
    0.15700E+07         0.69493E+07         0.00000E+00
    0.00000E+00         0.00000E+00         0.00000E+00
 
   -0.84941E+06         0.16426E+07         0.00000E+00
    0.16426E+07         0.69484E+07         0.00000E+00
    0.00000E+00         0.00000E+00         0.00000E+00
 
   -0.80482E+06         0.17149E+07         0.00000E+00
    0.17149E+07         0.69475E+07         0.00000E+00
    0.00000E+00         0.00000E+00         0.00000E+00
 
   -0.76136E+06         0.17869E+07         0.00000E+00
    0.17869E+07         0.69467E+07         0.00000E+00
    0.00000E+00         0.00000E+00         0.00000E+00
 
   -0.71905E+06         0.18586E+07         0.00000E+00
    0.18586E+07         0.69458E+07         0.00000E+00
    0.00000E+00         0.00000E+00         0.00000E+00
 
   -0.67789E+06         0.19300E+07         0.00000E+00
    0.19300E+07         0.69450E+07         0.00000E+00
    0.00000E+00         0.00000E+00         0.00000E+00
 
   -0.63788E+06         0.20013E+07         0.00000E+00
    0.20013E+07         0.69441E+07         0.00000E+00
    0.00000E+00         0.00000E+00         0.00000E+00
 
   -0.59905E+06         0.20725E+07         0.00000E+00
    0.20725E+07         0.69433E+07         0.00000E+00
    0.00000E+00         0.00000E+00         0.00000E+00
 
   -0.56138E+06         0.21436E+07         0.00000E+00
    0.21436E+07         0.69423E+07         0.00000E+00
    0.00000E+00         0.00000E+00         0.00000E+00
 
   -0.52487E+06         0.22147E+07         0.00000E+00
    0.22147E+07         0.69414E+07         0.00000E+00
    0.00000E+00         0.00000E+00         0.00000E+00
 
   -0.48954E+06         0.22858E+07         0.00000E+00
    0.22858E+07         0.69403E+07         0.00000E+00
    0.00000E+00         0.00000E+00         0.00000E+00
 
   -0.45537E+06         0.23570E+07         0.00000E+00
    0.23570E+07         0.69392E+07         0.00000E+00
    0.00000E+00         0.00000E+00         0.00000E+00
 
   -0.42237E+06         0.24284E+07         0.00000E+00
    0.24284E+07         0.69381E+07         0.00000E+00
    0.00000E+00         0.00000E+00         0.00000E+00
 
   -0.39052E+06         0.24999E+07         0.00000E+00
    0.24999E+07         0.69368E+07         0.00000E+00
    0.00000E+00         0.00000E+00         0.00000E+00
 
   -0.35983E+06         0.25716E+07         0.00000E+00
    0.25716E+07         0.69353E+07         0.00000E+00
    0.00000E+00         0.00000E+00         0.00000E+00
 
   -0.33027E+06         0.26436E+07         0.00000E+00
    0.26436E+07         0.69338E+07         0.00000E+00
    0.00000E+00         0.00000E+00         0.00000E+00
 
   -0.30184E+06         0.27159E+07         0.00000E+00
    0.27159E+07         0.69321E+07         0.00000E+00
    0.00000E+00         0.00000E+00         0.00000E+00
 
   -0.27452E+06         0.27886E+07         0.00000E+00
    0.27886E+07         0.69302E+07         0.00000E+00
    0.00000E+00         0.00000E+00         0.00000E+00
 
   -0.24830E+06         0.28618E+07         0.00000E+00
    0.28618E+07         0.69281E+07         0.00000E+00
    0.00000E+00         0.00000E+00         0.00000E+00
 
   -0.22316E+06         0.29354E+07         0.00000E+00
    0.29354E+07         0.69258E+07         0.00000E+00
    0.00000E+00         0.00000E+00         0.00000E+00
 
   -0.19906E+06         0.30096E+07         0.00000E+00
    0.30096E+07         0.69232E+07         0.00000E+00
    0.00000E+00         0.00000E+00         0.00000E+00
 
   -0.17599E+06         0.30844E+07         0.00000E+00
    0.30844E+07         0.69203E+07         0.00000E+00
    0.00000E+00         0.00000E+00         0.00000E+00
 
   -0.15391E+06         0.31598E+07         0.00000E+00
    0.31598E+07         0.69172E+07         0.00000E+00
    0.00000E+00         0.00000E+00         0.00000E+00
 
   -0.13278E+06         0.32360E+07         0.00000E+00
    0.32360E+07         0.69137E+07         0.00000E+00
    0.00000E+00         0.00000E+00         0.00000E+00
 
   -0.11258E+06         0.33129E+07         0.00000E+00
    0.33129E+07         0.69099E+07         0.00000E+00
    0.00000E+00         0.00000E+00         0.00000E+00
 
   -0.93241E+05         0.33907E+07         0.00000E+00
    0.33907E+07         0.69056E+07         0.00000E+00
    0.00000E+00         0.00000E+00         0.00000E+00
 
   -0.74728E+05         0.34693E+07         0.00000E+00
    0.34693E+07         0.69009E+07         0.00000E+00
    0.00000E+00         0.00000E+00         0.00000E+00
 
   -0.56985E+05         0.35489E+07         0.00000E+00
    0.35489E+07         0.68958E+07         0.00000E+00
    0.00000E+00         0.00000E+00         0.00000E+00
 
   -0.39954E+05         0.36295E+07         0.00000E+00
    0.36295E+07         0.68900E+07         0.00000E+00
    0.00000E+00         0.00000E+00         0.00000E+00
 
   -0.23571E+05         0.37111E+07         0.00000E+00
    0.37111E+07         0.68838E+07         0.00000E+00
    0.00000E+00         0.00000E+00         0.00000E+00
 
   -0.77660E+04         0.37938E+07         0.00000E+00
    0.37938E+07         0.68768E+07         0.00000E+00
    0.00000E+00         0.00000E+00         0.00000E+00
 
   -0.19044E+07         0.45994E+05         0.00000E+00
    0.45994E+05         0.65535E+07         0.00000E+00
    0.00000E+00         0.00000E+00         0.00000E+00
 
   -0.18504E+07         0.13455E+06         0.00000E+00
    0.13455E+06         0.65531E+07         0.00000E+00
    0.00000E+00         0.00000E+00         0.00000E+00
 
   -0.17964E+07         0.22188E+06         0.00000E+00
    0.22188E+06         0.65524E+07         0.00000E+00
    0.00000E+00         0.00000E+00         0.00000E+00
 
   -0.17425E+07         0.30805E+06         0.00000E+00
    0.30805E+06         0.65514E+07         0.00000E+00
    0.00000E+00         0.00000E+00         0.00000E+00
 
   -0.16888E+07         0.39307E+06         0.00000E+00
    0.39307E+06         0.65502E+07         0.00000E+00
    0.00000E+00         0.00000E+00         0.00000E+00
 
   -0.16353E+07         0.47699E+06         0.00000E+00
    0.47699E+06         0.65488E+07         0.00000E+00
    0.00000E+00         0.00000E+00         0.00000E+00
 
   -0.15822E+07         0.55985E+06         0.00000E+00
    0.55985E+06         0.65471E+07         0.00000E+00
    0.00000E+00         0.00000E+00         0.00000E+00
 
   -0.15295E+07         0.64168E+06         0.00000E+00
    0.64168E+06         0.65453E+07         0.00000E+00
    0.00000E+00         0.00000E+00         0.00000E+00
 
   -0.14772E+07         0.72254E+06         0.00000E+00
    0.72254E+06         0.65434E+07         0.00000E+00
    0.00000E+00         0.00000E+00         0.00000E+00
 
   -0.14254E+07         0.80246E+06         0.00000E+00
    0.80246E+06         0.65413E+07         0.00000E+00
    0.00000E+00         0.00000E+00         0.00000E+00
 
   -0.13742E+07         0.88149E+06         0.00000E+00
    0.88149E+06         0.65392E+07         0.00000E+00
    0.00000E+00         0.00000E+00         0.00000E+00
 
   -0.13235E+07         0.95968E+06         0.00000E+00
    0.95968E+06         0.65369E+07         0.00000E+00
    0.00000E+00         0.00000E+00         0.00000E+00
 
   -0.12735E+07         0.10371E+07         0.00000E+00
    0.10371E+07         0.65346E+07         0.00000E+00
    0.00000E+00         0.00000E+00         0.00000E+00
 
   -0.12242E+07         0.11137E+07         0.00000E+00
    0.11137E+07         0.65322E+07         0.00000E+00
    0.00000E+00         0.00000E+00         0.00000E+00
 
   -0.11755E+07         0.11896E+07         0.00000E+00
    0.11896E+07         0.65298E+07         0.00000E+00
    0.00000E+00         0.00000E+00         0.00000E+00
 
   -0.11277E+07         0.12648E+07         0.00000E+00
    0.12648E+07         0.65273E+07         0.00000E+00
    0.00000E+00         0.00000E+00         0.00000E+00
 
   -0.10805E+07         0.13395E+07         0.00000E+00
    0.13395E+07         0.65248E+07         0.00000E+00
    0.00000E+00         0.00000E+00         0.00000E+00
 
   -0.10342E+07         0.14135E+07         0.00000E+00
    0.14135E+07         0.65223E+07         0.00000E+00
    0.00000E+00         0.00000E+00         0.00000E+00
 
   -0.98873E+06         0.14871E+07         0.00000E+00
    0.14871E+07         0.65197E+07         0.00000E+00
    0.00000E+00         0.00000E+00         0.00000E+00
 
   -0.94408E+06         0.15601E+07         0.00000E+00
    0.15601E+07         0.65170E+07         0.00000E+00
    0.00000E+00         0.00000E+00         0.00000E+00
 
   -0.90029E+06         0.16327E+07         0.00000E+00
    0.16327E+07         0.65144E+07         0.00000E+00
    0.00000E+00         0.00000E+00         0.00000E+00
 
   -0.85739E+06         0.17049E+07         0.00000E+00
    0.17049E+07         0.65117E+07         0.00000E+00
    0.00000E+00         0.00000E+00         0.00000E+00
 
   -0.81537E+06         0.17768E+07         0.00000E+00
    0.17768E+07         0.65089E+07         0.00000E+00
    0.00000E+00         0.00000E+00         0.00000E+00
 
   -0.77426E+06         0.18483E+07         0.00000E+00
    0.18483E+07         0.65061E+07         0.00000E+00
    0.00000E+00         0.00000E+00         0.00000E+00
 
   -0.73407E+06         0.19196E+07         0.00000E+00
    0.19196E+07         0.65033E+07         0.00000E+00
    0.00000E+00         0.00000E+00         0.00000E+00
 
   -0.69480E+06         0.19907E+07         0.00000E+00
    0.19907E+07         0.65004E+07         0.00000E+00
    0.00000E+00         0.00000E+00         0.00000E+00
 
   -0.65646E+06         0.20616E+07         0.00000E+00
    0.20616E+07         0.64974E+07         0.00000E+00
    0.00000E+00         0.00000E+00         0.00000E+00
 
   -0.61905E+06         0.21324E+07         0.00000E+00
    0.21324E+07         0.64944E+07         0.00000E+00
    0.00000E+00         0.00000E+00         0.00000E+00
 
   -0.58258E+06         0.22031E+07         0.00000E+00
    0.22031E+07         0.64913E+07         0.00000E+00
    0.00000E+00         0.00000E+00         0.00000E+00
 
   -0.54705E+06         0.22738E+07         0.00000E+00
    0.22738E+07         0.64880E+07         0.00000E+00
    0.00000E+00         0.00000E+00         0.00000E+00
 
   -0.51244E+06         0.23445E+07         0.00000E+00
    0.23445E+07         0.64847E+07         0.00000E+00
    0.00000E+00         0.00000E+00         0.00000E+00
 
   -0.47876E+06         0.24153E+07         0.00000E+00
    0.24153E+07         0.64812E+07         0.00000E+00
    0.00000E+00         0.00000E+00         0.00000E+00
 
   -0.44600E+06         0.24861E+07         0.00000E+00
    0.24861E+07         0.64777E+07         0.00000E+00
    0.00000E+00         0.00000E+00         0.00000E+00
 
   -0.41416E+06         0.25571E+07         0.00000E+00
    0.25571E+07         0.64739E+07         0.00000E+00
    0.00000E+00         0.00000E+00         0.00000E+00
 
   -0.38321E+06         0.26283E+07         0.00000E+00
    0.26283E+07         0.64700E+07         0.00000E+00
    0.00000E+00         0.00000E+00         0.00000E+00
 
   -0.35315E+06         0.26997E+07         0.00000E+00
    0.26997E+07         0.64659E+07         0.00000E+00
    0.00000E+00         0.00000E+00         0.00000E+00
 
   -0.32395E+06         0.27714E+07         0.00000E+00
    0.27714E+07         0.64616E+07         0.00000E+00
    0.00000E+00         0.00000E+00         0.00000E+00
 
   -0.29561E+06         0.28434E+07         0.00000E+00
    0.28434E+07         0.64571E+07         0.00000E+00
    0.00000E+00         0.00000E+00         0.00000E+00
 
   -0.26809E+06         0.29159E+07         0.00000E+00
    0.29159E+07         0.64523E+07         0.00000E+00
    0.00000E+00         0.00000E+00         0.00000E+00
 
   -0.24138E+06         0.29887E+07         0.00000E+00
    0.29887E+07         0.64472E+07         0.00000E+00
    0.00000E+00         0.00000E+00         0.00000E+00
 
   -0.21543E+06         0.30620E+07         0.00000E+00
    0.30620E+07         0.64419E+07         0.00000E+00
    0.00000E+00         0.00000E+00         0.00000E+00
 
   -0.19023E+06         0.31359E+07         0.00000E+00
    0.31359E+07         0.64362E+07         0.00000E+00
    0.00000E+00         0.00000E+00         0.00000E+00
 
   -0.16574E+06         0.32103E+07         0.00000E+00
    0.32103E+07         0.64302E+07         0.00000E+00
    0.00000E+00         0.00000E+00         0.00000E+00
 
   -0.14191E+06         0.32853E+07         0.00000E+00
    0.32853E+07         0.64237E+07         0.00000E+00
    0.00000E+00         0.00000E+00         0.00000E+00
 
   -0.11871E+06         0.33609E+07         0.00000E+00
    0.33609E+07         0.64169E+07         0.00000E+00
    0.00000E+00         0.00000E+00         0.00000E+00
 
   -0.96083E+05         0.34373E+07         0.00000E+00
    0.34373E+07         0.64096E+07         0.00000E+00
    0.00000E+00         0.00000E+00         0.00000E+00
 
   -0.73990E+05         0.35144E+07         0.00000E+00
    0.35144E+07         0.64017E+07         0.00000E+00
    0.00000E+00         0.00000E+00         0.00000E+00
 
   -0.52373E+05         0.35923E+07         0.00000E+00
    0.35923E+07         0.63934E+07         0.00000E+00
    0.00000E+00         0.00000E+00         0.00000E+00
 
   -0.31175E+05         0.36711E+07         0.00000E+00
    0.36711E+07         0.63845E+07         0.00000E+00
    0.00000E+00         0.00000E+00         0.00000E+00
 
   -0.10337E+05         0.37507E+07         0.00000E+00
    0.37507E+07         0.63749E+07         0.00000E+00
    0.00000E+00         0.00000E+00         0.00000E+00
 
   -0.18604E+07         0.44761E+05         0.00000E+00
    0.44761E+05         0.61566E+07         0.00000E+00
    0.00000E+00         0.00000E+00         0.00000E+00
 
   -0.18120E+07         0.13140E+06         0.00000E+00
    0.13140E+06         0.61561E+07         0.00000E+00
    0.00000E+00         0.00000E+00         0.00000E+00
 
   -0.17635E+07         0.21701E+06         0.00000E+00
    0.21701E+06         0.61554E+07         0.00000E+00
    0.00000E+00         0.00000E+00         0.00000E+00
 
   -0.17150E+07         0.30161E+06         0.00000E+00
    0.30161E+06         0.61542E+07         0.00000E+00
    0.00000E+00         0.00000E+00         0.00000E+00
 
   -0.16665E+07         0.38523E+06         0.00000E+00
    0.38523E+06         0.61528E+07         0.00000E+00
    0.00000E+00         0.00000E+00         0.00000E+00
 
   -0.16181E+07         0.46789E+06         0.00000E+00
    0.46789E+06         0.61511E+07         0.00000E+00
    0.00000E+00         0.00000E+00         0.00000E+00
 
   -0.15698E+07         0.54963E+06         0.00000E+00
    0.54963E+06         0.61491E+07         0.00000E+00
    0.00000E+00         0.00000E+00         0.00000E+00
 
   -0.15218E+07         0.63046E+06         0.00000E+00
    0.63046E+06         0.61469E+07         0.00000E+00
    0.00000E+00         0.00000E+00         0.00000E+00
 
   -0.14740E+07         0.71043E+06         0.00000E+00
    0.71043E+06         0.61445E+07         0.00000E+00
    0.00000E+00         0.00000E+00         0.00000E+00
 
   -0.14265E+07         0.78955E+06         0.00000E+00
    0.78955E+06         0.61419E+07         0.00000E+00
    0.00000E+00         0.00000E+00         0.00000E+00
 
   -0.13793E+07         0.86787E+06         0.00000E+00
    0.86787E+06         0.61392E+07         0.00000E+00
    0.00000E+00         0.00000E+00         0.00000E+00
 
   -0.13325E+07         0.94542E+06         0.00000E+00
    0.94542E+06         0.61363E+07         0.00000E+00
    0.00000E+00         0.00000E+00         0.00000E+00
 
   -0.12862E+07         0.10222E+07         0.00000E+00
    0.10222E+07         0.61332E+07         0.00000E+00
    0.00000E+00         0.00000E+00         0.00000E+00
 
   -0.12404E+07         0.10984E+07         0.00000E+00
    0.10984E+07         0.61300E+07         0.00000E+00
    0.00000E+00         0.00000E+00         0.00000E+00
 
   -0.11950E+07         0.11738E+07         0.00000E+00
    0.11738E+07         0.61267E+07         0.00000E+00
    0.00000E+00         0.00000E+00         0.00000E+00
 
   -0.11502E+07         0.12486E+07         0.00000E+00
    0.12486E+07         0.61232E+07         0.00000E+00
    0.00000E+00         0.00000E+00         0.00000E+00
 
   -0.11059E+07         0.13229E+07         0.00000E+00
    0.13229E+07         0.61197E+07         0.00000E+00
    0.00000E+00         0.00000E+00         0.00000E+00
 
   -0.10622E+07         0.13965E+07         0.00000E+00
    0.13965E+07         0.61161E+07         0.00000E+00
    0.00000E+00         0.00000E+00         0.00000E+00
 
   -0.10192E+07         0.14697E+07         0.00000E+00
    0.14697E+07         0.61123E+07         0.00000E+00
    0.00000E+00         0.00000E+00         0.00000E+00
 
   -0.97675E+06         0.15424E+07         0.00000E+00
    0.15424E+07         0.61085E+07         0.00000E+00
    0.00000E+00         0.00000E+00         0.00000E+00
 
   -0.93497E+06         0.16147E+07         0.00000E+00
    0.16147E+07         0.61046E+07         0.00000E+00
    0.00000E+00         0.00000E+00         0.00000E+00
 
   -0.89386E+06         0.16865E+07         0.00000E+00
    0.16865E+07         0.61006E+07         0.00000E+00
    0.00000E+00         0.00000E+00         0.00000E+00
 
   -0.85344E+06         0.17580E+07         0.00000E+00
    0.17580E+07         0.60964E+07         0.00000E+00
    0.00000E+00         0.00000E+00         0.00000E+00
 
   -0.81372E+06         0.18292E+07         0.00000E+00
    0.18292E+07         0.60922E+07         0.00000E+00
    0.00000E+00         0.00000E+00         0.00000E+00
 
   -0.77470E+06         0.19001E+07         0.00000E+00
    0.19001E+07         0.60879E+07         0.00000E+00
    0.00000E+00         0.00000E+00         0.00000E+00
 
   -0.73639E+06         0.19707E+07         0.00000E+00
    0.19707E+07         0.60835E+07         0.00000E+00
    0.00000E+00         0.00000E+00         0.00000E+00
 
   -0.69880E+06         0.20412E+07         0.00000E+00
    0.20412E+07         0.60790E+07         0.00000E+00
    0.00000E+00         0.00000E+00         0.00000E+00
 
   -0.66194E+06         0.21114E+07         0.00000E+00
    0.21114E+07         0.60744E+07         0.00000E+00
    0.00000E+00         0.00000E+00         0.00000E+00
 
   -0.62580E+06         0.21816E+07         0.00000E+00
    0.21816E+07         0.60696E+07         0.00000E+00
    0.00000E+00         0.00000E+00         0.00000E+00
 
   -0.59039E+06         0.22517E+07         0.00000E+00
    0.22517E+07         0.60647E+07         0.00000E+00
    0.00000E+00         0.00000E+00         0.00000E+00
 
   -0.55570E+06         0.23217E+07         0.00000E+00
    0.23217E+07         0.60597E+07         0.00000E+00
    0.00000E+00         0.00000E+00         0.00000E+00
 
   -0.52172E+06         0.23917E+07         0.00000E+00
    0.23917E+07         0.60545E+07         0.00000E+00
    0.00000E+00         0.00000E+00         0.00000E+00
 
   -0.48846E+06         0.24617E+07         0.00000E+00
    0.24617E+07         0.60491E+07         0.00000E+00
    0.00000E+00         0.00000E+00         0.00000E+00
 
   -0.45589E+06         0.25319E+07         0.00000E+00
    0.25319E+07         0.60436E+07         0.00000E+00
    0.00000E+00         0.00000E+00         0.00000E+00
 
   -0.42401E+06         0.26021E+07         0.00000E+00
    0.26021E+07         0.60378E+07         0.00000E+00
    0.00000E+00         0.00000E+00         0.00000E+00
 
   -0.39281E+06         0.26725E+07         0.00000E+00
    0.26725E+07         0.60319E+07         0.00000E+00
    0.00000E+00         0.00000E+00         0.00000E+00
 
   -0.36226E+06         0.27431E+07         0.00000E+00
    0.27431E+07         0.60257E+07         0.00000E+00
    0.00000E+00         0.00000E+00         0.00000E+00
 
   -0.33235E+06         0.28139E+07         0.00000E+00
    0.28139E+07         0.60192E+07         0.00000E+00
    0.00000E+00         0.00000E+00         0.00000E+00
 
   -0.30306E+06         0.28850E+07         0.00000E+00
    0.28850E+07         0.60125E+07         0.00000E+00
    0.00000E+00         0.00000E+00         0.00000E+00
 
   -0.27435E+06         0.29564E+07         0.00000E+00
    0.29564E+07         0.60054E+07         0.00000E+00
    0.00000E+00         0.00000E+00         0.00000E+00
 
   -0.24621E+06         0.30281E+07         0.00000E+00
    0.30281E+07         0.59981E+07         0.00000E+00
    0.00000E+00         0.00000E+00         0.00000E+00
 
   -0.21860E+06         0.31003E+07         0.00000E+00
    0.31003E+07         0.59904E+07         0.00000E+00
    0.00000E+00         0.00000E+00         0.00000E+00
 
   -0.19149E+06         0.31728E+07         0.00000E+00
    0.31728E+07         0.59823E+07         0.00000E+00
    0.00000E+00         0.00000E+00         0.00000E+00
 
   -0.16485E+06         0.32459E+07         0.00000E+00
    0.32459E+07         0.59738E+07         0.00000E+00
    0.00000E+00         0.00000E+00         0.00000E+00
 
   -0.13863E+06         0.33194E+07         0.00000E+00
    0.33194E+07         0.59649E+07         0.00000E+00
    0.00000E+00         0.00000E+00         0.00000E+00
 
   -0.11279E+06         0.33935E+07         0.00000E+00
    0.33935E+07         0.59555E+07         0.00000E+00
    0.00000E+00         0.00000E+00         0.00000E+00
 
   -0.87297E+05         0.34681E+07         0.00000E+00
    0.34681E+07         0.59456E+07         0.00000E+00
    0.00000E+00         0.00000E+00         0.00000E+00
 
   -0.62092E+05         0.35434E+07         0.00000E+00
    0.35434E+07         0.59352E+07         0.00000E+00
    0.00000E+00         0.00000E+00         0.00000E+00
 
   -0.37128E+05         0.36193E+07         0.00000E+00
    0.36193E+07         0.59242E+07         0.00000E+00
    0.00000E+00         0.00000E+00         0.00000E+00
 
   -0.12349E+05         0.36958E+07         0.00000E+00
    0.36958E+07         0.59125E+07         0.00000E+00
    0.00000E+00         0.00000E+00         0.00000E+00
 
   -0.18100E+07         0.43486E+05         0.00000E+00
    0.43486E+05         0.57766E+07         0.00000E+00
    0.00000E+00         0.00000E+00         0.00000E+00
 
   -0.17664E+07         0.12803E+06         0.00000E+00
    0.12803E+06         0.57762E+07         0.00000E+00
    0.00000E+00         0.00000E+00         0.00000E+00
 
   -0.17226E+07         0.21169E+06         0.00000E+00
    0.21169E+06         0.57753E+07         0.00000E+00
    0.00000E+00         0.00000E+00         0.00000E+00
 
   -0.16786E+07         0.29450E+06         0.00000E+00
    0.29450E+06         0.57742E+07         0.00000E+00
    0.00000E+00         0.00000E+00         0.00000E+00
 
   -0.16346E+07         0.37646E+06         0.00000E+00
    0.37646E+06         0.57726E+07         0.00000E+00
    0.00000E+00         0.00000E+00         0.00000E+00
 
   -0.15906E+07         0.45759E+06         0.00000E+00
    0.45759E+06         0.57708E+07         0.00000E+00
    0.00000E+00         0.00000E+00         0.00000E+00
 
   -0.15466E+07         0.53791E+06         0.00000E+00
    0.53791E+06         0.57686E+07         0.00000E+00
    0.00000E+00         0.00000E+00         0.00000E+00
 
   -0.15027E+07         0.61744E+06         0.00000E+00
    0.61744E+06         0.57662E+07         0.00000E+00
    0.00000E+00         0.00000E+00         0.00000E+00
 
   -0.14589E+07         0.69620E+06         0.00000E+00
    0.69620E+06         0.57636E+07         0.00000E+00
    0.00000E+00         0.00000E+00         0.00000E+00
 
   -0.14152E+07         0.77422E+06         0.00000E+00
    0.77422E+06         0.57607E+07         0.00000E+00
    0.00000E+00         0.00000E+00         0.00000E+00
 
   -0.13718E+07         0.85151E+06         0.00000E+00
    0.85151E+06         0.57575E+07         0.00000E+00
    0.00000E+00         0.00000E+00         0.00000E+00
 
   -0.13286E+07         0.92811E+06         0.00000E+00
    0.92811E+06         0.57542E+07         0.00000E+00
    0.00000E+00         0.00000E+00         0.00000E+00
 
   -0.12856E+07         0.10040E+07         0.00000E+00
    0.10040E+07         0.57507E+07         0.00000E+00
    0.00000E+00         0.00000E+00         0.00000E+00
 
   -0.12430E+07         0.10793E+07         0.00000E+00
    0.10793E+07         0.57470E+07         0.00000E+00
    0.00000E+00         0.00000E+00         0.00000E+00
 
   -0.12007E+07         0.11540E+07         0.00000E+00
    0.11540E+07         0.57431E+07         0.00000E+00
    0.00000E+00         0.00000E+00         0.00000E+00
 
   -0.11588E+07         0.12281E+07         0.00000E+00
    0.12281E+07         0.57390E+07         0.00000E+00
    0.00000E+00         0.00000E+00         0.00000E+00
 
   -0.11172E+07         0.13016E+07         0.00000E+00
    0.13016E+07         0.57348E+07         0.00000E+00
    0.00000E+00         0.00000E+00         0.00000E+00
 
   -0.10761E+07         0.13747E+07         0.00000E+00
    0.13747E+07         0.57305E+07         0.00000E+00
    0.00000E+00         0.00000E+00         0.00000E+00
 
   -0.10354E+07         0.14472E+07         0.00000E+00
    0.14472E+07         0.57259E+07         0.00000E+00
    0.00000E+00         0.00000E+00         0.00000E+00
 
   -0.99521E+06         0.15193E+07         0.00000E+00
    0.15193E+07         0.57213E+07         0.00000E+00
    0.00000E+00         0.00000E+00         0.00000E+00
 
   -0.95546E+06         0.15909E+07         0.00000E+00
    0.15909E+07         0.57165E+07         0.00000E+00
    0.00000E+00         0.00000E+00         0.00000E+00
 
   -0.91620E+06         0.16622E+07         0.00000E+00
    0.16622E+07         0.57116E+07         0.00000E+00
    0.00000E+00         0.00000E+00         0.00000E+00
 
   -0.87745E+06         0.17330E+07         0.00000E+00
    0.17330E+07         0.57065E+07         0.00000E+00
    0.00000E+00         0.00000E+00         0.00000E+00
 
   -0.83921E+06         0.18036E+07         0.00000E+00
    0.18036E+07         0.57013E+07         0.00000E+00
    0.00000E+00         0.00000E+00         0.00000E+00
 
   -0.80150E+06         0.18739E+07         0.00000E+00
    0.18739E+07         0.56959E+07         0.00000E+00
    0.00000E+00         0.00000E+00         0.00000E+00
 
   -0.76432E+06         0.19438E+07         0.00000E+00
    0.19438E+07         0.56904E+07         0.00000E+00
    0.00000E+00         0.00000E+00         0.00000E+00
 
   -0.72768E+06         0.20136E+07         0.00000E+00
    0.20136E+07         0.56848E+07         0.00000E+00
    0.00000E+00         0.00000E+00         0.00000E+00
 
   -0.69158E+06         0.20832E+07         0.00000E+00
    0.20832E+07         0.56790E+07         0.00000E+00
    0.00000E+00         0.00000E+00         0.00000E+00
 
   -0.65603E+06         0.21526E+07         0.00000E+00
    0.21526E+07         0.56730E+07         0.00000E+00
    0.00000E+00         0.00000E+00         0.00000E+00
 
   -0.62102E+06         0.22219E+07         0.00000E+00
    0.22219E+07         0.56669E+07         0.00000E+00
    0.00000E+00         0.00000E+00         0.00000E+00
 
   -0.58654E+06         0.22911E+07         0.00000E+00
    0.22911E+07         0.56606E+07         0.00000E+00
    0.00000E+00         0.00000E+00         0.00000E+00
 
   -0.55260E+06         0.23602E+07         0.00000E+00
    0.23602E+07         0.56541E+07         0.00000E+00
    0.00000E+00         0.00000E+00         0.00000E+00
 
   -0.51918E+06         0.24293E+07         0.00000E+00
    0.24293E+07         0.56473E+07         0.00000E+00
    0.00000E+00         0.00000E+00         0.00000E+00
 
   -0.48629E+06         0.24984E+07         0.00000E+00
    0.24984E+07         0.56404E+07         0.00000E+00
    0.00000E+00         0.00000E+00         0.00000E+00
 
   -0.45390E+06         0.25675E+07         0.00000E+00
    0.25675E+07         0.56333E+07         0.00000E+00
    0.00000E+00         0.00000E+00         0.00000E+00
 
   -0.42200E+06         0.26368E+07         0.00000E+00
    0.26368E+07         0.56259E+07         0.00000E+00
    0.00000E+00         0.00000E+00         0.00000E+00
 
   -0.39057E+06         0.27061E+07         0.00000E+00
    0.27061E+07         0.56182E+07         0.00000E+00
    0.00000E+00         0.00000E+00         0.00000E+00
 
   -0.35961E+06         0.27756E+07         0.00000E+00
    0.27756E+07         0.56102E+07         0.00000E+00
    0.00000E+00         0.00000E+00         0.00000E+00
 
   -0.32908E+06         0.28452E+07         0.00000E+00
    0.28452E+07         0.56020E+07         0.00000E+00
    0.00000E+00         0.00000E+00         0.00000E+00
 
   -0.29897E+06         0.29151E+07         0.00000E+00
    0.29151E+07         0.55934E+07         0.00000E+00
    0.00000E+00         0.00000E+00         0.00000E+00
 
   -0.26924E+06         0.29852E+07         0.00000E+00
    0.29852E+07         0.55845E+07         0.00000E+00
    0.00000E+00         0.00000E+00         0.00000E+00
 
   -0.23988E+06         0.30556E+07         0.00000E+00
    0.30556E+07         0.55753E+07         0.00000E+00
    0.00000E+00         0.00000E+00         0.00000E+00
 
   -0.21085E+06         0.31262E+07         0.00000E+00
    0.31262E+07         0.55656E+07         0.00000E+00
    0.00000E+00         0.00000E+00         0.00000E+00
 
   -0.18212E+06         0.31972E+07         0.00000E+00
    0.31972E+07         0.55555E+07         0.00000E+00
    0.00000E+00         0.00000E+00         0.00000E+00
 
   -0.15365E+06         0.32686E+07         0.00000E+00
    0.32686E+07         0.55450E+07         0.00000E+00
    0.00000E+00         0.00000E+00         0.00000E+00
 
   -0.12541E+06         0.33404E+07         0.00000E+00
    0.33404E+07         0.55340E+07         0.00000E+00
    0.00000E+00         0.00000E+00         0.00000E+00
 
   -0.97351E+05         0.34126E+07         0.00000E+00
    0.34126E+07         0.55225E+07         0.00000E+00
    0.00000E+00         0.00000E+00         0.00000E+00
 
   -0.69441E+05         0.34852E+07         0.00000E+00
    0.34852E+07         0.55105E+07         0.00000E+00
    0.00000E+00         0.00000E+00         0.00000E+00
 
   -0.41630E+05         0.35583E+07         0.00000E+00
    0.35583E+07         0.54979E+07         0.00000E+00
    0.00000E+00         0.00000E+00         0.00000E+00
 
   -0.13872E+05         0.36319E+07         0.00000E+00
    0.36319E+07         0.54847E+07         0.00000E+00
    0.00000E+00         0.00000E+00         0.00000E+00
 
   -0.17543E+07         0.42224E+05         0.00000E+00
    0.42224E+05         0.54129E+07         0.00000E+00
    0.00000E+00         0.00000E+00         0.00000E+00
 
   -0.17148E+07         0.12460E+06         0.00000E+00
    0.12460E+06         0.54124E+07         0.00000E+00
    0.00000E+00         0.00000E+00         0.00000E+00
 
   -0.16750E+07         0.20623E+06         0.00000E+00
    0.20623E+06         0.54116E+07         0.00000E+00
    0.00000E+00         0.00000E+00         0.00000E+00
 
   -0.16350E+07         0.28712E+06         0.00000E+00
    0.28712E+06         0.54104E+07         0.00000E+00
    0.00000E+00         0.00000E+00         0.00000E+00
 
   -0.15949E+07         0.36728E+06         0.00000E+00
    0.36728E+06         0.54089E+07         0.00000E+00
    0.00000E+00         0.00000E+00         0.00000E+00
 
   -0.15547E+07         0.44672E+06         0.00000E+00
    0.44672E+06         0.54070E+07         0.00000E+00
    0.00000E+00         0.00000E+00         0.00000E+00
 
   -0.15144E+07         0.52545E+06         0.00000E+00
    0.52545E+06         0.54048E+07         0.00000E+00
    0.00000E+00         0.00000E+00         0.00000E+00
 
   -0.14742E+07         0.60348E+06         0.00000E+00
    0.60348E+06         0.54023E+07         0.00000E+00
    0.00000E+00         0.00000E+00         0.00000E+00
 
   -0.14339E+07         0.68084E+06         0.00000E+00
    0.68084E+06         0.53995E+07         0.00000E+00
    0.00000E+00         0.00000E+00         0.00000E+00
 
   -0.13937E+07         0.75753E+06         0.00000E+00
    0.75753E+06         0.53964E+07         0.00000E+00
    0.00000E+00         0.00000E+00         0.00000E+00
 
   -0.13536E+07         0.83357E+06         0.00000E+00
    0.83357E+06         0.53931E+07         0.00000E+00
    0.00000E+00         0.00000E+00         0.00000E+00
 
   -0.13136E+07         0.90900E+06         0.00000E+00
    0.90900E+06         0.53895E+07         0.00000E+00
    0.00000E+00         0.00000E+00         0.00000E+00
 
   -0.12738E+07         0.98381E+06         0.00000E+00
    0.98381E+06         0.53858E+07         0.00000E+00
    0.00000E+00         0.00000E+00         0.00000E+00
 
   -0.12341E+07         0.10580E+07         0.00000E+00
    0.10580E+07         0.53817E+07         0.00000E+00
    0.00000E+00         0.00000E+00         0.00000E+00
 
   -0.11947E+07         0.11317E+07         0.00000E+00
    0.11317E+07         0.53775E+07         0.00000E+00
    0.00000E+00         0.00000E+00         0.00000E+00
 
   -0.11555E+07         0.12049E+07         0.00000E+00
    0.12049E+07         0.53731E+07         0.00000E+00
    0.00000E+00         0.00000E+00         0.00000E+00
 
   -0.11165E+07         0.12775E+07         0.00000E+00
    0.12775E+07         0.53685E+07         0.00000E+00
    0.00000E+00         0.00000E+00         0.00000E+00
 
   -0.10778E+07         0.13496E+07         0.00000E+00
    0.13496E+07         0.53636E+07         0.00000E+00
    0.00000E+00         0.00000E+00         0.00000E+00
 
   -0.10394E+07         0.14213E+07         0.00000E+00
    0.14213E+07         0.53586E+07         0.00000E+00
    0.00000E+00         0.00000E+00         0.00000E+00
 
   -0.10014E+07         0.14925E+07         0.00000E+00
    0.14925E+07         0.53534E+07         0.00000E+00
    0.00000E+00         0.00000E+00         0.00000E+00
 
   -0.96361E+06         0.15633E+07         0.00000E+00
    0.15633E+07         0.53481E+07         0.00000E+00
    0.00000E+00         0.00000E+00         0.00000E+00
 
   -0.92621E+06         0.16337E+07         0.00000E+00
    0.16337E+07         0.53425E+07         0.00000E+00
    0.00000E+00         0.00000E+00         0.00000E+00
 
   -0.88916E+06         0.17038E+07         0.00000E+00
    0.17038E+07         0.53368E+07         0.00000E+00
    0.00000E+00         0.00000E+00         0.00000E+00
 
   -0.85247E+06         0.17735E+07         0.00000E+00
    0.17735E+07         0.53309E+07         0.00000E+00
    0.00000E+00         0.00000E+00         0.00000E+00
 
   -0.81617E+06         0.18430E+07         0.00000E+00
    0.18430E+07         0.53248E+07         0.00000E+00
    0.00000E+00         0.00000E+00         0.00000E+00
 
   -0.78024E+06         0.19121E+07         0.00000E+00
    0.19121E+07         0.53186E+07         0.00000E+00
    0.00000E+00         0.00000E+00         0.00000E+00
 
   -0.74469E+06         0.19810E+07         0.00000E+00
    0.19810E+07         0.53121E+07         0.00000E+00
    0.00000E+00         0.00000E+00         0.00000E+00
 
   -0.70953E+06         0.20497E+07         0.00000E+00
    0.20497E+07         0.53055E+07         0.00000E+00
    0.00000E+00         0.00000E+00         0.00000E+00
 
   -0.67476E+06         0.21182E+07         0.00000E+00
    0.21182E+07         0.52987E+07         0.00000E+00
    0.00000E+00         0.00000E+00         0.00000E+00
 
   -0.64038E+06         0.21865E+07         0.00000E+00
    0.21865E+07         0.52916E+07         0.00000E+00
    0.00000E+00         0.00000E+00         0.00000E+00
 
   -0.60638E+06         0.22547E+07         0.00000E+00
    0.22547E+07         0.52844E+07         0.00000E+00
    0.00000E+00         0.00000E+00         0.00000E+00
 
   -0.57275E+06         0.23228E+07         0.00000E+00
    0.23228E+07         0.52769E+07         0.00000E+00
    0.00000E+00         0.00000E+00         0.00000E+00
 
   -0.53950E+06         0.23908E+07         0.00000E+00
    0.23908E+07         0.52692E+07         0.00000E+00
    0.00000E+00         0.00000E+00         0.00000E+00
 
   -0.50662E+06         0.24588E+07         0.00000E+00
    0.24588E+07         0.52612E+07         0.00000E+00
    0.00000E+00         0.00000E+00         0.00000E+00
 
   -0.47408E+06         0.25267E+07         0.00000E+00
    0.25267E+07         0.52530E+07         0.00000E+00
    0.00000E+00         0.00000E+00         0.00000E+00
 
   -0.44189E+06         0.25946E+07         0.00000E+00
    0.25946E+07         0.52446E+07         0.00000E+00
    0.00000E+00         0.00000E+00         0.00000E+00
 
   -0.41002E+06         0.26626E+07         0.00000E+00
    0.26626E+07         0.52358E+07         0.00000E+00
    0.00000E+00         0.00000E+00         0.00000E+00
 
   -0.37846E+06         0.27307E+07         0.00000E+00
    0.27307E+07         0.52268E+07         0.00000E+00
    0.00000E+00         0.00000E+00         0.00000E+00
 
   -0.34719E+06         0.27988E+07         0.00000E+00
    0.27988E+07         0.52174E+07         0.00000E+00
    0.00000E+00         0.00000E+00         0.00000E+00
 
   -0.31619E+06         0.28670E+07         0.00000E+00
    0.28670E+07         0.52077E+07         0.00000E+00
    0.00000E+00         0.00000E+00         0.00000E+00
 
   -0.28544E+06         0.29354E+07         0.00000E+00
    0.29354E+07         0.51976E+07         0.00000E+00
    0.00000E+00         0.00000E+00         0.00000E+00
 
   -0.25491E+06         0.30040E+07         0.00000E+00
    0.30040E+07         0.51872E+07         0.00000E+00
    0.00000E+00         0.00000E+00         0.00000E+00
 
   -0.22457E+06         0.30727E+07         0.00000E+00
    0.30727E+07         0.51763E+07         0.00000E+00
    0.00000E+00         0.00000E+00         0.00000E+00
 
   -0.19440E+06         0.31417E+07         0.00000E+00
    0.31417E+07         0.51651E+07         0.00000E+00
    0.00000E+00         0.00000E+00         0.00000E+00
 
   -0.16436E+06         0.32109E+07         0.00000E+00
    0.32109E+07         0.51534E+07         0.00000E+00
    0.00000E+00         0.00000E+00         0.00000E+00
 
   -0.13442E+06         0.32803E+07         0.00000E+00
    0.32803E+07         0.51412E+07         0.00000E+00
    0.00000E+00         0.00000E+00         0.00000E+00
 
   -0.10456E+06         0.33501E+07         0.00000E+00
    0.33501E+07         0.51285E+07         0.00000E+00
    0.00000E+00         0.00000E+00         0.00000E+00
 
   -0.74716E+05         0.34201E+07         0.00000E+00
    0.34201E+07         0.51153E+07         0.00000E+00
    0.00000E+00         0.00000E+00         0.00000E+00
 
   -0.44867E+05         0.34905E+07         0.00000E+00
    0.34905E+07         0.51015E+07         0.00000E+00
    0.00000E+00         0.00000E+00         0.00000E+00
 
   -0.14968E+05         0.35612E+07         0.00000E+00
    0.35612E+07         0.50872E+07         0.00000E+00
    0.00000E+00         0.00000E+00         0.00000E+00
 
   -0.16943E+07         0.41004E+05         0.00000E+00
    0.41004E+05         0.50646E+07         0.00000E+00
    0.00000E+00         0.00000E+00         0.00000E+00
 
   -0.16582E+07         0.12123E+06         0.00000E+00
    0.12123E+06         0.50642E+07         0.00000E+00
    0.00000E+00         0.00000E+00         0.00000E+00
 
   -0.16219E+07         0.20081E+06         0.00000E+00
    0.20081E+06         0.50634E+07         0.00000E+00
    0.00000E+00         0.00000E+00         0.00000E+00
 
   -0.15854E+07         0.27974E+06         0.00000E+00
    0.27974E+06         0.50622E+07         0.00000E+00
    0.00000E+00         0.00000E+00         0.00000E+00
 
   -0.15487E+07         0.35804E+06         0.00000E+00
    0.35804E+06         0.50607E+07         0.00000E+00
    0.00000E+00         0.00000E+00         0.00000E+00
 
   -0.15118E+07         0.43571E+06         0.00000E+00
    0.43571E+06         0.50588E+07         0.00000E+00
    0.00000E+00         0.00000E+00         0.00000E+00
 
   -0.14748E+07         0.51275E+06         0.00000E+00
    0.51275E+06         0.50566E+07         0.00000E+00
    0.00000E+00         0.00000E+00         0.00000E+00
 
   -0.14378E+07         0.58917E+06         0.00000E+00
    0.58917E+06         0.50541E+07         0.00000E+00
    0.00000E+00         0.00000E+00         0.00000E+00
 
   -0.14007E+07         0.66500E+06         0.00000E+00
    0.66500E+06         0.50513E+07         0.00000E+00
    0.00000E+00         0.00000E+00         0.00000E+00
 
   -0.13636E+07         0.74023E+06         0.00000E+00
    0.74023E+06         0.50482E+07         0.00000E+00
    0.00000E+00         0.00000E+00         0.00000E+00
 
   -0.13265E+07         0.81489E+06         0.00000E+00
    0.81489E+06         0.50448E+07         0.00000E+00
    0.00000E+00         0.00000E+00         0.00000E+00
 
   -0.12894E+07         0.88898E+06         0.00000E+00
    0.88898E+06         0.50411E+07         0.00000E+00
    0.00000E+00         0.00000E+00         0.00000E+00
 
   -0.12524E+07         0.96252E+06         0.00000E+00
    0.96252E+06         0.50372E+07         0.00000E+00
    0.00000E+00         0.00000E+00         0.00000E+00
 
   -0.12155E+07         0.10355E+07         0.00000E+00
    0.10355E+07         0.50330E+07         0.00000E+00
    0.00000E+00         0.00000E+00         0.00000E+00
 
   -0.11787E+07         0.11080E+07         0.00000E+00
    0.11080E+07         0.50286E+07         0.00000E+00
    0.00000E+00         0.00000E+00         0.00000E+00
 
   -0.11420E+07         0.11800E+07         0.00000E+00
    0.11800E+07         0.50240E+07         0.00000E+00
    0.00000E+00         0.00000E+00         0.00000E+00
 
   -0.11054E+07         0.12515E+07         0.00000E+00
    0.12515E+07         0.50191E+07         0.00000E+00
    0.00000E+00         0.00000E+00         0.00000E+00
 
   -0.10691E+07         0.13226E+07         0.00000E+00
    0.13226E+07         0.50141E+07         0.00000E+00
    0.00000E+00         0.00000E+00         0.00000E+00
 
   -0.10329E+07         0.13932E+07         0.00000E+00
    0.13932E+07         0.50088E+07         0.00000E+00
    0.00000E+00         0.00000E+00         0.00000E+00
 
   -0.99688E+06         0.14634E+07         0.00000E+00
    0.14634E+07         0.50033E+07         0.00000E+00
    0.00000E+00         0.00000E+00         0.00000E+00
 
   -0.96109E+06         0.15332E+07         0.00000E+00
    0.15332E+07         0.49975E+07         0.00000E+00
    0.00000E+00         0.00000E+00         0.00000E+00
 
   -0.92553E+06         0.16027E+07         0.00000E+00
    0.16027E+07         0.49916E+07         0.00000E+00
    0.00000E+00         0.00000E+00         0.00000E+00
 
   -0.89019E+06         0.16717E+07         0.00000E+00
    0.16717E+07         0.49855E+07         0.00000E+00
    0.00000E+00         0.00000E+00         0.00000E+00
 
   -0.85510E+06         0.17405E+07         0.00000E+00
    0.17405E+07         0.49791E+07         0.00000E+00
    0.00000E+00         0.00000E+00         0.00000E+00
 
   -0.82026E+06         0.18089E+07         0.00000E+00
    0.18089E+07         0.49726E+07         0.00000E+00
    0.00000E+00         0.00000E+00         0.00000E+00
 
   -0.78566E+06         0.18771E+07         0.00000E+00
    0.18771E+07         0.49658E+07         0.00000E+00
    0.00000E+00         0.00000E+00         0.00000E+00
 
   -0.75133E+06         0.19450E+07         0.00000E+00
    0.19450E+07         0.49588E+07         0.00000E+00
    0.00000E+00         0.00000E+00         0.00000E+00
 
   -0.71725E+06         0.20126E+07         0.00000E+00
    0.20126E+07         0.49516E+07         0.00000E+00
    0.00000E+00         0.00000E+00         0.00000E+00
 
   -0.68343E+06         0.20800E+07         0.00000E+00
    0.20800E+07         0.49442E+07         0.00000E+00
    0.00000E+00         0.00000E+00         0.00000E+00
 
   -0.64987E+06         0.21473E+07         0.00000E+00
    0.21473E+07         0.49365E+07         0.00000E+00
    0.00000E+00         0.00000E+00         0.00000E+00
 
   -0.61657E+06         0.22143E+07         0.00000E+00
    0.22143E+07         0.49286E+07         0.00000E+00
    0.00000E+00         0.00000E+00         0.00000E+00
 
   -0.58351E+06         0.22812E+07         0.00000E+00
    0.22812E+07         0.49205E+07         0.00000E+00
    0.00000E+00         0.00000E+00         0.00000E+00
 
   -0.55070E+06         0.23480E+07         0.00000E+00
    0.23480E+07         0.49121E+07         0.00000E+00
    0.00000E+00         0.00000E+00         0.00000E+00
 
   -0.51813E+06         0.24147E+07         0.00000E+00
    0.24147E+07         0.49034E+07         0.00000E+00
    0.00000E+00         0.00000E+00         0.00000E+00
 
   -0.48578E+06         0.24813E+07         0.00000E+00
    0.24813E+07         0.48945E+07         0.00000E+00
    0.00000E+00         0.00000E+00         0.00000E+00
 
   -0.45364E+06         0.25479E+07         0.00000E+00
    0.25479E+07         0.48853E+07         0.00000E+00
    0.00000E+00         0.00000E+00         0.00000E+00
 
   -0.42171E+06         0.26144E+07         0.00000E+00
    0.26144E+07         0.48757E+07         0.00000E+00
    0.00000E+00         0.00000E+00         0.00000E+00
 
   -0.38996E+06         0.26809E+07         0.00000E+00
    0.26809E+07         0.48659E+07         0.00000E+00
    0.00000E+00         0.00000E+00         0.00000E+00
 
   -0.35838E+06         0.27475E+07         0.00000E+00
    0.27475E+07         0.48557E+07         0.00000E+00
    0.00000E+00         0.00000E+00         0.00000E+00
 
   -0.32696E+06         0.28140E+07         0.00000E+00
    0.28140E+07         0.48452E+07         0.00000E+00
    0.00000E+00         0.00000E+00         0.00000E+00
 
   -0.29566E+06         0.28807E+07         0.00000E+00
    0.28807E+07         0.48343E+07         0.00000E+00
    0.00000E+00         0.00000E+00         0.00000E+00
 
   -0.26447E+06         0.29474E+07         0.00000E+00
    0.29474E+07         0.48230E+07         0.00000E+00
    0.00000E+00         0.00000E+00         0.00000E+00
 
   -0.23337E+06         0.30141E+07         0.00000E+00
    0.30141E+07         0.48114E+07         0.00000E+00
    0.00000E+00         0.00000E+00         0.00000E+00
 
   -0.20233E+06         0.30810E+07         0.00000E+00
    0.30810E+07         0.47993E+07         0.00000E+00
    0.00000E+00         0.00000E+00         0.00000E+00
 
   -0.17132E+06         0.31481E+07         0.00000E+00
    0.31481E+07         0.47867E+07         0.00000E+00
    0.00000E+00         0.00000E+00         0.00000E+00
 
   -0.14031E+06         0.32153E+07         0.00000E+00
    0.32153E+07         0.47737E+07         0.00000E+00
    0.00000E+00         0.00000E+00         0.00000E+00
 
   -0.10928E+06         0.32826E+07         0.00000E+00
    0.32826E+07         0.47602E+07         0.00000E+00
    0.00000E+00         0.00000E+00         0.00000E+00
 
   -0.78190E+05         0.33501E+07         0.00000E+00
    0.33501E+07         0.47462E+07         0.00000E+00
    0.00000E+00         0.00000E+00         0.00000E+00
 
   -0.47006E+05         0.34179E+07         0.00000E+00
    0.34179E+07         0.47317E+07         0.00000E+00
    0.00000E+00         0.00000E+00         0.00000E+00
 
   -0.15693E+05         0.34858E+07         0.00000E+00
    0.34858E+07         0.47165E+07         0.00000E+00
    0.00000E+00         0.00000E+00         0.00000E+00
 
   -0.16304E+07         0.39843E+05         0.00000E+00
    0.39843E+05         0.47311E+07         0.00000E+00
    0.00000E+00         0.00000E+00         0.00000E+00
 
   -0.15974E+07         0.11797E+06         0.00000E+00
    0.11797E+06         0.47307E+07         0.00000E+00
    0.00000E+00         0.00000E+00         0.00000E+00
 
   -0.15641E+07         0.19553E+06         0.00000E+00
    0.19553E+06         0.47299E+07         0.00000E+00
    0.00000E+00         0.00000E+00         0.00000E+00
 
   -0.15306E+07         0.27252E+06         0.00000E+00
    0.27252E+06         0.47288E+07         0.00000E+00
    0.00000E+00         0.00000E+00         0.00000E+00
 
   -0.14968E+07         0.34895E+06         0.00000E+00
    0.34895E+06         0.47273E+07         0.00000E+00
    0.00000E+00         0.00000E+00         0.00000E+00
 
   -0.14630E+07         0.42482E+06         0.00000E+00
    0.42482E+06         0.47255E+07         0.00000E+00
    0.00000E+00         0.00000E+00         0.00000E+00
 
   -0.14289E+07         0.50014E+06         0.00000E+00
    0.50014E+06         0.47233E+07         0.00000E+00
    0.00000E+00         0.00000E+00         0.00000E+00
 
   -0.13948E+07         0.57491E+06         0.00000E+00
    0.57491E+06         0.47208E+07         0.00000E+00
    0.00000E+00         0.00000E+00         0.00000E+00
 
   -0.13605E+07         0.64914E+06         0.00000E+00
    0.64914E+06         0.47180E+07         0.00000E+00
    0.00000E+00         0.00000E+00         0.00000E+00
 
   -0.13262E+07         0.72283E+06         0.00000E+00
    0.72283E+06         0.47149E+07         0.00000E+00
    0.00000E+00         0.00000E+00         0.00000E+00
 
   -0.12918E+07         0.79601E+06         0.00000E+00
    0.79601E+06         0.47115E+07         0.00000E+00
    0.00000E+00         0.00000E+00         0.00000E+00
 
   -0.12574E+07         0.86867E+06         0.00000E+00
    0.86867E+06         0.47079E+07         0.00000E+00
    0.00000E+00         0.00000E+00         0.00000E+00
 
   -0.12229E+07         0.94083E+06         0.00000E+00
    0.94083E+06         0.47039E+07         0.00000E+00
    0.00000E+00         0.00000E+00         0.00000E+00
 
   -0.11885E+07         0.10125E+07         0.00000E+00
    0.10125E+07         0.46997E+07         0.00000E+00
    0.00000E+00         0.00000E+00         0.00000E+00
 
   -0.11542E+07         0.10837E+07         0.00000E+00
    0.10837E+07         0.46953E+07         0.00000E+00
    0.00000E+00         0.00000E+00         0.00000E+00
 
   -0.11198E+07         0.11545E+07         0.00000E+00
    0.11545E+07         0.46905E+07         0.00000E+00
    0.00000E+00         0.00000E+00         0.00000E+00
 
   -0.10856E+07         0.12247E+07         0.00000E+00
    0.12247E+07         0.46856E+07         0.00000E+00
    0.00000E+00         0.00000E+00         0.00000E+00
 
   -0.10514E+07         0.12946E+07         0.00000E+00
    0.12946E+07         0.46804E+07         0.00000E+00
    0.00000E+00         0.00000E+00         0.00000E+00
 
   -0.10173E+07         0.13641E+07         0.00000E+00
    0.13641E+07         0.46749E+07         0.00000E+00
    0.00000E+00         0.00000E+00         0.00000E+00
 
   -0.98328E+06         0.14331E+07         0.00000E+00
    0.14331E+07         0.46693E+07         0.00000E+00
    0.00000E+00         0.00000E+00         0.00000E+00
 
   -0.94940E+06         0.15018E+07         0.00000E+00
    0.15018E+07         0.46634E+07         0.00000E+00
    0.00000E+00         0.00000E+00         0.00000E+00
 
   -0.91565E+06         0.15701E+07         0.00000E+00
    0.15701E+07         0.46572E+07         0.00000E+00
    0.00000E+00         0.00000E+00         0.00000E+00
 
   -0.88203E+06         0.16380E+07         0.00000E+00
    0.16380E+07         0.46508E+07         0.00000E+00
    0.00000E+00         0.00000E+00         0.00000E+00
 
   -0.84855E+06         0.17056E+07         0.00000E+00
    0.17056E+07         0.46442E+07         0.00000E+00
    0.00000E+00         0.00000E+00         0.00000E+00
 
   -0.81521E+06         0.17729E+07         0.00000E+00
    0.17729E+07         0.46374E+07         0.00000E+00
    0.00000E+00         0.00000E+00         0.00000E+00
 
   -0.78203E+06         0.18400E+07         0.00000E+00
    0.18400E+07         0.46303E+07         0.00000E+00
    0.00000E+00         0.00000E+00         0.00000E+00
 
   -0.74899E+06         0.19067E+07         0.00000E+00
    0.19067E+07         0.46230E+07         0.00000E+00
    0.00000E+00         0.00000E+00         0.00000E+00
 
   -0.71611E+06         0.19732E+07         0.00000E+00
    0.19732E+07         0.46155E+07         0.00000E+00
    0.00000E+00         0.00000E+00         0.00000E+00
 
   -0.68339E+06         0.20394E+07         0.00000E+00
    0.20394E+07         0.46077E+07         0.00000E+00
    0.00000E+00         0.00000E+00         0.00000E+00
 
   -0.65082E+06         0.21054E+07         0.00000E+00
    0.21054E+07         0.45996E+07         0.00000E+00
    0.00000E+00         0.00000E+00         0.00000E+00
 
   -0.61839E+06         0.21713E+07         0.00000E+00
    0.21713E+07         0.45913E+07         0.00000E+00
    0.00000E+00         0.00000E+00         0.00000E+00
 
   -0.58612E+06         0.22369E+07         0.00000E+00
    0.22369E+07         0.45827E+07         0.00000E+00
    0.00000E+00         0.00000E+00         0.00000E+00
 
   -0.55398E+06         0.23024E+07         0.00000E+00
    0.23024E+07         0.45739E+07         0.00000E+00
    0.00000E+00         0.00000E+00         0.00000E+00
 
   -0.52197E+06         0.23677E+07         0.00000E+00
    0.23677E+07         0.45648E+07         0.00000E+00
    0.00000E+00         0.00000E+00         0.00000E+00
 
   -0.49009E+06         0.24329E+07         0.00000E+00
    0.24329E+07         0.45554E+07         0.00000E+00
    0.00000E+00         0.00000E+00         0.00000E+00
 
   -0.45832E+06         0.24980E+07         0.00000E+00
    0.24980E+07         0.45456E+07         0.00000E+00
    0.00000E+00         0.00000E+00         0.00000E+00
 
   -0.42665E+06         0.25631E+07         0.00000E+00
    0.25631E+07         0.45356E+07         0.00000E+00
    0.00000E+00         0.00000E+00         0.00000E+00
 
   -0.39507E+06         0.26280E+07         0.00000E+00
    0.26280E+07         0.45252E+07         0.00000E+00
    0.00000E+00         0.00000E+00         0.00000E+00
 
   -0.36356E+06         0.26929E+07         0.00000E+00
    0.26929E+07         0.45145E+07         0.00000E+00
    0.00000E+00         0.00000E+00         0.00000E+00
 
   -0.33211E+06         0.27577E+07         0.00000E+00
    0.27577E+07         0.45035E+07         0.00000E+00
    0.00000E+00         0.00000E+00         0.00000E+00
 
   -0.30070E+06         0.28226E+07         0.00000E+00
    0.28226E+07         0.44921E+07         0.00000E+00
    0.00000E+00         0.00000E+00         0.00000E+00
 
   -0.26931E+06         0.28874E+07         0.00000E+00
    0.28874E+07         0.44803E+07         0.00000E+00
    0.00000E+00         0.00000E+00         0.00000E+00
 
   -0.23791E+06         0.29522E+07         0.00000E+00
    0.29522E+07         0.44681E+07         0.00000E+00
    0.00000E+00         0.00000E+00         0.00000E+00
 
   -0.20650E+06         0.30171E+07         0.00000E+00
    0.30171E+07         0.44554E+07         0.00000E+00
    0.00000E+00         0.00000E+00         0.00000E+00
 
   -0.17503E+06         0.30820E+07         0.00000E+00
    0.30820E+07         0.44424E+07         0.00000E+00
    0.00000E+00         0.00000E+00         0.00000E+00
 
   -0.14350E+06         0.31469E+07         0.00000E+00
    0.31469E+07         0.44288E+07         0.00000E+00
    0.00000E+00         0.00000E+00         0.00000E+00
 
   -0.11187E+06         0.32119E+07         0.00000E+00
    0.32119E+07         0.44148E+07         0.00000E+00
    0.00000E+00         0.00000E+00         0.00000E+00
 
   -0.80110E+05         0.32770E+07         0.00000E+00
    0.32770E+07         0.44003E+07         0.00000E+00
    0.00000E+00         0.00000E+00         0.00000E+00
 
   -0.48197E+05         0.33422E+07         0.00000E+00
    0.33422E+07         0.43853E+07         0.00000E+00
    0.00000E+00         0.00000E+00         0.00000E+00
 
   -0.16099E+05         0.34075E+07         0.00000E+00
    0.34075E+07         0.43697E+07         0.00000E+00
    0.00000E+00         0.00000E+00         0.00000E+00
 
   -0.15631E+07         0.38747E+05         0.00000E+00
    0.38747E+05         0.44115E+07         0.00000E+00
    0.00000E+00         0.00000E+00         0.00000E+00
 
   -0.15327E+07         0.11485E+06         0.00000E+00
    0.11485E+06         0.44111E+07         0.00000E+00
    0.00000E+00         0.00000E+00         0.00000E+00
 
   -0.15021E+07         0.19046E+06         0.00000E+00
    0.19046E+06         0.44104E+07         0.00000E+00
    0.00000E+00         0.00000E+00         0.00000E+00
 
   -0.14713E+07         0.26555E+06         0.00000E+00
    0.26555E+06         0.44093E+07         0.00000E+00
    0.00000E+00         0.00000E+00         0.00000E+00
 
   -0.14402E+07         0.34015E+06         0.00000E+00
    0.34015E+06         0.44079E+07         0.00000E+00
    0.00000E+00         0.00000E+00         0.00000E+00
 
   -0.14090E+07         0.41424E+06         0.00000E+00
    0.41424E+06         0.44061E+07         0.00000E+00
    0.00000E+00         0.00000E+00         0.00000E+00
 
   -0.13776E+07         0.48783E+06         0.00000E+00
    0.48783E+06         0.44040E+07         0.00000E+00
    0.00000E+00         0.00000E+00         0.00000E+00
 
   -0.13460E+07         0.56093E+06         0.00000E+00
    0.56093E+06         0.44015E+07         0.00000E+00
    0.00000E+00         0.00000E+00         0.00000E+00
 
   -0.13143E+07         0.63354E+06         0.00000E+00
    0.63354E+06         0.43988E+07         0.00000E+00
    0.00000E+00         0.00000E+00         0.00000E+00
 
   -0.12825E+07         0.70567E+06         0.00000E+00
    0.70567E+06         0.43958E+07         0.00000E+00
    0.00000E+00         0.00000E+00         0.00000E+00
 
   -0.12506E+07         0.77732E+06         0.00000E+00
    0.77732E+06         0.43925E+07         0.00000E+00
    0.00000E+00         0.00000E+00         0.00000E+00
 
   -0.12186E+07         0.84850E+06         0.00000E+00
    0.84850E+06         0.43888E+07         0.00000E+00
    0.00000E+00         0.00000E+00         0.00000E+00
 
   -0.11866E+07         0.91923E+06         0.00000E+00
    0.91923E+06         0.43849E+07         0.00000E+00
    0.00000E+00         0.00000E+00         0.00000E+00
 
   -0.11545E+07         0.98950E+06         0.00000E+00
    0.98950E+06         0.43808E+07         0.00000E+00
    0.00000E+00         0.00000E+00         0.00000E+00
 
   -0.11224E+07         0.10593E+07         0.00000E+00
    0.10593E+07         0.43763E+07         0.00000E+00
    0.00000E+00         0.00000E+00         0.00000E+00
 
   -0.10903E+07         0.11287E+07         0.00000E+00
    0.11287E+07         0.43716E+07         0.00000E+00
    0.00000E+00         0.00000E+00         0.00000E+00
 
   -0.10581E+07         0.11977E+07         0.00000E+00
    0.11977E+07         0.43667E+07         0.00000E+00
    0.00000E+00         0.00000E+00         0.00000E+00
 
   -0.10260E+07         0.12663E+07         0.00000E+00
    0.12663E+07         0.43614E+07         0.00000E+00
    0.00000E+00         0.00000E+00         0.00000E+00
 
   -0.99394E+06         0.13345E+07         0.00000E+00
    0.13345E+07         0.43560E+07         0.00000E+00
    0.00000E+00         0.00000E+00         0.00000E+00
 
   -0.96188E+06         0.14023E+07         0.00000E+00
    0.14023E+07         0.43502E+07         0.00000E+00
    0.00000E+00         0.00000E+00         0.00000E+00
 
   -0.92986E+06         0.14697E+07         0.00000E+00
    0.14697E+07         0.43443E+07         0.00000E+00
    0.00000E+00         0.00000E+00         0.00000E+00
 
   -0.89789E+06         0.15368E+07         0.00000E+00
    0.15368E+07         0.43381E+07         0.00000E+00
    0.00000E+00         0.00000E+00         0.00000E+00
 
   -0.86597E+06         0.16035E+07         0.00000E+00
    0.16035E+07         0.43316E+07         0.00000E+00
    0.00000E+00         0.00000E+00         0.00000E+00
 
   -0.83411E+06         0.16699E+07         0.00000E+00
    0.16699E+07         0.43249E+07         0.00000E+00
    0.00000E+00         0.00000E+00         0.00000E+00
 
   -0.80232E+06         0.17360E+07         0.00000E+00
    0.17360E+07         0.43179E+07         0.00000E+00
    0.00000E+00         0.00000E+00         0.00000E+00
 
   -0.77060E+06         0.18018E+07         0.00000E+00
    0.18018E+07         0.43107E+07         0.00000E+00
    0.00000E+00         0.00000E+00         0.00000E+00
 
   -0.73894E+06         0.18673E+07         0.00000E+00
    0.18673E+07         0.43032E+07         0.00000E+00
    0.00000E+00         0.00000E+00         0.00000E+00
 
   -0.70736E+06         0.19325E+07         0.00000E+00
    0.19325E+07         0.42955E+07         0.00000E+00
    0.00000E+00         0.00000E+00         0.00000E+00
 
   -0.67584E+06         0.19975E+07         0.00000E+00
    0.19975E+07         0.42875E+07         0.00000E+00
    0.00000E+00         0.00000E+00         0.00000E+00
 
   -0.64440E+06         0.20622E+07         0.00000E+00
    0.20622E+07         0.42792E+07         0.00000E+00
    0.00000E+00         0.00000E+00         0.00000E+00
 
   -0.61302E+06         0.21267E+07         0.00000E+00
    0.21267E+07         0.42707E+07         0.00000E+00
    0.00000E+00         0.00000E+00         0.00000E+00
 
   -0.58170E+06         0.21910E+07         0.00000E+00
    0.21910E+07         0.42619E+07         0.00000E+00
    0.00000E+00         0.00000E+00         0.00000E+00
 
   -0.55044E+06         0.22551E+07         0.00000E+00
    0.22551E+07         0.42528E+07         0.00000E+00
    0.00000E+00         0.00000E+00         0.00000E+00
 
   -0.51922E+06         0.23190E+07         0.00000E+00
    0.23190E+07         0.42434E+07         0.00000E+00
    0.00000E+00         0.00000E+00         0.00000E+00
 
   -0.48805E+06         0.23827E+07         0.00000E+00
    0.23827E+07         0.42338E+07         0.00000E+00
    0.00000E+00         0.00000E+00         0.00000E+00
 
   -0.45691E+06         0.24463E+07         0.00000E+00
    0.24463E+07         0.42238E+07         0.00000E+00
    0.00000E+00         0.00000E+00         0.00000E+00
 
   -0.42579E+06         0.25098E+07         0.00000E+00
    0.25098E+07         0.42135E+07         0.00000E+00
    0.00000E+00         0.00000E+00         0.00000E+00
 
   -0.39468E+06         0.25731E+07         0.00000E+00
    0.25731E+07         0.42028E+07         0.00000E+00
    0.00000E+00         0.00000E+00         0.00000E+00
 
   -0.36357E+06         0.26363E+07         0.00000E+00
    0.26363E+07         0.41918E+07         0.00000E+00
    0.00000E+00         0.00000E+00         0.00000E+00
 
   -0.33244E+06         0.26994E+07         0.00000E+00
    0.26994E+07         0.41805E+07         0.00000E+00
    0.00000E+00         0.00000E+00         0.00000E+00
 
   -0.30128E+06         0.27625E+07         0.00000E+00
    0.27625E+07         0.41688E+07         0.00000E+00
    0.00000E+00         0.00000E+00         0.00000E+00
 
   -0.27007E+06         0.28254E+07         0.00000E+00
    0.28254E+07         0.41567E+07         0.00000E+00
    0.00000E+00         0.00000E+00         0.00000E+00
 
   -0.23880E+06         0.28883E+07         0.00000E+00
    0.28883E+07         0.41442E+07         0.00000E+00
    0.00000E+00         0.00000E+00         0.00000E+00
 
   -0.20743E+06         0.29512E+07         0.00000E+00
    0.29512E+07         0.41313E+07         0.00000E+00
    0.00000E+00         0.00000E+00         0.00000E+00
 
   -0.17596E+06         0.30140E+07         0.00000E+00
    0.30140E+07         0.41180E+07         0.00000E+00
    0.00000E+00         0.00000E+00         0.00000E+00
 
   -0.14437E+06         0.30767E+07         0.00000E+00
    0.30767E+07         0.41042E+07         0.00000E+00
    0.00000E+00         0.00000E+00         0.00000E+00
 
   -0.11262E+06         0.31395E+07         0.00000E+00
    0.31395E+07         0.40899E+07         0.00000E+00
    0.00000E+00         0.00000E+00         0.00000E+00
 
   -0.80699E+05         0.32022E+07         0.00000E+00
    0.32022E+07         0.40752E+07         0.00000E+00
    0.00000E+00         0.00000E+00         0.00000E+00
 
   -0.48578E+05         0.32649E+07         0.00000E+00
    0.32649E+07         0.40600E+07         0.00000E+00
    0.00000E+00         0.00000E+00         0.00000E+00
 
   -0.16232E+05         0.33276E+07         0.00000E+00
    0.33276E+07         0.40443E+07         0.00000E+00
    0.00000E+00         0.00000E+00         0.00000E+00
 
   -0.14927E+07         0.37717E+05         0.00000E+00
    0.37717E+05         0.41051E+07         0.00000E+00
    0.00000E+00         0.00000E+00         0.00000E+00
 
   -0.14647E+07         0.11190E+06         0.00000E+00
    0.11190E+06         0.41047E+07         0.00000E+00
    0.00000E+00         0.00000E+00         0.00000E+00
 
   -0.14365E+07         0.18562E+06         0.00000E+00
    0.18562E+06         0.41040E+07         0.00000E+00
    0.00000E+00         0.00000E+00         0.00000E+00
 
   -0.14081E+07         0.25889E+06         0.00000E+00
    0.25889E+06         0.41029E+07         0.00000E+00
    0.00000E+00         0.00000E+00         0.00000E+00
 
   -0.13794E+07         0.33170E+06         0.00000E+00
    0.33170E+06         0.41016E+07         0.00000E+00
    0.00000E+00         0.00000E+00         0.00000E+00
 
   -0.13505E+07         0.40405E+06         0.00000E+00
    0.40405E+06         0.40999E+07         0.00000E+00
    0.00000E+00         0.00000E+00         0.00000E+00
 
   -0.13215E+07         0.47595E+06         0.00000E+00
    0.47595E+06         0.40978E+07         0.00000E+00
    0.00000E+00         0.00000E+00         0.00000E+00
 
   -0.12923E+07         0.54740E+06         0.00000E+00
    0.54740E+06         0.40955E+07         0.00000E+00
    0.00000E+00         0.00000E+00         0.00000E+00
 
   -0.12629E+07         0.61840E+06         0.00000E+00
    0.61840E+06         0.40928E+07         0.00000E+00
    0.00000E+00         0.00000E+00         0.00000E+00
 
   -0.12335E+07         0.68896E+06         0.00000E+00
    0.68896E+06         0.40899E+07         0.00000E+00
    0.00000E+00         0.00000E+00         0.00000E+00
 
   -0.12038E+07         0.75908E+06         0.00000E+00
    0.75908E+06         0.40867E+07         0.00000E+00
    0.00000E+00         0.00000E+00         0.00000E+00
 
   -0.11741E+07         0.82876E+06         0.00000E+00
    0.82876E+06         0.40831E+07         0.00000E+00
    0.00000E+00         0.00000E+00         0.00000E+00
 
   -0.11443E+07         0.89802E+06         0.00000E+00
    0.89802E+06         0.40793E+07         0.00000E+00
    0.00000E+00         0.00000E+00         0.00000E+00
 
   -0.11144E+07         0.96686E+06         0.00000E+00
    0.96686E+06         0.40752E+07         0.00000E+00
    0.00000E+00         0.00000E+00         0.00000E+00
 
   -0.10844E+07         0.10353E+07         0.00000E+00
    0.10353E+07         0.40709E+07         0.00000E+00
    0.00000E+00         0.00000E+00         0.00000E+00
 
   -0.10544E+07         0.11033E+07         0.00000E+00
    0.11033E+07         0.40662E+07         0.00000E+00
    0.00000E+00         0.00000E+00         0.00000E+00
 
   -0.10243E+07         0.11709E+07         0.00000E+00
    0.11709E+07         0.40613E+07         0.00000E+00
    0.00000E+00         0.00000E+00         0.00000E+00
 
   -0.99415E+06         0.12382E+07         0.00000E+00
    0.12382E+07         0.40562E+07         0.00000E+00
    0.00000E+00         0.00000E+00         0.00000E+00
 
   -0.96399E+06         0.13050E+07         0.00000E+00
    0.13050E+07         0.40508E+07         0.00000E+00
    0.00000E+00         0.00000E+00         0.00000E+00
 
   -0.93380E+06         0.13715E+07         0.00000E+00
    0.13715E+07         0.40451E+07         0.00000E+00
    0.00000E+00         0.00000E+00         0.00000E+00
 
   -0.90360E+06         0.14376E+07         0.00000E+00
    0.14376E+07         0.40391E+07         0.00000E+00
    0.00000E+00         0.00000E+00         0.00000E+00
 
   -0.87339E+06         0.15034E+07         0.00000E+00
    0.15034E+07         0.40329E+07         0.00000E+00
    0.00000E+00         0.00000E+00         0.00000E+00
 
   -0.84317E+06         0.15689E+07         0.00000E+00
    0.15689E+07         0.40265E+07         0.00000E+00
    0.00000E+00         0.00000E+00         0.00000E+00
 
   -0.81295E+06         0.16340E+07         0.00000E+00
    0.16340E+07         0.40198E+07         0.00000E+00
    0.00000E+00         0.00000E+00         0.00000E+00
 
   -0.78272E+06         0.16988E+07         0.00000E+00
    0.16988E+07         0.40128E+07         0.00000E+00
    0.00000E+00         0.00000E+00         0.00000E+00
 
   -0.75251E+06         0.17633E+07         0.00000E+00
    0.17633E+07         0.40056E+07         0.00000E+00
    0.00000E+00         0.00000E+00         0.00000E+00
 
   -0.72229E+06         0.18274E+07         0.00000E+00
    0.18274E+07         0.39981E+07         0.00000E+00
    0.00000E+00         0.00000E+00         0.00000E+00
 
   -0.69209E+06         0.18914E+07         0.00000E+00
    0.18914E+07         0.39903E+07         0.00000E+00
    0.00000E+00         0.00000E+00         0.00000E+00
 
   -0.66188E+06         0.19550E+07         0.00000E+00
    0.19550E+07         0.39823E+07         0.00000E+00
    0.00000E+00         0.00000E+00         0.00000E+00
 
   -0.63168E+06         0.20184E+07         0.00000E+00
    0.20184E+07         0.39740E+07         0.00000E+00
    0.00000E+00         0.00000E+00         0.00000E+00
 
   -0.60148E+06         0.20815E+07         0.00000E+00
    0.20815E+07         0.39654E+07         0.00000E+00
    0.00000E+00         0.00000E+00         0.00000E+00
 
   -0.57128E+06         0.21444E+07         0.00000E+00
    0.21444E+07         0.39565E+07         0.00000E+00
    0.00000E+00         0.00000E+00         0.00000E+00
 
   -0.54106E+06         0.22071E+07         0.00000E+00
    0.22071E+07         0.39473E+07         0.00000E+00
    0.00000E+00         0.00000E+00         0.00000E+00
 
   -0.51083E+06         0.22695E+07         0.00000E+00
    0.22695E+07         0.39379E+07         0.00000E+00
    0.00000E+00         0.00000E+00         0.00000E+00
 
   -0.48058E+06         0.23318E+07         0.00000E+00
    0.23318E+07         0.39281E+07         0.00000E+00
    0.00000E+00         0.00000E+00         0.00000E+00
 
   -0.45029E+06         0.23938E+07         0.00000E+00
    0.23938E+07         0.39180E+07         0.00000E+00
    0.00000E+00         0.00000E+00         0.00000E+00
 
   -0.41997E+06         0.24557E+07         0.00000E+00
    0.24557E+07         0.39076E+07         0.00000E+00
    0.00000E+00         0.00000E+00         0.00000E+00
 
   -0.38960E+06         0.25174E+07         0.00000E+00
    0.25174E+07         0.38969E+07         0.00000E+00
    0.00000E+00         0.00000E+00         0.00000E+00
 
   -0.35917E+06         0.25789E+07         0.00000E+00
    0.25789E+07         0.38858E+07         0.00000E+00
    0.00000E+00         0.00000E+00         0.00000E+00
 
   -0.32866E+06         0.26403E+07         0.00000E+00
    0.26403E+07         0.38744E+07         0.00000E+00
    0.00000E+00         0.00000E+00         0.00000E+00
 
   -0.29807E+06         0.27016E+07         0.00000E+00
    0.27016E+07         0.38626E+07         0.00000E+00
    0.00000E+00         0.00000E+00         0.00000E+00
 
   -0.26737E+06         0.27627E+07         0.00000E+00
    0.27627E+07         0.38504E+07         0.00000E+00
    0.00000E+00         0.00000E+00         0.00000E+00
 
   -0.23656E+06         0.28237E+07         0.00000E+00
    0.28237E+07         0.38379E+07         0.00000E+00
    0.00000E+00         0.00000E+00         0.00000E+00
 
   -0.20562E+06         0.28845E+07         0.00000E+00
    0.28845E+07         0.38249E+07         0.00000E+00
    0.00000E+00         0.00000E+00         0.00000E+00
 
   -0.17452E+06         0.29453E+07         0.00000E+00
    0.29453E+07         0.38115E+07         0.00000E+00
    0.00000E+00         0.00000E+00         0.00000E+00
 
   -0.14326E+06         0.30059E+07         0.00000E+00
    0.30059E+07         0.37977E+07         0.00000E+00
    0.00000E+00         0.00000E+00         0.00000E+00
 
   -0.11181E+06         0.30665E+07         0.00000E+00
    0.30665E+07         0.37835E+07         0.00000E+00
    0.00000E+00         0.00000E+00         0.00000E+00
 
   -0.80157E+05         0.31270E+07         0.00000E+00
    0.31270E+07         0.37688E+07         0.00000E+00
    0.00000E+00         0.00000E+00         0.00000E+00
 
   -0.48271E+05         0.31873E+07         0.00000E+00
    0.31873E+07         0.37536E+07         0.00000E+00
    0.00000E+00         0.00000E+00         0.00000E+00
 
   -0.16134E+05         0.32476E+07         0.00000E+00
    0.32476E+07         0.37379E+07         0.00000E+00
    0.00000E+00         0.00000E+00         0.00000E+00
 
   -0.14194E+07         0.36752E+05         0.00000E+00
    0.36752E+05         0.38109E+07         0.00000E+00
    0.00000E+00         0.00000E+00         0.00000E+00
 
   -0.13936E+07         0.10911E+06         0.00000E+00
    0.10911E+06         0.38106E+07         0.00000E+00
    0.00000E+00         0.00000E+00         0.00000E+00
 
   -0.13676E+07         0.18104E+06         0.00000E+00
    0.18104E+06         0.38099E+07         0.00000E+00
    0.00000E+00         0.00000E+00         0.00000E+00
 
   -0.13414E+07         0.25256E+06         0.00000E+00
    0.25256E+06         0.38089E+07         0.00000E+00
    0.00000E+00         0.00000E+00         0.00000E+00
 
   -0.13149E+07         0.32365E+06         0.00000E+00
    0.32365E+06         0.38076E+07         0.00000E+00
    0.00000E+00         0.00000E+00         0.00000E+00
 
   -0.12882E+07         0.39432E+06         0.00000E+00
    0.39432E+06         0.38060E+07         0.00000E+00
    0.00000E+00         0.00000E+00         0.00000E+00
 
   -0.12614E+07         0.46458E+06         0.00000E+00
    0.46458E+06         0.38040E+07         0.00000E+00
    0.00000E+00         0.00000E+00         0.00000E+00
 
   -0.12344E+07         0.53442E+06         0.00000E+00
    0.53442E+06         0.38018E+07         0.00000E+00
    0.00000E+00         0.00000E+00         0.00000E+00
 
   -0.12072E+07         0.60384E+06         0.00000E+00
    0.60384E+06         0.37992E+07         0.00000E+00
    0.00000E+00         0.00000E+00         0.00000E+00
 
   -0.11798E+07         0.67285E+06         0.00000E+00
    0.67285E+06         0.37964E+07         0.00000E+00
    0.00000E+00         0.00000E+00         0.00000E+00
 
   -0.11523E+07         0.74145E+06         0.00000E+00
    0.74145E+06         0.37933E+07         0.00000E+00
    0.00000E+00         0.00000E+00         0.00000E+00
 
   -0.11247E+07         0.80965E+06         0.00000E+00
    0.80965E+06         0.37899E+07         0.00000E+00
    0.00000E+00         0.00000E+00         0.00000E+00
 
   -0.10970E+07         0.87745E+06         0.00000E+00
    0.87745E+06         0.37862E+07         0.00000E+00
    0.00000E+00         0.00000E+00         0.00000E+00
 
   -0.10691E+07         0.94485E+06         0.00000E+00
    0.94485E+06         0.37822E+07         0.00000E+00
    0.00000E+00         0.00000E+00         0.00000E+00
 
   -0.10411E+07         0.10119E+07         0.00000E+00
    0.10119E+07         0.37780E+07         0.00000E+00
    0.00000E+00         0.00000E+00         0.00000E+00
 
   -0.10131E+07         0.10785E+07         0.00000E+00
    0.10785E+07         0.37735E+07         0.00000E+00
    0.00000E+00         0.00000E+00         0.00000E+00
 
   -0.98493E+06         0.11447E+07         0.00000E+00
    0.11447E+07         0.37687E+07         0.00000E+00
    0.00000E+00         0.00000E+00         0.00000E+00
 
   -0.95671E+06         0.12106E+07         0.00000E+00
    0.12106E+07         0.37636E+07         0.00000E+00
    0.00000E+00         0.00000E+00         0.00000E+00
 
   -0.92842E+06         0.12761E+07         0.00000E+00
    0.12761E+07         0.37583E+07         0.00000E+00
    0.00000E+00         0.00000E+00         0.00000E+00
 
   -0.90006E+06         0.13413E+07         0.00000E+00
    0.13413E+07         0.37528E+07         0.00000E+00
    0.00000E+00         0.00000E+00         0.00000E+00
 
   -0.87163E+06         0.14060E+07         0.00000E+00
    0.14060E+07         0.37469E+07         0.00000E+00
    0.00000E+00         0.00000E+00         0.00000E+00
 
   -0.84316E+06         0.14705E+07         0.00000E+00
    0.14705E+07         0.37408E+07         0.00000E+00
    0.00000E+00         0.00000E+00         0.00000E+00
 
   -0.81463E+06         0.15346E+07         0.00000E+00
    0.15346E+07         0.37345E+07         0.00000E+00
    0.00000E+00         0.00000E+00         0.00000E+00
 
   -0.78605E+06         0.15984E+07         0.00000E+00
    0.15984E+07         0.37279E+07         0.00000E+00
    0.00000E+00         0.00000E+00         0.00000E+00
 
   -0.75742E+06         0.16619E+07         0.00000E+00
    0.16619E+07         0.37210E+07         0.00000E+00
    0.00000E+00         0.00000E+00         0.00000E+00
 
   -0.72875E+06         0.17250E+07         0.00000E+00
    0.17250E+07         0.37138E+07         0.00000E+00
    0.00000E+00         0.00000E+00         0.00000E+00
 
   -0.70004E+06         0.17879E+07         0.00000E+00
    0.17879E+07         0.37064E+07         0.00000E+00
    0.00000E+00         0.00000E+00         0.00000E+00
 
   -0.67127E+06         0.18505E+07         0.00000E+00
    0.18505E+07         0.36987E+07         0.00000E+00
    0.00000E+00         0.00000E+00         0.00000E+00
 
   -0.64247E+06         0.19127E+07         0.00000E+00
    0.19127E+07         0.36908E+07         0.00000E+00
    0.00000E+00         0.00000E+00         0.00000E+00
 
   -0.61361E+06         0.19747E+07         0.00000E+00
    0.19747E+07         0.36825E+07         0.00000E+00
    0.00000E+00         0.00000E+00         0.00000E+00
 
   -0.58471E+06         0.20365E+07         0.00000E+00
    0.20365E+07         0.36740E+07         0.00000E+00
    0.00000E+00         0.00000E+00         0.00000E+00
 
   -0.55575E+06         0.20979E+07         0.00000E+00
    0.20979E+07         0.36652E+07         0.00000E+00
    0.00000E+00         0.00000E+00         0.00000E+00
 
   -0.52673E+06         0.21591E+07         0.00000E+00
    0.21591E+07         0.36561E+07         0.00000E+00
    0.00000E+00         0.00000E+00         0.00000E+00
 
   -0.49764E+06         0.22201E+07         0.00000E+00
    0.22201E+07         0.36467E+07         0.00000E+00
    0.00000E+00         0.00000E+00         0.00000E+00
 
   -0.46849E+06         0.22809E+07         0.00000E+00
    0.22809E+07         0.36370E+07         0.00000E+00
    0.00000E+00         0.00000E+00         0.00000E+00
 
   -0.43926E+06         0.23414E+07         0.00000E+00
    0.23414E+07         0.36270E+07         0.00000E+00
    0.00000E+00         0.00000E+00         0.00000E+00
 
   -0.40994E+06         0.24017E+07         0.00000E+00
    0.24017E+07         0.36167E+07         0.00000E+00
    0.00000E+00         0.00000E+00         0.00000E+00
 
   -0.38053E+06         0.24618E+07         0.00000E+00
    0.24618E+07         0.36060E+07         0.00000E+00
    0.00000E+00         0.00000E+00         0.00000E+00
 
   -0.35101E+06         0.25216E+07         0.00000E+00
    0.25216E+07         0.35950E+07         0.00000E+00
    0.00000E+00         0.00000E+00         0.00000E+00
 
   -0.32138E+06         0.25813E+07         0.00000E+00
    0.25813E+07         0.35837E+07         0.00000E+00
    0.00000E+00         0.00000E+00         0.00000E+00
 
   -0.29163E+06         0.26408E+07         0.00000E+00
    0.26408E+07         0.35720E+07         0.00000E+00
    0.00000E+00         0.00000E+00         0.00000E+00
 
   -0.26173E+06         0.27001E+07         0.00000E+00
    0.27001E+07         0.35599E+07         0.00000E+00
    0.00000E+00         0.00000E+00         0.00000E+00
 
   -0.23168E+06         0.27592E+07         0.00000E+00
    0.27592E+07         0.35475E+07         0.00000E+00
    0.00000E+00         0.00000E+00         0.00000E+00
 
   -0.20147E+06         0.28182E+07         0.00000E+00
    0.28182E+07         0.35346E+07         0.00000E+00
    0.00000E+00         0.00000E+00         0.00000E+00
 
   -0.17108E+06         0.28770E+07         0.00000E+00
    0.28770E+07         0.35214E+07         0.00000E+00
    0.00000E+00         0.00000E+00         0.00000E+00
 
   -0.14049E+06         0.29356E+07         0.00000E+00
    0.29356E+07         0.35078E+07         0.00000E+00
    0.00000E+00         0.00000E+00         0.00000E+00
 
   -0.10969E+06         0.29941E+07         0.00000E+00
    0.29941E+07         0.34937E+07         0.00000E+00
    0.00000E+00         0.00000E+00         0.00000E+00
 
   -0.78660E+05         0.30524E+07         0.00000E+00
    0.30524E+07         0.34792E+07         0.00000E+00
    0.00000E+00         0.00000E+00         0.00000E+00
 
   -0.47382E+05         0.31105E+07         0.00000E+00
    0.31105E+07         0.34642E+07         0.00000E+00
    0.00000E+00         0.00000E+00         0.00000E+00
 
   -0.15840E+05         0.31685E+07         0.00000E+00
    0.31685E+07         0.34488E+07         0.00000E+00
    0.00000E+00         0.00000E+00         0.00000E+00
 
   -0.13435E+07         0.35849E+05         0.00000E+00
    0.35849E+05         0.35284E+07         0.00000E+00
    0.00000E+00         0.00000E+00         0.00000E+00
 
   -0.13198E+07         0.10648E+06         0.00000E+00
    0.10648E+06         0.35280E+07         0.00000E+00
    0.00000E+00         0.00000E+00         0.00000E+00
 
   -0.12958E+07         0.17672E+06         0.00000E+00
    0.17672E+06         0.35274E+07         0.00000E+00
    0.00000E+00         0.00000E+00         0.00000E+00
 
   -0.12716E+07         0.24657E+06         0.00000E+00
    0.24657E+06         0.35264E+07         0.00000E+00
    0.00000E+00         0.00000E+00         0.00000E+00
 
   -0.12472E+07         0.31603E+06         0.00000E+00
    0.31603E+06         0.35252E+07         0.00000E+00
    0.00000E+00         0.00000E+00         0.00000E+00
 
   -0.12225E+07         0.38509E+06         0.00000E+00
    0.38509E+06         0.35236E+07         0.00000E+00
    0.00000E+00         0.00000E+00         0.00000E+00
 
   -0.11977E+07         0.45376E+06         0.00000E+00
    0.45376E+06         0.35218E+07         0.00000E+00
    0.00000E+00         0.00000E+00         0.00000E+00
 
   -0.11727E+07         0.52205E+06         0.00000E+00
    0.52205E+06         0.35197E+07         0.00000E+00
    0.00000E+00         0.00000E+00         0.00000E+00
 
   -0.11475E+07         0.58994E+06         0.00000E+00
    0.58994E+06         0.35172E+07         0.00000E+00
    0.00000E+00         0.00000E+00         0.00000E+00
 
   -0.11222E+07         0.65745E+06         0.00000E+00
    0.65745E+06         0.35145E+07         0.00000E+00
    0.00000E+00         0.00000E+00         0.00000E+00
 
   -0.10967E+07         0.72457E+06         0.00000E+00
    0.72457E+06         0.35115E+07         0.00000E+00
    0.00000E+00         0.00000E+00         0.00000E+00
 
   -0.10711E+07         0.79130E+06         0.00000E+00
    0.79130E+06         0.35082E+07         0.00000E+00
    0.00000E+00         0.00000E+00         0.00000E+00
 
   -0.10453E+07         0.85766E+06         0.00000E+00
    0.85766E+06         0.35047E+07         0.00000E+00
    0.00000E+00         0.00000E+00         0.00000E+00
 
   -0.10194E+07         0.92364E+06         0.00000E+00
    0.92364E+06         0.35009E+07         0.00000E+00
    0.00000E+00         0.00000E+00         0.00000E+00
 
   -0.99334E+06         0.98925E+06         0.00000E+00
    0.98925E+06         0.34968E+07         0.00000E+00
    0.00000E+00         0.00000E+00         0.00000E+00
 
   -0.96718E+06         0.10545E+07         0.00000E+00
    0.10545E+07         0.34924E+07         0.00000E+00
    0.00000E+00         0.00000E+00         0.00000E+00
 
   -0.94091E+06         0.11194E+07         0.00000E+00
    0.11194E+07         0.34878E+07         0.00000E+00
    0.00000E+00         0.00000E+00         0.00000E+00
 
   -0.91453E+06         0.11839E+07         0.00000E+00
    0.11839E+07         0.34829E+07         0.00000E+00
    0.00000E+00         0.00000E+00         0.00000E+00
 
   -0.88806E+06         0.12480E+07         0.00000E+00
    0.12480E+07         0.34778E+07         0.00000E+00
    0.00000E+00         0.00000E+00         0.00000E+00
 
   -0.86148E+06         0.13118E+07         0.00000E+00
    0.13118E+07         0.34724E+07         0.00000E+00
    0.00000E+00         0.00000E+00         0.00000E+00
 
   -0.83481E+06         0.13753E+07         0.00000E+00
    0.13753E+07         0.34667E+07         0.00000E+00
    0.00000E+00         0.00000E+00         0.00000E+00
 
   -0.80806E+06         0.14384E+07         0.00000E+00
    0.14384E+07         0.34608E+07         0.00000E+00
    0.00000E+00         0.00000E+00         0.00000E+00
 
   -0.78122E+06         0.15012E+07         0.00000E+00
    0.15012E+07         0.34546E+07         0.00000E+00
    0.00000E+00         0.00000E+00         0.00000E+00
 
   -0.75429E+06         0.15637E+07         0.00000E+00
    0.15637E+07         0.34482E+07         0.00000E+00
    0.00000E+00         0.00000E+00         0.00000E+00
 
   -0.72728E+06         0.16258E+07         0.00000E+00
    0.16258E+07         0.34414E+07         0.00000E+00
    0.00000E+00         0.00000E+00         0.00000E+00
 
   -0.70019E+06         0.16876E+07         0.00000E+00
    0.16876E+07         0.34345E+07         0.00000E+00
    0.00000E+00         0.00000E+00         0.00000E+00
 
   -0.67302E+06         0.17491E+07         0.00000E+00
    0.17491E+07         0.34272E+07         0.00000E+00
    0.00000E+00         0.00000E+00         0.00000E+00
 
   -0.64577E+06         0.18103E+07         0.00000E+00
    0.18103E+07         0.34197E+07         0.00000E+00
    0.00000E+00         0.00000E+00         0.00000E+00
 
   -0.61843E+06         0.18712E+07         0.00000E+00
    0.18712E+07         0.34119E+07         0.00000E+00
    0.00000E+00         0.00000E+00         0.00000E+00
 
   -0.59101E+06         0.19318E+07         0.00000E+00
    0.19318E+07         0.34038E+07         0.00000E+00
    0.00000E+00         0.00000E+00         0.00000E+00
 
   -0.56350E+06         0.19922E+07         0.00000E+00
    0.19922E+07         0.33955E+07         0.00000E+00
    0.00000E+00         0.00000E+00         0.00000E+00
 
   -0.53590E+06         0.20522E+07         0.00000E+00
    0.20522E+07         0.33869E+07         0.00000E+00
    0.00000E+00         0.00000E+00         0.00000E+00
 
   -0.50820E+06         0.21120E+07         0.00000E+00
    0.21120E+07         0.33779E+07         0.00000E+00
    0.00000E+00         0.00000E+00         0.00000E+00
 
   -0.48040E+06         0.21715E+07         0.00000E+00
    0.21715E+07         0.33687E+07         0.00000E+00
    0.00000E+00         0.00000E+00         0.00000E+00
 
   -0.45250E+06         0.22307E+07         0.00000E+00
    0.22307E+07         0.33592E+07         0.00000E+00
    0.00000E+00         0.00000E+00         0.00000E+00
 
   -0.42449E+06         0.22897E+07         0.00000E+00
    0.22897E+07         0.33494E+07         0.00000E+00
    0.00000E+00         0.00000E+00         0.00000E+00
 
   -0.39635E+06         0.23485E+07         0.00000E+00
    0.23485E+07         0.33393E+07         0.00000E+00
    0.00000E+00         0.00000E+00         0.00000E+00
 
   -0.36809E+06         0.24070E+07         0.00000E+00
    0.24070E+07         0.33288E+07         0.00000E+00
    0.00000E+00         0.00000E+00         0.00000E+00
 
   -0.33970E+06         0.24652E+07         0.00000E+00
    0.24652E+07         0.33180E+07         0.00000E+00
    0.00000E+00         0.00000E+00         0.00000E+00
 
   -0.31116E+06         0.25232E+07         0.00000E+00
    0.25232E+07         0.33069E+07         0.00000E+00
    0.00000E+00         0.00000E+00         0.00000E+00
 
   -0.28247E+06         0.25810E+07         0.00000E+00
    0.25810E+07         0.32955E+07         0.00000E+00
    0.00000E+00         0.00000E+00         0.00000E+00
 
   -0.25361E+06         0.26386E+07         0.00000E+00
    0.26386E+07         0.32836E+07         0.00000E+00
    0.00000E+00         0.00000E+00         0.00000E+00
 
   -0.22458E+06         0.26959E+07         0.00000E+00
    0.26959E+07         0.32715E+07         0.00000E+00
    0.00000E+00         0.00000E+00         0.00000E+00
 
   -0.19536E+06         0.27530E+07         0.00000E+00
    0.27530E+07         0.32589E+07         0.00000E+00
    0.00000E+00         0.00000E+00         0.00000E+00
 
   -0.16595E+06         0.28099E+07         0.00000E+00
    0.28099E+07         0.32460E+07         0.00000E+00
    0.00000E+00         0.00000E+00         0.00000E+00
 
   -0.13632E+06         0.28666E+07         0.00000E+00
    0.28666E+07         0.32327E+07         0.00000E+00
    0.00000E+00         0.00000E+00         0.00000E+00
 
   -0.10646E+06         0.29231E+07         0.00000E+00
    0.29231E+07         0.32190E+07         0.00000E+00
    0.00000E+00         0.00000E+00         0.00000E+00
 
   -0.76361E+05         0.29793E+07         0.00000E+00
    0.29793E+07         0.32048E+07         0.00000E+00
    0.00000E+00         0.00000E+00         0.00000E+00
 
   -0.46007E+05         0.30354E+07         0.00000E+00
    0.30354E+07         0.31903E+07         0.00000E+00
    0.00000E+00         0.00000E+00         0.00000E+00
 
   -0.15382E+05         0.30912E+07         0.00000E+00
    0.30912E+07         0.31753E+07         0.00000E+00
    0.00000E+00         0.00000E+00         0.00000E+00
 
   -0.12653E+07         0.35006E+05         0.00000E+00
    0.35006E+05         0.32565E+07         0.00000E+00
    0.00000E+00         0.00000E+00         0.00000E+00
 
   -0.12434E+07         0.10402E+06         0.00000E+00
    0.10402E+06         0.32562E+07         0.00000E+00
    0.00000E+00         0.00000E+00         0.00000E+00
 
   -0.12214E+07         0.17266E+06         0.00000E+00
    0.17266E+06         0.32556E+07         0.00000E+00
    0.00000E+00         0.00000E+00         0.00000E+00
 
   -0.11991E+07         0.24093E+06         0.00000E+00
    0.24093E+06         0.32547E+07         0.00000E+00
    0.00000E+00         0.00000E+00         0.00000E+00
 
   -0.11766E+07         0.30883E+06         0.00000E+00
    0.30883E+06         0.32535E+07         0.00000E+00
    0.00000E+00         0.00000E+00         0.00000E+00
 
   -0.11539E+07         0.37637E+06         0.00000E+00
    0.37637E+06         0.32521E+07         0.00000E+00
    0.00000E+00         0.00000E+00         0.00000E+00
 
   -0.11310E+07         0.44353E+06         0.00000E+00
    0.44353E+06         0.32503E+07         0.00000E+00
    0.00000E+00         0.00000E+00         0.00000E+00
 
   -0.11079E+07         0.51033E+06         0.00000E+00
    0.51033E+06         0.32483E+07         0.00000E+00
    0.00000E+00         0.00000E+00         0.00000E+00
 
   -0.10846E+07         0.57675E+06         0.00000E+00
    0.57675E+06         0.32460E+07         0.00000E+00
    0.00000E+00         0.00000E+00         0.00000E+00
 
   -0.10612E+07         0.64281E+06         0.00000E+00
    0.64281E+06         0.32434E+07         0.00000E+00
    0.00000E+00         0.00000E+00         0.00000E+00
 
   -0.10376E+07         0.70850E+06         0.00000E+00
    0.70850E+06         0.32405E+07         0.00000E+00
    0.00000E+00         0.00000E+00         0.00000E+00
 
   -0.10138E+07         0.77382E+06         0.00000E+00
    0.77382E+06         0.32374E+07         0.00000E+00
    0.00000E+00         0.00000E+00         0.00000E+00
 
   -0.98993E+06         0.83878E+06         0.00000E+00
    0.83878E+06         0.32340E+07         0.00000E+00
    0.00000E+00         0.00000E+00         0.00000E+00
 
   -0.96588E+06         0.90338E+06         0.00000E+00
    0.90338E+06         0.32304E+07         0.00000E+00
    0.00000E+00         0.00000E+00         0.00000E+00
 
   -0.94169E+06         0.96761E+06         0.00000E+00
    0.96761E+06         0.32265E+07         0.00000E+00
    0.00000E+00         0.00000E+00         0.00000E+00
 
   -0.91736E+06         0.10315E+07         0.00000E+00
    0.10315E+07         0.32223E+07         0.00000E+00
    0.00000E+00         0.00000E+00         0.00000E+00
 
   -0.89291E+06         0.10950E+07         0.00000E+00
    0.10950E+07         0.32179E+07         0.00000E+00
    0.00000E+00         0.00000E+00         0.00000E+00
 
   -0.86833E+06         0.11582E+07         0.00000E+00
    0.11582E+07         0.32132E+07         0.00000E+00
    0.00000E+00         0.00000E+00         0.00000E+00
 
   -0.84363E+06         0.12210E+07         0.00000E+00
    0.12210E+07         0.32083E+07         0.00000E+00
    0.00000E+00         0.00000E+00         0.00000E+00
 
   -0.81881E+06         0.12835E+07         0.00000E+00
    0.12835E+07         0.32031E+07         0.00000E+00
    0.00000E+00         0.00000E+00         0.00000E+00
 
   -0.79388E+06         0.13456E+07         0.00000E+00
    0.13456E+07         0.31976E+07         0.00000E+00
    0.00000E+00         0.00000E+00         0.00000E+00
 
   -0.76884E+06         0.14074E+07         0.00000E+00
    0.14074E+07         0.31919E+07         0.00000E+00
    0.00000E+00         0.00000E+00         0.00000E+00
 
   -0.74368E+06         0.14689E+07         0.00000E+00
    0.14689E+07         0.31859E+07         0.00000E+00
    0.00000E+00         0.00000E+00         0.00000E+00
 
   -0.71842E+06         0.15300E+07         0.00000E+00
    0.15300E+07         0.31797E+07         0.00000E+00
    0.00000E+00         0.00000E+00         0.00000E+00
 
   -0.69305E+06         0.15909E+07         0.00000E+00
    0.15909E+07         0.31732E+07         0.00000E+00
    0.00000E+00         0.00000E+00         0.00000E+00
 
   -0.66758E+06         0.16513E+07         0.00000E+00
    0.16513E+07         0.31665E+07         0.00000E+00
    0.00000E+00         0.00000E+00         0.00000E+00
 
   -0.64199E+06         0.17115E+07         0.00000E+00
    0.17115E+07         0.31595E+07         0.00000E+00
    0.00000E+00         0.00000E+00         0.00000E+00
 
   -0.61630E+06         0.17714E+07         0.00000E+00
    0.17714E+07         0.31522E+07         0.00000E+00
    0.00000E+00         0.00000E+00         0.00000E+00
 
   -0.59049E+06         0.18309E+07         0.00000E+00
    0.18309E+07         0.31447E+07         0.00000E+00
    0.00000E+00         0.00000E+00         0.00000E+00
 
   -0.56458E+06         0.18902E+07         0.00000E+00
    0.18902E+07         0.31369E+07         0.00000E+00
    0.00000E+00         0.00000E+00         0.00000E+00
 
   -0.53855E+06         0.19491E+07         0.00000E+00
    0.19491E+07         0.31288E+07         0.00000E+00
    0.00000E+00         0.00000E+00         0.00000E+00
 
   -0.51241E+06         0.20078E+07         0.00000E+00
    0.20078E+07         0.31204E+07         0.00000E+00
    0.00000E+00         0.00000E+00         0.00000E+00
 
   -0.48614E+06         0.20661E+07         0.00000E+00
    0.20661E+07         0.31118E+07         0.00000E+00
    0.00000E+00         0.00000E+00         0.00000E+00
 
   -0.45975E+06         0.21242E+07         0.00000E+00
    0.21242E+07         0.31028E+07         0.00000E+00
    0.00000E+00         0.00000E+00         0.00000E+00
 
   -0.43323E+06         0.21820E+07         0.00000E+00
    0.21820E+07         0.30936E+07         0.00000E+00
    0.00000E+00         0.00000E+00         0.00000E+00
 
   -0.40658E+06         0.22395E+07         0.00000E+00
    0.22395E+07         0.30841E+07         0.00000E+00
    0.00000E+00         0.00000E+00         0.00000E+00
 
   -0.37978E+06         0.22967E+07         0.00000E+00
    0.22967E+07         0.30743E+07         0.00000E+00
    0.00000E+00         0.00000E+00         0.00000E+00
 
   -0.35283E+06         0.23536E+07         0.00000E+00
    0.23536E+07         0.30642E+07         0.00000E+00
    0.00000E+00         0.00000E+00         0.00000E+00
 
   -0.32573E+06         0.24103E+07         0.00000E+00
    0.24103E+07         0.30537E+07         0.00000E+00
    0.00000E+00         0.00000E+00         0.00000E+00
 
   -0.29847E+06         0.24667E+07         0.00000E+00
    0.24667E+07         0.30429E+07         0.00000E+00
    0.00000E+00         0.00000E+00         0.00000E+00
 
   -0.27104E+06         0.25229E+07         0.00000E+00
    0.25229E+07         0.30318E+07         0.00000E+00
    0.00000E+00         0.00000E+00         0.00000E+00
 
   -0.24342E+06         0.25788E+07         0.00000E+00
    0.25788E+07         0.30204E+07         0.00000E+00
    0.00000E+00         0.00000E+00         0.00000E+00
 
   -0.21562E+06         0.26344E+07         0.00000E+00
    0.26344E+07         0.30086E+07         0.00000E+00
    0.00000E+00         0.00000E+00         0.00000E+00
 
   -0.18762E+06         0.26897E+07         0.00000E+00
    0.26897E+07         0.29965E+07         0.00000E+00
    0.00000E+00         0.00000E+00         0.00000E+00
 
   -0.15940E+06         0.27448E+07         0.00000E+00
    0.27448E+07         0.29840E+07         0.00000E+00
    0.00000E+00         0.00000E+00         0.00000E+00
 
   -0.13097E+06         0.27997E+07         0.00000E+00
    0.27997E+07         0.29712E+07         0.00000E+00
    0.00000E+00         0.00000E+00         0.00000E+00
 
   -0.10230E+06         0.28543E+07         0.00000E+00
    0.28543E+07         0.29579E+07         0.00000E+00
    0.00000E+00         0.00000E+00         0.00000E+00
 
   -0.73393E+05         0.29086E+07         0.00000E+00
    0.29086E+07         0.29443E+07         0.00000E+00
    0.00000E+00         0.00000E+00         0.00000E+00
 
   -0.44225E+05         0.29626E+07         0.00000E+00
    0.29626E+07         0.29303E+07         0.00000E+00
    0.00000E+00         0.00000E+00         0.00000E+00
 
   -0.14788E+05         0.30164E+07         0.00000E+00
    0.30164E+07         0.29158E+07         0.00000E+00
    0.00000E+00         0.00000E+00         0.00000E+00
 
   -0.11850E+07         0.34221E+05         0.00000E+00
    0.34221E+05         0.29947E+07         0.00000E+00
    0.00000E+00         0.00000E+00         0.00000E+00
 
   -0.11650E+07         0.10171E+06         0.00000E+00
    0.10171E+06         0.29944E+07         0.00000E+00
    0.00000E+00         0.00000E+00         0.00000E+00
 
   -0.11447E+07         0.16885E+06         0.00000E+00
    0.16885E+06         0.29938E+07         0.00000E+00
    0.00000E+00         0.00000E+00         0.00000E+00
 
   -0.11242E+07         0.23564E+06         0.00000E+00
    0.23564E+06         0.29930E+07         0.00000E+00
    0.00000E+00         0.00000E+00         0.00000E+00
 
   -0.11035E+07         0.30208E+06         0.00000E+00
    0.30208E+06         0.29919E+07         0.00000E+00
    0.00000E+00         0.00000E+00         0.00000E+00
 
   -0.10826E+07         0.36817E+06         0.00000E+00
    0.36817E+06         0.29905E+07         0.00000E+00
    0.00000E+00         0.00000E+00         0.00000E+00
 
   -0.10615E+07         0.43390E+06         0.00000E+00
    0.43390E+06         0.29888E+07         0.00000E+00
    0.00000E+00         0.00000E+00         0.00000E+00
 
   -0.10403E+07         0.49928E+06         0.00000E+00
    0.49928E+06         0.29869E+07         0.00000E+00
    0.00000E+00         0.00000E+00         0.00000E+00
 
   -0.10188E+07         0.56431E+06         0.00000E+00
    0.56431E+06         0.29847E+07         0.00000E+00
    0.00000E+00         0.00000E+00         0.00000E+00
 
   -0.99721E+06         0.62899E+06         0.00000E+00
    0.62899E+06         0.29823E+07         0.00000E+00
    0.00000E+00         0.00000E+00         0.00000E+00
 
   -0.97543E+06         0.69331E+06         0.00000E+00
    0.69331E+06         0.29796E+07         0.00000E+00
    0.00000E+00         0.00000E+00         0.00000E+00
 
   -0.95349E+06         0.75728E+06         0.00000E+00
    0.75728E+06         0.29766E+07         0.00000E+00
    0.00000E+00         0.00000E+00         0.00000E+00
 
   -0.93140E+06         0.82089E+06         0.00000E+00
    0.82089E+06         0.29734E+07         0.00000E+00
    0.00000E+00         0.00000E+00         0.00000E+00
 
   -0.90915E+06         0.88416E+06         0.00000E+00
    0.88416E+06         0.29700E+07         0.00000E+00
    0.00000E+00         0.00000E+00         0.00000E+00
 
   -0.88675E+06         0.94707E+06         0.00000E+00
    0.94707E+06         0.29663E+07         0.00000E+00
    0.00000E+00         0.00000E+00         0.00000E+00
 
   -0.86421E+06         0.10096E+07         0.00000E+00
    0.10096E+07         0.29623E+07         0.00000E+00
    0.00000E+00         0.00000E+00         0.00000E+00
 
   -0.84153E+06         0.10719E+07         0.00000E+00
    0.10719E+07         0.29581E+07         0.00000E+00
    0.00000E+00         0.00000E+00         0.00000E+00
 
   -0.81871E+06         0.11337E+07         0.00000E+00
    0.11337E+07         0.29536E+07         0.00000E+00
    0.00000E+00         0.00000E+00         0.00000E+00
 
   -0.79576E+06         0.11953E+07         0.00000E+00
    0.11953E+07         0.29489E+07         0.00000E+00
    0.00000E+00         0.00000E+00         0.00000E+00
 
   -0.77268E+06         0.12565E+07         0.00000E+00
    0.12565E+07         0.29440E+07         0.00000E+00
    0.00000E+00         0.00000E+00         0.00000E+00
 
   -0.74947E+06         0.13173E+07         0.00000E+00
    0.13173E+07         0.29388E+07         0.00000E+00
    0.00000E+00         0.00000E+00         0.00000E+00
 
   -0.72613E+06         0.13778E+07         0.00000E+00
    0.13778E+07         0.29333E+07         0.00000E+00
    0.00000E+00         0.00000E+00         0.00000E+00
 
   -0.70267E+06         0.14380E+07         0.00000E+00
    0.14380E+07         0.29276E+07         0.00000E+00
    0.00000E+00         0.00000E+00         0.00000E+00
 
   -0.67908E+06         0.14979E+07         0.00000E+00
    0.14979E+07         0.29217E+07         0.00000E+00
    0.00000E+00         0.00000E+00         0.00000E+00
 
   -0.65537E+06         0.15574E+07         0.00000E+00
    0.15574E+07         0.29155E+07         0.00000E+00
    0.00000E+00         0.00000E+00         0.00000E+00
 
   -0.63154E+06         0.16166E+07         0.00000E+00
    0.16166E+07         0.29090E+07         0.00000E+00
    0.00000E+00         0.00000E+00         0.00000E+00
 
   -0.60758E+06         0.16755E+07         0.00000E+00
    0.16755E+07         0.29023E+07         0.00000E+00
    0.00000E+00         0.00000E+00         0.00000E+00
 
   -0.58349E+06         0.17340E+07         0.00000E+00
    0.17340E+07         0.28954E+07         0.00000E+00
    0.00000E+00         0.00000E+00         0.00000E+00
 
   -0.55928E+06         0.17922E+07         0.00000E+00
    0.17922E+07         0.28881E+07         0.00000E+00
    0.00000E+00         0.00000E+00         0.00000E+00
 
   -0.53494E+06         0.18501E+07         0.00000E+00
    0.18501E+07         0.28807E+07         0.00000E+00
    0.00000E+00         0.00000E+00         0.00000E+00
 
   -0.51047E+06         0.19077E+07         0.00000E+00
    0.19077E+07         0.28729E+07         0.00000E+00
    0.00000E+00         0.00000E+00         0.00000E+00
 
   -0.48586E+06         0.19650E+07         0.00000E+00
    0.19650E+07         0.28649E+07         0.00000E+00
    0.00000E+00         0.00000E+00         0.00000E+00
 
   -0.46112E+06         0.20220E+07         0.00000E+00
    0.20220E+07         0.28566E+07         0.00000E+00
    0.00000E+00         0.00000E+00         0.00000E+00
 
   -0.43624E+06         0.20787E+07         0.00000E+00
    0.20787E+07         0.28480E+07         0.00000E+00
    0.00000E+00         0.00000E+00         0.00000E+00
 
   -0.41121E+06         0.21351E+07         0.00000E+00
    0.21351E+07         0.28392E+07         0.00000E+00
    0.00000E+00         0.00000E+00         0.00000E+00
 
   -0.38603E+06         0.21911E+07         0.00000E+00
    0.21911E+07         0.28301E+07         0.00000E+00
    0.00000E+00         0.00000E+00         0.00000E+00
 
   -0.36070E+06         0.22469E+07         0.00000E+00
    0.22469E+07         0.28207E+07         0.00000E+00
    0.00000E+00         0.00000E+00         0.00000E+00
 
   -0.33521E+06         0.23023E+07         0.00000E+00
    0.23023E+07         0.28110E+07         0.00000E+00
    0.00000E+00         0.00000E+00         0.00000E+00
 
   -0.30955E+06         0.23575E+07         0.00000E+00
    0.23575E+07         0.28009E+07         0.00000E+00
    0.00000E+00         0.00000E+00         0.00000E+00
 
   -0.28372E+06         0.24124E+07         0.00000E+00
    0.24124E+07         0.27906E+07         0.00000E+00
    0.00000E+00         0.00000E+00         0.00000E+00
 
   -0.25770E+06         0.24670E+07         0.00000E+00
    0.24670E+07         0.27800E+07         0.00000E+00
    0.00000E+00         0.00000E+00         0.00000E+00
 
   -0.23150E+06         0.25212E+07         0.00000E+00
    0.25212E+07         0.27691E+07         0.00000E+00
    0.00000E+00         0.00000E+00         0.00000E+00
 
   -0.20510E+06         0.25752E+07         0.00000E+00
    0.25752E+07         0.27578E+07         0.00000E+00
    0.00000E+00         0.00000E+00         0.00000E+00
 
   -0.17850E+06         0.26289E+07         0.00000E+00
    0.26289E+07         0.27462E+07         0.00000E+00
    0.00000E+00         0.00000E+00         0.00000E+00
 
   -0.15169E+06         0.26823E+07         0.00000E+00
    0.26823E+07         0.27342E+07         0.00000E+00
    0.00000E+00         0.00000E+00         0.00000E+00
 
   -0.12465E+06         0.27354E+07         0.00000E+00
    0.27354E+07         0.27219E+07         0.00000E+00
    0.00000E+00         0.00000E+00         0.00000E+00
 
   -0.97380E+05         0.27882E+07         0.00000E+00
    0.27882E+07         0.27093E+07         0.00000E+00
    0.00000E+00         0.00000E+00         0.00000E+00
 
   -0.69869E+05         0.28407E+07         0.00000E+00
    0.28407E+07         0.26963E+07         0.00000E+00
    0.00000E+00         0.00000E+00         0.00000E+00
 
   -0.42106E+05         0.28930E+07         0.00000E+00
    0.28930E+07         0.26829E+07         0.00000E+00
    0.00000E+00         0.00000E+00         0.00000E+00
 
   -0.14080E+05         0.29449E+07         0.00000E+00
    0.29449E+07         0.26692E+07         0.00000E+00
    0.00000E+00         0.00000E+00         0.00000E+00
 
   -0.11029E+07         0.33492E+05         0.00000E+00
    0.33492E+05         0.27420E+07         0.00000E+00
    0.00000E+00         0.00000E+00         0.00000E+00
 
   -0.10846E+07         0.99565E+05         0.00000E+00
    0.99565E+05         0.27418E+07         0.00000E+00
    0.00000E+00         0.00000E+00         0.00000E+00
 
   -0.10660E+07         0.16530E+06         0.00000E+00
    0.16530E+06         0.27412E+07         0.00000E+00
    0.00000E+00         0.00000E+00         0.00000E+00
 
   -0.10472E+07         0.23071E+06         0.00000E+00
    0.23071E+06         0.27405E+07         0.00000E+00
    0.00000E+00         0.00000E+00         0.00000E+00
 
   -0.10283E+07         0.29578E+06         0.00000E+00
    0.29578E+06         0.27394E+07         0.00000E+00
    0.00000E+00         0.00000E+00         0.00000E+00
 
   -0.10091E+07         0.36050E+06         0.00000E+00
    0.36050E+06         0.27381E+07         0.00000E+00
    0.00000E+00         0.00000E+00         0.00000E+00
 
   -0.98978E+06         0.42489E+06         0.00000E+00
    0.42489E+06         0.27366E+07         0.00000E+00
    0.00000E+00         0.00000E+00         0.00000E+00
 
   -0.97026E+06         0.48894E+06         0.00000E+00
    0.48894E+06         0.27348E+07         0.00000E+00
    0.00000E+00         0.00000E+00         0.00000E+00
 
   -0.95058E+06         0.55265E+06         0.00000E+00
    0.55265E+06         0.27327E+07         0.00000E+00
    0.00000E+00         0.00000E+00         0.00000E+00
 
   -0.93072E+06         0.61602E+06         0.00000E+00
    0.61602E+06         0.27304E+07         0.00000E+00
    0.00000E+00         0.00000E+00         0.00000E+00
 
   -0.91069E+06         0.67904E+06         0.00000E+00
    0.67904E+06         0.27279E+07         0.00000E+00
    0.00000E+00         0.00000E+00         0.00000E+00
 
   -0.89051E+06         0.74173E+06         0.00000E+00
    0.74173E+06         0.27251E+07         0.00000E+00
    0.00000E+00         0.00000E+00         0.00000E+00
 
   -0.87016E+06         0.80407E+06         0.00000E+00
    0.80407E+06         0.27221E+07         0.00000E+00
    0.00000E+00         0.00000E+00         0.00000E+00
 
   -0.84967E+06         0.86607E+06         0.00000E+00
    0.86607E+06         0.27188E+07         0.00000E+00
    0.00000E+00         0.00000E+00         0.00000E+00
 
   -0.82902E+06         0.92772E+06         0.00000E+00
    0.92772E+06         0.27154E+07         0.00000E+00
    0.00000E+00         0.00000E+00         0.00000E+00
 
   -0.80822E+06         0.98904E+06         0.00000E+00
    0.98904E+06         0.27116E+07         0.00000E+00
    0.00000E+00         0.00000E+00         0.00000E+00
 
   -0.78728E+06         0.10500E+07         0.00000E+00
    0.10500E+07         0.27076E+07         0.00000E+00
    0.00000E+00         0.00000E+00         0.00000E+00
 
   -0.76620E+06         0.11106E+07         0.00000E+00
    0.11106E+07         0.27034E+07         0.00000E+00
    0.00000E+00         0.00000E+00         0.00000E+00
 
   -0.74498E+06         0.11709E+07         0.00000E+00
    0.11709E+07         0.26990E+07         0.00000E+00
    0.00000E+00         0.00000E+00         0.00000E+00
 
   -0.72362E+06         0.12309E+07         0.00000E+00
    0.12309E+07         0.26943E+07         0.00000E+00
    0.00000E+00         0.00000E+00         0.00000E+00
 
   -0.70212E+06         0.12905E+07         0.00000E+00
    0.12905E+07         0.26894E+07         0.00000E+00
    0.00000E+00         0.00000E+00         0.00000E+00
 
   -0.68049E+06         0.13498E+07         0.00000E+00
    0.13498E+07         0.26842E+07         0.00000E+00
    0.00000E+00         0.00000E+00         0.00000E+00
 
   -0.65873E+06         0.14087E+07         0.00000E+00
    0.14087E+07         0.26789E+07         0.00000E+00
    0.00000E+00         0.00000E+00         0.00000E+00
 
   -0.63683E+06         0.14674E+07         0.00000E+00
    0.14674E+07         0.26732E+07         0.00000E+00
    0.00000E+00         0.00000E+00         0.00000E+00
 
   -0.61479E+06         0.15256E+07         0.00000E+00
    0.15256E+07         0.26674E+07         0.00000E+00
    0.00000E+00         0.00000E+00         0.00000E+00
 
   -0.59263E+06         0.15836E+07         0.00000E+00
    0.15836E+07         0.26612E+07         0.00000E+00
    0.00000E+00         0.00000E+00         0.00000E+00
 
   -0.57033E+06         0.16412E+07         0.00000E+00
    0.16412E+07         0.26549E+07         0.00000E+00
    0.00000E+00         0.00000E+00         0.00000E+00
 
   -0.54789E+06         0.16985E+07         0.00000E+00
    0.16985E+07         0.26483E+07         0.00000E+00
    0.00000E+00         0.00000E+00         0.00000E+00
 
   -0.52532E+06         0.17554E+07         0.00000E+00
    0.17554E+07         0.26415E+07         0.00000E+00
    0.00000E+00         0.00000E+00         0.00000E+00
 
   -0.50261E+06         0.18121E+07         0.00000E+00
    0.18121E+07         0.26344E+07         0.00000E+00
    0.00000E+00         0.00000E+00         0.00000E+00
 
   -0.47976E+06         0.18684E+07         0.00000E+00
    0.18684E+07         0.26270E+07         0.00000E+00
    0.00000E+00         0.00000E+00         0.00000E+00
 
   -0.45677E+06         0.19244E+07         0.00000E+00
    0.19244E+07         0.26194E+07         0.00000E+00
    0.00000E+00         0.00000E+00         0.00000E+00
 
   -0.43363E+06         0.19800E+07         0.00000E+00
    0.19800E+07         0.26115E+07         0.00000E+00
    0.00000E+00         0.00000E+00         0.00000E+00
 
   -0.41034E+06         0.20354E+07         0.00000E+00
    0.20354E+07         0.26034E+07         0.00000E+00
    0.00000E+00         0.00000E+00         0.00000E+00
 
   -0.38690E+06         0.20904E+07         0.00000E+00
    0.20904E+07         0.25950E+07         0.00000E+00
    0.00000E+00         0.00000E+00         0.00000E+00
 
   -0.36330E+06         0.21451E+07         0.00000E+00
    0.21451E+07         0.25864E+07         0.00000E+00
    0.00000E+00         0.00000E+00         0.00000E+00
 
   -0.33954E+06         0.21994E+07         0.00000E+00
    0.21994E+07         0.25774E+07         0.00000E+00
    0.00000E+00         0.00000E+00         0.00000E+00
 
   -0.31561E+06         0.22535E+07         0.00000E+00
    0.22535E+07         0.25682E+07         0.00000E+00
    0.00000E+00         0.00000E+00         0.00000E+00
 
   -0.29152E+06         0.23072E+07         0.00000E+00
    0.23072E+07         0.25587E+07         0.00000E+00
    0.00000E+00         0.00000E+00         0.00000E+00
 
   -0.26724E+06         0.23606E+07         0.00000E+00
    0.23606E+07         0.25490E+07         0.00000E+00
    0.00000E+00         0.00000E+00         0.00000E+00
 
   -0.24279E+06         0.24137E+07         0.00000E+00
    0.24137E+07         0.25389E+07         0.00000E+00
    0.00000E+00         0.00000E+00         0.00000E+00
 
   -0.21814E+06         0.24665E+07         0.00000E+00
    0.24665E+07         0.25285E+07         0.00000E+00
    0.00000E+00         0.00000E+00         0.00000E+00
 
   -0.19330E+06         0.25190E+07         0.00000E+00
    0.25190E+07         0.25178E+07         0.00000E+00
    0.00000E+00         0.00000E+00         0.00000E+00
 
   -0.16825E+06         0.25711E+07         0.00000E+00
    0.25711E+07         0.25068E+07         0.00000E+00
    0.00000E+00         0.00000E+00         0.00000E+00
 
   -0.14299E+06         0.26229E+07         0.00000E+00
    0.26229E+07         0.24955E+07         0.00000E+00
    0.00000E+00         0.00000E+00         0.00000E+00
 
   -0.11752E+06         0.26744E+07         0.00000E+00
    0.26744E+07         0.24839E+07         0.00000E+00
    0.00000E+00         0.00000E+00         0.00000E+00
 
   -0.91820E+05         0.27255E+07         0.00000E+00
    0.27255E+07         0.24720E+07         0.00000E+00
    0.00000E+00         0.00000E+00         0.00000E+00
 
   -0.65885E+05         0.27764E+07         0.00000E+00
    0.27764E+07         0.24597E+07         0.00000E+00
    0.00000E+00         0.00000E+00         0.00000E+00
 
   -0.39708E+05         0.28269E+07         0.00000E+00
    0.28269E+07         0.24470E+07         0.00000E+00
    0.00000E+00         0.00000E+00         0.00000E+00
 
   -0.13279E+05         0.28770E+07         0.00000E+00
    0.28770E+07         0.24340E+07         0.00000E+00
    0.00000E+00         0.00000E+00         0.00000E+00
 
   -0.10192E+07         0.32818E+05         0.00000E+00
    0.32818E+05         0.24979E+07         0.00000E+00
    0.00000E+00         0.00000E+00         0.00000E+00
 
   -0.10025E+07         0.97578E+05         0.00000E+00
    0.97578E+05         0.24976E+07         0.00000E+00
    0.00000E+00         0.00000E+00         0.00000E+00
 
   -0.98557E+06         0.16202E+06         0.00000E+00
    0.16202E+06         0.24971E+07         0.00000E+00
    0.00000E+00         0.00000E+00         0.00000E+00
 
   -0.96846E+06         0.22613E+06         0.00000E+00
    0.22613E+06         0.24964E+07         0.00000E+00
    0.00000E+00         0.00000E+00         0.00000E+00
 
   -0.95116E+06         0.28992E+06         0.00000E+00
    0.28992E+06         0.24954E+07         0.00000E+00
    0.00000E+00         0.00000E+00         0.00000E+00
 
   -0.93368E+06         0.35338E+06         0.00000E+00
    0.35338E+06         0.24942E+07         0.00000E+00
    0.00000E+00         0.00000E+00         0.00000E+00
 
   -0.91603E+06         0.41652E+06         0.00000E+00
    0.41652E+06         0.24928E+07         0.00000E+00
    0.00000E+00         0.00000E+00         0.00000E+00
 
   -0.89821E+06         0.47932E+06         0.00000E+00
    0.47932E+06         0.24911E+07         0.00000E+00
    0.00000E+00         0.00000E+00         0.00000E+00
 
   -0.88021E+06         0.54180E+06         0.00000E+00
    0.54180E+06         0.24892E+07         0.00000E+00
    0.00000E+00         0.00000E+00         0.00000E+00
 
   -0.86206E+06         0.60394E+06         0.00000E+00
    0.60394E+06         0.24871E+07         0.00000E+00
    0.00000E+00         0.00000E+00         0.00000E+00
 
   -0.84374E+06         0.66575E+06         0.00000E+00
    0.66575E+06         0.24847E+07         0.00000E+00
    0.00000E+00         0.00000E+00         0.00000E+00
 
   -0.82526E+06         0.72722E+06         0.00000E+00
    0.72722E+06         0.24821E+07         0.00000E+00
    0.00000E+00         0.00000E+00         0.00000E+00
 
   -0.80663E+06         0.78836E+06         0.00000E+00
    0.78836E+06         0.24793E+07         0.00000E+00
    0.00000E+00         0.00000E+00         0.00000E+00
 
   -0.78784E+06         0.84917E+06         0.00000E+00
    0.84917E+06         0.24763E+07         0.00000E+00
    0.00000E+00         0.00000E+00         0.00000E+00
 
   -0.76891E+06         0.90963E+06         0.00000E+00
    0.90963E+06         0.24730E+07         0.00000E+00
    0.00000E+00         0.00000E+00         0.00000E+00
 
   -0.74983E+06         0.96976E+06         0.00000E+00
    0.96976E+06         0.24695E+07         0.00000E+00
    0.00000E+00         0.00000E+00         0.00000E+00
 
   -0.73061E+06         0.10296E+07         0.00000E+00
    0.10296E+07         0.24658E+07         0.00000E+00
    0.00000E+00         0.00000E+00         0.00000E+00
 
   -0.71124E+06         0.10890E+07         0.00000E+00
    0.10890E+07         0.24619E+07         0.00000E+00
    0.00000E+00         0.00000E+00         0.00000E+00
 
   -0.69173E+06         0.11481E+07         0.00000E+00
    0.11481E+07         0.24577E+07         0.00000E+00
    0.00000E+00         0.00000E+00         0.00000E+00
 
   -0.67208E+06         0.12069E+07         0.00000E+00
    0.12069E+07         0.24533E+07         0.00000E+00
    0.00000E+00         0.00000E+00         0.00000E+00
 
   -0.65229E+06         0.12654E+07         0.00000E+00
    0.12654E+07         0.24487E+07         0.00000E+00
    0.00000E+00         0.00000E+00         0.00000E+00
 
   -0.63237E+06         0.13235E+07         0.00000E+00
    0.13235E+07         0.24439E+07         0.00000E+00
    0.00000E+00         0.00000E+00         0.00000E+00
 
   -0.61231E+06         0.13812E+07         0.00000E+00
    0.13812E+07         0.24389E+07         0.00000E+00
    0.00000E+00         0.00000E+00         0.00000E+00
 
   -0.59211E+06         0.14387E+07         0.00000E+00
    0.14387E+07         0.24336E+07         0.00000E+00
    0.00000E+00         0.00000E+00         0.00000E+00
 
   -0.57178E+06         0.14958E+07         0.00000E+00
    0.14958E+07         0.24281E+07         0.00000E+00
    0.00000E+00         0.00000E+00         0.00000E+00
 
   -0.55130E+06         0.15525E+07         0.00000E+00
    0.15525E+07         0.24223E+07         0.00000E+00
    0.00000E+00         0.00000E+00         0.00000E+00
 
   -0.53069E+06         0.16090E+07         0.00000E+00
    0.16090E+07         0.24164E+07         0.00000E+00
    0.00000E+00         0.00000E+00         0.00000E+00
 
   -0.50994E+06         0.16651E+07         0.00000E+00
    0.16651E+07         0.24102E+07         0.00000E+00
    0.00000E+00         0.00000E+00         0.00000E+00
 
   -0.48906E+06         0.17208E+07         0.00000E+00
    0.17208E+07         0.24038E+07         0.00000E+00
    0.00000E+00         0.00000E+00         0.00000E+00
 
   -0.46803E+06         0.17762E+07         0.00000E+00
    0.17762E+07         0.23971E+07         0.00000E+00
    0.00000E+00         0.00000E+00         0.00000E+00
 
   -0.44685E+06         0.18313E+07         0.00000E+00
    0.18313E+07         0.23902E+07         0.00000E+00
    0.00000E+00         0.00000E+00         0.00000E+00
 
   -0.42553E+06         0.18861E+07         0.00000E+00
    0.18861E+07         0.23831E+07         0.00000E+00
    0.00000E+00         0.00000E+00         0.00000E+00
 
   -0.40406E+06         0.19405E+07         0.00000E+00
    0.19405E+07         0.23757E+07         0.00000E+00
    0.00000E+00         0.00000E+00         0.00000E+00
 
   -0.38244E+06         0.19945E+07         0.00000E+00
    0.19945E+07         0.23681E+07         0.00000E+00
    0.00000E+00         0.00000E+00         0.00000E+00
 
   -0.36067E+06         0.20483E+07         0.00000E+00
    0.20483E+07         0.23602E+07         0.00000E+00
    0.00000E+00         0.00000E+00         0.00000E+00
 
   -0.33874E+06         0.21017E+07         0.00000E+00
    0.21017E+07         0.23521E+07         0.00000E+00
    0.00000E+00         0.00000E+00         0.00000E+00
 
   -0.31664E+06         0.21547E+07         0.00000E+00
    0.21547E+07         0.23437E+07         0.00000E+00
    0.00000E+00         0.00000E+00         0.00000E+00
 
   -0.29438E+06         0.22075E+07         0.00000E+00
    0.22075E+07         0.23351E+07         0.00000E+00
    0.00000E+00         0.00000E+00         0.00000E+00
 
   -0.27195E+06         0.22598E+07         0.00000E+00
    0.22598E+07         0.23262E+07         0.00000E+00
    0.00000E+00         0.00000E+00         0.00000E+00
 
   -0.24934E+06         0.23119E+07         0.00000E+00
    0.23119E+07         0.23170E+07         0.00000E+00
    0.00000E+00         0.00000E+00         0.00000E+00
 
   -0.22656E+06         0.23636E+07         0.00000E+00
    0.23636E+07         0.23075E+07         0.00000E+00
    0.00000E+00         0.00000E+00         0.00000E+00
 
   -0.20358E+06         0.24150E+07         0.00000E+00
    0.24150E+07         0.22978E+07         0.00000E+00
    0.00000E+00         0.00000E+00         0.00000E+00
 
   -0.18042E+06         0.24660E+07         0.00000E+00
    0.24660E+07         0.22878E+07         0.00000E+00
    0.00000E+00         0.00000E+00         0.00000E+00
 
   -0.15706E+06         0.25167E+07         0.00000E+00
    0.25167E+07         0.22775E+07         0.00000E+00
    0.00000E+00         0.00000E+00         0.00000E+00
 
   -0.13350E+06         0.25670E+07         0.00000E+00
    0.25670E+07         0.22669E+07         0.00000E+00
    0.00000E+00         0.00000E+00         0.00000E+00
 
   -0.10972E+06         0.26170E+07         0.00000E+00
    0.26170E+07         0.22560E+07         0.00000E+00
    0.00000E+00         0.00000E+00         0.00000E+00
 
   -0.85735E+05         0.26666E+07         0.00000E+00
    0.26666E+07         0.22448E+07         0.00000E+00
    0.00000E+00         0.00000E+00         0.00000E+00
 
   -0.61523E+05         0.27159E+07         0.00000E+00
    0.27159E+07         0.22333E+07         0.00000E+00
    0.00000E+00         0.00000E+00         0.00000E+00
 
   -0.37080E+05         0.27648E+07         0.00000E+00
    0.27648E+07         0.22215E+07         0.00000E+00
    0.00000E+00         0.00000E+00         0.00000E+00
 
   -0.12400E+05         0.28133E+07         0.00000E+00
    0.28133E+07         0.22094E+07         0.00000E+00
    0.00000E+00         0.00000E+00         0.00000E+00
 
   -0.93412E+06         0.32198E+05         0.00000E+00
    0.32198E+05         0.22614E+07         0.00000E+00
    0.00000E+00         0.00000E+00         0.00000E+00
 
   -0.91897E+06         0.95748E+05         0.00000E+00
    0.95748E+05         0.22612E+07         0.00000E+00
    0.00000E+00         0.00000E+00         0.00000E+00
 
   -0.90364E+06         0.15899E+06         0.00000E+00
    0.15899E+06         0.22607E+07         0.00000E+00
    0.00000E+00         0.00000E+00         0.00000E+00
 
   -0.88813E+06         0.22191E+06         0.00000E+00
    0.22191E+06         0.22601E+07         0.00000E+00
    0.00000E+00         0.00000E+00         0.00000E+00
 
   -0.87245E+06         0.28452E+06         0.00000E+00
    0.28452E+06         0.22592E+07         0.00000E+00
    0.00000E+00         0.00000E+00         0.00000E+00
 
   -0.85659E+06         0.34682E+06         0.00000E+00
    0.34682E+06         0.22581E+07         0.00000E+00
    0.00000E+00         0.00000E+00         0.00000E+00
 
   -0.84057E+06         0.40879E+06         0.00000E+00
    0.40879E+06         0.22567E+07         0.00000E+00
    0.00000E+00         0.00000E+00         0.00000E+00
 
   -0.82439E+06         0.47044E+06         0.00000E+00
    0.47044E+06         0.22552E+07         0.00000E+00
    0.00000E+00         0.00000E+00         0.00000E+00
 
   -0.80805E+06         0.53177E+06         0.00000E+00
    0.53177E+06         0.22534E+07         0.00000E+00
    0.00000E+00         0.00000E+00         0.00000E+00
 
   -0.79155E+06         0.59278E+06         0.00000E+00
    0.59278E+06         0.22515E+07         0.00000E+00
    0.00000E+00         0.00000E+00         0.00000E+00
 
   -0.77489E+06         0.65346E+06         0.00000E+00
    0.65346E+06         0.22493E+07         0.00000E+00
    0.00000E+00         0.00000E+00         0.00000E+00
 
   -0.75809E+06         0.71381E+06         0.00000E+00
    0.71381E+06         0.22469E+07         0.00000E+00
    0.00000E+00         0.00000E+00         0.00000E+00
 
   -0.74113E+06         0.77383E+06         0.00000E+00
    0.77383E+06         0.22443E+07         0.00000E+00
    0.00000E+00         0.00000E+00         0.00000E+00
 
   -0.72403E+06         0.83352E+06         0.00000E+00
    0.83352E+06         0.22415E+07         0.00000E+00
    0.00000E+00         0.00000E+00         0.00000E+00
 
   -0.70679E+06         0.89288E+06         0.00000E+00
    0.89288E+06         0.22385E+07         0.00000E+00
    0.00000E+00         0.00000E+00         0.00000E+00
 
   -0.68940E+06         0.95190E+06         0.00000E+00
    0.95190E+06         0.22352E+07         0.00000E+00
    0.00000E+00         0.00000E+00         0.00000E+00
 
   -0.67187E+06         0.10106E+07         0.00000E+00
    0.10106E+07         0.22318E+07         0.00000E+00
    0.00000E+00         0.00000E+00         0.00000E+00
 
   -0.65421E+06         0.10690E+07         0.00000E+00
    0.10690E+07         0.22282E+07         0.00000E+00
    0.00000E+00         0.00000E+00         0.00000E+00
 
   -0.63640E+06         0.11270E+07         0.00000E+00
    0.11270E+07         0.22243E+07         0.00000E+00
    0.00000E+00         0.00000E+00         0.00000E+00
 
   -0.61846E+06         0.11847E+07         0.00000E+00
    0.11847E+07         0.22203E+07         0.00000E+00
    0.00000E+00         0.00000E+00         0.00000E+00
 
   -0.60038E+06         0.12420E+07         0.00000E+00
    0.12420E+07         0.22160E+07         0.00000E+00
    0.00000E+00         0.00000E+00         0.00000E+00
 
   -0.58217E+06         0.12990E+07         0.00000E+00
    0.12990E+07         0.22115E+07         0.00000E+00
    0.00000E+00         0.00000E+00         0.00000E+00
 
   -0.56382E+06         0.13557E+07         0.00000E+00
    0.13557E+07         0.22069E+07         0.00000E+00
    0.00000E+00         0.00000E+00         0.00000E+00
 
   -0.54533E+06         0.14120E+07         0.00000E+00
    0.14120E+07         0.22020E+07         0.00000E+00
    0.00000E+00         0.00000E+00         0.00000E+00
 
   -0.52671E+06         0.14680E+07         0.00000E+00
    0.14680E+07         0.21969E+07         0.00000E+00
    0.00000E+00         0.00000E+00         0.00000E+00
 
   -0.50796E+06         0.15237E+07         0.00000E+00
    0.15237E+07         0.21916E+07         0.00000E+00
    0.00000E+00         0.00000E+00         0.00000E+00
 
   -0.48907E+06         0.15790E+07         0.00000E+00
    0.15790E+07         0.21860E+07         0.00000E+00
    0.00000E+00         0.00000E+00         0.00000E+00
 
   -0.47004E+06         0.16339E+07         0.00000E+00
    0.16339E+07         0.21803E+07         0.00000E+00
    0.00000E+00         0.00000E+00         0.00000E+00
 
   -0.45087E+06         0.16886E+07         0.00000E+00
    0.16886E+07         0.21743E+07         0.00000E+00
    0.00000E+00         0.00000E+00         0.00000E+00
 
   -0.43156E+06         0.17428E+07         0.00000E+00
    0.17428E+07         0.21682E+07         0.00000E+00
    0.00000E+00         0.00000E+00         0.00000E+00
 
   -0.41211E+06         0.17968E+07         0.00000E+00
    0.17968E+07         0.21618E+07         0.00000E+00
    0.00000E+00         0.00000E+00         0.00000E+00
 
   -0.39252E+06         0.18503E+07         0.00000E+00
    0.18503E+07         0.21551E+07         0.00000E+00
    0.00000E+00         0.00000E+00         0.00000E+00
 
   -0.37278E+06         0.19036E+07         0.00000E+00
    0.19036E+07         0.21483E+07         0.00000E+00
    0.00000E+00         0.00000E+00         0.00000E+00
 
   -0.35289E+06         0.19565E+07         0.00000E+00
    0.19565E+07         0.21412E+07         0.00000E+00
    0.00000E+00         0.00000E+00         0.00000E+00
 
   -0.33285E+06         0.20090E+07         0.00000E+00
    0.20090E+07         0.21339E+07         0.00000E+00
    0.00000E+00         0.00000E+00         0.00000E+00
 
   -0.31265E+06         0.20612E+07         0.00000E+00
    0.20612E+07         0.21264E+07         0.00000E+00
    0.00000E+00         0.00000E+00         0.00000E+00
 
   -0.29230E+06         0.21131E+07         0.00000E+00
    0.21131E+07         0.21186E+07         0.00000E+00
    0.00000E+00         0.00000E+00         0.00000E+00
 
   -0.27179E+06         0.21645E+07         0.00000E+00
    0.21645E+07         0.21106E+07         0.00000E+00
    0.00000E+00         0.00000E+00         0.00000E+00
 
   -0.25111E+06         0.22157E+07         0.00000E+00
    0.22157E+07         0.21023E+07         0.00000E+00
    0.00000E+00         0.00000E+00         0.00000E+00
 
   -0.23026E+06         0.22665E+07         0.00000E+00
    0.22665E+07         0.20938E+07         0.00000E+00
    0.00000E+00         0.00000E+00         0.00000E+00
 
   -0.20924E+06         0.23169E+07         0.00000E+00
    0.23169E+07         0.20850E+07         0.00000E+00
    0.00000E+00         0.00000E+00         0.00000E+00
 
   -0.18805E+06         0.23669E+07         0.00000E+00
    0.23669E+07         0.20760E+07         0.00000E+00
    0.00000E+00         0.00000E+00         0.00000E+00
 
   -0.16666E+06         0.24166E+07         0.00000E+00
    0.24166E+07         0.20667E+07         0.00000E+00
    0.00000E+00         0.00000E+00         0.00000E+00
 
   -0.14510E+06         0.24660E+07         0.00000E+00
    0.24660E+07         0.20572E+07         0.00000E+00
    0.00000E+00         0.00000E+00         0.00000E+00
 
   -0.12334E+06         0.25149E+07         0.00000E+00
    0.25149E+07         0.20474E+07         0.00000E+00
    0.00000E+00         0.00000E+00         0.00000E+00
 
   -0.10138E+06         0.25635E+07         0.00000E+00
    0.25635E+07         0.20373E+07         0.00000E+00
    0.00000E+00         0.00000E+00         0.00000E+00
 
   -0.79218E+05         0.26117E+07         0.00000E+00
    0.26117E+07         0.20270E+07         0.00000E+00
    0.00000E+00         0.00000E+00         0.00000E+00
 
   -0.56848E+05         0.26596E+07         0.00000E+00
    0.26596E+07         0.20163E+07         0.00000E+00
    0.00000E+00         0.00000E+00         0.00000E+00
 
   -0.34264E+05         0.27070E+07         0.00000E+00
    0.27070E+07         0.20054E+07         0.00000E+00
    0.00000E+00         0.00000E+00         0.00000E+00
 
   -0.11458E+05         0.27541E+07         0.00000E+00
    0.27541E+07         0.19942E+07         0.00000E+00
    0.00000E+00         0.00000E+00         0.00000E+00
 
   -0.84784E+06         0.31633E+05         0.00000E+00
    0.31633E+05         0.20320E+07         0.00000E+00
    0.00000E+00         0.00000E+00         0.00000E+00
 
   -0.83421E+06         0.94079E+05         0.00000E+00
    0.94079E+05         0.20318E+07         0.00000E+00
    0.00000E+00         0.00000E+00         0.00000E+00
 
   -0.82042E+06         0.15622E+06         0.00000E+00
    0.15622E+06         0.20313E+07         0.00000E+00
    0.00000E+00         0.00000E+00         0.00000E+00
 
   -0.80646E+06         0.21806E+06         0.00000E+00
    0.21806E+06         0.20307E+07         0.00000E+00
    0.00000E+00         0.00000E+00         0.00000E+00
 
   -0.79235E+06         0.27959E+06         0.00000E+00
    0.27959E+06         0.20299E+07         0.00000E+00
    0.00000E+00         0.00000E+00         0.00000E+00
 
   -0.77807E+06         0.34082E+06         0.00000E+00
    0.34082E+06         0.20289E+07         0.00000E+00
    0.00000E+00         0.00000E+00         0.00000E+00
 
   -0.76365E+06         0.40173E+06         0.00000E+00
    0.40173E+06         0.20277E+07         0.00000E+00
    0.00000E+00         0.00000E+00         0.00000E+00
 
   -0.74907E+06         0.46232E+06         0.00000E+00
    0.46232E+06         0.20263E+07         0.00000E+00
    0.00000E+00         0.00000E+00         0.00000E+00
 
   -0.73434E+06         0.52260E+06         0.00000E+00
    0.52260E+06         0.20247E+07         0.00000E+00
    0.00000E+00         0.00000E+00         0.00000E+00
 
   -0.71946E+06         0.58256E+06         0.00000E+00
    0.58256E+06         0.20229E+07         0.00000E+00
    0.00000E+00         0.00000E+00         0.00000E+00
 
   -0.70444E+06         0.64220E+06         0.00000E+00
    0.64220E+06         0.20209E+07         0.00000E+00
    0.00000E+00         0.00000E+00         0.00000E+00
 
   -0.68928E+06         0.70152E+06         0.00000E+00
    0.70152E+06         0.20187E+07         0.00000E+00
    0.00000E+00         0.00000E+00         0.00000E+00
 
   -0.67398E+06         0.76051E+06         0.00000E+00
    0.76051E+06         0.20163E+07         0.00000E+00
    0.00000E+00         0.00000E+00         0.00000E+00
 
   -0.65854E+06         0.81918E+06         0.00000E+00
    0.81918E+06         0.20138E+07         0.00000E+00
    0.00000E+00         0.00000E+00         0.00000E+00
 
   -0.64296E+06         0.87752E+06         0.00000E+00
    0.87752E+06         0.20110E+07         0.00000E+00
    0.00000E+00         0.00000E+00         0.00000E+00
 
   -0.62725E+06         0.93552E+06         0.00000E+00
    0.93552E+06         0.20081E+07         0.00000E+00
    0.00000E+00         0.00000E+00         0.00000E+00
 
   -0.61140E+06         0.99320E+06         0.00000E+00
    0.99320E+06         0.20049E+07         0.00000E+00
    0.00000E+00         0.00000E+00         0.00000E+00
 
   -0.59543E+06         0.10505E+07         0.00000E+00
    0.10505E+07         0.20016E+07         0.00000E+00
    0.00000E+00         0.00000E+00         0.00000E+00
 
   -0.57932E+06         0.11075E+07         0.00000E+00
    0.11075E+07         0.19981E+07         0.00000E+00
    0.00000E+00         0.00000E+00         0.00000E+00
 
   -0.56308E+06         0.11642E+07         0.00000E+00
    0.11642E+07         0.19944E+07         0.00000E+00
    0.00000E+00         0.00000E+00         0.00000E+00
 
   -0.54671E+06         0.12205E+07         0.00000E+00
    0.12205E+07         0.19905E+07         0.00000E+00
    0.00000E+00         0.00000E+00         0.00000E+00
 
   -0.53021E+06         0.12765E+07         0.00000E+00
    0.12765E+07         0.19864E+07         0.00000E+00
    0.00000E+00         0.00000E+00         0.00000E+00
 
   -0.51358E+06         0.13322E+07         0.00000E+00
    0.13322E+07         0.19821E+07         0.00000E+00
    0.00000E+00         0.00000E+00         0.00000E+00
 
   -0.49682E+06         0.13875E+07         0.00000E+00
    0.13875E+07         0.19776E+07         0.00000E+00
    0.00000E+00         0.00000E+00         0.00000E+00
 
   -0.47993E+06         0.14425E+07         0.00000E+00
    0.14425E+07         0.19730E+07         0.00000E+00
    0.00000E+00         0.00000E+00         0.00000E+00
 
   -0.46292E+06         0.14971E+07         0.00000E+00
    0.14971E+07         0.19681E+07         0.00000E+00
    0.00000E+00         0.00000E+00         0.00000E+00
 
   -0.44577E+06         0.15514E+07         0.00000E+00
    0.15514E+07         0.19630E+07         0.00000E+00
    0.00000E+00         0.00000E+00         0.00000E+00
 
   -0.42849E+06         0.16053E+07         0.00000E+00
    0.16053E+07         0.19578E+07         0.00000E+00
    0.00000E+00         0.00000E+00         0.00000E+00
 
   -0.41107E+06         0.16589E+07         0.00000E+00
    0.16589E+07         0.19523E+07         0.00000E+00
    0.00000E+00         0.00000E+00         0.00000E+00
 
   -0.39352E+06         0.17121E+07         0.00000E+00
    0.17121E+07         0.19467E+07         0.00000E+00
    0.00000E+00         0.00000E+00         0.00000E+00
 
   -0.37584E+06         0.17649E+07         0.00000E+00
    0.17649E+07         0.19408E+07         0.00000E+00
    0.00000E+00         0.00000E+00         0.00000E+00
 
   -0.35802E+06         0.18175E+07         0.00000E+00
    0.18175E+07         0.19348E+07         0.00000E+00
    0.00000E+00         0.00000E+00         0.00000E+00
 
   -0.34006E+06         0.18696E+07         0.00000E+00
    0.18696E+07         0.19285E+07         0.00000E+00
    0.00000E+00         0.00000E+00         0.00000E+00
 
   -0.32195E+06         0.19214E+07         0.00000E+00
    0.19214E+07         0.19220E+07         0.00000E+00
    0.00000E+00         0.00000E+00         0.00000E+00
 
   -0.30370E+06         0.19729E+07         0.00000E+00
    0.19729E+07         0.19153E+07         0.00000E+00
    0.00000E+00         0.00000E+00         0.00000E+00
 
   -0.28531E+06         0.20239E+07         0.00000E+00
    0.20239E+07         0.19084E+07         0.00000E+00
    0.00000E+00         0.00000E+00         0.00000E+00
 
   -0.26677E+06         0.20747E+07         0.00000E+00
    0.20747E+07         0.19013E+07         0.00000E+00
    0.00000E+00         0.00000E+00         0.00000E+00
 
   -0.24807E+06         0.21250E+07         0.00000E+00
    0.21250E+07         0.18939E+07         0.00000E+00
    0.00000E+00         0.00000E+00         0.00000E+00
 
   -0.22922E+06         0.21750E+07         0.00000E+00
    0.21750E+07         0.18864E+07         0.00000E+00
    0.00000E+00         0.00000E+00         0.00000E+00
 
   -0.21021E+06         0.22246E+07         0.00000E+00
    0.22246E+07         0.18786E+07         0.00000E+00
    0.00000E+00         0.00000E+00         0.00000E+00
 
   -0.19103E+06         0.22738E+07         0.00000E+00
    0.22738E+07         0.18705E+07         0.00000E+00
    0.00000E+00         0.00000E+00         0.00000E+00
 
   -0.17169E+06         0.23227E+07         0.00000E+00
    0.23227E+07         0.18623E+07         0.00000E+00
    0.00000E+00         0.00000E+00         0.00000E+00
 
   -0.15218E+06         0.23712E+07         0.00000E+00
    0.23712E+07         0.18538E+07         0.00000E+00
    0.00000E+00         0.00000E+00         0.00000E+00
 
   -0.13249E+06         0.24193E+07         0.00000E+00
    0.24193E+07         0.18451E+07         0.00000E+00
    0.00000E+00         0.00000E+00         0.00000E+00
 
   -0.11263E+06         0.24670E+07         0.00000E+00
    0.24670E+07         0.18361E+07         0.00000E+00
    0.00000E+00         0.00000E+00         0.00000E+00
 
   -0.92581E+05         0.25143E+07         0.00000E+00
    0.25143E+07         0.18269E+07         0.00000E+00
    0.00000E+00         0.00000E+00         0.00000E+00
 
   -0.72345E+05         0.25613E+07         0.00000E+00
    0.25613E+07         0.18174E+07         0.00000E+00
    0.00000E+00         0.00000E+00         0.00000E+00
 
   -0.51917E+05         0.26078E+07         0.00000E+00
    0.26078E+07         0.18077E+07         0.00000E+00
    0.00000E+00         0.00000E+00         0.00000E+00
 
   -0.31292E+05         0.26540E+07         0.00000E+00
    0.26540E+07         0.17977E+07         0.00000E+00
    0.00000E+00         0.00000E+00         0.00000E+00
 
   -0.10465E+05         0.26997E+07         0.00000E+00
    0.26997E+07         0.17874E+07         0.00000E+00
    0.00000E+00         0.00000E+00         0.00000E+00
 
   -0.76053E+06         0.31123E+05         0.00000E+00
    0.31123E+05         0.18088E+07         0.00000E+00
    0.00000E+00         0.00000E+00         0.00000E+00
 
   -0.74839E+06         0.92572E+05         0.00000E+00
    0.92572E+05         0.18086E+07         0.00000E+00
    0.00000E+00         0.00000E+00         0.00000E+00
 
   -0.73610E+06         0.15373E+06         0.00000E+00
    0.15373E+06         0.18083E+07         0.00000E+00
    0.00000E+00         0.00000E+00         0.00000E+00
 
   -0.72366E+06         0.21458E+06         0.00000E+00
    0.21458E+06         0.18077E+07         0.00000E+00
    0.00000E+00         0.00000E+00         0.00000E+00
 
   -0.71107E+06         0.27514E+06         0.00000E+00
    0.27514E+06         0.18070E+07         0.00000E+00
    0.00000E+00         0.00000E+00         0.00000E+00
 
   -0.69834E+06         0.33540E+06         0.00000E+00
    0.33540E+06         0.18061E+07         0.00000E+00
    0.00000E+00         0.00000E+00         0.00000E+00
 
   -0.68546E+06         0.39534E+06         0.00000E+00
    0.39534E+06         0.18050E+07         0.00000E+00
    0.00000E+00         0.00000E+00         0.00000E+00
 
   -0.67245E+06         0.45498E+06         0.00000E+00
    0.45498E+06         0.18037E+07         0.00000E+00
    0.00000E+00         0.00000E+00         0.00000E+00
 
   -0.65931E+06         0.51431E+06         0.00000E+00
    0.51431E+06         0.18023E+07         0.00000E+00
    0.00000E+00         0.00000E+00         0.00000E+00
 
   -0.64603E+06         0.57333E+06         0.00000E+00
    0.57333E+06         0.18006E+07         0.00000E+00
    0.00000E+00         0.00000E+00         0.00000E+00
 
   -0.63261E+06         0.63203E+06         0.00000E+00
    0.63203E+06         0.17988E+07         0.00000E+00
    0.00000E+00         0.00000E+00         0.00000E+00
 
   -0.61907E+06         0.69041E+06         0.00000E+00
    0.69041E+06         0.17969E+07         0.00000E+00
    0.00000E+00         0.00000E+00         0.00000E+00
 
   -0.60540E+06         0.74846E+06         0.00000E+00
    0.74846E+06         0.17947E+07         0.00000E+00
    0.00000E+00         0.00000E+00         0.00000E+00
 
   -0.59160E+06         0.80620E+06         0.00000E+00
    0.80620E+06         0.17924E+07         0.00000E+00
    0.00000E+00         0.00000E+00         0.00000E+00
 
   -0.57768E+06         0.86361E+06         0.00000E+00
    0.86361E+06         0.17900E+07         0.00000E+00
    0.00000E+00         0.00000E+00         0.00000E+00
 
   -0.56363E+06         0.92069E+06         0.00000E+00
    0.92069E+06         0.17873E+07         0.00000E+00
    0.00000E+00         0.00000E+00         0.00000E+00
 
   -0.54946E+06         0.97743E+06         0.00000E+00
    0.97743E+06         0.17845E+07         0.00000E+00
    0.00000E+00         0.00000E+00         0.00000E+00
 
   -0.53516E+06         0.10339E+07         0.00000E+00
    0.10339E+07         0.17815E+07         0.00000E+00
    0.00000E+00         0.00000E+00         0.00000E+00
 
   -0.52075E+06         0.10899E+07         0.00000E+00
    0.10899E+07         0.17783E+07         0.00000E+00
    0.00000E+00         0.00000E+00         0.00000E+00
 
   -0.50621E+06         0.11457E+07         0.00000E+00
    0.11457E+07         0.17750E+07         0.00000E+00
    0.00000E+00         0.00000E+00         0.00000E+00
 
   -0.49155E+06         0.12011E+07         0.00000E+00
    0.12011E+07         0.17715E+07         0.00000E+00
    0.00000E+00         0.00000E+00         0.00000E+00
 
   -0.47677E+06         0.12561E+07         0.00000E+00
    0.12561E+07         0.17678E+07         0.00000E+00
    0.00000E+00         0.00000E+00         0.00000E+00
 
   -0.46187E+06         0.13109E+07         0.00000E+00
    0.13109E+07         0.17639E+07         0.00000E+00
    0.00000E+00         0.00000E+00         0.00000E+00
 
   -0.44686E+06         0.13652E+07         0.00000E+00
    0.13652E+07         0.17599E+07         0.00000E+00
    0.00000E+00         0.00000E+00         0.00000E+00
 
   -0.43171E+06         0.14193E+07         0.00000E+00
    0.14193E+07         0.17557E+07         0.00000E+00
    0.00000E+00         0.00000E+00         0.00000E+00
 
   -0.41645E+06         0.14729E+07         0.00000E+00
    0.14729E+07         0.17513E+07         0.00000E+00
    0.00000E+00         0.00000E+00         0.00000E+00
 
   -0.40107E+06         0.15263E+07         0.00000E+00
    0.15263E+07         0.17467E+07         0.00000E+00
    0.00000E+00         0.00000E+00         0.00000E+00
 
   -0.38556E+06         0.15792E+07         0.00000E+00
    0.15792E+07         0.17420E+07         0.00000E+00
    0.00000E+00         0.00000E+00         0.00000E+00
 
   -0.36993E+06         0.16319E+07         0.00000E+00
    0.16319E+07         0.17371E+07         0.00000E+00
    0.00000E+00         0.00000E+00         0.00000E+00
 
   -0.35417E+06         0.16841E+07         0.00000E+00
    0.16841E+07         0.17320E+07         0.00000E+00
    0.00000E+00         0.00000E+00         0.00000E+00
 
   -0.33829E+06         0.17360E+07         0.00000E+00
    0.17360E+07         0.17267E+07         0.00000E+00
    0.00000E+00         0.00000E+00         0.00000E+00
 
   -0.32228E+06         0.17876E+07         0.00000E+00
    0.17876E+07         0.17212E+07         0.00000E+00
    0.00000E+00         0.00000E+00         0.00000E+00
 
   -0.30614E+06         0.18387E+07         0.00000E+00
    0.18387E+07         0.17155E+07         0.00000E+00
    0.00000E+00         0.00000E+00         0.00000E+00
 
   -0.28987E+06         0.18895E+07         0.00000E+00
    0.18895E+07         0.17097E+07         0.00000E+00
    0.00000E+00         0.00000E+00         0.00000E+00
 
   -0.27346E+06         0.19400E+07         0.00000E+00
    0.19400E+07         0.17036E+07         0.00000E+00
    0.00000E+00         0.00000E+00         0.00000E+00
 
   -0.25692E+06         0.19901E+07         0.00000E+00
    0.19901E+07         0.16974E+07         0.00000E+00
    0.00000E+00         0.00000E+00         0.00000E+00
 
   -0.24024E+06         0.20397E+07         0.00000E+00
    0.20397E+07         0.16910E+07         0.00000E+00
    0.00000E+00         0.00000E+00         0.00000E+00
 
   -0.22342E+06         0.20891E+07         0.00000E+00
    0.20891E+07         0.16843E+07         0.00000E+00
    0.00000E+00         0.00000E+00         0.00000E+00
 
   -0.20645E+06         0.21380E+07         0.00000E+00
    0.21380E+07         0.16775E+07         0.00000E+00
    0.00000E+00         0.00000E+00         0.00000E+00
 
   -0.18934E+06         0.21865E+07         0.00000E+00
    0.21865E+07         0.16705E+07         0.00000E+00
    0.00000E+00         0.00000E+00         0.00000E+00
 
   -0.17208E+06         0.22347E+07         0.00000E+00
    0.22347E+07         0.16632E+07         0.00000E+00
    0.00000E+00         0.00000E+00         0.00000E+00
 
   -0.15466E+06         0.22825E+07         0.00000E+00
    0.22825E+07         0.16558E+07         0.00000E+00
    0.00000E+00         0.00000E+00         0.00000E+00
 
   -0.13709E+06         0.23299E+07         0.00000E+00
    0.23299E+07         0.16481E+07         0.00000E+00
    0.00000E+00         0.00000E+00         0.00000E+00
 
   -0.11936E+06         0.23769E+07         0.00000E+00
    0.23769E+07         0.16402E+07         0.00000E+00
    0.00000E+00         0.00000E+00         0.00000E+00
 
   -0.10147E+06         0.24235E+07         0.00000E+00
    0.24235E+07         0.16321E+07         0.00000E+00
    0.00000E+00         0.00000E+00         0.00000E+00
 
   -0.83411E+05         0.24697E+07         0.00000E+00
    0.24697E+07         0.16238E+07         0.00000E+00
    0.00000E+00         0.00000E+00         0.00000E+00
 
   -0.65180E+05         0.25155E+07         0.00000E+00
    0.25155E+07         0.16153E+07         0.00000E+00
    0.00000E+00         0.00000E+00         0.00000E+00
 
   -0.46776E+05         0.25608E+07         0.00000E+00
    0.25608E+07         0.16065E+07         0.00000E+00
    0.00000E+00         0.00000E+00         0.00000E+00
 
   -0.28194E+05         0.26058E+07         0.00000E+00
    0.26058E+07         0.15975E+07         0.00000E+00
    0.00000E+00         0.00000E+00         0.00000E+00
 
   -0.94286E+04         0.26503E+07         0.00000E+00
    0.26503E+07         0.15883E+07         0.00000E+00
    0.00000E+00         0.00000E+00         0.00000E+00
 
   -0.67236E+06         0.30669E+05         0.00000E+00
    0.30669E+05         0.15913E+07         0.00000E+00
    0.00000E+00         0.00000E+00         0.00000E+00
 
   -0.66166E+06         0.91230E+05         0.00000E+00
    0.91230E+05         0.15911E+07         0.00000E+00
    0.00000E+00         0.00000E+00         0.00000E+00
 
   -0.65083E+06         0.15150E+06         0.00000E+00
    0.15150E+06         0.15908E+07         0.00000E+00
    0.00000E+00         0.00000E+00         0.00000E+00
 
   -0.63987E+06         0.21149E+06         0.00000E+00
    0.21149E+06         0.15903E+07         0.00000E+00
    0.00000E+00         0.00000E+00         0.00000E+00
 
   -0.62877E+06         0.27118E+06         0.00000E+00
    0.27118E+06         0.15896E+07         0.00000E+00
    0.00000E+00         0.00000E+00         0.00000E+00
 
   -0.61755E+06         0.33057E+06         0.00000E+00
    0.33057E+06         0.15888E+07         0.00000E+00
    0.00000E+00         0.00000E+00         0.00000E+00
 
   -0.60621E+06         0.38966E+06         0.00000E+00
    0.38966E+06         0.15879E+07         0.00000E+00
    0.00000E+00         0.00000E+00         0.00000E+00
 
   -0.59474E+06         0.44845E+06         0.00000E+00
    0.44845E+06         0.15867E+07         0.00000E+00
    0.00000E+00         0.00000E+00         0.00000E+00
 
   -0.58315E+06         0.50693E+06         0.00000E+00
    0.50693E+06         0.15855E+07         0.00000E+00
    0.00000E+00         0.00000E+00         0.00000E+00
 
   -0.57144E+06         0.56510E+06         0.00000E+00
    0.56510E+06         0.15840E+07         0.00000E+00
    0.00000E+00         0.00000E+00         0.00000E+00
 
   -0.55962E+06         0.62295E+06         0.00000E+00
    0.62295E+06         0.15825E+07         0.00000E+00
    0.00000E+00         0.00000E+00         0.00000E+00
 
   -0.54767E+06         0.68050E+06         0.00000E+00
    0.68050E+06         0.15807E+07         0.00000E+00
    0.00000E+00         0.00000E+00         0.00000E+00
 
   -0.53562E+06         0.73772E+06         0.00000E+00
    0.73772E+06         0.15788E+07         0.00000E+00
    0.00000E+00         0.00000E+00         0.00000E+00
 
   -0.52345E+06         0.79462E+06         0.00000E+00
    0.79462E+06         0.15768E+07         0.00000E+00
    0.00000E+00         0.00000E+00         0.00000E+00
 
   -0.51116E+06         0.85120E+06         0.00000E+00
    0.85120E+06         0.15746E+07         0.00000E+00
    0.00000E+00         0.00000E+00         0.00000E+00
 
   -0.49877E+06         0.90745E+06         0.00000E+00
    0.90745E+06         0.15723E+07         0.00000E+00
    0.00000E+00         0.00000E+00         0.00000E+00
 
   -0.48626E+06         0.96337E+06         0.00000E+00
    0.96337E+06         0.15698E+07         0.00000E+00
    0.00000E+00         0.00000E+00         0.00000E+00
 
   -0.47364E+06         0.10190E+07         0.00000E+00
    0.10190E+07         0.15671E+07         0.00000E+00
    0.00000E+00         0.00000E+00         0.00000E+00
 
   -0.46092E+06         0.10742E+07         0.00000E+00
    0.10742E+07         0.15643E+07         0.00000E+00
    0.00000E+00         0.00000E+00         0.00000E+00
 
   -0.44809E+06         0.11291E+07         0.00000E+00
    0.11291E+07         0.15613E+07         0.00000E+00
    0.00000E+00         0.00000E+00         0.00000E+00
 
   -0.43514E+06         0.11837E+07         0.00000E+00
    0.11837E+07         0.15582E+07         0.00000E+00
    0.00000E+00         0.00000E+00         0.00000E+00
 
   -0.42209E+06         0.12379E+07         0.00000E+00
    0.12379E+07         0.15550E+07         0.00000E+00
    0.00000E+00         0.00000E+00         0.00000E+00
 
   -0.40893E+06         0.12918E+07         0.00000E+00
    0.12918E+07         0.15516E+07         0.00000E+00
    0.00000E+00         0.00000E+00         0.00000E+00
 
   -0.39566E+06         0.13454E+07         0.00000E+00
    0.13454E+07         0.15480E+07         0.00000E+00
    0.00000E+00         0.00000E+00         0.00000E+00
 
   -0.38228E+06         0.13985E+07         0.00000E+00
    0.13985E+07         0.15443E+07         0.00000E+00
    0.00000E+00         0.00000E+00         0.00000E+00
 
   -0.36879E+06         0.14514E+07         0.00000E+00
    0.14514E+07         0.15404E+07         0.00000E+00
    0.00000E+00         0.00000E+00         0.00000E+00
 
   -0.35519E+06         0.15039E+07         0.00000E+00
    0.15039E+07         0.15363E+07         0.00000E+00
    0.00000E+00         0.00000E+00         0.00000E+00
 
   -0.34148E+06         0.15560E+07         0.00000E+00
    0.15560E+07         0.15321E+07         0.00000E+00
    0.00000E+00         0.00000E+00         0.00000E+00
 
   -0.32766E+06         0.16077E+07         0.00000E+00
    0.16077E+07         0.15278E+07         0.00000E+00
    0.00000E+00         0.00000E+00         0.00000E+00
 
   -0.31373E+06         0.16591E+07         0.00000E+00
    0.16591E+07         0.15232E+07         0.00000E+00
    0.00000E+00         0.00000E+00         0.00000E+00
 
   -0.29968E+06         0.17102E+07         0.00000E+00
    0.17102E+07         0.15186E+07         0.00000E+00
    0.00000E+00         0.00000E+00         0.00000E+00
 
   -0.28551E+06         0.17608E+07         0.00000E+00
    0.17608E+07         0.15137E+07         0.00000E+00
    0.00000E+00         0.00000E+00         0.00000E+00
 
   -0.27123E+06         0.18111E+07         0.00000E+00
    0.18111E+07         0.15087E+07         0.00000E+00
    0.00000E+00         0.00000E+00         0.00000E+00
 
   -0.25682E+06         0.18610E+07         0.00000E+00
    0.18610E+07         0.15035E+07         0.00000E+00
    0.00000E+00         0.00000E+00         0.00000E+00
 
   -0.24230E+06         0.19106E+07         0.00000E+00
    0.19106E+07         0.14981E+07         0.00000E+00
    0.00000E+00         0.00000E+00         0.00000E+00
 
   -0.22766E+06         0.19597E+07         0.00000E+00
    0.19597E+07         0.14926E+07         0.00000E+00
    0.00000E+00         0.00000E+00         0.00000E+00
 
   -0.21288E+06         0.20085E+07         0.00000E+00
    0.20085E+07         0.14869E+07         0.00000E+00
    0.00000E+00         0.00000E+00         0.00000E+00
 
   -0.19799E+06         0.20569E+07         0.00000E+00
    0.20569E+07         0.14810E+07         0.00000E+00
    0.00000E+00         0.00000E+00         0.00000E+00
 
   -0.18296E+06         0.21049E+07         0.00000E+00
    0.21049E+07         0.14750E+07         0.00000E+00
    0.00000E+00         0.00000E+00         0.00000E+00
 
   -0.16780E+06         0.21525E+07         0.00000E+00
    0.21525E+07         0.14687E+07         0.00000E+00
    0.00000E+00         0.00000E+00         0.00000E+00
 
   -0.15251E+06         0.21997E+07         0.00000E+00
    0.21997E+07         0.14623E+07         0.00000E+00
    0.00000E+00         0.00000E+00         0.00000E+00
 
   -0.13708E+06         0.22465E+07         0.00000E+00
    0.22465E+07         0.14557E+07         0.00000E+00
    0.00000E+00         0.00000E+00         0.00000E+00
 
   -0.12151E+06         0.22929E+07         0.00000E+00
    0.22929E+07         0.14489E+07         0.00000E+00
    0.00000E+00         0.00000E+00         0.00000E+00
 
   -0.10580E+06         0.23389E+07         0.00000E+00
    0.23389E+07         0.14419E+07         0.00000E+00
    0.00000E+00         0.00000E+00         0.00000E+00
 
   -0.89939E+05         0.23845E+07         0.00000E+00
    0.23845E+07         0.14347E+07         0.00000E+00
    0.00000E+00         0.00000E+00         0.00000E+00
 
   -0.73933E+05         0.24297E+07         0.00000E+00
    0.24297E+07         0.14274E+07         0.00000E+00
    0.00000E+00         0.00000E+00         0.00000E+00
 
   -0.57775E+05         0.24745E+07         0.00000E+00
    0.24745E+07         0.14198E+07         0.00000E+00
    0.00000E+00         0.00000E+00         0.00000E+00
 
   -0.41462E+05         0.25188E+07         0.00000E+00
    0.25188E+07         0.14120E+07         0.00000E+00
    0.00000E+00         0.00000E+00         0.00000E+00
 
   -0.24990E+05         0.25627E+07         0.00000E+00
    0.25627E+07         0.14040E+07         0.00000E+00
    0.00000E+00         0.00000E+00         0.00000E+00
 
   -0.83573E+04         0.26062E+07         0.00000E+00
    0.26062E+07         0.13958E+07         0.00000E+00
    0.00000E+00         0.00000E+00         0.00000E+00
 
   -0.58342E+06         0.30272E+05         0.00000E+00
    0.30272E+05         0.13787E+07         0.00000E+00
    0.00000E+00         0.00000E+00         0.00000E+00
 
   -0.57414E+06         0.90058E+05         0.00000E+00
    0.90058E+05         0.13785E+07         0.00000E+00
    0.00000E+00         0.00000E+00         0.00000E+00
 
   -0.56474E+06         0.14956E+06         0.00000E+00
    0.14956E+06         0.13782E+07         0.00000E+00
    0.00000E+00         0.00000E+00         0.00000E+00
 
   -0.55523E+06         0.20878E+06         0.00000E+00
    0.20878E+06         0.13778E+07         0.00000E+00
    0.00000E+00         0.00000E+00         0.00000E+00
 
   -0.54560E+06         0.26771E+06         0.00000E+00
    0.26771E+06         0.13772E+07         0.00000E+00
    0.00000E+00         0.00000E+00         0.00000E+00
 
   -0.53587E+06         0.32635E+06         0.00000E+00
    0.32635E+06         0.13766E+07         0.00000E+00
    0.00000E+00         0.00000E+00         0.00000E+00
 
   -0.52603E+06         0.38469E+06         0.00000E+00
    0.38469E+06         0.13757E+07         0.00000E+00
    0.00000E+00         0.00000E+00         0.00000E+00
 
   -0.51608E+06         0.44273E+06         0.00000E+00
    0.44273E+06         0.13748E+07         0.00000E+00
    0.00000E+00         0.00000E+00         0.00000E+00
 
   -0.50602E+06         0.50047E+06         0.00000E+00
    0.50047E+06         0.13737E+07         0.00000E+00
    0.00000E+00         0.00000E+00         0.00000E+00
 
   -0.49587E+06         0.55790E+06         0.00000E+00
    0.55790E+06         0.13724E+07         0.00000E+00
    0.00000E+00         0.00000E+00         0.00000E+00
 
   -0.48561E+06         0.61502E+06         0.00000E+00
    0.61502E+06         0.13711E+07         0.00000E+00
    0.00000E+00         0.00000E+00         0.00000E+00
 
   -0.47525E+06         0.67183E+06         0.00000E+00
    0.67183E+06         0.13696E+07         0.00000E+00
    0.00000E+00         0.00000E+00         0.00000E+00
 
   -0.46480E+06         0.72832E+06         0.00000E+00
    0.72832E+06         0.13679E+07         0.00000E+00
    0.00000E+00         0.00000E+00         0.00000E+00
 
   -0.45424E+06         0.78449E+06         0.00000E+00
    0.78449E+06         0.13662E+07         0.00000E+00
    0.00000E+00         0.00000E+00         0.00000E+00
 
   -0.44359E+06         0.84034E+06         0.00000E+00
    0.84034E+06         0.13643E+07         0.00000E+00
    0.00000E+00         0.00000E+00         0.00000E+00
 
   -0.43284E+06         0.89586E+06         0.00000E+00
    0.89586E+06         0.13622E+07         0.00000E+00
    0.00000E+00         0.00000E+00         0.00000E+00
 
   -0.42200E+06         0.95106E+06         0.00000E+00
    0.95106E+06         0.13601E+07         0.00000E+00
    0.00000E+00         0.00000E+00         0.00000E+00
 
   -0.41106E+06         0.10059E+07         0.00000E+00
    0.10059E+07         0.13578E+07         0.00000E+00
    0.00000E+00         0.00000E+00         0.00000E+00
 
   -0.40002E+06         0.10604E+07         0.00000E+00
    0.10604E+07         0.13554E+07         0.00000E+00
    0.00000E+00         0.00000E+00         0.00000E+00
 
   -0.38889E+06         0.11146E+07         0.00000E+00
    0.11146E+07         0.13528E+07         0.00000E+00
    0.00000E+00         0.00000E+00         0.00000E+00
 
   -0.37767E+06         0.11685E+07         0.00000E+00
    0.11685E+07         0.13501E+07         0.00000E+00
    0.00000E+00         0.00000E+00         0.00000E+00
 
   -0.36635E+06         0.12220E+07         0.00000E+00
    0.12220E+07         0.13473E+07         0.00000E+00
    0.00000E+00         0.00000E+00         0.00000E+00
 
   -0.35493E+06         0.12751E+07         0.00000E+00
    0.12751E+07         0.13443E+07         0.00000E+00
    0.00000E+00         0.00000E+00         0.00000E+00
 
   -0.34343E+06         0.13279E+07         0.00000E+00
    0.13279E+07         0.13413E+07         0.00000E+00
    0.00000E+00         0.00000E+00         0.00000E+00
 
   -0.33182E+06         0.13804E+07         0.00000E+00
    0.13804E+07         0.13380E+07         0.00000E+00
    0.00000E+00         0.00000E+00         0.00000E+00
 
   -0.32012E+06         0.14325E+07         0.00000E+00
    0.14325E+07         0.13347E+07         0.00000E+00
    0.00000E+00         0.00000E+00         0.00000E+00
 
   -0.30833E+06         0.14842E+07         0.00000E+00
    0.14842E+07         0.13312E+07         0.00000E+00
    0.00000E+00         0.00000E+00         0.00000E+00
 
   -0.29643E+06         0.15356E+07         0.00000E+00
    0.15356E+07         0.13275E+07         0.00000E+00
    0.00000E+00         0.00000E+00         0.00000E+00
 
   -0.28444E+06         0.15866E+07         0.00000E+00
    0.15866E+07         0.13238E+07         0.00000E+00
    0.00000E+00         0.00000E+00         0.00000E+00
 
   -0.27235E+06         0.16372E+07         0.00000E+00
    0.16372E+07         0.13198E+07         0.00000E+00
    0.00000E+00         0.00000E+00         0.00000E+00
 
   -0.26016E+06         0.16875E+07         0.00000E+00
    0.16875E+07         0.13158E+07         0.00000E+00
    0.00000E+00         0.00000E+00         0.00000E+00
 
   -0.24787E+06         0.17374E+07         0.00000E+00
    0.17374E+07         0.13116E+07         0.00000E+00
    0.00000E+00         0.00000E+00         0.00000E+00
 
   -0.23548E+06         0.17869E+07         0.00000E+00
    0.17869E+07         0.13072E+07         0.00000E+00
    0.00000E+00         0.00000E+00         0.00000E+00
 
   -0.22298E+06         0.18360E+07         0.00000E+00
    0.18360E+07         0.13027E+07         0.00000E+00
    0.00000E+00         0.00000E+00         0.00000E+00
 
   -0.21037E+06         0.18847E+07         0.00000E+00
    0.18847E+07         0.12981E+07         0.00000E+00
    0.00000E+00         0.00000E+00         0.00000E+00
 
   -0.19766E+06         0.19331E+07         0.00000E+00
    0.19331E+07         0.12933E+07         0.00000E+00
    0.00000E+00         0.00000E+00         0.00000E+00
 
   -0.18484E+06         0.19811E+07         0.00000E+00
    0.19811E+07         0.12884E+07         0.00000E+00
    0.00000E+00         0.00000E+00         0.00000E+00
 
   -0.17191E+06         0.20286E+07         0.00000E+00
    0.20286E+07         0.12833E+07         0.00000E+00
    0.00000E+00         0.00000E+00         0.00000E+00
 
   -0.15887E+06         0.20758E+07         0.00000E+00
    0.20758E+07         0.12780E+07         0.00000E+00
    0.00000E+00         0.00000E+00         0.00000E+00
 
   -0.14571E+06         0.21226E+07         0.00000E+00
    0.21226E+07         0.12726E+07         0.00000E+00
    0.00000E+00         0.00000E+00         0.00000E+00
 
   -0.13243E+06         0.21689E+07         0.00000E+00
    0.21689E+07         0.12670E+07         0.00000E+00
    0.00000E+00         0.00000E+00         0.00000E+00
 
   -0.11903E+06         0.22149E+07         0.00000E+00
    0.22149E+07         0.12613E+07         0.00000E+00
    0.00000E+00         0.00000E+00         0.00000E+00
 
   -0.10551E+06         0.22605E+07         0.00000E+00
    0.22605E+07         0.12554E+07         0.00000E+00
    0.00000E+00         0.00000E+00         0.00000E+00
 
   -0.91870E+05         0.23056E+07         0.00000E+00
    0.23056E+07         0.12493E+07         0.00000E+00
    0.00000E+00         0.00000E+00         0.00000E+00
 
   -0.78100E+05         0.23503E+07         0.00000E+00
    0.23503E+07         0.12431E+07         0.00000E+00
    0.00000E+00         0.00000E+00         0.00000E+00
 
   -0.64201E+05         0.23946E+07         0.00000E+00
    0.23946E+07         0.12367E+07         0.00000E+00
    0.00000E+00         0.00000E+00         0.00000E+00
 
   -0.50170E+05         0.24385E+07         0.00000E+00
    0.24385E+07         0.12301E+07         0.00000E+00
    0.00000E+00         0.00000E+00         0.00000E+00
 
   -0.36004E+05         0.24819E+07         0.00000E+00
    0.24819E+07         0.12234E+07         0.00000E+00
    0.00000E+00         0.00000E+00         0.00000E+00
 
   -0.21701E+05         0.25249E+07         0.00000E+00
    0.25249E+07         0.12164E+07         0.00000E+00
    0.00000E+00         0.00000E+00         0.00000E+00
 
   -0.72572E+04         0.25674E+07         0.00000E+00
    0.25674E+07         0.12093E+07         0.00000E+00
    0.00000E+00         0.00000E+00         0.00000E+00
 
   -0.49383E+06         0.29934E+05         0.00000E+00
    0.29934E+05         0.11703E+07         0.00000E+00
    0.00000E+00         0.00000E+00         0.00000E+00
 
   -0.48593E+06         0.89058E+05         0.00000E+00
    0.89058E+05         0.11702E+07         0.00000E+00
    0.00000E+00         0.00000E+00         0.00000E+00
 
   -0.47794E+06         0.14791E+06         0.00000E+00
    0.14791E+06         0.11699E+07         0.00000E+00
    0.00000E+00         0.00000E+00         0.00000E+00
 
   -0.46985E+06         0.20647E+06         0.00000E+00
    0.20647E+06         0.11696E+07         0.00000E+00
    0.00000E+00         0.00000E+00         0.00000E+00
 
   -0.46167E+06         0.26476E+06         0.00000E+00
    0.26476E+06         0.11691E+07         0.00000E+00
    0.00000E+00         0.00000E+00         0.00000E+00
 
   -0.45339E+06         0.32275E+06         0.00000E+00
    0.32275E+06         0.11685E+07         0.00000E+00
    0.00000E+00         0.00000E+00         0.00000E+00
 
   -0.44503E+06         0.38045E+06         0.00000E+00
    0.38045E+06         0.11679E+07         0.00000E+00
    0.00000E+00         0.00000E+00         0.00000E+00
 
   -0.43659E+06         0.43786E+06         0.00000E+00
    0.43786E+06         0.11670E+07         0.00000E+00
    0.00000E+00         0.00000E+00         0.00000E+00
 
   -0.42805E+06         0.49497E+06         0.00000E+00
    0.49497E+06         0.11661E+07         0.00000E+00
    0.00000E+00         0.00000E+00         0.00000E+00
 
   -0.41943E+06         0.55177E+06         0.00000E+00
    0.55177E+06         0.11651E+07         0.00000E+00
    0.00000E+00         0.00000E+00         0.00000E+00
 
   -0.41073E+06         0.60826E+06         0.00000E+00
    0.60826E+06         0.11640E+07         0.00000E+00
    0.00000E+00         0.00000E+00         0.00000E+00
 
   -0.40195E+06         0.66444E+06         0.00000E+00
    0.66444E+06         0.11627E+07         0.00000E+00
    0.00000E+00         0.00000E+00         0.00000E+00
 
   -0.39308E+06         0.72031E+06         0.00000E+00
    0.72031E+06         0.11613E+07         0.00000E+00
    0.00000E+00         0.00000E+00         0.00000E+00
 
   -0.38413E+06         0.77586E+06         0.00000E+00
    0.77586E+06         0.11599E+07         0.00000E+00
    0.00000E+00         0.00000E+00         0.00000E+00
 
   -0.37510E+06         0.83108E+06         0.00000E+00
    0.83108E+06         0.11583E+07         0.00000E+00
    0.00000E+00         0.00000E+00         0.00000E+00
 
   -0.36600E+06         0.88598E+06         0.00000E+00
    0.88598E+06         0.11566E+07         0.00000E+00
    0.00000E+00         0.00000E+00         0.00000E+00
 
   -0.35681E+06         0.94055E+06         0.00000E+00
    0.94055E+06         0.11548E+07         0.00000E+00
    0.00000E+00         0.00000E+00         0.00000E+00
 
   -0.34754E+06         0.99479E+06         0.00000E+00
    0.99479E+06         0.11529E+07         0.00000E+00
    0.00000E+00         0.00000E+00         0.00000E+00
 
   -0.33820E+06         0.10487E+07         0.00000E+00
    0.10487E+07         0.11508E+07         0.00000E+00
    0.00000E+00         0.00000E+00         0.00000E+00
 
   -0.32878E+06         0.11023E+07         0.00000E+00
    0.11023E+07         0.11487E+07         0.00000E+00
    0.00000E+00         0.00000E+00         0.00000E+00
 
   -0.31928E+06         0.11555E+07         0.00000E+00
    0.11555E+07         0.11464E+07         0.00000E+00
    0.00000E+00         0.00000E+00         0.00000E+00
 
   -0.30970E+06         0.12083E+07         0.00000E+00
    0.12083E+07         0.11441E+07         0.00000E+00
    0.00000E+00         0.00000E+00         0.00000E+00
 
   -0.30004E+06         0.12609E+07         0.00000E+00
    0.12609E+07         0.11416E+07         0.00000E+00
    0.00000E+00         0.00000E+00         0.00000E+00
 
   -0.29030E+06         0.13130E+07         0.00000E+00
    0.13130E+07         0.11390E+07         0.00000E+00
    0.00000E+00         0.00000E+00         0.00000E+00
 
   -0.28049E+06         0.13648E+07         0.00000E+00
    0.13648E+07         0.11363E+07         0.00000E+00
    0.00000E+00         0.00000E+00         0.00000E+00
 
   -0.27059E+06         0.14163E+07         0.00000E+00
    0.14163E+07         0.11335E+07         0.00000E+00
    0.00000E+00         0.00000E+00         0.00000E+00
 
   -0.26061E+06         0.14674E+07         0.00000E+00
    0.14674E+07         0.11306E+07         0.00000E+00
    0.00000E+00         0.00000E+00         0.00000E+00
 
   -0.25056E+06         0.15181E+07         0.00000E+00
    0.15181E+07         0.11275E+07         0.00000E+00
    0.00000E+00         0.00000E+00         0.00000E+00
 
   -0.24042E+06         0.15685E+07         0.00000E+00
    0.15685E+07         0.11243E+07         0.00000E+00
    0.00000E+00         0.00000E+00         0.00000E+00
 
   -0.23019E+06         0.16184E+07         0.00000E+00
    0.16184E+07         0.11211E+07         0.00000E+00
    0.00000E+00         0.00000E+00         0.00000E+00
 
   -0.21989E+06         0.16680E+07         0.00000E+00
    0.16680E+07         0.11176E+07         0.00000E+00
    0.00000E+00         0.00000E+00         0.00000E+00
 
   -0.20950E+06         0.17173E+07         0.00000E+00
    0.17173E+07         0.11141E+07         0.00000E+00
    0.00000E+00         0.00000E+00         0.00000E+00
 
   -0.19902E+06         0.17661E+07         0.00000E+00
    0.17661E+07         0.11105E+07         0.00000E+00
    0.00000E+00         0.00000E+00         0.00000E+00
 
   -0.18845E+06         0.18146E+07         0.00000E+00
    0.18146E+07         0.11067E+07         0.00000E+00
    0.00000E+00         0.00000E+00         0.00000E+00
 
   -0.17780E+06         0.18626E+07         0.00000E+00
    0.18626E+07         0.11028E+07         0.00000E+00
    0.00000E+00         0.00000E+00         0.00000E+00
 
   -0.16705E+06         0.19103E+07         0.00000E+00
    0.19103E+07         0.10987E+07         0.00000E+00
    0.00000E+00         0.00000E+00         0.00000E+00
 
   -0.15622E+06         0.19576E+07         0.00000E+00
    0.19576E+07         0.10946E+07         0.00000E+00
    0.00000E+00         0.00000E+00         0.00000E+00
 
   -0.14529E+06         0.20044E+07         0.00000E+00
    0.20044E+07         0.10903E+07         0.00000E+00
    0.00000E+00         0.00000E+00         0.00000E+00
 
   -0.13426E+06         0.20509E+07         0.00000E+00
    0.20509E+07         0.10859E+07         0.00000E+00
    0.00000E+00         0.00000E+00         0.00000E+00
 
   -0.12314E+06         0.20970E+07         0.00000E+00
    0.20970E+07         0.10813E+07         0.00000E+00
    0.00000E+00         0.00000E+00         0.00000E+00
 
   -0.11192E+06         0.21426E+07         0.00000E+00
    0.21426E+07         0.10766E+07         0.00000E+00
    0.00000E+00         0.00000E+00         0.00000E+00
 
   -0.10060E+06         0.21878E+07         0.00000E+00
    0.21878E+07         0.10718E+07         0.00000E+00
    0.00000E+00         0.00000E+00         0.00000E+00
 
   -0.89172E+05         0.22326E+07         0.00000E+00
    0.22326E+07         0.10668E+07         0.00000E+00
    0.00000E+00         0.00000E+00         0.00000E+00
 
   -0.77642E+05         0.22770E+07         0.00000E+00
    0.22770E+07         0.10617E+07         0.00000E+00
    0.00000E+00         0.00000E+00         0.00000E+00
 
   -0.66004E+05         0.23210E+07         0.00000E+00
    0.23210E+07         0.10564E+07         0.00000E+00
    0.00000E+00         0.00000E+00         0.00000E+00
 
   -0.54258E+05         0.23645E+07         0.00000E+00
    0.23645E+07         0.10510E+07         0.00000E+00
    0.00000E+00         0.00000E+00         0.00000E+00
 
   -0.42400E+05         0.24076E+07         0.00000E+00
    0.24076E+07         0.10455E+07         0.00000E+00
    0.00000E+00         0.00000E+00         0.00000E+00
 
   -0.30428E+05         0.24502E+07         0.00000E+00
    0.24502E+07         0.10398E+07         0.00000E+00
    0.00000E+00         0.00000E+00         0.00000E+00
 
   -0.18340E+05         0.24924E+07         0.00000E+00
    0.24924E+07         0.10339E+07         0.00000E+00
    0.00000E+00         0.00000E+00         0.00000E+00
 
   -0.61332E+04         0.25342E+07         0.00000E+00
    0.25342E+07         0.10279E+07         0.00000E+00
    0.00000E+00         0.00000E+00         0.00000E+00
 
   -0.40365E+06         0.29656E+05         0.00000E+00
    0.29656E+05         0.96557E+06         0.00000E+00
    0.00000E+00         0.00000E+00         0.00000E+00
 
   -0.39711E+06         0.88236E+05         0.00000E+00
    0.88236E+05         0.96548E+06         0.00000E+00
    0.00000E+00         0.00000E+00         0.00000E+00
 
   -0.39050E+06         0.14654E+06         0.00000E+00
    0.14654E+06         0.96529E+06         0.00000E+00
    0.00000E+00         0.00000E+00         0.00000E+00
 
   -0.38381E+06         0.20458E+06         0.00000E+00
    0.20458E+06         0.96501E+06         0.00000E+00
    0.00000E+00         0.00000E+00         0.00000E+00
 
   -0.37705E+06         0.26233E+06         0.00000E+00
    0.26233E+06         0.96464E+06         0.00000E+00
    0.00000E+00         0.00000E+00         0.00000E+00
 
   -0.37022E+06         0.31979E+06         0.00000E+00
    0.31979E+06         0.96417E+06         0.00000E+00
    0.00000E+00         0.00000E+00         0.00000E+00
 
   -0.36332E+06         0.37697E+06         0.00000E+00
    0.37697E+06         0.96362E+06         0.00000E+00
    0.00000E+00         0.00000E+00         0.00000E+00
 
   -0.35636E+06         0.43385E+06         0.00000E+00
    0.43385E+06         0.96298E+06         0.00000E+00
    0.00000E+00         0.00000E+00         0.00000E+00
 
   -0.34933E+06         0.49044E+06         0.00000E+00
    0.49044E+06         0.96224E+06         0.00000E+00
    0.00000E+00         0.00000E+00         0.00000E+00
 
   -0.34224E+06         0.54672E+06         0.00000E+00
    0.54672E+06         0.96142E+06         0.00000E+00
    0.00000E+00         0.00000E+00         0.00000E+00
 
   -0.33508E+06         0.60270E+06         0.00000E+00
    0.60270E+06         0.96051E+06         0.00000E+00
    0.00000E+00         0.00000E+00         0.00000E+00
 
   -0.32786E+06         0.65837E+06         0.00000E+00
    0.65837E+06         0.95952E+06         0.00000E+00
    0.00000E+00         0.00000E+00         0.00000E+00
 
   -0.32057E+06         0.71372E+06         0.00000E+00
    0.71372E+06         0.95843E+06         0.00000E+00
    0.00000E+00         0.00000E+00         0.00000E+00
 
   -0.31323E+06         0.76875E+06         0.00000E+00
    0.76875E+06         0.95725E+06         0.00000E+00
    0.00000E+00         0.00000E+00         0.00000E+00
 
   -0.30582E+06         0.82346E+06         0.00000E+00
    0.82346E+06         0.95599E+06         0.00000E+00
    0.00000E+00         0.00000E+00         0.00000E+00
 
   -0.29835E+06         0.87785E+06         0.00000E+00
    0.87785E+06         0.95464E+06         0.00000E+00
    0.00000E+00         0.00000E+00         0.00000E+00
 
   -0.29082E+06         0.93191E+06         0.00000E+00
    0.93191E+06         0.95320E+06         0.00000E+00
    0.00000E+00         0.00000E+00         0.00000E+00
 
   -0.28323E+06         0.98563E+06         0.00000E+00
    0.98563E+06         0.95167E+06         0.00000E+00
    0.00000E+00         0.00000E+00         0.00000E+00
 
   -0.27558E+06         0.10390E+07         0.00000E+00
    0.10390E+07         0.95005E+06         0.00000E+00
    0.00000E+00         0.00000E+00         0.00000E+00
 
   -0.26787E+06         0.10921E+07         0.00000E+00
    0.10921E+07         0.94835E+06         0.00000E+00
    0.00000E+00         0.00000E+00         0.00000E+00
 
   -0.26010E+06         0.11448E+07         0.00000E+00
    0.11448E+07         0.94655E+06         0.00000E+00
    0.00000E+00         0.00000E+00         0.00000E+00
 
   -0.25226E+06         0.11971E+07         0.00000E+00
    0.11971E+07         0.94466E+06         0.00000E+00
    0.00000E+00         0.00000E+00         0.00000E+00
 
   -0.24437E+06         0.12491E+07         0.00000E+00
    0.12491E+07         0.94268E+06         0.00000E+00
    0.00000E+00         0.00000E+00         0.00000E+00
 
   -0.23641E+06         0.13008E+07         0.00000E+00
    0.13008E+07         0.94061E+06         0.00000E+00
    0.00000E+00         0.00000E+00         0.00000E+00
 
   -0.22840E+06         0.13520E+07         0.00000E+00
    0.13520E+07         0.93845E+06         0.00000E+00
    0.00000E+00         0.00000E+00         0.00000E+00
 
   -0.22032E+06         0.14030E+07         0.00000E+00
    0.14030E+07         0.93619E+06         0.00000E+00
    0.00000E+00         0.00000E+00         0.00000E+00
 
   -0.21218E+06         0.14535E+07         0.00000E+00
    0.14535E+07         0.93384E+06         0.00000E+00
    0.00000E+00         0.00000E+00         0.00000E+00
 
   -0.20397E+06         0.15037E+07         0.00000E+00
    0.15037E+07         0.93139E+06         0.00000E+00
    0.00000E+00         0.00000E+00         0.00000E+00
 
   -0.19570E+06         0.15535E+07         0.00000E+00
    0.15535E+07         0.92885E+06         0.00000E+00
    0.00000E+00         0.00000E+00         0.00000E+00
 
   -0.18737E+06         0.16030E+07         0.00000E+00
    0.16030E+07         0.92621E+06         0.00000E+00
    0.00000E+00         0.00000E+00         0.00000E+00
 
   -0.17896E+06         0.16520E+07         0.00000E+00
    0.16520E+07         0.92347E+06         0.00000E+00
    0.00000E+00         0.00000E+00         0.00000E+00
 
   -0.17050E+06         0.17007E+07         0.00000E+00
    0.17007E+07         0.92063E+06         0.00000E+00
    0.00000E+00         0.00000E+00         0.00000E+00
 
   -0.16196E+06         0.17490E+07         0.00000E+00
    0.17490E+07         0.91769E+06         0.00000E+00
    0.00000E+00         0.00000E+00         0.00000E+00
 
   -0.15335E+06         0.17968E+07         0.00000E+00
    0.17968E+07         0.91465E+06         0.00000E+00
    0.00000E+00         0.00000E+00         0.00000E+00
 
   -0.14468E+06         0.18443E+07         0.00000E+00
    0.18443E+07         0.91151E+06         0.00000E+00
    0.00000E+00         0.00000E+00         0.00000E+00
 
   -0.13593E+06         0.18914E+07         0.00000E+00
    0.18914E+07         0.90826E+06         0.00000E+00
    0.00000E+00         0.00000E+00         0.00000E+00
 
   -0.12710E+06         0.19381E+07         0.00000E+00
    0.19381E+07         0.90490E+06         0.00000E+00
    0.00000E+00         0.00000E+00         0.00000E+00
 
   -0.11821E+06         0.19844E+07         0.00000E+00
    0.19844E+07         0.90144E+06         0.00000E+00
    0.00000E+00         0.00000E+00         0.00000E+00
 
   -0.10923E+06         0.20303E+07         0.00000E+00
    0.20303E+07         0.89787E+06         0.00000E+00
    0.00000E+00         0.00000E+00         0.00000E+00
 
   -0.10018E+06         0.20757E+07         0.00000E+00
    0.20757E+07         0.89419E+06         0.00000E+00
    0.00000E+00         0.00000E+00         0.00000E+00
 
   -0.91049E+05         0.21208E+07         0.00000E+00
    0.21208E+07         0.89039E+06         0.00000E+00
    0.00000E+00         0.00000E+00         0.00000E+00
 
   -0.81836E+05         0.21654E+07         0.00000E+00
    0.21654E+07         0.88648E+06         0.00000E+00
    0.00000E+00         0.00000E+00         0.00000E+00
 
   -0.72540E+05         0.22096E+07         0.00000E+00
    0.22096E+07         0.88246E+06         0.00000E+00
    0.00000E+00         0.00000E+00         0.00000E+00
 
   -0.63160E+05         0.22533E+07         0.00000E+00
    0.22533E+07         0.87831E+06         0.00000E+00
    0.00000E+00         0.00000E+00         0.00000E+00
 
   -0.53692E+05         0.22967E+07         0.00000E+00
    0.22967E+07         0.87405E+06         0.00000E+00
    0.00000E+00         0.00000E+00         0.00000E+00
 
   -0.44136E+05         0.23395E+07         0.00000E+00
    0.23395E+07         0.86967E+06         0.00000E+00
    0.00000E+00         0.00000E+00         0.00000E+00
 
   -0.34490E+05         0.23820E+07         0.00000E+00
    0.23820E+07         0.86516E+06         0.00000E+00
    0.00000E+00         0.00000E+00         0.00000E+00
 
   -0.24751E+05         0.24240E+07         0.00000E+00
    0.24240E+07         0.86054E+06         0.00000E+00
    0.00000E+00         0.00000E+00         0.00000E+00
 
   -0.14918E+05         0.24655E+07         0.00000E+00
    0.24655E+07         0.85578E+06         0.00000E+00
    0.00000E+00         0.00000E+00         0.00000E+00
 
   -0.49890E+04         0.25066E+07         0.00000E+00
    0.25066E+07         0.85090E+06         0.00000E+00
    0.00000E+00         0.00000E+00         0.00000E+00
 
   -0.31293E+06         0.29438E+05         0.00000E+00
    0.29438E+05         0.76382E+06         0.00000E+00
    0.00000E+00         0.00000E+00         0.00000E+00
 
   -0.30772E+06         0.87595E+05         0.00000E+00
    0.87595E+05         0.76375E+06         0.00000E+00
    0.00000E+00         0.00000E+00         0.00000E+00
 
   -0.30247E+06         0.14548E+06         0.00000E+00
    0.14548E+06         0.76361E+06         0.00000E+00
    0.00000E+00         0.00000E+00         0.00000E+00
 
   -0.29716E+06         0.20310E+06         0.00000E+00
    0.20310E+06         0.76341E+06         0.00000E+00
    0.00000E+00         0.00000E+00         0.00000E+00
 
   -0.29181E+06         0.26044E+06         0.00000E+00
    0.26044E+06         0.76313E+06         0.00000E+00
    0.00000E+00         0.00000E+00         0.00000E+00
 
   -0.28641E+06         0.31749E+06         0.00000E+00
    0.31749E+06         0.76279E+06         0.00000E+00
    0.00000E+00         0.00000E+00         0.00000E+00
 
   -0.28096E+06         0.37426E+06         0.00000E+00
    0.37426E+06         0.76238E+06         0.00000E+00
    0.00000E+00         0.00000E+00         0.00000E+00
 
   -0.27547E+06         0.43074E+06         0.00000E+00
    0.43074E+06         0.76191E+06         0.00000E+00
    0.00000E+00         0.00000E+00         0.00000E+00
 
   -0.26994E+06         0.48692E+06         0.00000E+00
    0.48692E+06         0.76137E+06         0.00000E+00
    0.00000E+00         0.00000E+00         0.00000E+00
 
   -0.26436E+06         0.54279E+06         0.00000E+00
    0.54279E+06         0.76076E+06         0.00000E+00
    0.00000E+00         0.00000E+00         0.00000E+00
 
   -0.25874E+06         0.59837E+06         0.00000E+00
    0.59837E+06         0.76009E+06         0.00000E+00
    0.00000E+00         0.00000E+00         0.00000E+00
 
   -0.25307E+06         0.65363E+06         0.00000E+00
    0.65363E+06         0.75936E+06         0.00000E+00
    0.00000E+00         0.00000E+00         0.00000E+00
 
   -0.24736E+06         0.70858E+06         0.00000E+00
    0.70858E+06         0.75856E+06         0.00000E+00
    0.00000E+00         0.00000E+00         0.00000E+00
 
   -0.24161E+06         0.76322E+06         0.00000E+00
    0.76322E+06         0.75769E+06         0.00000E+00
    0.00000E+00         0.00000E+00         0.00000E+00
 
   -0.23582E+06         0.81753E+06         0.00000E+00
    0.81753E+06         0.75676E+06         0.00000E+00
    0.00000E+00         0.00000E+00         0.00000E+00
 
   -0.22999E+06         0.87151E+06         0.00000E+00
    0.87151E+06         0.75576E+06         0.00000E+00
    0.00000E+00         0.00000E+00         0.00000E+00
 
   -0.22412E+06         0.92517E+06         0.00000E+00
    0.92517E+06         0.75470E+06         0.00000E+00
    0.00000E+00         0.00000E+00         0.00000E+00
 
   -0.21821E+06         0.97849E+06         0.00000E+00
    0.97849E+06         0.75357E+06         0.00000E+00
    0.00000E+00         0.00000E+00         0.00000E+00
 
   -0.21225E+06         0.10315E+07         0.00000E+00
    0.10315E+07         0.75237E+06         0.00000E+00
    0.00000E+00         0.00000E+00         0.00000E+00
 
   -0.20626E+06         0.10841E+07         0.00000E+00
    0.10841E+07         0.75111E+06         0.00000E+00
    0.00000E+00         0.00000E+00         0.00000E+00
 
   -0.20022E+06         0.11364E+07         0.00000E+00
    0.11364E+07         0.74977E+06         0.00000E+00
    0.00000E+00         0.00000E+00         0.00000E+00
 
   -0.19414E+06         0.11883E+07         0.00000E+00
    0.11883E+07         0.74837E+06         0.00000E+00
    0.00000E+00         0.00000E+00         0.00000E+00
 
   -0.18802E+06         0.12399E+07         0.00000E+00
    0.12399E+07         0.74690E+06         0.00000E+00
    0.00000E+00         0.00000E+00         0.00000E+00
 
   -0.18186E+06         0.12912E+07         0.00000E+00
    0.12912E+07         0.74537E+06         0.00000E+00
    0.00000E+00         0.00000E+00         0.00000E+00
 
   -0.17565E+06         0.13420E+07         0.00000E+00
    0.13420E+07         0.74376E+06         0.00000E+00
    0.00000E+00         0.00000E+00         0.00000E+00
 
   -0.16940E+06         0.13925E+07         0.00000E+00
    0.13925E+07         0.74208E+06         0.00000E+00
    0.00000E+00         0.00000E+00         0.00000E+00
 
   -0.16311E+06         0.14427E+07         0.00000E+00
    0.14427E+07         0.74032E+06         0.00000E+00
    0.00000E+00         0.00000E+00         0.00000E+00
 
   -0.15677E+06         0.14924E+07         0.00000E+00
    0.14924E+07         0.73850E+06         0.00000E+00
    0.00000E+00         0.00000E+00         0.00000E+00
 
   -0.15039E+06         0.15418E+07         0.00000E+00
    0.15418E+07         0.73660E+06         0.00000E+00
    0.00000E+00         0.00000E+00         0.00000E+00
 
   -0.14396E+06         0.15908E+07         0.00000E+00
    0.15908E+07         0.73463E+06         0.00000E+00
    0.00000E+00         0.00000E+00         0.00000E+00
 
   -0.13748E+06         0.16394E+07         0.00000E+00
    0.16394E+07         0.73258E+06         0.00000E+00
    0.00000E+00         0.00000E+00         0.00000E+00
 
   -0.13096E+06         0.16877E+07         0.00000E+00
    0.16877E+07         0.73045E+06         0.00000E+00
    0.00000E+00         0.00000E+00         0.00000E+00
 
   -0.12438E+06         0.17355E+07         0.00000E+00
    0.17355E+07         0.72825E+06         0.00000E+00
    0.00000E+00         0.00000E+00         0.00000E+00
 
   -0.11776E+06         0.17829E+07         0.00000E+00
    0.17829E+07         0.72596E+06         0.00000E+00
    0.00000E+00         0.00000E+00         0.00000E+00
 
   -0.11108E+06         0.18300E+07         0.00000E+00
    0.18300E+07         0.72360E+06         0.00000E+00
    0.00000E+00         0.00000E+00         0.00000E+00
 
   -0.10435E+06         0.18766E+07         0.00000E+00
    0.18766E+07         0.72115E+06         0.00000E+00
    0.00000E+00         0.00000E+00         0.00000E+00
 
   -0.97568E+05         0.19228E+07         0.00000E+00
    0.19228E+07         0.71862E+06         0.00000E+00
    0.00000E+00         0.00000E+00         0.00000E+00
 
   -0.90730E+05         0.19686E+07         0.00000E+00
    0.19686E+07         0.71600E+06         0.00000E+00
    0.00000E+00         0.00000E+00         0.00000E+00
 
   -0.83835E+05         0.20140E+07         0.00000E+00
    0.20140E+07         0.71330E+06         0.00000E+00
    0.00000E+00         0.00000E+00         0.00000E+00
 
   -0.76882E+05         0.20590E+07         0.00000E+00
    0.20590E+07         0.71052E+06         0.00000E+00
    0.00000E+00         0.00000E+00         0.00000E+00
 
   -0.69870E+05         0.21036E+07         0.00000E+00
    0.21036E+07         0.70764E+06         0.00000E+00
    0.00000E+00         0.00000E+00         0.00000E+00
 
   -0.62797E+05         0.21477E+07         0.00000E+00
    0.21477E+07         0.70467E+06         0.00000E+00
    0.00000E+00         0.00000E+00         0.00000E+00
 
   -0.55661E+05         0.21914E+07         0.00000E+00
    0.21914E+07         0.70162E+06         0.00000E+00
    0.00000E+00         0.00000E+00         0.00000E+00
 
   -0.48462E+05         0.22346E+07         0.00000E+00
    0.22346E+07         0.69847E+06         0.00000E+00
    0.00000E+00         0.00000E+00         0.00000E+00
 
   -0.41196E+05         0.22774E+07         0.00000E+00
    0.22774E+07         0.69522E+06         0.00000E+00
    0.00000E+00         0.00000E+00         0.00000E+00
 
   -0.33864E+05         0.23198E+07         0.00000E+00
    0.23198E+07         0.69188E+06         0.00000E+00
    0.00000E+00         0.00000E+00         0.00000E+00
 
   -0.26463E+05         0.23617E+07         0.00000E+00
    0.23617E+07         0.68844E+06         0.00000E+00
    0.00000E+00         0.00000E+00         0.00000E+00
 
   -0.18991E+05         0.24032E+07         0.00000E+00
    0.24032E+07         0.68490E+06         0.00000E+00
    0.00000E+00         0.00000E+00         0.00000E+00
 
   -0.11446E+05         0.24442E+07         0.00000E+00
    0.24442E+07         0.68126E+06         0.00000E+00
    0.00000E+00         0.00000E+00         0.00000E+00
 
   -0.38279E+04         0.24847E+07         0.00000E+00
    0.24847E+07         0.67752E+06         0.00000E+00
    0.00000E+00         0.00000E+00         0.00000E+00
 
   -0.22167E+06         0.29283E+05         0.00000E+00
    0.29283E+05         0.56442E+06         0.00000E+00
    0.00000E+00         0.00000E+00         0.00000E+00
 
   -0.21778E+06         0.87139E+05         0.00000E+00
    0.87139E+05         0.56438E+06         0.00000E+00
    0.00000E+00         0.00000E+00         0.00000E+00
 
   -0.21388E+06         0.14473E+06         0.00000E+00
    0.14473E+06         0.56429E+06         0.00000E+00
    0.00000E+00         0.00000E+00         0.00000E+00
 
   -0.20994E+06         0.20205E+06         0.00000E+00
    0.20205E+06         0.56416E+06         0.00000E+00
    0.00000E+00         0.00000E+00         0.00000E+00
 
   -0.20598E+06         0.25909E+06         0.00000E+00
    0.25909E+06         0.56398E+06         0.00000E+00
    0.00000E+00         0.00000E+00         0.00000E+00
 
   -0.20200E+06         0.31586E+06         0.00000E+00
    0.31586E+06         0.56377E+06         0.00000E+00
    0.00000E+00         0.00000E+00         0.00000E+00
 
   -0.19799E+06         0.37233E+06         0.00000E+00
    0.37233E+06         0.56351E+06         0.00000E+00
    0.00000E+00         0.00000E+00         0.00000E+00
 
   -0.19397E+06         0.42852E+06         0.00000E+00
    0.42852E+06         0.56321E+06         0.00000E+00
    0.00000E+00         0.00000E+00         0.00000E+00
 
   -0.18992E+06         0.48441E+06         0.00000E+00
    0.48441E+06         0.56287E+06         0.00000E+00
    0.00000E+00         0.00000E+00         0.00000E+00
 
   -0.18585E+06         0.54001E+06         0.00000E+00
    0.54001E+06         0.56249E+06         0.00000E+00
    0.00000E+00         0.00000E+00         0.00000E+00
 
   -0.18175E+06         0.59529E+06         0.00000E+00
    0.59529E+06         0.56206E+06         0.00000E+00
    0.00000E+00         0.00000E+00         0.00000E+00
 
   -0.17764E+06         0.65027E+06         0.00000E+00
    0.65027E+06         0.56160E+06         0.00000E+00
    0.00000E+00         0.00000E+00         0.00000E+00
 
   -0.17351E+06         0.70494E+06         0.00000E+00
    0.70494E+06         0.56109E+06         0.00000E+00
    0.00000E+00         0.00000E+00         0.00000E+00
 
   -0.16936E+06         0.75928E+06         0.00000E+00
    0.75928E+06         0.56054E+06         0.00000E+00
    0.00000E+00         0.00000E+00         0.00000E+00
 
   -0.16518E+06         0.81331E+06         0.00000E+00
    0.81331E+06         0.55995E+06         0.00000E+00
    0.00000E+00         0.00000E+00         0.00000E+00
 
   -0.16099E+06         0.86700E+06         0.00000E+00
    0.86700E+06         0.55931E+06         0.00000E+00
    0.00000E+00         0.00000E+00         0.00000E+00
 
   -0.15678E+06         0.92037E+06         0.00000E+00
    0.92037E+06         0.55863E+06         0.00000E+00
    0.00000E+00         0.00000E+00         0.00000E+00
 
   -0.15255E+06         0.97340E+06         0.00000E+00
    0.97340E+06         0.55791E+06         0.00000E+00
    0.00000E+00         0.00000E+00         0.00000E+00
 
   -0.14829E+06         0.10261E+07         0.00000E+00
    0.10261E+07         0.55715E+06         0.00000E+00
    0.00000E+00         0.00000E+00         0.00000E+00
 
   -0.14402E+06         0.10784E+07         0.00000E+00
    0.10784E+07         0.55634E+06         0.00000E+00
    0.00000E+00         0.00000E+00         0.00000E+00
 
   -0.13972E+06         0.11304E+07         0.00000E+00
    0.11304E+07         0.55548E+06         0.00000E+00
    0.00000E+00         0.00000E+00         0.00000E+00
 
   -0.13541E+06         0.11821E+07         0.00000E+00
    0.11821E+07         0.55458E+06         0.00000E+00
    0.00000E+00         0.00000E+00         0.00000E+00
 
   -0.13107E+06         0.12334E+07         0.00000E+00
    0.12334E+07         0.55364E+06         0.00000E+00
    0.00000E+00         0.00000E+00         0.00000E+00
 
   -0.12671E+06         0.12843E+07         0.00000E+00
    0.12843E+07         0.55264E+06         0.00000E+00
    0.00000E+00         0.00000E+00         0.00000E+00
 
   -0.12232E+06         0.13349E+07         0.00000E+00
    0.13349E+07         0.55160E+06         0.00000E+00
    0.00000E+00         0.00000E+00         0.00000E+00
 
   -0.11792E+06         0.13851E+07         0.00000E+00
    0.13851E+07         0.55051E+06         0.00000E+00
    0.00000E+00         0.00000E+00         0.00000E+00
 
   -0.11348E+06         0.14349E+07         0.00000E+00
    0.14349E+07         0.54937E+06         0.00000E+00
    0.00000E+00         0.00000E+00         0.00000E+00
 
   -0.10903E+06         0.14843E+07         0.00000E+00
    0.14843E+07         0.54818E+06         0.00000E+00
    0.00000E+00         0.00000E+00         0.00000E+00
 
   -0.10455E+06         0.15334E+07         0.00000E+00
    0.15334E+07         0.54694E+06         0.00000E+00
    0.00000E+00         0.00000E+00         0.00000E+00
 
   -0.10004E+06         0.15821E+07         0.00000E+00
    0.15821E+07         0.54565E+06         0.00000E+00
    0.00000E+00         0.00000E+00         0.00000E+00
 
   -0.95504E+05         0.16304E+07         0.00000E+00
    0.16304E+07         0.54431E+06         0.00000E+00
    0.00000E+00         0.00000E+00         0.00000E+00
 
   -0.90941E+05         0.16783E+07         0.00000E+00
    0.16783E+07         0.54291E+06         0.00000E+00
    0.00000E+00         0.00000E+00         0.00000E+00
 
   -0.86348E+05         0.17258E+07         0.00000E+00
    0.17258E+07         0.54145E+06         0.00000E+00
    0.00000E+00         0.00000E+00         0.00000E+00
 
   -0.81725E+05         0.17729E+07         0.00000E+00
    0.17729E+07         0.53994E+06         0.00000E+00
    0.00000E+00         0.00000E+00         0.00000E+00
 
   -0.77071E+05         0.18196E+07         0.00000E+00
    0.18196E+07         0.53837E+06         0.00000E+00
    0.00000E+00         0.00000E+00         0.00000E+00
 
   -0.72385E+05         0.18659E+07         0.00000E+00
    0.18659E+07         0.53674E+06         0.00000E+00
    0.00000E+00         0.00000E+00         0.00000E+00
 
   -0.67665E+05         0.19118E+07         0.00000E+00
    0.19118E+07         0.53505E+06         0.00000E+00
    0.00000E+00         0.00000E+00         0.00000E+00
 
   -0.62909E+05         0.19572E+07         0.00000E+00
    0.19572E+07         0.53331E+06         0.00000E+00
    0.00000E+00         0.00000E+00         0.00000E+00
 
   -0.58118E+05         0.20022E+07         0.00000E+00
    0.20022E+07         0.53150E+06         0.00000E+00
    0.00000E+00         0.00000E+00         0.00000E+00
 
   -0.53290E+05         0.20469E+07         0.00000E+00
    0.20469E+07         0.52962E+06         0.00000E+00
    0.00000E+00         0.00000E+00         0.00000E+00
 
   -0.48423E+05         0.20910E+07         0.00000E+00
    0.20910E+07         0.52768E+06         0.00000E+00
    0.00000E+00         0.00000E+00         0.00000E+00
 
   -0.43516E+05         0.21348E+07         0.00000E+00
    0.21348E+07         0.52567E+06         0.00000E+00
    0.00000E+00         0.00000E+00         0.00000E+00
 
   -0.38568E+05         0.21781E+07         0.00000E+00
    0.21781E+07         0.52360E+06         0.00000E+00
    0.00000E+00         0.00000E+00         0.00000E+00
 
   -0.33577E+05         0.22210E+07         0.00000E+00
    0.22210E+07         0.52146E+06         0.00000E+00
    0.00000E+00         0.00000E+00         0.00000E+00
 
   -0.28542E+05         0.22634E+07         0.00000E+00
    0.22634E+07         0.51925E+06         0.00000E+00
    0.00000E+00         0.00000E+00         0.00000E+00
 
   -0.23461E+05         0.23054E+07         0.00000E+00
    0.23054E+07         0.51696E+06         0.00000E+00
    0.00000E+00         0.00000E+00         0.00000E+00
 
   -0.18333E+05         0.23469E+07         0.00000E+00
    0.23469E+07         0.51460E+06         0.00000E+00
    0.00000E+00         0.00000E+00         0.00000E+00
 
   -0.13157E+05         0.23879E+07         0.00000E+00
    0.23879E+07         0.51217E+06         0.00000E+00
    0.00000E+00         0.00000E+00         0.00000E+00
 
   -0.79302E+04         0.24285E+07         0.00000E+00
    0.24285E+07         0.50966E+06         0.00000E+00
    0.00000E+00         0.00000E+00         0.00000E+00
 
   -0.26521E+04         0.24686E+07         0.00000E+00
    0.24686E+07         0.50708E+06         0.00000E+00
    0.00000E+00         0.00000E+00         0.00000E+00
 
   -0.12988E+06         0.29193E+05         0.00000E+00
    0.29193E+05         0.36675E+06         0.00000E+00
    0.00000E+00         0.00000E+00         0.00000E+00
 
   -0.12731E+06         0.86873E+05         0.00000E+00
    0.86873E+05         0.36673E+06         0.00000E+00
    0.00000E+00         0.00000E+00         0.00000E+00
 
   -0.12473E+06         0.14429E+06         0.00000E+00
    0.14429E+06         0.36669E+06         0.00000E+00
    0.00000E+00         0.00000E+00         0.00000E+00
 
   -0.12216E+06         0.20144E+06         0.00000E+00
    0.20144E+06         0.36664E+06         0.00000E+00
    0.00000E+00         0.00000E+00         0.00000E+00
 
   -0.11958E+06         0.25831E+06         0.00000E+00
    0.25831E+06         0.36657E+06         0.00000E+00
    0.00000E+00         0.00000E+00         0.00000E+00
 
   -0.11701E+06         0.31490E+06         0.00000E+00
    0.31490E+06         0.36648E+06         0.00000E+00
    0.00000E+00         0.00000E+00         0.00000E+00
 
   -0.11444E+06         0.37121E+06         0.00000E+00
    0.37121E+06         0.36638E+06         0.00000E+00
    0.00000E+00         0.00000E+00         0.00000E+00
 
   -0.11187E+06         0.42723E+06         0.00000E+00
    0.42723E+06         0.36626E+06         0.00000E+00
    0.00000E+00         0.00000E+00         0.00000E+00
 
   -0.10930E+06         0.48295E+06         0.00000E+00
    0.48295E+06         0.36612E+06         0.00000E+00
    0.00000E+00         0.00000E+00         0.00000E+00
 
   -0.10673E+06         0.53838E+06         0.00000E+00
    0.53838E+06         0.36597E+06         0.00000E+00
    0.00000E+00         0.00000E+00         0.00000E+00
 
   -0.10417E+06         0.59350E+06         0.00000E+00
    0.59350E+06         0.36579E+06         0.00000E+00
    0.00000E+00         0.00000E+00         0.00000E+00
 
   -0.10161E+06         0.64831E+06         0.00000E+00
    0.64831E+06         0.36560E+06         0.00000E+00
    0.00000E+00         0.00000E+00         0.00000E+00
 
   -0.99054E+05         0.70280E+06         0.00000E+00
    0.70280E+06         0.36540E+06         0.00000E+00
    0.00000E+00         0.00000E+00         0.00000E+00
 
   -0.96498E+05         0.75698E+06         0.00000E+00
    0.75698E+06         0.36517E+06         0.00000E+00
    0.00000E+00         0.00000E+00         0.00000E+00
 
   -0.93944E+05         0.81084E+06         0.00000E+00
    0.81084E+06         0.36492E+06         0.00000E+00
    0.00000E+00         0.00000E+00         0.00000E+00
 
   -0.91393E+05         0.86436E+06         0.00000E+00
    0.86436E+06         0.36466E+06         0.00000E+00
    0.00000E+00         0.00000E+00         0.00000E+00
 
   -0.88843E+05         0.91756E+06         0.00000E+00
    0.91756E+06         0.36438E+06         0.00000E+00
    0.00000E+00         0.00000E+00         0.00000E+00
 
   -0.86295E+05         0.97042E+06         0.00000E+00
    0.97042E+06         0.36407E+06         0.00000E+00
    0.00000E+00         0.00000E+00         0.00000E+00
 
   -0.83748E+05         0.10229E+07         0.00000E+00
    0.10229E+07         0.36375E+06         0.00000E+00
    0.00000E+00         0.00000E+00         0.00000E+00
 
   -0.81202E+05         0.10751E+07         0.00000E+00
    0.10751E+07         0.36340E+06         0.00000E+00
    0.00000E+00         0.00000E+00         0.00000E+00
 
   -0.78657E+05         0.11269E+07         0.00000E+00
    0.11269E+07         0.36304E+06         0.00000E+00
    0.00000E+00         0.00000E+00         0.00000E+00
 
   -0.76111E+05         0.11784E+07         0.00000E+00
    0.11784E+07         0.36265E+06         0.00000E+00
    0.00000E+00         0.00000E+00         0.00000E+00
 
   -0.73564E+05         0.12295E+07         0.00000E+00
    0.12295E+07         0.36224E+06         0.00000E+00
    0.00000E+00         0.00000E+00         0.00000E+00
 
   -0.71016E+05         0.12802E+07         0.00000E+00
    0.12802E+07         0.36180E+06         0.00000E+00
    0.00000E+00         0.00000E+00         0.00000E+00
 
   -0.68467E+05         0.13306E+07         0.00000E+00
    0.13306E+07         0.36134E+06         0.00000E+00
    0.00000E+00         0.00000E+00         0.00000E+00
 
   -0.65915E+05         0.13806E+07         0.00000E+00
    0.13806E+07         0.36085E+06         0.00000E+00
    0.00000E+00         0.00000E+00         0.00000E+00
 
   -0.63359E+05         0.14303E+07         0.00000E+00
    0.14303E+07         0.36034E+06         0.00000E+00
    0.00000E+00         0.00000E+00         0.00000E+00
 
   -0.60800E+05         0.14795E+07         0.00000E+00
    0.14795E+07         0.35980E+06         0.00000E+00
    0.00000E+00         0.00000E+00         0.00000E+00
 
   -0.58235E+05         0.15284E+07         0.00000E+00
    0.15284E+07         0.35923E+06         0.00000E+00
    0.00000E+00         0.00000E+00         0.00000E+00
 
   -0.55665E+05         0.15768E+07         0.00000E+00
    0.15768E+07         0.35863E+06         0.00000E+00
    0.00000E+00         0.00000E+00         0.00000E+00
 
   -0.53089E+05         0.16249E+07         0.00000E+00
    0.16249E+07         0.35800E+06         0.00000E+00
    0.00000E+00         0.00000E+00         0.00000E+00
 
   -0.50505E+05         0.16726E+07         0.00000E+00
    0.16726E+07         0.35734E+06         0.00000E+00
    0.00000E+00         0.00000E+00         0.00000E+00
 
   -0.47912E+05         0.17199E+07         0.00000E+00
    0.17199E+07         0.35665E+06         0.00000E+00
    0.00000E+00         0.00000E+00         0.00000E+00
 
   -0.45310E+05         0.17668E+07         0.00000E+00
    0.17668E+07         0.35593E+06         0.00000E+00
    0.00000E+00         0.00000E+00         0.00000E+00
 
   -0.42698E+05         0.18133E+07         0.00000E+00
    0.18133E+07         0.35517E+06         0.00000E+00
    0.00000E+00         0.00000E+00         0.00000E+00
 
   -0.40074E+05         0.18593E+07         0.00000E+00
    0.18593E+07         0.35438E+06         0.00000E+00
    0.00000E+00         0.00000E+00         0.00000E+00
 
   -0.37437E+05         0.19050E+07         0.00000E+00
    0.19050E+07         0.35355E+06         0.00000E+00
    0.00000E+00         0.00000E+00         0.00000E+00
 
   -0.34786E+05         0.19502E+07         0.00000E+00
    0.19502E+07         0.35268E+06         0.00000E+00
    0.00000E+00         0.00000E+00         0.00000E+00
 
   -0.32121E+05         0.19950E+07         0.00000E+00
    0.19950E+07         0.35177E+06         0.00000E+00
    0.00000E+00         0.00000E+00         0.00000E+00
 
   -0.29440E+05         0.20394E+07         0.00000E+00
    0.20394E+07         0.35082E+06         0.00000E+00
    0.00000E+00         0.00000E+00         0.00000E+00
 
   -0.26741E+05         0.20833E+07         0.00000E+00
    0.20833E+07         0.34983E+06         0.00000E+00
    0.00000E+00         0.00000E+00         0.00000E+00
 
   -0.24024E+05         0.21268E+07         0.00000E+00
    0.21268E+07         0.34880E+06         0.00000E+00
    0.00000E+00         0.00000E+00         0.00000E+00
 
   -0.21286E+05         0.21698E+07         0.00000E+00
    0.21698E+07         0.34773E+06         0.00000E+00
    0.00000E+00         0.00000E+00         0.00000E+00
 
   -0.18528E+05         0.22125E+07         0.00000E+00
    0.22125E+07         0.34661E+06         0.00000E+00
    0.00000E+00         0.00000E+00         0.00000E+00
 
   -0.15748E+05         0.22546E+07         0.00000E+00
    0.22546E+07         0.34544E+06         0.00000E+00
    0.00000E+00         0.00000E+00         0.00000E+00
 
   -0.12944E+05         0.22963E+07         0.00000E+00
    0.22963E+07         0.34423E+06         0.00000E+00
    0.00000E+00         0.00000E+00         0.00000E+00
 
   -0.10114E+05         0.23375E+07         0.00000E+00
    0.23375E+07         0.34297E+06         0.00000E+00
    0.00000E+00         0.00000E+00         0.00000E+00
 
   -0.72588E+04         0.23783E+07         0.00000E+00
    0.23783E+07         0.34165E+06         0.00000E+00
    0.00000E+00         0.00000E+00         0.00000E+00
 
   -0.43757E+04         0.24186E+07         0.00000E+00
    0.24186E+07         0.34029E+06         0.00000E+00
    0.00000E+00         0.00000E+00         0.00000E+00
 
   -0.14635E+04         0.24584E+07         0.00000E+00
    0.24584E+07         0.33887E+06         0.00000E+00
    0.00000E+00         0.00000E+00         0.00000E+00
 
   -0.37548E+05         0.29167E+05         0.00000E+00
    0.29167E+05         0.17019E+06         0.00000E+00
    0.00000E+00         0.00000E+00         0.00000E+00
 
   -0.36273E+05         0.86798E+05         0.00000E+00
    0.86798E+05         0.17020E+06         0.00000E+00
    0.00000E+00         0.00000E+00         0.00000E+00
 
   -0.35025E+05         0.14417E+06         0.00000E+00
    0.14417E+06         0.17021E+06         0.00000E+00
    0.00000E+00         0.00000E+00         0.00000E+00
 
   -0.33804E+05         0.20127E+06         0.00000E+00
    0.20127E+06         0.17024E+06         0.00000E+00
    0.00000E+00         0.00000E+00         0.00000E+00
 
   -0.32610E+05         0.25809E+06         0.00000E+00
    0.25809E+06         0.17028E+06         0.00000E+00
    0.00000E+00         0.00000E+00         0.00000E+00
 
   -0.31443E+05         0.31464E+06         0.00000E+00
    0.31464E+06         0.17032E+06         0.00000E+00
    0.00000E+00         0.00000E+00         0.00000E+00
 
   -0.30302E+05         0.37090E+06         0.00000E+00
    0.37090E+06         0.17037E+06         0.00000E+00
    0.00000E+00         0.00000E+00         0.00000E+00
 
   -0.29189E+05         0.42688E+06         0.00000E+00
    0.42688E+06         0.17044E+06         0.00000E+00
    0.00000E+00         0.00000E+00         0.00000E+00
 
   -0.28102E+05         0.48256E+06         0.00000E+00
    0.48256E+06         0.17051E+06         0.00000E+00
    0.00000E+00         0.00000E+00         0.00000E+00
 
   -0.27042E+05         0.53793E+06         0.00000E+00
    0.53793E+06         0.17058E+06         0.00000E+00
    0.00000E+00         0.00000E+00         0.00000E+00
 
   -0.26009E+05         0.59301E+06         0.00000E+00
    0.59301E+06         0.17067E+06         0.00000E+00
    0.00000E+00         0.00000E+00         0.00000E+00
 
   -0.25002E+05         0.64777E+06         0.00000E+00
    0.64777E+06         0.17076E+06         0.00000E+00
    0.00000E+00         0.00000E+00         0.00000E+00
 
   -0.24020E+05         0.70222E+06         0.00000E+00
    0.70222E+06         0.17086E+06         0.00000E+00
    0.00000E+00         0.00000E+00         0.00000E+00
 
   -0.23065E+05         0.75634E+06         0.00000E+00
    0.75634E+06         0.17096E+06         0.00000E+00
    0.00000E+00         0.00000E+00         0.00000E+00
 
   -0.22135E+05         0.81015E+06         0.00000E+00
    0.81015E+06         0.17107E+06         0.00000E+00
    0.00000E+00         0.00000E+00         0.00000E+00
 
   -0.21230E+05         0.86362E+06         0.00000E+00
    0.86362E+06         0.17118E+06         0.00000E+00
    0.00000E+00         0.00000E+00         0.00000E+00
 
   -0.20350E+05         0.91676E+06         0.00000E+00
    0.91676E+06         0.17130E+06         0.00000E+00
    0.00000E+00         0.00000E+00         0.00000E+00
 
   -0.19493E+05         0.96956E+06         0.00000E+00
    0.96956E+06         0.17143E+06         0.00000E+00
    0.00000E+00         0.00000E+00         0.00000E+00
 
   -0.18661E+05         0.10220E+07         0.00000E+00
    0.10220E+07         0.17155E+06         0.00000E+00
    0.00000E+00         0.00000E+00         0.00000E+00
 
   -0.17851E+05         0.10741E+07         0.00000E+00
    0.10741E+07         0.17168E+06         0.00000E+00
    0.00000E+00         0.00000E+00         0.00000E+00
 
   -0.17064E+05         0.11259E+07         0.00000E+00
    0.11259E+07         0.17181E+06         0.00000E+00
    0.00000E+00         0.00000E+00         0.00000E+00
 
   -0.16299E+05         0.11773E+07         0.00000E+00
    0.11773E+07         0.17194E+06         0.00000E+00
    0.00000E+00         0.00000E+00         0.00000E+00
 
   -0.15554E+05         0.12283E+07         0.00000E+00
    0.12283E+07         0.17207E+06         0.00000E+00
    0.00000E+00         0.00000E+00         0.00000E+00
 
   -0.14831E+05         0.12790E+07         0.00000E+00
    0.12790E+07         0.17220E+06         0.00000E+00
    0.00000E+00         0.00000E+00         0.00000E+00
 
   -0.14127E+05         0.13293E+07         0.00000E+00
    0.13293E+07         0.17233E+06         0.00000E+00
    0.00000E+00         0.00000E+00         0.00000E+00
 
   -0.13442E+05         0.13792E+07         0.00000E+00
    0.13792E+07         0.17246E+06         0.00000E+00
    0.00000E+00         0.00000E+00         0.00000E+00
 
   -0.12775E+05         0.14288E+07         0.00000E+00
    0.14288E+07         0.17258E+06         0.00000E+00
    0.00000E+00         0.00000E+00         0.00000E+00
 
   -0.12126E+05         0.14780E+07         0.00000E+00
    0.14780E+07         0.17270E+06         0.00000E+00
    0.00000E+00         0.00000E+00         0.00000E+00
 
   -0.11494E+05         0.15267E+07         0.00000E+00
    0.15267E+07         0.17281E+06         0.00000E+00
    0.00000E+00         0.00000E+00         0.00000E+00
 
   -0.10877E+05         0.15751E+07         0.00000E+00
    0.15751E+07         0.17292E+06         0.00000E+00
    0.00000E+00         0.00000E+00         0.00000E+00
 
   -0.10275E+05         0.16231E+07         0.00000E+00
    0.16231E+07         0.17302E+06         0.00000E+00
    0.00000E+00         0.00000E+00         0.00000E+00
 
   -0.96862E+04         0.16707E+07         0.00000E+00
    0.16707E+07         0.17312E+06         0.00000E+00
    0.00000E+00         0.00000E+00         0.00000E+00
 
   -0.91108E+04         0.17179E+07         0.00000E+00
    0.17179E+07         0.17320E+06         0.00000E+00
    0.00000E+00         0.00000E+00         0.00000E+00
 
   -0.85472E+04         0.17647E+07         0.00000E+00
    0.17647E+07         0.17328E+06         0.00000E+00
    0.00000E+00         0.00000E+00         0.00000E+00
 
   -0.79946E+04         0.18111E+07         0.00000E+00
    0.18111E+07         0.17334E+06         0.00000E+00
    0.00000E+00         0.00000E+00         0.00000E+00
 
   -0.74518E+04         0.18570E+07         0.00000E+00
    0.18570E+07         0.17339E+06         0.00000E+00
    0.00000E+00         0.00000E+00         0.00000E+00
 
   -0.69178E+04         0.19026E+07         0.00000E+00
    0.19026E+07         0.17343E+06         0.00000E+00
    0.00000E+00         0.00000E+00         0.00000E+00
 
   -0.63915E+04         0.19477E+07         0.00000E+00
    0.19477E+07         0.17346E+06         0.00000E+00
    0.00000E+00         0.00000E+00         0.00000E+00
 
   -0.58719E+04         0.19923E+07         0.00000E+00
    0.19923E+07         0.17347E+06         0.00000E+00
    0.00000E+00         0.00000E+00         0.00000E+00
 
   -0.53577E+04         0.20366E+07         0.00000E+00
    0.20366E+07         0.17346E+06         0.00000E+00
    0.00000E+00         0.00000E+00         0.00000E+00
 
   -0.48480E+04         0.20804E+07         0.00000E+00
    0.20804E+07         0.17343E+06         0.00000E+00
    0.00000E+00         0.00000E+00         0.00000E+00
 
   -0.43414E+04         0.21238E+07         0.00000E+00
    0.21238E+07         0.17339E+06         0.00000E+00
    0.00000E+00         0.00000E+00         0.00000E+00
 
   -0.38370E+04         0.21667E+07         0.00000E+00
    0.21667E+07         0.17333E+06         0.00000E+00
    0.00000E+00         0.00000E+00         0.00000E+00
 
   -0.33334E+04         0.22091E+07         0.00000E+00
    0.22091E+07         0.17324E+06         0.00000E+00
    0.00000E+00         0.00000E+00         0.00000E+00
 
   -0.28296E+04         0.22511E+07         0.00000E+00
    0.22511E+07         0.17314E+06         0.00000E+00
    0.00000E+00         0.00000E+00         0.00000E+00
 
   -0.23242E+04         0.22927E+07         0.00000E+00
    0.22927E+07         0.17301E+06         0.00000E+00
    0.00000E+00         0.00000E+00         0.00000E+00
 
   -0.18161E+04         0.23338E+07         0.00000E+00
    0.23338E+07         0.17285E+06         0.00000E+00
    0.00000E+00         0.00000E+00         0.00000E+00
 
   -0.13042E+04         0.23744E+07         0.00000E+00
    0.23744E+07         0.17267E+06         0.00000E+00
    0.00000E+00         0.00000E+00         0.00000E+00
 
   -0.78702E+03         0.24145E+07         0.00000E+00
    0.24145E+07         0.17246E+06         0.00000E+00
    0.00000E+00         0.00000E+00         0.00000E+00
 
   -0.26350E+03         0.24542E+07         0.00000E+00
    0.24542E+07         0.17223E+06         0.00000E+00
    0.00000E+00         0.00000E+00         0.00000E+00
 
    0.55368E+05         0.29207E+05         0.00000E+00
    0.29207E+05        -0.25870E+05         0.00000E+00
    0.00000E+00         0.00000E+00         0.00000E+00
 
    0.55345E+05         0.86920E+05         0.00000E+00
    0.86920E+05        -0.25834E+05         0.00000E+00
    0.00000E+00         0.00000E+00         0.00000E+00
 
    0.55267E+05         0.14437E+06         0.00000E+00
    0.14437E+06        -0.25761E+05         0.00000E+00
    0.00000E+00         0.00000E+00         0.00000E+00
 
    0.55135E+05         0.20155E+06         0.00000E+00
    0.20155E+06        -0.25653E+05         0.00000E+00
    0.00000E+00         0.00000E+00         0.00000E+00
 
    0.54949E+05         0.25846E+06         0.00000E+00
    0.25846E+06        -0.25510E+05         0.00000E+00
    0.00000E+00         0.00000E+00         0.00000E+00
 
    0.54711E+05         0.31508E+06         0.00000E+00
    0.31508E+06        -0.25331E+05         0.00000E+00
    0.00000E+00         0.00000E+00         0.00000E+00
 
    0.54419E+05         0.37143E+06         0.00000E+00
    0.37143E+06        -0.25118E+05         0.00000E+00
    0.00000E+00         0.00000E+00         0.00000E+00
 
    0.54074E+05         0.42748E+06         0.00000E+00
    0.42748E+06        -0.24871E+05         0.00000E+00
    0.00000E+00         0.00000E+00         0.00000E+00
 
    0.53678E+05         0.48323E+06         0.00000E+00
    0.48323E+06        -0.24591E+05         0.00000E+00
    0.00000E+00         0.00000E+00         0.00000E+00
 
    0.53229E+05         0.53869E+06         0.00000E+00
    0.53869E+06        -0.24277E+05         0.00000E+00
    0.00000E+00         0.00000E+00         0.00000E+00
 
    0.52729E+05         0.59384E+06         0.00000E+00
    0.59384E+06        -0.23931E+05         0.00000E+00
    0.00000E+00         0.00000E+00         0.00000E+00
 
    0.52178E+05         0.64867E+06         0.00000E+00
    0.64867E+06        -0.23554E+05         0.00000E+00
    0.00000E+00         0.00000E+00         0.00000E+00
 
    0.51577E+05         0.70319E+06         0.00000E+00
    0.70319E+06        -0.23144E+05         0.00000E+00
    0.00000E+00         0.00000E+00         0.00000E+00
 
    0.50926E+05         0.75739E+06         0.00000E+00
    0.75739E+06        -0.22705E+05         0.00000E+00
    0.00000E+00         0.00000E+00         0.00000E+00
 
    0.50226E+05         0.81126E+06         0.00000E+00
    0.81126E+06        -0.22235E+05         0.00000E+00
    0.00000E+00         0.00000E+00         0.00000E+00
 
    0.49477E+05         0.86480E+06         0.00000E+00
    0.86480E+06        -0.21736E+05         0.00000E+00
    0.00000E+00         0.00000E+00         0.00000E+00
 
    0.48681E+05         0.91801E+06         0.00000E+00
    0.91801E+06        -0.21209E+05         0.00000E+00
    0.00000E+00         0.00000E+00         0.00000E+00
 
    0.47837E+05         0.97087E+06         0.00000E+00
    0.97087E+06        -0.20653E+05         0.00000E+00
    0.00000E+00         0.00000E+00         0.00000E+00
 
    0.46946E+05         0.10234E+07         0.00000E+00
    0.10234E+07        -0.20071E+05         0.00000E+00
    0.00000E+00         0.00000E+00         0.00000E+00
 
    0.46010E+05         0.10756E+07         0.00000E+00
    0.10756E+07        -0.19462E+05         0.00000E+00
    0.00000E+00         0.00000E+00         0.00000E+00
 
    0.45028E+05         0.11274E+07         0.00000E+00
    0.11274E+07        -0.18828E+05         0.00000E+00
    0.00000E+00         0.00000E+00         0.00000E+00
 
    0.44002E+05         0.11788E+07         0.00000E+00
    0.11788E+07        -0.18169E+05         0.00000E+00
    0.00000E+00         0.00000E+00         0.00000E+00
 
    0.42932E+05         0.12299E+07         0.00000E+00
    0.12299E+07        -0.17487E+05         0.00000E+00
    0.00000E+00         0.00000E+00         0.00000E+00
 
    0.41820E+05         0.12806E+07         0.00000E+00
    0.12806E+07        -0.16781E+05         0.00000E+00
    0.00000E+00         0.00000E+00         0.00000E+00
 
    0.40666E+05         0.13310E+07         0.00000E+00
    0.13310E+07        -0.16053E+05         0.00000E+00
    0.00000E+00         0.00000E+00         0.00000E+00
 
    0.39470E+05         0.13810E+07         0.00000E+00
    0.13810E+07        -0.15304E+05         0.00000E+00
    0.00000E+00         0.00000E+00         0.00000E+00
 
    0.38234E+05         0.14306E+07         0.00000E+00
    0.14306E+07        -0.14535E+05         0.00000E+00
    0.00000E+00         0.00000E+00         0.00000E+00
 
    0.36959E+05         0.14798E+07         0.00000E+00
    0.14798E+07        -0.13747E+05         0.00000E+00
    0.00000E+00         0.00000E+00         0.00000E+00
 
    0.35646E+05         0.15286E+07         0.00000E+00
    0.15286E+07        -0.12940E+05         0.00000E+00
    0.00000E+00         0.00000E+00         0.00000E+00
 
    0.34295E+05         0.15770E+07         0.00000E+00
    0.15770E+07        -0.12115E+05         0.00000E+00
    0.00000E+00         0.00000E+00         0.00000E+00
 
    0.32907E+05         0.16250E+07         0.00000E+00
    0.16250E+07        -0.11274E+05         0.00000E+00
    0.00000E+00         0.00000E+00         0.00000E+00
 
    0.31484E+05         0.16727E+07         0.00000E+00
    0.16727E+07        -0.10418E+05         0.00000E+00
    0.00000E+00         0.00000E+00         0.00000E+00
 
    0.30026E+05         0.17199E+07         0.00000E+00
    0.17199E+07        -0.95466E+04         0.00000E+00
    0.00000E+00         0.00000E+00         0.00000E+00
 
    0.28534E+05         0.17667E+07         0.00000E+00
    0.17667E+07        -0.86621E+04         0.00000E+00
    0.00000E+00         0.00000E+00         0.00000E+00
 
    0.27010E+05         0.18130E+07         0.00000E+00
    0.18130E+07        -0.77651E+04         0.00000E+00
    0.00000E+00         0.00000E+00         0.00000E+00
 
    0.25454E+05         0.18590E+07         0.00000E+00
    0.18590E+07        -0.68567E+04         0.00000E+00
    0.00000E+00         0.00000E+00         0.00000E+00
 
    0.23867E+05         0.19046E+07         0.00000E+00
    0.19046E+07        -0.59378E+04         0.00000E+00
    0.00000E+00         0.00000E+00         0.00000E+00
 
    0.22251E+05         0.19497E+07         0.00000E+00
    0.19497E+07        -0.50096E+04         0.00000E+00
    0.00000E+00         0.00000E+00         0.00000E+00
 
    0.20607E+05         0.19943E+07         0.00000E+00
    0.19943E+07        -0.40730E+04         0.00000E+00
    0.00000E+00         0.00000E+00         0.00000E+00
 
    0.18935E+05         0.20386E+07         0.00000E+00
    0.20386E+07        -0.31292E+04         0.00000E+00
    0.00000E+00         0.00000E+00         0.00000E+00
 
    0.17236E+05         0.20824E+07         0.00000E+00
    0.20824E+07        -0.21793E+04         0.00000E+00
    0.00000E+00         0.00000E+00         0.00000E+00
 
    0.15513E+05         0.21257E+07         0.00000E+00
    0.21257E+07        -0.12243E+04         0.00000E+00
    0.00000E+00         0.00000E+00         0.00000E+00
 
    0.13765E+05         0.21686E+07         0.00000E+00
    0.21686E+07        -0.26527E+03         0.00000E+00
    0.00000E+00         0.00000E+00         0.00000E+00
 
    0.11994E+05         0.22111E+07         0.00000E+00
    0.22111E+07         0.69662E+03         0.00000E+00
    0.00000E+00         0.00000E+00         0.00000E+00
 
    0.10201E+05         0.22531E+07         0.00000E+00
    0.22531E+07         0.16603E+04         0.00000E+00
    0.00000E+00         0.00000E+00         0.00000E+00
 
    0.83875E+04         0.22946E+07         0.00000E+00
    0.22946E+07         0.26247E+04         0.00000E+00
    0.00000E+00         0.00000E+00         0.00000E+00
 
    0.65541E+04         0.23356E+07         0.00000E+00
    0.23356E+07         0.35887E+04         0.00000E+00
    0.00000E+00         0.00000E+00         0.00000E+00
 
    0.47021E+04         0.23762E+07         0.00000E+00
    0.23762E+07         0.45511E+04         0.00000E+00
    0.00000E+00         0.00000E+00         0.00000E+00
 
    0.28326E+04         0.24163E+07         0.00000E+00
    0.24163E+07         0.55109E+04         0.00000E+00
    0.00000E+00         0.00000E+00         0.00000E+00
 
    0.94683E+03         0.24559E+07         0.00000E+00
    0.24559E+07         0.64670E+04         0.00000E+00
    0.00000E+00         0.00000E+00         0.00000E+00
 
    0.14891E+06         0.29314E+05         0.00000E+00
    0.29314E+05        -0.22203E+06         0.00000E+00
    0.00000E+00         0.00000E+00         0.00000E+00
 
    0.14759E+06         0.87239E+05         0.00000E+00
    0.87239E+05        -0.22197E+06         0.00000E+00
    0.00000E+00         0.00000E+00         0.00000E+00
 
    0.14618E+06         0.14490E+06         0.00000E+00
    0.14490E+06        -0.22184E+06         0.00000E+00
    0.00000E+00         0.00000E+00         0.00000E+00
 
    0.14469E+06         0.20229E+06         0.00000E+00
    0.20229E+06        -0.22165E+06         0.00000E+00
    0.00000E+00         0.00000E+00         0.00000E+00
 
    0.14312E+06         0.25941E+06         0.00000E+00
    0.25941E+06        -0.22140E+06         0.00000E+00
    0.00000E+00         0.00000E+00         0.00000E+00
 
    0.14147E+06         0.31624E+06         0.00000E+00
    0.31624E+06        -0.22109E+06         0.00000E+00
    0.00000E+00         0.00000E+00         0.00000E+00
 
    0.13974E+06         0.37279E+06         0.00000E+00
    0.37279E+06        -0.22071E+06         0.00000E+00
    0.00000E+00         0.00000E+00         0.00000E+00
 
    0.13793E+06         0.42904E+06         0.00000E+00
    0.42904E+06        -0.22027E+06         0.00000E+00
    0.00000E+00         0.00000E+00         0.00000E+00
 
    0.13605E+06         0.48500E+06         0.00000E+00
    0.48500E+06        -0.21978E+06         0.00000E+00
    0.00000E+00         0.00000E+00         0.00000E+00
 
    0.13408E+06         0.54066E+06         0.00000E+00
    0.54066E+06        -0.21923E+06         0.00000E+00
    0.00000E+00         0.00000E+00         0.00000E+00
 
    0.13204E+06         0.59600E+06         0.00000E+00
    0.59600E+06        -0.21862E+06         0.00000E+00
    0.00000E+00         0.00000E+00         0.00000E+00
 
    0.12993E+06         0.65104E+06         0.00000E+00
    0.65104E+06        -0.21795E+06         0.00000E+00
    0.00000E+00         0.00000E+00         0.00000E+00
 
    0.12774E+06         0.70575E+06         0.00000E+00
    0.70575E+06        -0.21722E+06         0.00000E+00
    0.00000E+00         0.00000E+00         0.00000E+00
 
    0.12547E+06         0.76014E+06         0.00000E+00
    0.76014E+06        -0.21644E+06         0.00000E+00
    0.00000E+00         0.00000E+00         0.00000E+00
 
    0.12313E+06         0.81420E+06         0.00000E+00
    0.81420E+06        -0.21561E+06         0.00000E+00
    0.00000E+00         0.00000E+00         0.00000E+00
 
    0.12072E+06         0.86793E+06         0.00000E+00
    0.86793E+06        -0.21472E+06         0.00000E+00
    0.00000E+00         0.00000E+00         0.00000E+00
 
    0.11823E+06         0.92132E+06         0.00000E+00
    0.92132E+06        -0.21378E+06         0.00000E+00
    0.00000E+00         0.00000E+00         0.00000E+00
 
    0.11568E+06         0.97437E+06         0.00000E+00
    0.97437E+06        -0.21279E+06         0.00000E+00
    0.00000E+00         0.00000E+00         0.00000E+00
 
    0.11306E+06         0.10271E+07         0.00000E+00
    0.10271E+07        -0.21174E+06         0.00000E+00
    0.00000E+00         0.00000E+00         0.00000E+00
 
    0.11036E+06         0.10794E+07         0.00000E+00
    0.10794E+07        -0.21065E+06         0.00000E+00
    0.00000E+00         0.00000E+00         0.00000E+00
 
    0.10760E+06         0.11314E+07         0.00000E+00
    0.11314E+07        -0.20950E+06         0.00000E+00
    0.00000E+00         0.00000E+00         0.00000E+00
 
    0.10477E+06         0.11830E+07         0.00000E+00
    0.11830E+07        -0.20831E+06         0.00000E+00
    0.00000E+00         0.00000E+00         0.00000E+00
 
    0.10187E+06         0.12343E+07         0.00000E+00
    0.12343E+07        -0.20707E+06         0.00000E+00
    0.00000E+00         0.00000E+00         0.00000E+00
 
    0.98913E+05         0.12852E+07         0.00000E+00
    0.12852E+07        -0.20578E+06         0.00000E+00
    0.00000E+00         0.00000E+00         0.00000E+00
 
    0.95887E+05         0.13357E+07         0.00000E+00
    0.13357E+07        -0.20445E+06         0.00000E+00
    0.00000E+00         0.00000E+00         0.00000E+00
 
    0.92798E+05         0.13858E+07         0.00000E+00
    0.13858E+07        -0.20307E+06         0.00000E+00
    0.00000E+00         0.00000E+00         0.00000E+00
 
    0.89646E+05         0.14356E+07         0.00000E+00
    0.14356E+07        -0.20164E+06         0.00000E+00
    0.00000E+00         0.00000E+00         0.00000E+00
 
    0.86432E+05         0.14850E+07         0.00000E+00
    0.14850E+07        -0.20018E+06         0.00000E+00
    0.00000E+00         0.00000E+00         0.00000E+00
 
    0.83158E+05         0.15339E+07         0.00000E+00
    0.15339E+07        -0.19867E+06         0.00000E+00
    0.00000E+00         0.00000E+00         0.00000E+00
 
    0.79824E+05         0.15825E+07         0.00000E+00
    0.15825E+07        -0.19712E+06         0.00000E+00
    0.00000E+00         0.00000E+00         0.00000E+00
 
    0.76431E+05         0.16307E+07         0.00000E+00
    0.16307E+07        -0.19554E+06         0.00000E+00
    0.00000E+00         0.00000E+00         0.00000E+00
 
    0.72981E+05         0.16784E+07         0.00000E+00
    0.16784E+07        -0.19391E+06         0.00000E+00
    0.00000E+00         0.00000E+00         0.00000E+00
 
    0.69474E+05         0.17258E+07         0.00000E+00
    0.17258E+07        -0.19224E+06         0.00000E+00
    0.00000E+00         0.00000E+00         0.00000E+00
 
    0.65911E+05         0.17727E+07         0.00000E+00
    0.17727E+07        -0.19054E+06         0.00000E+00
    0.00000E+00         0.00000E+00         0.00000E+00
 
    0.62293E+05         0.18192E+07         0.00000E+00
    0.18192E+07        -0.18880E+06         0.00000E+00
    0.00000E+00         0.00000E+00         0.00000E+00
 
    0.58622E+05         0.18653E+07         0.00000E+00
    0.18653E+07        -0.18703E+06         0.00000E+00
    0.00000E+00         0.00000E+00         0.00000E+00
 
    0.54898E+05         0.19110E+07         0.00000E+00
    0.19110E+07        -0.18522E+06         0.00000E+00
    0.00000E+00         0.00000E+00         0.00000E+00
 
    0.51123E+05         0.19562E+07         0.00000E+00
    0.19562E+07        -0.18338E+06         0.00000E+00
    0.00000E+00         0.00000E+00         0.00000E+00
 
    0.47297E+05         0.20010E+07         0.00000E+00
    0.20010E+07        -0.18150E+06         0.00000E+00
    0.00000E+00         0.00000E+00         0.00000E+00
 
    0.43421E+05         0.20454E+07         0.00000E+00
    0.20454E+07        -0.17960E+06         0.00000E+00
    0.00000E+00         0.00000E+00         0.00000E+00
 
    0.39497E+05         0.20893E+07         0.00000E+00
    0.20893E+07        -0.17767E+06         0.00000E+00
    0.00000E+00         0.00000E+00         0.00000E+00
 
    0.35525E+05         0.21328E+07         0.00000E+00
    0.21328E+07        -0.17570E+06         0.00000E+00
    0.00000E+00         0.00000E+00         0.00000E+00
 
    0.31507E+05         0.21758E+07         0.00000E+00
    0.21758E+07        -0.17371E+06         0.00000E+00
    0.00000E+00         0.00000E+00         0.00000E+00
 
    0.27443E+05         0.22183E+07         0.00000E+00
    0.22183E+07        -0.17170E+06         0.00000E+00
    0.00000E+00         0.00000E+00         0.00000E+00
 
    0.23335E+05         0.22604E+07         0.00000E+00
    0.22604E+07        -0.16965E+06         0.00000E+00
    0.00000E+00         0.00000E+00         0.00000E+00
 
    0.19184E+05         0.23020E+07         0.00000E+00
    0.23020E+07        -0.16758E+06         0.00000E+00
    0.00000E+00         0.00000E+00         0.00000E+00
 
    0.14990E+05         0.23431E+07         0.00000E+00
    0.23431E+07        -0.16549E+06         0.00000E+00
    0.00000E+00         0.00000E+00         0.00000E+00
 
    0.10756E+05         0.23838E+07         0.00000E+00
    0.23838E+07        -0.16338E+06         0.00000E+00
    0.00000E+00         0.00000E+00         0.00000E+00
 
    0.64807E+04         0.24240E+07         0.00000E+00
    0.24240E+07        -0.16124E+06         0.00000E+00
    0.00000E+00         0.00000E+00         0.00000E+00
 
    0.21667E+04         0.24637E+07         0.00000E+00
    0.24637E+07        -0.15908E+06         0.00000E+00
    0.00000E+00         0.00000E+00         0.00000E+00
 
    0.24313E+06         0.29489E+05         0.00000E+00
    0.29489E+05        -0.41892E+06         0.00000E+00
    0.00000E+00         0.00000E+00         0.00000E+00
 
    0.24050E+06         0.87759E+05         0.00000E+00
    0.87759E+05        -0.41882E+06         0.00000E+00
    0.00000E+00         0.00000E+00         0.00000E+00
 
    0.23776E+06         0.14576E+06         0.00000E+00
    0.14576E+06        -0.41864E+06         0.00000E+00
    0.00000E+00         0.00000E+00         0.00000E+00
 
    0.23490E+06         0.20349E+06         0.00000E+00
    0.20349E+06        -0.41837E+06         0.00000E+00
    0.00000E+00         0.00000E+00         0.00000E+00
 
    0.23194E+06         0.26095E+06         0.00000E+00
    0.26095E+06        -0.41800E+06         0.00000E+00
    0.00000E+00         0.00000E+00         0.00000E+00
 
    0.22887E+06         0.31812E+06         0.00000E+00
    0.31812E+06        -0.41755E+06         0.00000E+00
    0.00000E+00         0.00000E+00         0.00000E+00
 
    0.22569E+06         0.37500E+06         0.00000E+00
    0.37500E+06        -0.41701E+06         0.00000E+00
    0.00000E+00         0.00000E+00         0.00000E+00
 
    0.22241E+06         0.43159E+06         0.00000E+00
    0.43159E+06        -0.41639E+06         0.00000E+00
    0.00000E+00         0.00000E+00         0.00000E+00
 
    0.21903E+06         0.48787E+06         0.00000E+00
    0.48787E+06        -0.41568E+06         0.00000E+00
    0.00000E+00         0.00000E+00         0.00000E+00
 
    0.21554E+06         0.54385E+06         0.00000E+00
    0.54385E+06        -0.41488E+06         0.00000E+00
    0.00000E+00         0.00000E+00         0.00000E+00
 
    0.21194E+06         0.59952E+06         0.00000E+00
    0.59952E+06        -0.41400E+06         0.00000E+00
    0.00000E+00         0.00000E+00         0.00000E+00
 
    0.20825E+06         0.65488E+06         0.00000E+00
    0.65488E+06        -0.41304E+06         0.00000E+00
    0.00000E+00         0.00000E+00         0.00000E+00
 
    0.20446E+06         0.70991E+06         0.00000E+00
    0.70991E+06        -0.41200E+06         0.00000E+00
    0.00000E+00         0.00000E+00         0.00000E+00
 
    0.20057E+06         0.76462E+06         0.00000E+00
    0.76462E+06        -0.41087E+06         0.00000E+00
    0.00000E+00         0.00000E+00         0.00000E+00
 
    0.19658E+06         0.81899E+06         0.00000E+00
    0.81899E+06        -0.40967E+06         0.00000E+00
    0.00000E+00         0.00000E+00         0.00000E+00
 
    0.19249E+06         0.87303E+06         0.00000E+00
    0.87303E+06        -0.40839E+06         0.00000E+00
    0.00000E+00         0.00000E+00         0.00000E+00
 
    0.18830E+06         0.92673E+06         0.00000E+00
    0.92673E+06        -0.40703E+06         0.00000E+00
    0.00000E+00         0.00000E+00         0.00000E+00
 
    0.18403E+06         0.98008E+06         0.00000E+00
    0.98008E+06        -0.40559E+06         0.00000E+00
    0.00000E+00         0.00000E+00         0.00000E+00
 
    0.17966E+06         0.10331E+07         0.00000E+00
    0.10331E+07        -0.40408E+06         0.00000E+00
    0.00000E+00         0.00000E+00         0.00000E+00
 
    0.17519E+06         0.10857E+07         0.00000E+00
    0.10857E+07        -0.40250E+06         0.00000E+00
    0.00000E+00         0.00000E+00         0.00000E+00
 
    0.17064E+06         0.11380E+07         0.00000E+00
    0.11380E+07        -0.40084E+06         0.00000E+00
    0.00000E+00         0.00000E+00         0.00000E+00
 
    0.16599E+06         0.11899E+07         0.00000E+00
    0.11899E+07        -0.39910E+06         0.00000E+00
    0.00000E+00         0.00000E+00         0.00000E+00
 
    0.16125E+06         0.12415E+07         0.00000E+00
    0.12415E+07        -0.39730E+06         0.00000E+00
    0.00000E+00         0.00000E+00         0.00000E+00
 
    0.15643E+06         0.12927E+07         0.00000E+00
    0.12927E+07        -0.39542E+06         0.00000E+00
    0.00000E+00         0.00000E+00         0.00000E+00
 
    0.15152E+06         0.13435E+07         0.00000E+00
    0.13435E+07        -0.39348E+06         0.00000E+00
    0.00000E+00         0.00000E+00         0.00000E+00
 
    0.14652E+06         0.13939E+07         0.00000E+00
    0.13939E+07        -0.39147E+06         0.00000E+00
    0.00000E+00         0.00000E+00         0.00000E+00
 
    0.14144E+06         0.14439E+07         0.00000E+00
    0.14439E+07        -0.38938E+06         0.00000E+00
    0.00000E+00         0.00000E+00         0.00000E+00
 
    0.13627E+06         0.14936E+07         0.00000E+00
    0.14936E+07        -0.38724E+06         0.00000E+00
    0.00000E+00         0.00000E+00         0.00000E+00
 
    0.13102E+06         0.15428E+07         0.00000E+00
    0.15428E+07        -0.38502E+06         0.00000E+00
    0.00000E+00         0.00000E+00         0.00000E+00
 
    0.12569E+06         0.15916E+07         0.00000E+00
    0.15916E+07        -0.38274E+06         0.00000E+00
    0.00000E+00         0.00000E+00         0.00000E+00
 
    0.12028E+06         0.16401E+07         0.00000E+00
    0.16401E+07        -0.38040E+06         0.00000E+00
    0.00000E+00         0.00000E+00         0.00000E+00
 
    0.11478E+06         0.16881E+07         0.00000E+00
    0.16881E+07        -0.37800E+06         0.00000E+00
    0.00000E+00         0.00000E+00         0.00000E+00
 
    0.10921E+06         0.17357E+07         0.00000E+00
    0.17357E+07        -0.37553E+06         0.00000E+00
    0.00000E+00         0.00000E+00         0.00000E+00
 
    0.10356E+06         0.17829E+07         0.00000E+00
    0.17829E+07        -0.37300E+06         0.00000E+00
    0.00000E+00         0.00000E+00         0.00000E+00
 
    0.97837E+05         0.18297E+07         0.00000E+00
    0.18297E+07        -0.37042E+06         0.00000E+00
    0.00000E+00         0.00000E+00         0.00000E+00
 
    0.92035E+05         0.18760E+07         0.00000E+00
    0.18760E+07        -0.36777E+06         0.00000E+00
    0.00000E+00         0.00000E+00         0.00000E+00
 
    0.86157E+05         0.19219E+07         0.00000E+00
    0.19219E+07        -0.36506E+06         0.00000E+00
    0.00000E+00         0.00000E+00         0.00000E+00
 
    0.80206E+05         0.19674E+07         0.00000E+00
    0.19674E+07        -0.36230E+06         0.00000E+00
    0.00000E+00         0.00000E+00         0.00000E+00
 
    0.74182E+05         0.20125E+07         0.00000E+00
    0.20125E+07        -0.35949E+06         0.00000E+00
    0.00000E+00         0.00000E+00         0.00000E+00
 
    0.68086E+05         0.20571E+07         0.00000E+00
    0.20571E+07        -0.35661E+06         0.00000E+00
    0.00000E+00         0.00000E+00         0.00000E+00
 
    0.61920E+05         0.21012E+07         0.00000E+00
    0.21012E+07        -0.35369E+06         0.00000E+00
    0.00000E+00         0.00000E+00         0.00000E+00
 
    0.55683E+05         0.21449E+07         0.00000E+00
    0.21449E+07        -0.35071E+06         0.00000E+00
    0.00000E+00         0.00000E+00         0.00000E+00
 
    0.49378E+05         0.21881E+07         0.00000E+00
    0.21881E+07        -0.34768E+06         0.00000E+00
    0.00000E+00         0.00000E+00         0.00000E+00
 
    0.43005E+05         0.22309E+07         0.00000E+00
    0.22309E+07        -0.34460E+06         0.00000E+00
    0.00000E+00         0.00000E+00         0.00000E+00
 
    0.36564E+05         0.22732E+07         0.00000E+00
    0.22732E+07        -0.34147E+06         0.00000E+00
    0.00000E+00         0.00000E+00         0.00000E+00
 
    0.30058E+05         0.23150E+07         0.00000E+00
    0.23150E+07        -0.33828E+06         0.00000E+00
    0.00000E+00         0.00000E+00         0.00000E+00
 
    0.23488E+05         0.23564E+07         0.00000E+00
    0.23564E+07        -0.33506E+06         0.00000E+00
    0.00000E+00         0.00000E+00         0.00000E+00
 
    0.16853E+05         0.23973E+07         0.00000E+00
    0.23973E+07        -0.33178E+06         0.00000E+00
    0.00000E+00         0.00000E+00         0.00000E+00
 
    0.10155E+05         0.24377E+07         0.00000E+00
    0.24377E+07        -0.32846E+06         0.00000E+00
    0.00000E+00         0.00000E+00         0.00000E+00
 
    0.33952E+04         0.24776E+07         0.00000E+00
    0.24776E+07        -0.32509E+06         0.00000E+00
    0.00000E+00         0.00000E+00         0.00000E+00
 
    0.33809E+06         0.29733E+05         0.00000E+00
    0.29733E+05        -0.61713E+06         0.00000E+00
    0.00000E+00         0.00000E+00         0.00000E+00
 
    0.33413E+06         0.88481E+05         0.00000E+00
    0.88481E+05        -0.61700E+06         0.00000E+00
    0.00000E+00         0.00000E+00         0.00000E+00
 
    0.33004E+06         0.14696E+06         0.00000E+00
    0.14696E+06        -0.61676E+06         0.00000E+00
    0.00000E+00         0.00000E+00         0.00000E+00
 
    0.32581E+06         0.20516E+06         0.00000E+00
    0.20516E+06        -0.61641E+06         0.00000E+00
    0.00000E+00         0.00000E+00         0.00000E+00
 
    0.32144E+06         0.26309E+06         0.00000E+00
    0.26309E+06        -0.61593E+06         0.00000E+00
    0.00000E+00         0.00000E+00         0.00000E+00
 
    0.31694E+06         0.32072E+06         0.00000E+00
    0.32072E+06        -0.61534E+06         0.00000E+00
    0.00000E+00         0.00000E+00         0.00000E+00
 
    0.31230E+06         0.37806E+06         0.00000E+00
    0.37806E+06        -0.61464E+06         0.00000E+00
    0.00000E+00         0.00000E+00         0.00000E+00
 
    0.30753E+06         0.43511E+06         0.00000E+00
    0.43511E+06        -0.61382E+06         0.00000E+00
    0.00000E+00         0.00000E+00         0.00000E+00
 
    0.30263E+06         0.49185E+06         0.00000E+00
    0.49185E+06        -0.61289E+06         0.00000E+00
    0.00000E+00         0.00000E+00         0.00000E+00
 
    0.29760E+06         0.54829E+06         0.00000E+00
    0.54829E+06        -0.61185E+06         0.00000E+00
    0.00000E+00         0.00000E+00         0.00000E+00
 
    0.29244E+06         0.60440E+06         0.00000E+00
    0.60440E+06        -0.61071E+06         0.00000E+00
    0.00000E+00         0.00000E+00         0.00000E+00
 
    0.28716E+06         0.66020E+06         0.00000E+00
    0.66020E+06        -0.60945E+06         0.00000E+00
    0.00000E+00         0.00000E+00         0.00000E+00
 
    0.28175E+06         0.71568E+06         0.00000E+00
    0.71568E+06        -0.60809E+06         0.00000E+00
    0.00000E+00         0.00000E+00         0.00000E+00
 
    0.27622E+06         0.77083E+06         0.00000E+00
    0.77083E+06        -0.60662E+06         0.00000E+00
    0.00000E+00         0.00000E+00         0.00000E+00
 
    0.27056E+06         0.82564E+06         0.00000E+00
    0.82564E+06        -0.60504E+06         0.00000E+00
    0.00000E+00         0.00000E+00         0.00000E+00
 
    0.26478E+06         0.88011E+06         0.00000E+00
    0.88011E+06        -0.60337E+06         0.00000E+00
    0.00000E+00         0.00000E+00         0.00000E+00
 
    0.25889E+06         0.93424E+06         0.00000E+00
    0.93424E+06        -0.60159E+06         0.00000E+00
    0.00000E+00         0.00000E+00         0.00000E+00
 
    0.25287E+06         0.98802E+06         0.00000E+00
    0.98802E+06        -0.59970E+06         0.00000E+00
    0.00000E+00         0.00000E+00         0.00000E+00
 
    0.24674E+06         0.10414E+07         0.00000E+00
    0.10414E+07        -0.59772E+06         0.00000E+00
    0.00000E+00         0.00000E+00         0.00000E+00
 
    0.24049E+06         0.10945E+07         0.00000E+00
    0.10945E+07        -0.59564E+06         0.00000E+00
    0.00000E+00         0.00000E+00         0.00000E+00
 
    0.23412E+06         0.11472E+07         0.00000E+00
    0.11472E+07        -0.59346E+06         0.00000E+00
    0.00000E+00         0.00000E+00         0.00000E+00
 
    0.22765E+06         0.11996E+07         0.00000E+00
    0.11996E+07        -0.59119E+06         0.00000E+00
    0.00000E+00         0.00000E+00         0.00000E+00
 
    0.22106E+06         0.12515E+07         0.00000E+00
    0.12515E+07        -0.58882E+06         0.00000E+00
    0.00000E+00         0.00000E+00         0.00000E+00
 
    0.21435E+06         0.13031E+07         0.00000E+00
    0.13031E+07        -0.58635E+06         0.00000E+00
    0.00000E+00         0.00000E+00         0.00000E+00
 
    0.20754E+06         0.13543E+07         0.00000E+00
    0.13543E+07        -0.58379E+06         0.00000E+00
    0.00000E+00         0.00000E+00         0.00000E+00
 
    0.20062E+06         0.14051E+07         0.00000E+00
    0.14051E+07        -0.58114E+06         0.00000E+00
    0.00000E+00         0.00000E+00         0.00000E+00
 
    0.19359E+06         0.14556E+07         0.00000E+00
    0.14556E+07        -0.57840E+06         0.00000E+00
    0.00000E+00         0.00000E+00         0.00000E+00
 
    0.18646E+06         0.15056E+07         0.00000E+00
    0.15056E+07        -0.57556E+06         0.00000E+00
    0.00000E+00         0.00000E+00         0.00000E+00
 
    0.17922E+06         0.15552E+07         0.00000E+00
    0.15552E+07        -0.57264E+06         0.00000E+00
    0.00000E+00         0.00000E+00         0.00000E+00
 
    0.17188E+06         0.16045E+07         0.00000E+00
    0.16045E+07        -0.56962E+06         0.00000E+00
    0.00000E+00         0.00000E+00         0.00000E+00
 
    0.16443E+06         0.16533E+07         0.00000E+00
    0.16533E+07        -0.56652E+06         0.00000E+00
    0.00000E+00         0.00000E+00         0.00000E+00
 
    0.15688E+06         0.17017E+07         0.00000E+00
    0.17017E+07        -0.56333E+06         0.00000E+00
    0.00000E+00         0.00000E+00         0.00000E+00
 
    0.14923E+06         0.17497E+07         0.00000E+00
    0.17497E+07        -0.56006E+06         0.00000E+00
    0.00000E+00         0.00000E+00         0.00000E+00
 
    0.14147E+06         0.17973E+07         0.00000E+00
    0.17973E+07        -0.55670E+06         0.00000E+00
    0.00000E+00         0.00000E+00         0.00000E+00
 
    0.13362E+06         0.18444E+07         0.00000E+00
    0.18444E+07        -0.55326E+06         0.00000E+00
    0.00000E+00         0.00000E+00         0.00000E+00
 
    0.12567E+06         0.18911E+07         0.00000E+00
    0.18911E+07        -0.54974E+06         0.00000E+00
    0.00000E+00         0.00000E+00         0.00000E+00
 
    0.11763E+06         0.19374E+07         0.00000E+00
    0.19374E+07        -0.54613E+06         0.00000E+00
    0.00000E+00         0.00000E+00         0.00000E+00
 
    0.10949E+06         0.19833E+07         0.00000E+00
    0.19833E+07        -0.54245E+06         0.00000E+00
    0.00000E+00         0.00000E+00         0.00000E+00
 
    0.10125E+06         0.20287E+07         0.00000E+00
    0.20287E+07        -0.53868E+06         0.00000E+00
    0.00000E+00         0.00000E+00         0.00000E+00
 
    0.92918E+05         0.20736E+07         0.00000E+00
    0.20736E+07        -0.53483E+06         0.00000E+00
    0.00000E+00         0.00000E+00         0.00000E+00
 
    0.84494E+05         0.21181E+07         0.00000E+00
    0.21181E+07        -0.53091E+06         0.00000E+00
    0.00000E+00         0.00000E+00         0.00000E+00
 
    0.75977E+05         0.21622E+07         0.00000E+00
    0.21622E+07        -0.52691E+06         0.00000E+00
    0.00000E+00         0.00000E+00         0.00000E+00
 
    0.67368E+05         0.22057E+07         0.00000E+00
    0.22057E+07        -0.52283E+06         0.00000E+00
    0.00000E+00         0.00000E+00         0.00000E+00
 
    0.58670E+05         0.22489E+07         0.00000E+00
    0.22489E+07        -0.51868E+06         0.00000E+00
    0.00000E+00         0.00000E+00         0.00000E+00
 
    0.49882E+05         0.22915E+07         0.00000E+00
    0.22915E+07        -0.51445E+06         0.00000E+00
    0.00000E+00         0.00000E+00         0.00000E+00
 
    0.41005E+05         0.23337E+07         0.00000E+00
    0.23337E+07        -0.51015E+06         0.00000E+00
    0.00000E+00         0.00000E+00         0.00000E+00
 
    0.32041E+05         0.23754E+07         0.00000E+00
    0.23754E+07        -0.50578E+06         0.00000E+00
    0.00000E+00         0.00000E+00         0.00000E+00
 
    0.22990E+05         0.24166E+07         0.00000E+00
    0.24166E+07        -0.50133E+06         0.00000E+00
    0.00000E+00         0.00000E+00         0.00000E+00
 
    0.13854E+05         0.24573E+07         0.00000E+00
    0.24573E+07        -0.49682E+06         0.00000E+00
    0.00000E+00         0.00000E+00         0.00000E+00
 
    0.46319E+04         0.24976E+07         0.00000E+00
    0.24976E+07        -0.49223E+06         0.00000E+00
    0.00000E+00         0.00000E+00         0.00000E+00
 
    0.43383E+06         0.30046E+05         0.00000E+00
    0.30046E+05        -0.81728E+06         0.00000E+00
    0.00000E+00         0.00000E+00         0.00000E+00
 
    0.42854E+06         0.89406E+05         0.00000E+00
    0.89406E+05        -0.81713E+06         0.00000E+00
    0.00000E+00         0.00000E+00         0.00000E+00
 
    0.42308E+06         0.14849E+06         0.00000E+00
    0.14849E+06        -0.81684E+06         0.00000E+00
    0.00000E+00         0.00000E+00         0.00000E+00
 
    0.41745E+06         0.20730E+06         0.00000E+00
    0.20730E+06        -0.81639E+06         0.00000E+00
    0.00000E+00         0.00000E+00         0.00000E+00
 
    0.41166E+06         0.26582E+06         0.00000E+00
    0.26582E+06        -0.81581E+06         0.00000E+00
    0.00000E+00         0.00000E+00         0.00000E+00
 
    0.40570E+06         0.32405E+06         0.00000E+00
    0.32405E+06        -0.81508E+06         0.00000E+00
    0.00000E+00         0.00000E+00         0.00000E+00
 
    0.39958E+06         0.38199E+06         0.00000E+00
    0.38199E+06        -0.81421E+06         0.00000E+00
    0.00000E+00         0.00000E+00         0.00000E+00
 
    0.39331E+06         0.43962E+06         0.00000E+00
    0.43962E+06        -0.81320E+06         0.00000E+00
    0.00000E+00         0.00000E+00         0.00000E+00
 
    0.38688E+06         0.49695E+06         0.00000E+00
    0.49695E+06        -0.81205E+06         0.00000E+00
    0.00000E+00         0.00000E+00         0.00000E+00
 
    0.38029E+06         0.55396E+06         0.00000E+00
    0.55396E+06        -0.81077E+06         0.00000E+00
    0.00000E+00         0.00000E+00         0.00000E+00
 
    0.37355E+06         0.61065E+06         0.00000E+00
    0.61065E+06        -0.80935E+06         0.00000E+00
    0.00000E+00         0.00000E+00         0.00000E+00
 
    0.36665E+06         0.66703E+06         0.00000E+00
    0.66703E+06        -0.80780E+06         0.00000E+00
    0.00000E+00         0.00000E+00         0.00000E+00
 
    0.35961E+06         0.72307E+06         0.00000E+00
    0.72307E+06        -0.80611E+06         0.00000E+00
    0.00000E+00         0.00000E+00         0.00000E+00
 
    0.35242E+06         0.77878E+06         0.00000E+00
    0.77878E+06        -0.80430E+06         0.00000E+00
    0.00000E+00         0.00000E+00         0.00000E+00
 
    0.34508E+06         0.83415E+06         0.00000E+00
    0.83415E+06        -0.80235E+06         0.00000E+00
    0.00000E+00         0.00000E+00         0.00000E+00
 
    0.33760E+06         0.88918E+06         0.00000E+00
    0.88918E+06        -0.80028E+06         0.00000E+00
    0.00000E+00         0.00000E+00         0.00000E+00
 
    0.32997E+06         0.94386E+06         0.00000E+00
    0.94386E+06        -0.79808E+06         0.00000E+00
    0.00000E+00         0.00000E+00         0.00000E+00
 
    0.32220E+06         0.99819E+06         0.00000E+00
    0.99819E+06        -0.79575E+06         0.00000E+00
    0.00000E+00         0.00000E+00         0.00000E+00
 
    0.31429E+06         0.10522E+07         0.00000E+00
    0.10522E+07        -0.79330E+06         0.00000E+00
    0.00000E+00         0.00000E+00         0.00000E+00
 
    0.30624E+06         0.11058E+07         0.00000E+00
    0.11058E+07        -0.79072E+06         0.00000E+00
    0.00000E+00         0.00000E+00         0.00000E+00
 
    0.29805E+06         0.11590E+07         0.00000E+00
    0.11590E+07        -0.78802E+06         0.00000E+00
    0.00000E+00         0.00000E+00         0.00000E+00
 
    0.28972E+06         0.12119E+07         0.00000E+00
    0.12119E+07        -0.78520E+06         0.00000E+00
    0.00000E+00         0.00000E+00         0.00000E+00
 
    0.28126E+06         0.12644E+07         0.00000E+00
    0.12644E+07        -0.78226E+06         0.00000E+00
    0.00000E+00         0.00000E+00         0.00000E+00
 
    0.27267E+06         0.13165E+07         0.00000E+00
    0.13165E+07        -0.77920E+06         0.00000E+00
    0.00000E+00         0.00000E+00         0.00000E+00
 
    0.26394E+06         0.13682E+07         0.00000E+00
    0.13682E+07        -0.77603E+06         0.00000E+00
    0.00000E+00         0.00000E+00         0.00000E+00
 
    0.25508E+06         0.14196E+07         0.00000E+00
    0.14196E+07        -0.77273E+06         0.00000E+00
    0.00000E+00         0.00000E+00         0.00000E+00
 
    0.24609E+06         0.14705E+07         0.00000E+00
    0.14705E+07        -0.76932E+06         0.00000E+00
    0.00000E+00         0.00000E+00         0.00000E+00
 
    0.23698E+06         0.15211E+07         0.00000E+00
    0.15211E+07        -0.76580E+06         0.00000E+00
    0.00000E+00         0.00000E+00         0.00000E+00
 
    0.22773E+06         0.15712E+07         0.00000E+00
    0.15712E+07        -0.76216E+06         0.00000E+00
    0.00000E+00         0.00000E+00         0.00000E+00
 
    0.21836E+06         0.16210E+07         0.00000E+00
    0.16210E+07        -0.75841E+06         0.00000E+00
    0.00000E+00         0.00000E+00         0.00000E+00
 
    0.20886E+06         0.16703E+07         0.00000E+00
    0.16703E+07        -0.75455E+06         0.00000E+00
    0.00000E+00         0.00000E+00         0.00000E+00
 
    0.19924E+06         0.17192E+07         0.00000E+00
    0.17192E+07        -0.75058E+06         0.00000E+00
    0.00000E+00         0.00000E+00         0.00000E+00
 
    0.18949E+06         0.17677E+07         0.00000E+00
    0.17677E+07        -0.74650E+06         0.00000E+00
    0.00000E+00         0.00000E+00         0.00000E+00
 
    0.17962E+06         0.18158E+07         0.00000E+00
    0.18158E+07        -0.74230E+06         0.00000E+00
    0.00000E+00         0.00000E+00         0.00000E+00
 
    0.16963E+06         0.18634E+07         0.00000E+00
    0.18634E+07        -0.73801E+06         0.00000E+00
    0.00000E+00         0.00000E+00         0.00000E+00
 
    0.15952E+06         0.19106E+07         0.00000E+00
    0.19106E+07        -0.73360E+06         0.00000E+00
    0.00000E+00         0.00000E+00         0.00000E+00
 
    0.14930E+06         0.19574E+07         0.00000E+00
    0.19574E+07        -0.72909E+06         0.00000E+00
    0.00000E+00         0.00000E+00         0.00000E+00
 
    0.13895E+06         0.20038E+07         0.00000E+00
    0.20038E+07        -0.72447E+06         0.00000E+00
    0.00000E+00         0.00000E+00         0.00000E+00
 
    0.12848E+06         0.20496E+07         0.00000E+00
    0.20496E+07        -0.71975E+06         0.00000E+00
    0.00000E+00         0.00000E+00         0.00000E+00
 
    0.11790E+06         0.20951E+07         0.00000E+00
    0.20951E+07        -0.71493E+06         0.00000E+00
    0.00000E+00         0.00000E+00         0.00000E+00
 
    0.10721E+06         0.21401E+07         0.00000E+00
    0.21401E+07        -0.71000E+06         0.00000E+00
    0.00000E+00         0.00000E+00         0.00000E+00
 
    0.96394E+05         0.21846E+07         0.00000E+00
    0.21846E+07        -0.70497E+06         0.00000E+00
    0.00000E+00         0.00000E+00         0.00000E+00
 
    0.85468E+05         0.22286E+07         0.00000E+00
    0.22286E+07        -0.69984E+06         0.00000E+00
    0.00000E+00         0.00000E+00         0.00000E+00
 
    0.74430E+05         0.22722E+07         0.00000E+00
    0.22722E+07        -0.69461E+06         0.00000E+00
    0.00000E+00         0.00000E+00         0.00000E+00
 
    0.63280E+05         0.23154E+07         0.00000E+00
    0.23154E+07        -0.68929E+06         0.00000E+00
    0.00000E+00         0.00000E+00         0.00000E+00
 
    0.52018E+05         0.23580E+07         0.00000E+00
    0.23580E+07        -0.68386E+06         0.00000E+00
    0.00000E+00         0.00000E+00         0.00000E+00
 
    0.40646E+05         0.24002E+07         0.00000E+00
    0.24002E+07        -0.67834E+06         0.00000E+00
    0.00000E+00         0.00000E+00         0.00000E+00
 
    0.29165E+05         0.24418E+07         0.00000E+00
    0.24418E+07        -0.67272E+06         0.00000E+00
    0.00000E+00         0.00000E+00         0.00000E+00
 
    0.17574E+05         0.24830E+07         0.00000E+00
    0.24830E+07        -0.66700E+06         0.00000E+00
    0.00000E+00         0.00000E+00         0.00000E+00
 
    0.58760E+04         0.25237E+07         0.00000E+00
    0.25237E+07        -0.66120E+06         0.00000E+00
    0.00000E+00         0.00000E+00         0.00000E+00
 
    0.53042E+06         0.30427E+05         0.00000E+00
    0.30427E+05        -0.10200E+07         0.00000E+00
    0.00000E+00         0.00000E+00         0.00000E+00
 
    0.52377E+06         0.90535E+05         0.00000E+00
    0.90535E+05        -0.10198E+07         0.00000E+00
    0.00000E+00         0.00000E+00         0.00000E+00
 
    0.51691E+06         0.15036E+06         0.00000E+00
    0.15036E+06        -0.10195E+07         0.00000E+00
    0.00000E+00         0.00000E+00         0.00000E+00
 
    0.50986E+06         0.20991E+06         0.00000E+00
    0.20991E+06        -0.10190E+07         0.00000E+00
    0.00000E+00         0.00000E+00         0.00000E+00
 
    0.50262E+06         0.26916E+06         0.00000E+00
    0.26916E+06        -0.10183E+07         0.00000E+00
    0.00000E+00         0.00000E+00         0.00000E+00
 
    0.49519E+06         0.32812E+06         0.00000E+00
    0.32812E+06        -0.10174E+07         0.00000E+00
    0.00000E+00         0.00000E+00         0.00000E+00
 
    0.48757E+06         0.38677E+06         0.00000E+00
    0.38677E+06        -0.10164E+07         0.00000E+00
    0.00000E+00         0.00000E+00         0.00000E+00
 
    0.47976E+06         0.44512E+06         0.00000E+00
    0.44512E+06        -0.10152E+07         0.00000E+00
    0.00000E+00         0.00000E+00         0.00000E+00
 
    0.47178E+06         0.50316E+06         0.00000E+00
    0.50316E+06        -0.10138E+07         0.00000E+00
    0.00000E+00         0.00000E+00         0.00000E+00
 
    0.46361E+06         0.56088E+06         0.00000E+00
    0.56088E+06        -0.10123E+07         0.00000E+00
    0.00000E+00         0.00000E+00         0.00000E+00
 
    0.45526E+06         0.61828E+06         0.00000E+00
    0.61828E+06        -0.10106E+07         0.00000E+00
    0.00000E+00         0.00000E+00         0.00000E+00
 
    0.44674E+06         0.67534E+06         0.00000E+00
    0.67534E+06        -0.10087E+07         0.00000E+00
    0.00000E+00         0.00000E+00         0.00000E+00
 
    0.43804E+06         0.73208E+06         0.00000E+00
    0.73208E+06        -0.10067E+07         0.00000E+00
    0.00000E+00         0.00000E+00         0.00000E+00
 
    0.42917E+06         0.78848E+06         0.00000E+00
    0.78848E+06        -0.10046E+07         0.00000E+00
    0.00000E+00         0.00000E+00         0.00000E+00
 
    0.42013E+06         0.84454E+06         0.00000E+00
    0.84454E+06        -0.10022E+07         0.00000E+00
    0.00000E+00         0.00000E+00         0.00000E+00
 
    0.41092E+06         0.90025E+06         0.00000E+00
    0.90025E+06        -0.99976E+06         0.00000E+00
    0.00000E+00         0.00000E+00         0.00000E+00
 
    0.40154E+06         0.95560E+06         0.00000E+00
    0.95560E+06        -0.99714E+06         0.00000E+00
    0.00000E+00         0.00000E+00         0.00000E+00
 
    0.39200E+06         0.10106E+07         0.00000E+00
    0.10106E+07        -0.99437E+06         0.00000E+00
    0.00000E+00         0.00000E+00         0.00000E+00
 
    0.38229E+06         0.10652E+07         0.00000E+00
    0.10652E+07        -0.99144E+06         0.00000E+00
    0.00000E+00         0.00000E+00         0.00000E+00
 
    0.37242E+06         0.11195E+07         0.00000E+00
    0.11195E+07        -0.98837E+06         0.00000E+00
    0.00000E+00         0.00000E+00         0.00000E+00
 
    0.36239E+06         0.11734E+07         0.00000E+00
    0.11734E+07        -0.98515E+06         0.00000E+00
    0.00000E+00         0.00000E+00         0.00000E+00
 
    0.35220E+06         0.12270E+07         0.00000E+00
    0.12270E+07        -0.98179E+06         0.00000E+00
    0.00000E+00         0.00000E+00         0.00000E+00
 
    0.34185E+06         0.12801E+07         0.00000E+00
    0.12801E+07        -0.97828E+06         0.00000E+00
    0.00000E+00         0.00000E+00         0.00000E+00
 
    0.33135E+06         0.13329E+07         0.00000E+00
    0.13329E+07        -0.97463E+06         0.00000E+00
    0.00000E+00         0.00000E+00         0.00000E+00
 
    0.32069E+06         0.13853E+07         0.00000E+00
    0.13853E+07        -0.97083E+06         0.00000E+00
    0.00000E+00         0.00000E+00         0.00000E+00
 
    0.30988E+06         0.14372E+07         0.00000E+00
    0.14372E+07        -0.96690E+06         0.00000E+00
    0.00000E+00         0.00000E+00         0.00000E+00
 
    0.29891E+06         0.14888E+07         0.00000E+00
    0.14888E+07        -0.96283E+06         0.00000E+00
    0.00000E+00         0.00000E+00         0.00000E+00
 
    0.28779E+06         0.15400E+07         0.00000E+00
    0.15400E+07        -0.95861E+06         0.00000E+00
    0.00000E+00         0.00000E+00         0.00000E+00
 
    0.27653E+06         0.15908E+07         0.00000E+00
    0.15908E+07        -0.95426E+06         0.00000E+00
    0.00000E+00         0.00000E+00         0.00000E+00
 
    0.26511E+06         0.16412E+07         0.00000E+00
    0.16412E+07        -0.94977E+06         0.00000E+00
    0.00000E+00         0.00000E+00         0.00000E+00
 
    0.25355E+06         0.16912E+07         0.00000E+00
    0.16912E+07        -0.94515E+06         0.00000E+00
    0.00000E+00         0.00000E+00         0.00000E+00
 
    0.24184E+06         0.17407E+07         0.00000E+00
    0.17407E+07        -0.94039E+06         0.00000E+00
    0.00000E+00         0.00000E+00         0.00000E+00
 
    0.22999E+06         0.17898E+07         0.00000E+00
    0.17898E+07        -0.93550E+06         0.00000E+00
    0.00000E+00         0.00000E+00         0.00000E+00
 
    0.21799E+06         0.18385E+07         0.00000E+00
    0.18385E+07        -0.93047E+06         0.00000E+00
    0.00000E+00         0.00000E+00         0.00000E+00
 
    0.20585E+06         0.18868E+07         0.00000E+00
    0.18868E+07        -0.92532E+06         0.00000E+00
    0.00000E+00         0.00000E+00         0.00000E+00
 
    0.19356E+06         0.19346E+07         0.00000E+00
    0.19346E+07        -0.92003E+06         0.00000E+00
    0.00000E+00         0.00000E+00         0.00000E+00
 
    0.18114E+06         0.19820E+07         0.00000E+00
    0.19820E+07        -0.91461E+06         0.00000E+00
    0.00000E+00         0.00000E+00         0.00000E+00
 
    0.16857E+06         0.20289E+07         0.00000E+00
    0.20289E+07        -0.90906E+06         0.00000E+00
    0.00000E+00         0.00000E+00         0.00000E+00
 
    0.15587E+06         0.20754E+07         0.00000E+00
    0.20754E+07        -0.90338E+06         0.00000E+00
    0.00000E+00         0.00000E+00         0.00000E+00
 
    0.14302E+06         0.21215E+07         0.00000E+00
    0.21215E+07        -0.89758E+06         0.00000E+00
    0.00000E+00         0.00000E+00         0.00000E+00
 
    0.13004E+06         0.21671E+07         0.00000E+00
    0.21671E+07        -0.89165E+06         0.00000E+00
    0.00000E+00         0.00000E+00         0.00000E+00
 
    0.11692E+06         0.22122E+07         0.00000E+00
    0.22122E+07        -0.88559E+06         0.00000E+00
    0.00000E+00         0.00000E+00         0.00000E+00
 
    0.10367E+06         0.22569E+07         0.00000E+00
    0.22569E+07        -0.87940E+06         0.00000E+00
    0.00000E+00         0.00000E+00         0.00000E+00
 
    0.90275E+05         0.23011E+07         0.00000E+00
    0.23011E+07        -0.87310E+06         0.00000E+00
    0.00000E+00         0.00000E+00         0.00000E+00
 
    0.76750E+05         0.23448E+07         0.00000E+00
    0.23448E+07        -0.86666E+06         0.00000E+00
    0.00000E+00         0.00000E+00         0.00000E+00
 
    0.63090E+05         0.23880E+07         0.00000E+00
    0.23880E+07        -0.86011E+06         0.00000E+00
    0.00000E+00         0.00000E+00         0.00000E+00
 
    0.49297E+05         0.24308E+07         0.00000E+00
    0.24308E+07        -0.85343E+06         0.00000E+00
    0.00000E+00         0.00000E+00         0.00000E+00
 
    0.35372E+05         0.24730E+07         0.00000E+00
    0.24730E+07        -0.84663E+06         0.00000E+00
    0.00000E+00         0.00000E+00         0.00000E+00
 
    0.21315E+05         0.25148E+07         0.00000E+00
    0.25148E+07        -0.83971E+06         0.00000E+00
    0.00000E+00         0.00000E+00         0.00000E+00
 
    0.71268E+04         0.25561E+07         0.00000E+00
    0.25561E+07        -0.83267E+06         0.00000E+00
    0.00000E+00         0.00000E+00         0.00000E+00
 
    0.62790E+06         0.30877E+05         0.00000E+00
    0.30877E+05        -0.12259E+07         0.00000E+00
    0.00000E+00         0.00000E+00         0.00000E+00
 
    0.61984E+06         0.91868E+05         0.00000E+00
    0.91868E+05        -0.12257E+07         0.00000E+00
    0.00000E+00         0.00000E+00         0.00000E+00
 
    0.61156E+06         0.15257E+06         0.00000E+00
    0.15257E+06        -0.12253E+07         0.00000E+00
    0.00000E+00         0.00000E+00         0.00000E+00
 
    0.60306E+06         0.21298E+06         0.00000E+00
    0.21298E+06        -0.12247E+07         0.00000E+00
    0.00000E+00         0.00000E+00         0.00000E+00
 
    0.59434E+06         0.27310E+06         0.00000E+00
    0.27310E+06        -0.12239E+07         0.00000E+00
    0.00000E+00         0.00000E+00         0.00000E+00
 
    0.58541E+06         0.33291E+06         0.00000E+00
    0.33291E+06        -0.12229E+07         0.00000E+00
    0.00000E+00         0.00000E+00         0.00000E+00
 
    0.57626E+06         0.39242E+06         0.00000E+00
    0.39242E+06        -0.12217E+07         0.00000E+00
    0.00000E+00         0.00000E+00         0.00000E+00
 
    0.56690E+06         0.45161E+06         0.00000E+00
    0.45161E+06        -0.12203E+07         0.00000E+00
    0.00000E+00         0.00000E+00         0.00000E+00
 
    0.55733E+06         0.51049E+06         0.00000E+00
    0.51049E+06        -0.12187E+07         0.00000E+00
    0.00000E+00         0.00000E+00         0.00000E+00
 
    0.54756E+06         0.56904E+06         0.00000E+00
    0.56904E+06        -0.12170E+07         0.00000E+00
    0.00000E+00         0.00000E+00         0.00000E+00
 
    0.53758E+06         0.62727E+06         0.00000E+00
    0.62727E+06        -0.12150E+07         0.00000E+00
    0.00000E+00         0.00000E+00         0.00000E+00
 
    0.52741E+06         0.68516E+06         0.00000E+00
    0.68516E+06        -0.12129E+07         0.00000E+00
    0.00000E+00         0.00000E+00         0.00000E+00
 
    0.51703E+06         0.74271E+06         0.00000E+00
    0.74271E+06        -0.12105E+07         0.00000E+00
    0.00000E+00         0.00000E+00         0.00000E+00
 
    0.50646E+06         0.79992E+06         0.00000E+00
    0.79992E+06        -0.12080E+07         0.00000E+00
    0.00000E+00         0.00000E+00         0.00000E+00
 
    0.49569E+06         0.85679E+06         0.00000E+00
    0.85679E+06        -0.12053E+07         0.00000E+00
    0.00000E+00         0.00000E+00         0.00000E+00
 
    0.48473E+06         0.91330E+06         0.00000E+00
    0.91330E+06        -0.12025E+07         0.00000E+00
    0.00000E+00         0.00000E+00         0.00000E+00
 
    0.47358E+06         0.96946E+06         0.00000E+00
    0.96946E+06        -0.11994E+07         0.00000E+00
    0.00000E+00         0.00000E+00         0.00000E+00
 
    0.46225E+06         0.10253E+07         0.00000E+00
    0.10253E+07        -0.11962E+07         0.00000E+00
    0.00000E+00         0.00000E+00         0.00000E+00
 
    0.45072E+06         0.10807E+07         0.00000E+00
    0.10807E+07        -0.11928E+07         0.00000E+00
    0.00000E+00         0.00000E+00         0.00000E+00
 
    0.43901E+06         0.11358E+07         0.00000E+00
    0.11358E+07        -0.11892E+07         0.00000E+00
    0.00000E+00         0.00000E+00         0.00000E+00
 
    0.42712E+06         0.11904E+07         0.00000E+00
    0.11904E+07        -0.11855E+07         0.00000E+00
    0.00000E+00         0.00000E+00         0.00000E+00
 
    0.41505E+06         0.12448E+07         0.00000E+00
    0.12448E+07        -0.11816E+07         0.00000E+00
    0.00000E+00         0.00000E+00         0.00000E+00
 
    0.40280E+06         0.12987E+07         0.00000E+00
    0.12987E+07        -0.11775E+07         0.00000E+00
    0.00000E+00         0.00000E+00         0.00000E+00
 
    0.39036E+06         0.13522E+07         0.00000E+00
    0.13522E+07        -0.11733E+07         0.00000E+00
    0.00000E+00         0.00000E+00         0.00000E+00
 
    0.37776E+06         0.14054E+07         0.00000E+00
    0.14054E+07        -0.11689E+07         0.00000E+00
    0.00000E+00         0.00000E+00         0.00000E+00
 
    0.36497E+06         0.14581E+07         0.00000E+00
    0.14581E+07        -0.11643E+07         0.00000E+00
    0.00000E+00         0.00000E+00         0.00000E+00
 
    0.35202E+06         0.15105E+07         0.00000E+00
    0.15105E+07        -0.11596E+07         0.00000E+00
    0.00000E+00         0.00000E+00         0.00000E+00
 
    0.33889E+06         0.15624E+07         0.00000E+00
    0.15624E+07        -0.11547E+07         0.00000E+00
    0.00000E+00         0.00000E+00         0.00000E+00
 
    0.32558E+06         0.16140E+07         0.00000E+00
    0.16140E+07        -0.11496E+07         0.00000E+00
    0.00000E+00         0.00000E+00         0.00000E+00
 
    0.31211E+06         0.16651E+07         0.00000E+00
    0.16651E+07        -0.11444E+07         0.00000E+00
    0.00000E+00         0.00000E+00         0.00000E+00
 
    0.29847E+06         0.17158E+07         0.00000E+00
    0.17158E+07        -0.11390E+07         0.00000E+00
    0.00000E+00         0.00000E+00         0.00000E+00
 
    0.28466E+06         0.17661E+07         0.00000E+00
    0.17661E+07        -0.11335E+07         0.00000E+00
    0.00000E+00         0.00000E+00         0.00000E+00
 
    0.27069E+06         0.18160E+07         0.00000E+00
    0.18160E+07        -0.11278E+07         0.00000E+00
    0.00000E+00         0.00000E+00         0.00000E+00
 
    0.25655E+06         0.18654E+07         0.00000E+00
    0.18654E+07        -0.11219E+07         0.00000E+00
    0.00000E+00         0.00000E+00         0.00000E+00
 
    0.24224E+06         0.19144E+07         0.00000E+00
    0.19144E+07        -0.11159E+07         0.00000E+00
    0.00000E+00         0.00000E+00         0.00000E+00
 
    0.22777E+06         0.19630E+07         0.00000E+00
    0.19630E+07        -0.11097E+07         0.00000E+00
    0.00000E+00         0.00000E+00         0.00000E+00
 
    0.21313E+06         0.20112E+07         0.00000E+00
    0.20112E+07        -0.11034E+07         0.00000E+00
    0.00000E+00         0.00000E+00         0.00000E+00
 
    0.19834E+06         0.20588E+07         0.00000E+00
    0.20588E+07        -0.10969E+07         0.00000E+00
    0.00000E+00         0.00000E+00         0.00000E+00
 
    0.18338E+06         0.21061E+07         0.00000E+00
    0.21061E+07        -0.10903E+07         0.00000E+00
    0.00000E+00         0.00000E+00         0.00000E+00
 
    0.16826E+06         0.21528E+07         0.00000E+00
    0.21528E+07        -0.10835E+07         0.00000E+00
    0.00000E+00         0.00000E+00         0.00000E+00
 
    0.15298E+06         0.21992E+07         0.00000E+00
    0.21992E+07        -0.10765E+07         0.00000E+00
    0.00000E+00         0.00000E+00         0.00000E+00
 
    0.13754E+06         0.22450E+07         0.00000E+00
    0.22450E+07        -0.10695E+07         0.00000E+00
    0.00000E+00         0.00000E+00         0.00000E+00
 
    0.12195E+06         0.22904E+07         0.00000E+00
    0.22904E+07        -0.10622E+07         0.00000E+00
    0.00000E+00         0.00000E+00         0.00000E+00
 
    0.10619E+06         0.23353E+07         0.00000E+00
    0.23353E+07        -0.10548E+07         0.00000E+00
    0.00000E+00         0.00000E+00         0.00000E+00
 
    0.90280E+05         0.23798E+07         0.00000E+00
    0.23798E+07        -0.10473E+07         0.00000E+00
    0.00000E+00         0.00000E+00         0.00000E+00
 
    0.74212E+05         0.24237E+07         0.00000E+00
    0.24237E+07        -0.10396E+07         0.00000E+00
    0.00000E+00         0.00000E+00         0.00000E+00
 
    0.57987E+05         0.24672E+07         0.00000E+00
    0.24672E+07        -0.10318E+07         0.00000E+00
    0.00000E+00         0.00000E+00         0.00000E+00
 
    0.41607E+05         0.25102E+07         0.00000E+00
    0.25102E+07        -0.10238E+07         0.00000E+00
    0.00000E+00         0.00000E+00         0.00000E+00
 
    0.25072E+05         0.25527E+07         0.00000E+00
    0.25527E+07        -0.10156E+07         0.00000E+00
    0.00000E+00         0.00000E+00         0.00000E+00
 
    0.83832E+04         0.25947E+07         0.00000E+00
    0.25947E+07        -0.10074E+07         0.00000E+00
    0.00000E+00         0.00000E+00         0.00000E+00
 
    0.72629E+06         0.31397E+05         0.00000E+00
    0.31397E+05        -0.14357E+07         0.00000E+00
    0.00000E+00         0.00000E+00         0.00000E+00
 
    0.71680E+06         0.93403E+05         0.00000E+00
    0.93403E+05        -0.14355E+07         0.00000E+00
    0.00000E+00         0.00000E+00         0.00000E+00
 
    0.70706E+06         0.15512E+06         0.00000E+00
    0.15512E+06        -0.14350E+07         0.00000E+00
    0.00000E+00         0.00000E+00         0.00000E+00
 
    0.69707E+06         0.21653E+06         0.00000E+00
    0.21653E+06        -0.14343E+07         0.00000E+00
    0.00000E+00         0.00000E+00         0.00000E+00
 
    0.68684E+06         0.27764E+06         0.00000E+00
    0.27764E+06        -0.14334E+07         0.00000E+00
    0.00000E+00         0.00000E+00         0.00000E+00
 
    0.67637E+06         0.33844E+06         0.00000E+00
    0.33844E+06        -0.14323E+07         0.00000E+00
    0.00000E+00         0.00000E+00         0.00000E+00
 
    0.66566E+06         0.39892E+06         0.00000E+00
    0.39892E+06        -0.14309E+07         0.00000E+00
    0.00000E+00         0.00000E+00         0.00000E+00
 
    0.65471E+06         0.45909E+06         0.00000E+00
    0.45909E+06        -0.14293E+07         0.00000E+00
    0.00000E+00         0.00000E+00         0.00000E+00
 
    0.64353E+06         0.51893E+06         0.00000E+00
    0.51893E+06        -0.14275E+07         0.00000E+00
    0.00000E+00         0.00000E+00         0.00000E+00
 
    0.63212E+06         0.57844E+06         0.00000E+00
    0.57844E+06        -0.14255E+07         0.00000E+00
    0.00000E+00         0.00000E+00         0.00000E+00
 
    0.62049E+06         0.63762E+06         0.00000E+00
    0.63762E+06        -0.14233E+07         0.00000E+00
    0.00000E+00         0.00000E+00         0.00000E+00
 
    0.60863E+06         0.69646E+06         0.00000E+00
    0.69646E+06        -0.14209E+07         0.00000E+00
    0.00000E+00         0.00000E+00         0.00000E+00
 
    0.59655E+06         0.75496E+06         0.00000E+00
    0.75496E+06        -0.14182E+07         0.00000E+00
    0.00000E+00         0.00000E+00         0.00000E+00
 
    0.58425E+06         0.81311E+06         0.00000E+00
    0.81311E+06        -0.14154E+07         0.00000E+00
    0.00000E+00         0.00000E+00         0.00000E+00
 
    0.57173E+06         0.87090E+06         0.00000E+00
    0.87090E+06        -0.14123E+07         0.00000E+00
    0.00000E+00         0.00000E+00         0.00000E+00
 
    0.55900E+06         0.92834E+06         0.00000E+00
    0.92834E+06        -0.14091E+07         0.00000E+00
    0.00000E+00         0.00000E+00         0.00000E+00
 
    0.54606E+06         0.98542E+06         0.00000E+00
    0.98542E+06        -0.14056E+07         0.00000E+00
    0.00000E+00         0.00000E+00         0.00000E+00
 
    0.53290E+06         0.10421E+07         0.00000E+00
    0.10421E+07        -0.14019E+07         0.00000E+00
    0.00000E+00         0.00000E+00         0.00000E+00
 
    0.51954E+06         0.10985E+07         0.00000E+00
    0.10985E+07        -0.13981E+07         0.00000E+00
    0.00000E+00         0.00000E+00         0.00000E+00
 
    0.50597E+06         0.11545E+07         0.00000E+00
    0.11545E+07        -0.13940E+07         0.00000E+00
    0.00000E+00         0.00000E+00         0.00000E+00
 
    0.49220E+06         0.12101E+07         0.00000E+00
    0.12101E+07        -0.13898E+07         0.00000E+00
    0.00000E+00         0.00000E+00         0.00000E+00
 
    0.47823E+06         0.12653E+07         0.00000E+00
    0.12653E+07        -0.13853E+07         0.00000E+00
    0.00000E+00         0.00000E+00         0.00000E+00
 
    0.46405E+06         0.13201E+07         0.00000E+00
    0.13201E+07        -0.13807E+07         0.00000E+00
    0.00000E+00         0.00000E+00         0.00000E+00
 
    0.44967E+06         0.13745E+07         0.00000E+00
    0.13745E+07        -0.13759E+07         0.00000E+00
    0.00000E+00         0.00000E+00         0.00000E+00
 
    0.43510E+06         0.14286E+07         0.00000E+00
    0.14286E+07        -0.13709E+07         0.00000E+00
    0.00000E+00         0.00000E+00         0.00000E+00
 
    0.42033E+06         0.14822E+07         0.00000E+00
    0.14822E+07        -0.13656E+07         0.00000E+00
    0.00000E+00         0.00000E+00         0.00000E+00
 
    0.40537E+06         0.15355E+07         0.00000E+00
    0.15355E+07        -0.13602E+07         0.00000E+00
    0.00000E+00         0.00000E+00         0.00000E+00
 
    0.39021E+06         0.15883E+07         0.00000E+00
    0.15883E+07        -0.13547E+07         0.00000E+00
    0.00000E+00         0.00000E+00         0.00000E+00
 
    0.37486E+06         0.16407E+07         0.00000E+00
    0.16407E+07        -0.13489E+07         0.00000E+00
    0.00000E+00         0.00000E+00         0.00000E+00
 
    0.35931E+06         0.16927E+07         0.00000E+00
    0.16927E+07        -0.13429E+07         0.00000E+00
    0.00000E+00         0.00000E+00         0.00000E+00
 
    0.34358E+06         0.17443E+07         0.00000E+00
    0.17443E+07        -0.13368E+07         0.00000E+00
    0.00000E+00         0.00000E+00         0.00000E+00
 
    0.32766E+06         0.17955E+07         0.00000E+00
    0.17955E+07        -0.13305E+07         0.00000E+00
    0.00000E+00         0.00000E+00         0.00000E+00
 
    0.31155E+06         0.18462E+07         0.00000E+00
    0.18462E+07        -0.13240E+07         0.00000E+00
    0.00000E+00         0.00000E+00         0.00000E+00
 
    0.29525E+06         0.18966E+07         0.00000E+00
    0.18966E+07        -0.13173E+07         0.00000E+00
    0.00000E+00         0.00000E+00         0.00000E+00
 
    0.27877E+06         0.19464E+07         0.00000E+00
    0.19464E+07        -0.13104E+07         0.00000E+00
    0.00000E+00         0.00000E+00         0.00000E+00
 
    0.26210E+06         0.19959E+07         0.00000E+00
    0.19959E+07        -0.13034E+07         0.00000E+00
    0.00000E+00         0.00000E+00         0.00000E+00
 
    0.24525E+06         0.20449E+07         0.00000E+00
    0.20449E+07        -0.12961E+07         0.00000E+00
    0.00000E+00         0.00000E+00         0.00000E+00
 
    0.22821E+06         0.20934E+07         0.00000E+00
    0.20934E+07        -0.12887E+07         0.00000E+00
    0.00000E+00         0.00000E+00         0.00000E+00
 
    0.21099E+06         0.21415E+07         0.00000E+00
    0.21415E+07        -0.12811E+07         0.00000E+00
    0.00000E+00         0.00000E+00         0.00000E+00
 
    0.19359E+06         0.21892E+07         0.00000E+00
    0.21892E+07        -0.12734E+07         0.00000E+00
    0.00000E+00         0.00000E+00         0.00000E+00
 
    0.17600E+06         0.22363E+07         0.00000E+00
    0.22363E+07        -0.12654E+07         0.00000E+00
    0.00000E+00         0.00000E+00         0.00000E+00
 
    0.15824E+06         0.22831E+07         0.00000E+00
    0.22831E+07        -0.12573E+07         0.00000E+00
    0.00000E+00         0.00000E+00         0.00000E+00
 
    0.14029E+06         0.23293E+07         0.00000E+00
    0.23293E+07        -0.12490E+07         0.00000E+00
    0.00000E+00         0.00000E+00         0.00000E+00
 
    0.12217E+06         0.23751E+07         0.00000E+00
    0.23751E+07        -0.12405E+07         0.00000E+00
    0.00000E+00         0.00000E+00         0.00000E+00
 
    0.10386E+06         0.24204E+07         0.00000E+00
    0.24204E+07        -0.12319E+07         0.00000E+00
    0.00000E+00         0.00000E+00         0.00000E+00
 
    0.85373E+05         0.24652E+07         0.00000E+00
    0.24652E+07        -0.12231E+07         0.00000E+00
    0.00000E+00         0.00000E+00         0.00000E+00
 
    0.66708E+05         0.25095E+07         0.00000E+00
    0.25095E+07        -0.12141E+07         0.00000E+00
    0.00000E+00         0.00000E+00         0.00000E+00
 
    0.47865E+05         0.25534E+07         0.00000E+00
    0.25534E+07        -0.12049E+07         0.00000E+00
    0.00000E+00         0.00000E+00         0.00000E+00
 
    0.28843E+05         0.25967E+07         0.00000E+00
    0.25967E+07        -0.11955E+07         0.00000E+00
    0.00000E+00         0.00000E+00         0.00000E+00
 
    0.96440E+04         0.26395E+07         0.00000E+00
    0.26395E+07        -0.11860E+07         0.00000E+00
    0.00000E+00         0.00000E+00         0.00000E+00
 
    0.82560E+06         0.31984E+05         0.00000E+00
    0.31984E+05        -0.16500E+07         0.00000E+00
    0.00000E+00         0.00000E+00         0.00000E+00
 
    0.81463E+06         0.95139E+05         0.00000E+00
    0.95139E+05        -0.16498E+07         0.00000E+00
    0.00000E+00         0.00000E+00         0.00000E+00
 
    0.80339E+06         0.15799E+06         0.00000E+00
    0.15799E+06        -0.16492E+07         0.00000E+00
    0.00000E+00         0.00000E+00         0.00000E+00
 
    0.79188E+06         0.22054E+06         0.00000E+00
    0.22054E+06        -0.16485E+07         0.00000E+00
    0.00000E+00         0.00000E+00         0.00000E+00
 
    0.78009E+06         0.28277E+06         0.00000E+00
    0.28277E+06        -0.16474E+07         0.00000E+00
    0.00000E+00         0.00000E+00         0.00000E+00
 
    0.76805E+06         0.34468E+06         0.00000E+00
    0.34468E+06        -0.16462E+07         0.00000E+00
    0.00000E+00         0.00000E+00         0.00000E+00
 
    0.75574E+06         0.40627E+06         0.00000E+00
    0.40627E+06        -0.16446E+07         0.00000E+00
    0.00000E+00         0.00000E+00         0.00000E+00
 
    0.74317E+06         0.46754E+06         0.00000E+00
    0.46754E+06        -0.16429E+07         0.00000E+00
    0.00000E+00         0.00000E+00         0.00000E+00
 
    0.73034E+06         0.52847E+06         0.00000E+00
    0.52847E+06        -0.16409E+07         0.00000E+00
    0.00000E+00         0.00000E+00         0.00000E+00
 
    0.71727E+06         0.58907E+06         0.00000E+00
    0.58907E+06        -0.16386E+07         0.00000E+00
    0.00000E+00         0.00000E+00         0.00000E+00
 
    0.70394E+06         0.64932E+06         0.00000E+00
    0.64932E+06        -0.16361E+07         0.00000E+00
    0.00000E+00         0.00000E+00         0.00000E+00
 
    0.69037E+06         0.70924E+06         0.00000E+00
    0.70924E+06        -0.16334E+07         0.00000E+00
    0.00000E+00         0.00000E+00         0.00000E+00
 
    0.67655E+06         0.76880E+06         0.00000E+00
    0.76880E+06        -0.16304E+07         0.00000E+00
    0.00000E+00         0.00000E+00         0.00000E+00
 
    0.66250E+06         0.82801E+06         0.00000E+00
    0.82801E+06        -0.16273E+07         0.00000E+00
    0.00000E+00         0.00000E+00         0.00000E+00
 
    0.64821E+06         0.88686E+06         0.00000E+00
    0.88686E+06        -0.16238E+07         0.00000E+00
    0.00000E+00         0.00000E+00         0.00000E+00
 
    0.63368E+06         0.94535E+06         0.00000E+00
    0.94535E+06        -0.16202E+07         0.00000E+00
    0.00000E+00         0.00000E+00         0.00000E+00
 
    0.61891E+06         0.10035E+07         0.00000E+00
    0.10035E+07        -0.16163E+07         0.00000E+00
    0.00000E+00         0.00000E+00         0.00000E+00
 
    0.60392E+06         0.10612E+07         0.00000E+00
    0.10612E+07        -0.16122E+07         0.00000E+00
    0.00000E+00         0.00000E+00         0.00000E+00
 
    0.58870E+06         0.11186E+07         0.00000E+00
    0.11186E+07        -0.16079E+07         0.00000E+00
    0.00000E+00         0.00000E+00         0.00000E+00
 
    0.57325E+06         0.11756E+07         0.00000E+00
    0.11756E+07        -0.16034E+07         0.00000E+00
    0.00000E+00         0.00000E+00         0.00000E+00
 
    0.55757E+06         0.12322E+07         0.00000E+00
    0.12322E+07        -0.15986E+07         0.00000E+00
    0.00000E+00         0.00000E+00         0.00000E+00
 
    0.54168E+06         0.12885E+07         0.00000E+00
    0.12885E+07        -0.15937E+07         0.00000E+00
    0.00000E+00         0.00000E+00         0.00000E+00
 
    0.52556E+06         0.13443E+07         0.00000E+00
    0.13443E+07        -0.15885E+07         0.00000E+00
    0.00000E+00         0.00000E+00         0.00000E+00
 
    0.50922E+06         0.13998E+07         0.00000E+00
    0.13998E+07        -0.15831E+07         0.00000E+00
    0.00000E+00         0.00000E+00         0.00000E+00
 
    0.49267E+06         0.14548E+07         0.00000E+00
    0.14548E+07        -0.15774E+07         0.00000E+00
    0.00000E+00         0.00000E+00         0.00000E+00
 
    0.47589E+06         0.15095E+07         0.00000E+00
    0.15095E+07        -0.15716E+07         0.00000E+00
    0.00000E+00         0.00000E+00         0.00000E+00
 
    0.45891E+06         0.15637E+07         0.00000E+00
    0.15637E+07        -0.15656E+07         0.00000E+00
    0.00000E+00         0.00000E+00         0.00000E+00
 
    0.44170E+06         0.16176E+07         0.00000E+00
    0.16176E+07        -0.15593E+07         0.00000E+00
    0.00000E+00         0.00000E+00         0.00000E+00
 
    0.42429E+06         0.16710E+07         0.00000E+00
    0.16710E+07        -0.15528E+07         0.00000E+00
    0.00000E+00         0.00000E+00         0.00000E+00
 
    0.40666E+06         0.17240E+07         0.00000E+00
    0.17240E+07        -0.15461E+07         0.00000E+00
    0.00000E+00         0.00000E+00         0.00000E+00
 
    0.38883E+06         0.17766E+07         0.00000E+00
    0.17766E+07        -0.15393E+07         0.00000E+00
    0.00000E+00         0.00000E+00         0.00000E+00
 
    0.37078E+06         0.18288E+07         0.00000E+00
    0.18288E+07        -0.15322E+07         0.00000E+00
    0.00000E+00         0.00000E+00         0.00000E+00
 
    0.35253E+06         0.18805E+07         0.00000E+00
    0.18805E+07        -0.15248E+07         0.00000E+00
    0.00000E+00         0.00000E+00         0.00000E+00
 
    0.33407E+06         0.19319E+07         0.00000E+00
    0.19319E+07        -0.15173E+07         0.00000E+00
    0.00000E+00         0.00000E+00         0.00000E+00
 
    0.31540E+06         0.19827E+07         0.00000E+00
    0.19827E+07        -0.15096E+07         0.00000E+00
    0.00000E+00         0.00000E+00         0.00000E+00
 
    0.29653E+06         0.20332E+07         0.00000E+00
    0.20332E+07        -0.15017E+07         0.00000E+00
    0.00000E+00         0.00000E+00         0.00000E+00
 
    0.27745E+06         0.20832E+07         0.00000E+00
    0.20832E+07        -0.14936E+07         0.00000E+00
    0.00000E+00         0.00000E+00         0.00000E+00
 
    0.25816E+06         0.21327E+07         0.00000E+00
    0.21327E+07        -0.14852E+07         0.00000E+00
    0.00000E+00         0.00000E+00         0.00000E+00
 
    0.23867E+06         0.21818E+07         0.00000E+00
    0.21818E+07        -0.14767E+07         0.00000E+00
    0.00000E+00         0.00000E+00         0.00000E+00
 
    0.21898E+06         0.22304E+07         0.00000E+00
    0.22304E+07        -0.14680E+07         0.00000E+00
    0.00000E+00         0.00000E+00         0.00000E+00
 
    0.19908E+06         0.22786E+07         0.00000E+00
    0.22786E+07        -0.14590E+07         0.00000E+00
    0.00000E+00         0.00000E+00         0.00000E+00
 
    0.17898E+06         0.23263E+07         0.00000E+00
    0.23263E+07        -0.14499E+07         0.00000E+00
    0.00000E+00         0.00000E+00         0.00000E+00
 
    0.15868E+06         0.23735E+07         0.00000E+00
    0.23735E+07        -0.14405E+07         0.00000E+00
    0.00000E+00         0.00000E+00         0.00000E+00
 
    0.13817E+06         0.24203E+07         0.00000E+00
    0.24203E+07        -0.14310E+07         0.00000E+00
    0.00000E+00         0.00000E+00         0.00000E+00
 
    0.11747E+06         0.24666E+07         0.00000E+00
    0.24666E+07        -0.14212E+07         0.00000E+00
    0.00000E+00         0.00000E+00         0.00000E+00
 
    0.96559E+05         0.25124E+07         0.00000E+00
    0.25124E+07        -0.14112E+07         0.00000E+00
    0.00000E+00         0.00000E+00         0.00000E+00
 
    0.75448E+05         0.25577E+07         0.00000E+00
    0.25577E+07        -0.14011E+07         0.00000E+00
    0.00000E+00         0.00000E+00         0.00000E+00
 
    0.54136E+05         0.26025E+07         0.00000E+00
    0.26025E+07        -0.13907E+07         0.00000E+00
    0.00000E+00         0.00000E+00         0.00000E+00
 
    0.32622E+05         0.26468E+07         0.00000E+00
    0.26468E+07        -0.13802E+07         0.00000E+00
    0.00000E+00         0.00000E+00         0.00000E+00
 
    0.10908E+05         0.26907E+07         0.00000E+00
    0.26907E+07        -0.13694E+07         0.00000E+00
    0.00000E+00         0.00000E+00         0.00000E+00
 
    0.92582E+06         0.32639E+05         0.00000E+00
    0.32639E+05        -0.18695E+07         0.00000E+00
    0.00000E+00         0.00000E+00         0.00000E+00
 
    0.91333E+06         0.97074E+05         0.00000E+00
    0.97074E+05        -0.18692E+07         0.00000E+00
    0.00000E+00         0.00000E+00         0.00000E+00
 
    0.90054E+06         0.16120E+06         0.00000E+00
    0.16120E+06        -0.18686E+07         0.00000E+00
    0.00000E+00         0.00000E+00         0.00000E+00
 
    0.88745E+06         0.22500E+06         0.00000E+00
    0.22500E+06        -0.18678E+07         0.00000E+00
    0.00000E+00         0.00000E+00         0.00000E+00
 
    0.87407E+06         0.28848E+06         0.00000E+00
    0.28848E+06        -0.18667E+07         0.00000E+00
    0.00000E+00         0.00000E+00         0.00000E+00
 
    0.86040E+06         0.35164E+06         0.00000E+00
    0.35164E+06        -0.18652E+07         0.00000E+00
    0.00000E+00         0.00000E+00         0.00000E+00
 
    0.84645E+06         0.41446E+06         0.00000E+00
    0.41446E+06        -0.18636E+07         0.00000E+00
    0.00000E+00         0.00000E+00         0.00000E+00
 
    0.83222E+06         0.47695E+06         0.00000E+00
    0.47695E+06        -0.18616E+07         0.00000E+00
    0.00000E+00         0.00000E+00         0.00000E+00
 
    0.81771E+06         0.53910E+06         0.00000E+00
    0.53910E+06        -0.18594E+07         0.00000E+00
    0.00000E+00         0.00000E+00         0.00000E+00
 
    0.80293E+06         0.60090E+06         0.00000E+00
    0.60090E+06        -0.18569E+07         0.00000E+00
    0.00000E+00         0.00000E+00         0.00000E+00
 
    0.78788E+06         0.66236E+06         0.00000E+00
    0.66236E+06        -0.18542E+07         0.00000E+00
    0.00000E+00         0.00000E+00         0.00000E+00
 
    0.77256E+06         0.72347E+06         0.00000E+00
    0.72347E+06        -0.18512E+07         0.00000E+00
    0.00000E+00         0.00000E+00         0.00000E+00
 
    0.75698E+06         0.78422E+06         0.00000E+00
    0.78422E+06        -0.18479E+07         0.00000E+00
    0.00000E+00         0.00000E+00         0.00000E+00
 
    0.74114E+06         0.84461E+06         0.00000E+00
    0.84461E+06        -0.18444E+07         0.00000E+00
    0.00000E+00         0.00000E+00         0.00000E+00
 
    0.72504E+06         0.90464E+06         0.00000E+00
    0.90464E+06        -0.18406E+07         0.00000E+00
    0.00000E+00         0.00000E+00         0.00000E+00
 
    0.70868E+06         0.96430E+06         0.00000E+00
    0.96430E+06        -0.18366E+07         0.00000E+00
    0.00000E+00         0.00000E+00         0.00000E+00
 
    0.69208E+06         0.10236E+07         0.00000E+00
    0.10236E+07        -0.18323E+07         0.00000E+00
    0.00000E+00         0.00000E+00         0.00000E+00
 
    0.67522E+06         0.10825E+07         0.00000E+00
    0.10825E+07        -0.18278E+07         0.00000E+00
    0.00000E+00         0.00000E+00         0.00000E+00
 
    0.65811E+06         0.11410E+07         0.00000E+00
    0.11410E+07        -0.18230E+07         0.00000E+00
    0.00000E+00         0.00000E+00         0.00000E+00
 
    0.64076E+06         0.11992E+07         0.00000E+00
    0.11992E+07        -0.18180E+07         0.00000E+00
    0.00000E+00         0.00000E+00         0.00000E+00
 
    0.62316E+06         0.12570E+07         0.00000E+00
    0.12570E+07        -0.18128E+07         0.00000E+00
    0.00000E+00         0.00000E+00         0.00000E+00
 
    0.60532E+06         0.13144E+07         0.00000E+00
    0.13144E+07        -0.18073E+07         0.00000E+00
    0.00000E+00         0.00000E+00         0.00000E+00
 
    0.58724E+06         0.13713E+07         0.00000E+00
    0.13713E+07        -0.18015E+07         0.00000E+00
    0.00000E+00         0.00000E+00         0.00000E+00
 
    0.56893E+06         0.14279E+07         0.00000E+00
    0.14279E+07        -0.17956E+07         0.00000E+00
    0.00000E+00         0.00000E+00         0.00000E+00
 
    0.55037E+06         0.14841E+07         0.00000E+00
    0.14841E+07        -0.17894E+07         0.00000E+00
    0.00000E+00         0.00000E+00         0.00000E+00
 
    0.53158E+06         0.15399E+07         0.00000E+00
    0.15399E+07        -0.17829E+07         0.00000E+00
    0.00000E+00         0.00000E+00         0.00000E+00
 
    0.51256E+06         0.15953E+07         0.00000E+00
    0.15953E+07        -0.17762E+07         0.00000E+00
    0.00000E+00         0.00000E+00         0.00000E+00
 
    0.49330E+06         0.16503E+07         0.00000E+00
    0.16503E+07        -0.17693E+07         0.00000E+00
    0.00000E+00         0.00000E+00         0.00000E+00
 
    0.47381E+06         0.17048E+07         0.00000E+00
    0.17048E+07        -0.17621E+07         0.00000E+00
    0.00000E+00         0.00000E+00         0.00000E+00
 
    0.45410E+06         0.17590E+07         0.00000E+00
    0.17590E+07        -0.17547E+07         0.00000E+00
    0.00000E+00         0.00000E+00         0.00000E+00
 
    0.43415E+06         0.18127E+07         0.00000E+00
    0.18127E+07        -0.17471E+07         0.00000E+00
    0.00000E+00         0.00000E+00         0.00000E+00
 
    0.41397E+06         0.18660E+07         0.00000E+00
    0.18660E+07        -0.17392E+07         0.00000E+00
    0.00000E+00         0.00000E+00         0.00000E+00
 
    0.39356E+06         0.19189E+07         0.00000E+00
    0.19189E+07        -0.17311E+07         0.00000E+00
    0.00000E+00         0.00000E+00         0.00000E+00
 
    0.37293E+06         0.19713E+07         0.00000E+00
    0.19713E+07        -0.17228E+07         0.00000E+00
    0.00000E+00         0.00000E+00         0.00000E+00
 
    0.35207E+06         0.20233E+07         0.00000E+00
    0.20233E+07        -0.17143E+07         0.00000E+00
    0.00000E+00         0.00000E+00         0.00000E+00
 
    0.33099E+06         0.20748E+07         0.00000E+00
    0.20748E+07        -0.17055E+07         0.00000E+00
    0.00000E+00         0.00000E+00         0.00000E+00
 
    0.30967E+06         0.21260E+07         0.00000E+00
    0.21260E+07        -0.16965E+07         0.00000E+00
    0.00000E+00         0.00000E+00         0.00000E+00
 
    0.28814E+06         0.21766E+07         0.00000E+00
    0.21766E+07        -0.16872E+07         0.00000E+00
    0.00000E+00         0.00000E+00         0.00000E+00
 
    0.26637E+06         0.22268E+07         0.00000E+00
    0.22268E+07        -0.16777E+07         0.00000E+00
    0.00000E+00         0.00000E+00         0.00000E+00
 
    0.24439E+06         0.22766E+07         0.00000E+00
    0.22766E+07        -0.16680E+07         0.00000E+00
    0.00000E+00         0.00000E+00         0.00000E+00
 
    0.22218E+06         0.23259E+07         0.00000E+00
    0.23259E+07        -0.16581E+07         0.00000E+00
    0.00000E+00         0.00000E+00         0.00000E+00
 
    0.19974E+06         0.23747E+07         0.00000E+00
    0.23747E+07        -0.16479E+07         0.00000E+00
    0.00000E+00         0.00000E+00         0.00000E+00
 
    0.17708E+06         0.24231E+07         0.00000E+00
    0.24231E+07        -0.16375E+07         0.00000E+00
    0.00000E+00         0.00000E+00         0.00000E+00
 
    0.15419E+06         0.24709E+07         0.00000E+00
    0.24709E+07        -0.16269E+07         0.00000E+00
    0.00000E+00         0.00000E+00         0.00000E+00
 
    0.13109E+06         0.25184E+07         0.00000E+00
    0.25184E+07        -0.16160E+07         0.00000E+00
    0.00000E+00         0.00000E+00         0.00000E+00
 
    0.10775E+06         0.25653E+07         0.00000E+00
    0.25653E+07        -0.16049E+07         0.00000E+00
    0.00000E+00         0.00000E+00         0.00000E+00
 
    0.84194E+05         0.26117E+07         0.00000E+00
    0.26117E+07        -0.15936E+07         0.00000E+00
    0.00000E+00         0.00000E+00         0.00000E+00
 
    0.60411E+05         0.26577E+07         0.00000E+00
    0.26577E+07        -0.15821E+07         0.00000E+00
    0.00000E+00         0.00000E+00         0.00000E+00
 
    0.36404E+05         0.27031E+07         0.00000E+00
    0.27031E+07        -0.15703E+07         0.00000E+00
    0.00000E+00         0.00000E+00         0.00000E+00
 
    0.12172E+05         0.27481E+07         0.00000E+00
    0.27481E+07        -0.15583E+07         0.00000E+00
    0.00000E+00         0.00000E+00         0.00000E+00
 
    0.10269E+07         0.33360E+05         0.00000E+00
    0.33360E+05        -0.20949E+07         0.00000E+00
    0.00000E+00         0.00000E+00         0.00000E+00
 
    0.10128E+07         0.99203E+05         0.00000E+00
    0.99203E+05        -0.20946E+07         0.00000E+00
    0.00000E+00         0.00000E+00         0.00000E+00
 
    0.99843E+06         0.16472E+06         0.00000E+00
    0.16472E+06        -0.20939E+07         0.00000E+00
    0.00000E+00         0.00000E+00         0.00000E+00
 
    0.98372E+06         0.22991E+06         0.00000E+00
    0.22991E+06        -0.20930E+07         0.00000E+00
    0.00000E+00         0.00000E+00         0.00000E+00
 
    0.96870E+06         0.29477E+06         0.00000E+00
    0.29477E+06        -0.20918E+07         0.00000E+00
    0.00000E+00         0.00000E+00         0.00000E+00
 
    0.95336E+06         0.35929E+06         0.00000E+00
    0.35929E+06        -0.20902E+07         0.00000E+00
    0.00000E+00         0.00000E+00         0.00000E+00
 
    0.93773E+06         0.42347E+06         0.00000E+00
    0.42347E+06        -0.20884E+07         0.00000E+00
    0.00000E+00         0.00000E+00         0.00000E+00
 
    0.92179E+06         0.48731E+06         0.00000E+00
    0.48731E+06        -0.20863E+07         0.00000E+00
    0.00000E+00         0.00000E+00         0.00000E+00
 
    0.90555E+06         0.55079E+06         0.00000E+00
    0.55079E+06        -0.20839E+07         0.00000E+00
    0.00000E+00         0.00000E+00         0.00000E+00
 
    0.88903E+06         0.61393E+06         0.00000E+00
    0.61393E+06        -0.20811E+07         0.00000E+00
    0.00000E+00         0.00000E+00         0.00000E+00
 
    0.87221E+06         0.67671E+06         0.00000E+00
    0.67671E+06        -0.20782E+07         0.00000E+00
    0.00000E+00         0.00000E+00         0.00000E+00
 
    0.85511E+06         0.73913E+06         0.00000E+00
    0.73913E+06        -0.20749E+07         0.00000E+00
    0.00000E+00         0.00000E+00         0.00000E+00
 
    0.83773E+06         0.80119E+06         0.00000E+00
    0.80119E+06        -0.20713E+07         0.00000E+00
    0.00000E+00         0.00000E+00         0.00000E+00
 
    0.82007E+06         0.86288E+06         0.00000E+00
    0.86288E+06        -0.20675E+07         0.00000E+00
    0.00000E+00         0.00000E+00         0.00000E+00
 
    0.80213E+06         0.92421E+06         0.00000E+00
    0.92421E+06        -0.20634E+07         0.00000E+00
    0.00000E+00         0.00000E+00         0.00000E+00
 
    0.78392E+06         0.98516E+06         0.00000E+00
    0.98516E+06        -0.20590E+07         0.00000E+00
    0.00000E+00         0.00000E+00         0.00000E+00
 
    0.76544E+06         0.10457E+07         0.00000E+00
    0.10457E+07        -0.20543E+07         0.00000E+00
    0.00000E+00         0.00000E+00         0.00000E+00
 
    0.74669E+06         0.11059E+07         0.00000E+00
    0.11059E+07        -0.20494E+07         0.00000E+00
    0.00000E+00         0.00000E+00         0.00000E+00
 
    0.72768E+06         0.11657E+07         0.00000E+00
    0.11657E+07        -0.20442E+07         0.00000E+00
    0.00000E+00         0.00000E+00         0.00000E+00
 
    0.70840E+06         0.12252E+07         0.00000E+00
    0.12252E+07        -0.20387E+07         0.00000E+00
    0.00000E+00         0.00000E+00         0.00000E+00
 
    0.68886E+06         0.12842E+07         0.00000E+00
    0.12842E+07        -0.20330E+07         0.00000E+00
    0.00000E+00         0.00000E+00         0.00000E+00
 
    0.66906E+06         0.13429E+07         0.00000E+00
    0.13429E+07        -0.20270E+07         0.00000E+00
    0.00000E+00         0.00000E+00         0.00000E+00
 
    0.64901E+06         0.14011E+07         0.00000E+00
    0.14011E+07        -0.20207E+07         0.00000E+00
    0.00000E+00         0.00000E+00         0.00000E+00
 
    0.62869E+06         0.14590E+07         0.00000E+00
    0.14590E+07        -0.20142E+07         0.00000E+00
    0.00000E+00         0.00000E+00         0.00000E+00
 
    0.60813E+06         0.15164E+07         0.00000E+00
    0.15164E+07        -0.20074E+07         0.00000E+00
    0.00000E+00         0.00000E+00         0.00000E+00
 
    0.58731E+06         0.15735E+07         0.00000E+00
    0.15735E+07        -0.20003E+07         0.00000E+00
    0.00000E+00         0.00000E+00         0.00000E+00
 
    0.56623E+06         0.16301E+07         0.00000E+00
    0.16301E+07        -0.19930E+07         0.00000E+00
    0.00000E+00         0.00000E+00         0.00000E+00
 
    0.54491E+06         0.16863E+07         0.00000E+00
    0.16863E+07        -0.19854E+07         0.00000E+00
    0.00000E+00         0.00000E+00         0.00000E+00
 
    0.52334E+06         0.17421E+07         0.00000E+00
    0.17421E+07        -0.19776E+07         0.00000E+00
    0.00000E+00         0.00000E+00         0.00000E+00
 
    0.50152E+06         0.17975E+07         0.00000E+00
    0.17975E+07        -0.19695E+07         0.00000E+00
    0.00000E+00         0.00000E+00         0.00000E+00
 
    0.47945E+06         0.18525E+07         0.00000E+00
    0.18525E+07        -0.19611E+07         0.00000E+00
    0.00000E+00         0.00000E+00         0.00000E+00
 
    0.45714E+06         0.19071E+07         0.00000E+00
    0.19071E+07        -0.19525E+07         0.00000E+00
    0.00000E+00         0.00000E+00         0.00000E+00
 
    0.43457E+06         0.19612E+07         0.00000E+00
    0.19612E+07        -0.19436E+07         0.00000E+00
    0.00000E+00         0.00000E+00         0.00000E+00
 
    0.41177E+06         0.20148E+07         0.00000E+00
    0.20148E+07        -0.19345E+07         0.00000E+00
    0.00000E+00         0.00000E+00         0.00000E+00
 
    0.38871E+06         0.20681E+07         0.00000E+00
    0.20681E+07        -0.19251E+07         0.00000E+00
    0.00000E+00         0.00000E+00         0.00000E+00
 
    0.36541E+06         0.21209E+07         0.00000E+00
    0.21209E+07        -0.19155E+07         0.00000E+00
    0.00000E+00         0.00000E+00         0.00000E+00
 
    0.34187E+06         0.21733E+07         0.00000E+00
    0.21733E+07        -0.19056E+07         0.00000E+00
    0.00000E+00         0.00000E+00         0.00000E+00
 
    0.31808E+06         0.22252E+07         0.00000E+00
    0.22252E+07        -0.18954E+07         0.00000E+00
    0.00000E+00         0.00000E+00         0.00000E+00
 
    0.29404E+06         0.22766E+07         0.00000E+00
    0.22766E+07        -0.18850E+07         0.00000E+00
    0.00000E+00         0.00000E+00         0.00000E+00
 
    0.26976E+06         0.23276E+07         0.00000E+00
    0.23276E+07        -0.18743E+07         0.00000E+00
    0.00000E+00         0.00000E+00         0.00000E+00
 
    0.24524E+06         0.23782E+07         0.00000E+00
    0.23782E+07        -0.18634E+07         0.00000E+00
    0.00000E+00         0.00000E+00         0.00000E+00
 
    0.22047E+06         0.24283E+07         0.00000E+00
    0.24283E+07        -0.18522E+07         0.00000E+00
    0.00000E+00         0.00000E+00         0.00000E+00
 
    0.19545E+06         0.24779E+07         0.00000E+00
    0.24779E+07        -0.18408E+07         0.00000E+00
    0.00000E+00         0.00000E+00         0.00000E+00
 
    0.17019E+06         0.25270E+07         0.00000E+00
    0.25270E+07        -0.18291E+07         0.00000E+00
    0.00000E+00         0.00000E+00         0.00000E+00
 
    0.14468E+06         0.25757E+07         0.00000E+00
    0.25757E+07        -0.18172E+07         0.00000E+00
    0.00000E+00         0.00000E+00         0.00000E+00
 
    0.11893E+06         0.26239E+07         0.00000E+00
    0.26239E+07        -0.18050E+07         0.00000E+00
    0.00000E+00         0.00000E+00         0.00000E+00
 
    0.92926E+05         0.26716E+07         0.00000E+00
    0.26716E+07        -0.17925E+07         0.00000E+00
    0.00000E+00         0.00000E+00         0.00000E+00
 
    0.66677E+05         0.27188E+07         0.00000E+00
    0.27188E+07        -0.17798E+07         0.00000E+00
    0.00000E+00         0.00000E+00         0.00000E+00
 
    0.40180E+05         0.27655E+07         0.00000E+00
    0.27655E+07        -0.17668E+07         0.00000E+00
    0.00000E+00         0.00000E+00         0.00000E+00
 
    0.13435E+05         0.28117E+07         0.00000E+00
    0.28117E+07        -0.17535E+07         0.00000E+00
    0.00000E+00         0.00000E+00         0.00000E+00
 
    0.11288E+07         0.34145E+05         0.00000E+00
    0.34145E+05        -0.23269E+07         0.00000E+00
    0.00000E+00         0.00000E+00         0.00000E+00
 
    0.11130E+07         0.10152E+06         0.00000E+00
    0.10152E+06        -0.23265E+07         0.00000E+00
    0.00000E+00         0.00000E+00         0.00000E+00
 
    0.10970E+07         0.16856E+06         0.00000E+00
    0.16856E+06        -0.23258E+07         0.00000E+00
    0.00000E+00         0.00000E+00         0.00000E+00
 
    0.10806E+07         0.23526E+06         0.00000E+00
    0.23526E+06        -0.23248E+07         0.00000E+00
    0.00000E+00         0.00000E+00         0.00000E+00
 
    0.10639E+07         0.30162E+06         0.00000E+00
    0.30162E+06        -0.23235E+07         0.00000E+00
    0.00000E+00         0.00000E+00         0.00000E+00
 
    0.10468E+07         0.36762E+06         0.00000E+00
    0.36762E+06        -0.23218E+07         0.00000E+00
    0.00000E+00         0.00000E+00         0.00000E+00
 
    0.10294E+07         0.43328E+06         0.00000E+00
    0.43328E+06        -0.23199E+07         0.00000E+00
    0.00000E+00         0.00000E+00         0.00000E+00
 
    0.10118E+07         0.49858E+06         0.00000E+00
    0.49858E+06        -0.23176E+07         0.00000E+00
    0.00000E+00         0.00000E+00         0.00000E+00
 
    0.99375E+06         0.56353E+06         0.00000E+00
    0.56353E+06        -0.23149E+07         0.00000E+00
    0.00000E+00         0.00000E+00         0.00000E+00
 
    0.97544E+06         0.62811E+06         0.00000E+00
    0.62811E+06        -0.23120E+07         0.00000E+00
    0.00000E+00         0.00000E+00         0.00000E+00
 
    0.95682E+06         0.69234E+06         0.00000E+00
    0.69234E+06        -0.23088E+07         0.00000E+00
    0.00000E+00         0.00000E+00         0.00000E+00
 
    0.93790E+06         0.75619E+06         0.00000E+00
    0.75619E+06        -0.23052E+07         0.00000E+00
    0.00000E+00         0.00000E+00         0.00000E+00
 
    0.91868E+06         0.81968E+06         0.00000E+00
    0.81968E+06        -0.23014E+07         0.00000E+00
    0.00000E+00         0.00000E+00         0.00000E+00
 
    0.89916E+06         0.88279E+06         0.00000E+00
    0.88279E+06        -0.22973E+07         0.00000E+00
    0.00000E+00         0.00000E+00         0.00000E+00
 
    0.87936E+06         0.94553E+06         0.00000E+00
    0.94553E+06        -0.22928E+07         0.00000E+00
    0.00000E+00         0.00000E+00         0.00000E+00
 
    0.85926E+06         0.10079E+07         0.00000E+00
    0.10079E+07        -0.22881E+07         0.00000E+00
    0.00000E+00         0.00000E+00         0.00000E+00
 
    0.83888E+06         0.10699E+07         0.00000E+00
    0.10699E+07        -0.22830E+07         0.00000E+00
    0.00000E+00         0.00000E+00         0.00000E+00
 
    0.81821E+06         0.11315E+07         0.00000E+00
    0.11315E+07        -0.22777E+07         0.00000E+00
    0.00000E+00         0.00000E+00         0.00000E+00
 
    0.79727E+06         0.11927E+07         0.00000E+00
    0.11927E+07        -0.22721E+07         0.00000E+00
    0.00000E+00         0.00000E+00         0.00000E+00
 
    0.77604E+06         0.12535E+07         0.00000E+00
    0.12535E+07        -0.22661E+07         0.00000E+00
    0.00000E+00         0.00000E+00         0.00000E+00
 
    0.75454E+06         0.13139E+07         0.00000E+00
    0.13139E+07        -0.22599E+07         0.00000E+00
    0.00000E+00         0.00000E+00         0.00000E+00
 
    0.73276E+06         0.13739E+07         0.00000E+00
    0.13739E+07        -0.22534E+07         0.00000E+00
    0.00000E+00         0.00000E+00         0.00000E+00
 
    0.71071E+06         0.14336E+07         0.00000E+00
    0.14336E+07        -0.22466E+07         0.00000E+00
    0.00000E+00         0.00000E+00         0.00000E+00
 
    0.68839E+06         0.14928E+07         0.00000E+00
    0.14928E+07        -0.22396E+07         0.00000E+00
    0.00000E+00         0.00000E+00         0.00000E+00
 
    0.66580E+06         0.15516E+07         0.00000E+00
    0.15516E+07        -0.22322E+07         0.00000E+00
    0.00000E+00         0.00000E+00         0.00000E+00
 
    0.64294E+06         0.16101E+07         0.00000E+00
    0.16101E+07        -0.22246E+07         0.00000E+00
    0.00000E+00         0.00000E+00         0.00000E+00
 
    0.61981E+06         0.16681E+07         0.00000E+00
    0.16681E+07        -0.22166E+07         0.00000E+00
    0.00000E+00         0.00000E+00         0.00000E+00
 
    0.59641E+06         0.17257E+07         0.00000E+00
    0.17257E+07        -0.22084E+07         0.00000E+00
    0.00000E+00         0.00000E+00         0.00000E+00
 
    0.57275E+06         0.17829E+07         0.00000E+00
    0.17829E+07        -0.21999E+07         0.00000E+00
    0.00000E+00         0.00000E+00         0.00000E+00
 
    0.54883E+06         0.18396E+07         0.00000E+00
    0.18396E+07        -0.21911E+07         0.00000E+00
    0.00000E+00         0.00000E+00         0.00000E+00
 
    0.52463E+06         0.18960E+07         0.00000E+00
    0.18960E+07        -0.21821E+07         0.00000E+00
    0.00000E+00         0.00000E+00         0.00000E+00
 
    0.50018E+06         0.19519E+07         0.00000E+00
    0.19519E+07        -0.21727E+07         0.00000E+00
    0.00000E+00         0.00000E+00         0.00000E+00
 
    0.47546E+06         0.20074E+07         0.00000E+00
    0.20074E+07        -0.21631E+07         0.00000E+00
    0.00000E+00         0.00000E+00         0.00000E+00
 
    0.45048E+06         0.20624E+07         0.00000E+00
    0.20624E+07        -0.21532E+07         0.00000E+00
    0.00000E+00         0.00000E+00         0.00000E+00
 
    0.42523E+06         0.21171E+07         0.00000E+00
    0.21171E+07        -0.21430E+07         0.00000E+00
    0.00000E+00         0.00000E+00         0.00000E+00
 
    0.39972E+06         0.21713E+07         0.00000E+00
    0.21713E+07        -0.21325E+07         0.00000E+00
    0.00000E+00         0.00000E+00         0.00000E+00
 
    0.37395E+06         0.22250E+07         0.00000E+00
    0.22250E+07        -0.21218E+07         0.00000E+00
    0.00000E+00         0.00000E+00         0.00000E+00
 
    0.34791E+06         0.22783E+07         0.00000E+00
    0.22783E+07        -0.21107E+07         0.00000E+00
    0.00000E+00         0.00000E+00         0.00000E+00
 
    0.32161E+06         0.23311E+07         0.00000E+00
    0.23311E+07        -0.20994E+07         0.00000E+00
    0.00000E+00         0.00000E+00         0.00000E+00
 
    0.29504E+06         0.23835E+07         0.00000E+00
    0.23835E+07        -0.20878E+07         0.00000E+00
    0.00000E+00         0.00000E+00         0.00000E+00
 
    0.26821E+06         0.24355E+07         0.00000E+00
    0.24355E+07        -0.20759E+07         0.00000E+00
    0.00000E+00         0.00000E+00         0.00000E+00
 
    0.24111E+06         0.24870E+07         0.00000E+00
    0.24870E+07        -0.20637E+07         0.00000E+00
    0.00000E+00         0.00000E+00         0.00000E+00
 
    0.21375E+06         0.25380E+07         0.00000E+00
    0.25380E+07        -0.20513E+07         0.00000E+00
    0.00000E+00         0.00000E+00         0.00000E+00
 
    0.18612E+06         0.25885E+07         0.00000E+00
    0.25885E+07        -0.20385E+07         0.00000E+00
    0.00000E+00         0.00000E+00         0.00000E+00
 
    0.15823E+06         0.26386E+07         0.00000E+00
    0.26386E+07        -0.20255E+07         0.00000E+00
    0.00000E+00         0.00000E+00         0.00000E+00
 
    0.13006E+06         0.26882E+07         0.00000E+00
    0.26882E+07        -0.20122E+07         0.00000E+00
    0.00000E+00         0.00000E+00         0.00000E+00
 
    0.10162E+06         0.27373E+07         0.00000E+00
    0.27373E+07        -0.19985E+07         0.00000E+00
    0.00000E+00         0.00000E+00         0.00000E+00
 
    0.72919E+05         0.27859E+07         0.00000E+00
    0.27859E+07        -0.19846E+07         0.00000E+00
    0.00000E+00         0.00000E+00         0.00000E+00
 
    0.43942E+05         0.28340E+07         0.00000E+00
    0.28340E+07        -0.19705E+07         0.00000E+00
    0.00000E+00         0.00000E+00         0.00000E+00
 
    0.14693E+05         0.28817E+07         0.00000E+00
    0.28817E+07        -0.19560E+07         0.00000E+00
    0.00000E+00         0.00000E+00         0.00000E+00
 
    0.12313E+07         0.34993E+05         0.00000E+00
    0.34993E+05        -0.25662E+07         0.00000E+00
    0.00000E+00         0.00000E+00         0.00000E+00
 
    0.12139E+07         0.10403E+06         0.00000E+00
    0.10403E+06        -0.25658E+07         0.00000E+00
    0.00000E+00         0.00000E+00         0.00000E+00
 
    0.11961E+07         0.17271E+06         0.00000E+00
    0.17271E+06        -0.25651E+07         0.00000E+00
    0.00000E+00         0.00000E+00         0.00000E+00
 
    0.11779E+07         0.24104E+06         0.00000E+00
    0.24104E+06        -0.25640E+07         0.00000E+00
    0.00000E+00         0.00000E+00         0.00000E+00
 
    0.11595E+07         0.30901E+06         0.00000E+00
    0.30901E+06        -0.25626E+07         0.00000E+00
    0.00000E+00         0.00000E+00         0.00000E+00
 
    0.11406E+07         0.37662E+06         0.00000E+00
    0.37662E+06        -0.25608E+07         0.00000E+00
    0.00000E+00         0.00000E+00         0.00000E+00
 
    0.11215E+07         0.44387E+06         0.00000E+00
    0.44387E+06        -0.25587E+07         0.00000E+00
    0.00000E+00         0.00000E+00         0.00000E+00
 
    0.11020E+07         0.51076E+06         0.00000E+00
    0.51076E+06        -0.25562E+07         0.00000E+00
    0.00000E+00         0.00000E+00         0.00000E+00
 
    0.10821E+07         0.57727E+06         0.00000E+00
    0.57727E+06        -0.25534E+07         0.00000E+00
    0.00000E+00         0.00000E+00         0.00000E+00
 
    0.10620E+07         0.64342E+06         0.00000E+00
    0.64342E+06        -0.25503E+07         0.00000E+00
    0.00000E+00         0.00000E+00         0.00000E+00
 
    0.10415E+07         0.70920E+06         0.00000E+00
    0.70920E+06        -0.25468E+07         0.00000E+00
    0.00000E+00         0.00000E+00         0.00000E+00
 
    0.10207E+07         0.77460E+06         0.00000E+00
    0.77460E+06        -0.25431E+07         0.00000E+00
    0.00000E+00         0.00000E+00         0.00000E+00
 
    0.99965E+06         0.83963E+06         0.00000E+00
    0.83963E+06        -0.25389E+07         0.00000E+00
    0.00000E+00         0.00000E+00         0.00000E+00
 
    0.97825E+06         0.90428E+06         0.00000E+00
    0.90428E+06        -0.25345E+07         0.00000E+00
    0.00000E+00         0.00000E+00         0.00000E+00
 
    0.95654E+06         0.96854E+06         0.00000E+00
    0.96854E+06        -0.25297E+07         0.00000E+00
    0.00000E+00         0.00000E+00         0.00000E+00
 
    0.93453E+06         0.10324E+07         0.00000E+00
    0.10324E+07        -0.25246E+07         0.00000E+00
    0.00000E+00         0.00000E+00         0.00000E+00
 
    0.91222E+06         0.10959E+07         0.00000E+00
    0.10959E+07        -0.25192E+07         0.00000E+00
    0.00000E+00         0.00000E+00         0.00000E+00
 
    0.88961E+06         0.11590E+07         0.00000E+00
    0.11590E+07        -0.25135E+07         0.00000E+00
    0.00000E+00         0.00000E+00         0.00000E+00
 
    0.86671E+06         0.12217E+07         0.00000E+00
    0.12217E+07        -0.25075E+07         0.00000E+00
    0.00000E+00         0.00000E+00         0.00000E+00
 
    0.84352E+06         0.12841E+07         0.00000E+00
    0.12841E+07        -0.25011E+07         0.00000E+00
    0.00000E+00         0.00000E+00         0.00000E+00
 
    0.82003E+06         0.13460E+07         0.00000E+00
    0.13460E+07        -0.24945E+07         0.00000E+00
    0.00000E+00         0.00000E+00         0.00000E+00
 
    0.79626E+06         0.14075E+07         0.00000E+00
    0.14075E+07        -0.24875E+07         0.00000E+00
    0.00000E+00         0.00000E+00         0.00000E+00
 
    0.77221E+06         0.14687E+07         0.00000E+00
    0.14687E+07        -0.24802E+07         0.00000E+00
    0.00000E+00         0.00000E+00         0.00000E+00
 
    0.74786E+06         0.15294E+07         0.00000E+00
    0.15294E+07        -0.24726E+07         0.00000E+00
    0.00000E+00         0.00000E+00         0.00000E+00
 
    0.72323E+06         0.15897E+07         0.00000E+00
    0.15897E+07        -0.24647E+07         0.00000E+00
    0.00000E+00         0.00000E+00         0.00000E+00
 
    0.69833E+06         0.16496E+07         0.00000E+00
    0.16496E+07        -0.24565E+07         0.00000E+00
    0.00000E+00         0.00000E+00         0.00000E+00
 
    0.67313E+06         0.17091E+07         0.00000E+00
    0.17091E+07        -0.24480E+07         0.00000E+00
    0.00000E+00         0.00000E+00         0.00000E+00
 
    0.64766E+06         0.17682E+07         0.00000E+00
    0.17682E+07        -0.24392E+07         0.00000E+00
    0.00000E+00         0.00000E+00         0.00000E+00
 
    0.62191E+06         0.18269E+07         0.00000E+00
    0.18269E+07        -0.24300E+07         0.00000E+00
    0.00000E+00         0.00000E+00         0.00000E+00
 
    0.59587E+06         0.18852E+07         0.00000E+00
    0.18852E+07        -0.24206E+07         0.00000E+00
    0.00000E+00         0.00000E+00         0.00000E+00
 
    0.56956E+06         0.19430E+07         0.00000E+00
    0.19430E+07        -0.24108E+07         0.00000E+00
    0.00000E+00         0.00000E+00         0.00000E+00
 
    0.54297E+06         0.20004E+07         0.00000E+00
    0.20004E+07        -0.24008E+07         0.00000E+00
    0.00000E+00         0.00000E+00         0.00000E+00
 
    0.51610E+06         0.20574E+07         0.00000E+00
    0.20574E+07        -0.23904E+07         0.00000E+00
    0.00000E+00         0.00000E+00         0.00000E+00
 
    0.48895E+06         0.21140E+07         0.00000E+00
    0.21140E+07        -0.23797E+07         0.00000E+00
    0.00000E+00         0.00000E+00         0.00000E+00
 
    0.46152E+06         0.21701E+07         0.00000E+00
    0.21701E+07        -0.23687E+07         0.00000E+00
    0.00000E+00         0.00000E+00         0.00000E+00
 
    0.43381E+06         0.22258E+07         0.00000E+00
    0.22258E+07        -0.23575E+07         0.00000E+00
    0.00000E+00         0.00000E+00         0.00000E+00
 
    0.40581E+06         0.22811E+07         0.00000E+00
    0.22811E+07        -0.23459E+07         0.00000E+00
    0.00000E+00         0.00000E+00         0.00000E+00
 
    0.37754E+06         0.23359E+07         0.00000E+00
    0.23359E+07        -0.23339E+07         0.00000E+00
    0.00000E+00         0.00000E+00         0.00000E+00
 
    0.34898E+06         0.23903E+07         0.00000E+00
    0.23903E+07        -0.23217E+07         0.00000E+00
    0.00000E+00         0.00000E+00         0.00000E+00
 
    0.32015E+06         0.24442E+07         0.00000E+00
    0.24442E+07        -0.23092E+07         0.00000E+00
    0.00000E+00         0.00000E+00         0.00000E+00
 
    0.29102E+06         0.24977E+07         0.00000E+00
    0.24977E+07        -0.22963E+07         0.00000E+00
    0.00000E+00         0.00000E+00         0.00000E+00
 
    0.26162E+06         0.25507E+07         0.00000E+00
    0.25507E+07        -0.22832E+07         0.00000E+00
    0.00000E+00         0.00000E+00         0.00000E+00
 
    0.23192E+06         0.26032E+07         0.00000E+00
    0.26032E+07        -0.22697E+07         0.00000E+00
    0.00000E+00         0.00000E+00         0.00000E+00
 
    0.20194E+06         0.26553E+07         0.00000E+00
    0.26553E+07        -0.22559E+07         0.00000E+00
    0.00000E+00         0.00000E+00         0.00000E+00
 
    0.17167E+06         0.27069E+07         0.00000E+00
    0.27069E+07        -0.22418E+07         0.00000E+00
    0.00000E+00         0.00000E+00         0.00000E+00
 
    0.14111E+06         0.27581E+07         0.00000E+00
    0.27581E+07        -0.22274E+07         0.00000E+00
    0.00000E+00         0.00000E+00         0.00000E+00
 
    0.11026E+06         0.28087E+07         0.00000E+00
    0.28087E+07        -0.22127E+07         0.00000E+00
    0.00000E+00         0.00000E+00         0.00000E+00
 
    0.79115E+05         0.28589E+07         0.00000E+00
    0.28589E+07        -0.21976E+07         0.00000E+00
    0.00000E+00         0.00000E+00         0.00000E+00
 
    0.47676E+05         0.29086E+07         0.00000E+00
    0.29086E+07        -0.21823E+07         0.00000E+00
    0.00000E+00         0.00000E+00         0.00000E+00
 
    0.15942E+05         0.29578E+07         0.00000E+00
    0.29578E+07        -0.21666E+07         0.00000E+00
    0.00000E+00         0.00000E+00         0.00000E+00
 
    0.13343E+07         0.35901E+05         0.00000E+00
    0.35901E+05        -0.28136E+07         0.00000E+00
    0.00000E+00         0.00000E+00         0.00000E+00
 
    0.13151E+07         0.10671E+06         0.00000E+00
    0.10671E+06        -0.28133E+07         0.00000E+00
    0.00000E+00         0.00000E+00         0.00000E+00
 
    0.12955E+07         0.17715E+06         0.00000E+00
    0.17715E+06        -0.28125E+07         0.00000E+00
    0.00000E+00         0.00000E+00         0.00000E+00
 
    0.12756E+07         0.24722E+06         0.00000E+00
    0.24722E+06        -0.28113E+07         0.00000E+00
    0.00000E+00         0.00000E+00         0.00000E+00
 
    0.12552E+07         0.31692E+06         0.00000E+00
    0.31692E+06        -0.28098E+07         0.00000E+00
    0.00000E+00         0.00000E+00         0.00000E+00
 
    0.12346E+07         0.38625E+06         0.00000E+00
    0.38625E+06        -0.28079E+07         0.00000E+00
    0.00000E+00         0.00000E+00         0.00000E+00
 
    0.12136E+07         0.45521E+06         0.00000E+00
    0.45521E+06        -0.28057E+07         0.00000E+00
    0.00000E+00         0.00000E+00         0.00000E+00
 
    0.11922E+07         0.52379E+06         0.00000E+00
    0.52379E+06        -0.28031E+07         0.00000E+00
    0.00000E+00         0.00000E+00         0.00000E+00
 
    0.11705E+07         0.59199E+06         0.00000E+00
    0.59199E+06        -0.28001E+07         0.00000E+00
    0.00000E+00         0.00000E+00         0.00000E+00
 
    0.11485E+07         0.65981E+06         0.00000E+00
    0.65981E+06        -0.27968E+07         0.00000E+00
    0.00000E+00         0.00000E+00         0.00000E+00
 
    0.11261E+07         0.72726E+06         0.00000E+00
    0.72726E+06        -0.27931E+07         0.00000E+00
    0.00000E+00         0.00000E+00         0.00000E+00
 
    0.11034E+07         0.79432E+06         0.00000E+00
    0.79432E+06        -0.27891E+07         0.00000E+00
    0.00000E+00         0.00000E+00         0.00000E+00
 
    0.10804E+07         0.86099E+06         0.00000E+00
    0.86099E+06        -0.27847E+07         0.00000E+00
    0.00000E+00         0.00000E+00         0.00000E+00
 
    0.10571E+07         0.92728E+06         0.00000E+00
    0.92728E+06        -0.27800E+07         0.00000E+00
    0.00000E+00         0.00000E+00         0.00000E+00
 
    0.10335E+07         0.99319E+06         0.00000E+00
    0.99319E+06        -0.27749E+07         0.00000E+00
    0.00000E+00         0.00000E+00         0.00000E+00
 
    0.10095E+07         0.10587E+07         0.00000E+00
    0.10587E+07        -0.27695E+07         0.00000E+00
    0.00000E+00         0.00000E+00         0.00000E+00
 
    0.98525E+06         0.11238E+07         0.00000E+00
    0.11238E+07        -0.27637E+07         0.00000E+00
    0.00000E+00         0.00000E+00         0.00000E+00
 
    0.96068E+06         0.11886E+07         0.00000E+00
    0.11886E+07        -0.27577E+07         0.00000E+00
    0.00000E+00         0.00000E+00         0.00000E+00
 
    0.93580E+06         0.12529E+07         0.00000E+00
    0.12529E+07        -0.27512E+07         0.00000E+00
    0.00000E+00         0.00000E+00         0.00000E+00
 
    0.91062E+06         0.13168E+07         0.00000E+00
    0.13168E+07        -0.27445E+07         0.00000E+00
    0.00000E+00         0.00000E+00         0.00000E+00
 
    0.88514E+06         0.13804E+07         0.00000E+00
    0.13804E+07        -0.27374E+07         0.00000E+00
    0.00000E+00         0.00000E+00         0.00000E+00
 
    0.85936E+06         0.14435E+07         0.00000E+00
    0.14435E+07        -0.27300E+07         0.00000E+00
    0.00000E+00         0.00000E+00         0.00000E+00
 
    0.83328E+06         0.15063E+07         0.00000E+00
    0.15063E+07        -0.27222E+07         0.00000E+00
    0.00000E+00         0.00000E+00         0.00000E+00
 
    0.80691E+06         0.15686E+07         0.00000E+00
    0.15686E+07        -0.27141E+07         0.00000E+00
    0.00000E+00         0.00000E+00         0.00000E+00
 
    0.78024E+06         0.16305E+07         0.00000E+00
    0.16305E+07        -0.27057E+07         0.00000E+00
    0.00000E+00         0.00000E+00         0.00000E+00
 
    0.75328E+06         0.16921E+07         0.00000E+00
    0.16921E+07        -0.26969E+07         0.00000E+00
    0.00000E+00         0.00000E+00         0.00000E+00
 
    0.72602E+06         0.17532E+07         0.00000E+00
    0.17532E+07        -0.26879E+07         0.00000E+00
    0.00000E+00         0.00000E+00         0.00000E+00
 
    0.69847E+06         0.18139E+07         0.00000E+00
    0.18139E+07        -0.26784E+07         0.00000E+00
    0.00000E+00         0.00000E+00         0.00000E+00
 
    0.67063E+06         0.18742E+07         0.00000E+00
    0.18742E+07        -0.26687E+07         0.00000E+00
    0.00000E+00         0.00000E+00         0.00000E+00
 
    0.64250E+06         0.19341E+07         0.00000E+00
    0.19341E+07        -0.26586E+07         0.00000E+00
    0.00000E+00         0.00000E+00         0.00000E+00
 
    0.61407E+06         0.19936E+07         0.00000E+00
    0.19936E+07        -0.26482E+07         0.00000E+00
    0.00000E+00         0.00000E+00         0.00000E+00
 
    0.58535E+06         0.20526E+07         0.00000E+00
    0.20526E+07        -0.26375E+07         0.00000E+00
    0.00000E+00         0.00000E+00         0.00000E+00
 
    0.55634E+06         0.21112E+07         0.00000E+00
    0.21112E+07        -0.26264E+07         0.00000E+00
    0.00000E+00         0.00000E+00         0.00000E+00
 
    0.52703E+06         0.21694E+07         0.00000E+00
    0.21694E+07        -0.26150E+07         0.00000E+00
    0.00000E+00         0.00000E+00         0.00000E+00
 
    0.49743E+06         0.22272E+07         0.00000E+00
    0.22272E+07        -0.26032E+07         0.00000E+00
    0.00000E+00         0.00000E+00         0.00000E+00
 
    0.46754E+06         0.22845E+07         0.00000E+00
    0.22845E+07        -0.25912E+07         0.00000E+00
    0.00000E+00         0.00000E+00         0.00000E+00
 
    0.43734E+06         0.23414E+07         0.00000E+00
    0.23414E+07        -0.25787E+07         0.00000E+00
    0.00000E+00         0.00000E+00         0.00000E+00
 
    0.40685E+06         0.23979E+07         0.00000E+00
    0.23979E+07        -0.25660E+07         0.00000E+00
    0.00000E+00         0.00000E+00         0.00000E+00
 
    0.37606E+06         0.24539E+07         0.00000E+00
    0.24539E+07        -0.25529E+07         0.00000E+00
    0.00000E+00         0.00000E+00         0.00000E+00
 
    0.34497E+06         0.25095E+07         0.00000E+00
    0.25095E+07        -0.25395E+07         0.00000E+00
    0.00000E+00         0.00000E+00         0.00000E+00
 
    0.31358E+06         0.25647E+07         0.00000E+00
    0.25647E+07        -0.25257E+07         0.00000E+00
    0.00000E+00         0.00000E+00         0.00000E+00
 
    0.28189E+06         0.26193E+07         0.00000E+00
    0.26193E+07        -0.25116E+07         0.00000E+00
    0.00000E+00         0.00000E+00         0.00000E+00
 
    0.24989E+06         0.26736E+07         0.00000E+00
    0.26736E+07        -0.24971E+07         0.00000E+00
    0.00000E+00         0.00000E+00         0.00000E+00
 
    0.21758E+06         0.27274E+07         0.00000E+00
    0.27274E+07        -0.24823E+07         0.00000E+00
    0.00000E+00         0.00000E+00         0.00000E+00
 
    0.18496E+06         0.27807E+07         0.00000E+00
    0.27807E+07        -0.24672E+07         0.00000E+00
    0.00000E+00         0.00000E+00         0.00000E+00
 
    0.15204E+06         0.28335E+07         0.00000E+00
    0.28335E+07        -0.24517E+07         0.00000E+00
    0.00000E+00         0.00000E+00         0.00000E+00
 
    0.11880E+06         0.28859E+07         0.00000E+00
    0.28859E+07        -0.24359E+07         0.00000E+00
    0.00000E+00         0.00000E+00         0.00000E+00
 
    0.85242E+05         0.29378E+07         0.00000E+00
    0.29378E+07        -0.24197E+07         0.00000E+00
    0.00000E+00         0.00000E+00         0.00000E+00
 
    0.51369E+05         0.29892E+07         0.00000E+00
    0.29892E+07        -0.24031E+07         0.00000E+00
    0.00000E+00         0.00000E+00         0.00000E+00
 
    0.17177E+05         0.30402E+07         0.00000E+00
    0.30402E+07        -0.23862E+07         0.00000E+00
    0.00000E+00         0.00000E+00         0.00000E+00
 
    0.14376E+07         0.36866E+05         0.00000E+00
    0.36866E+05        -0.30700E+07         0.00000E+00
    0.00000E+00         0.00000E+00         0.00000E+00
 
    0.14165E+07         0.10955E+06         0.00000E+00
    0.10955E+06        -0.30696E+07         0.00000E+00
    0.00000E+00         0.00000E+00         0.00000E+00
 
    0.13950E+07         0.18186E+06         0.00000E+00
    0.18186E+06        -0.30688E+07         0.00000E+00
    0.00000E+00         0.00000E+00         0.00000E+00
 
    0.13732E+07         0.25379E+06         0.00000E+00
    0.25379E+06        -0.30676E+07         0.00000E+00
    0.00000E+00         0.00000E+00         0.00000E+00
 
    0.13510E+07         0.32533E+06         0.00000E+00
    0.32533E+06        -0.30660E+07         0.00000E+00
    0.00000E+00         0.00000E+00         0.00000E+00
 
    0.13284E+07         0.39648E+06         0.00000E+00
    0.39648E+06        -0.30640E+07         0.00000E+00
    0.00000E+00         0.00000E+00         0.00000E+00
 
    0.13055E+07         0.46725E+06         0.00000E+00
    0.46725E+06        -0.30616E+07         0.00000E+00
    0.00000E+00         0.00000E+00         0.00000E+00
 
    0.12822E+07         0.53763E+06         0.00000E+00
    0.53763E+06        -0.30589E+07         0.00000E+00
    0.00000E+00         0.00000E+00         0.00000E+00
 
    0.12586E+07         0.60763E+06         0.00000E+00
    0.60763E+06        -0.30557E+07         0.00000E+00
    0.00000E+00         0.00000E+00         0.00000E+00
 
    0.12347E+07         0.67723E+06         0.00000E+00
    0.67723E+06        -0.30522E+07         0.00000E+00
    0.00000E+00         0.00000E+00         0.00000E+00
 
    0.12104E+07         0.74645E+06         0.00000E+00
    0.74645E+06        -0.30484E+07         0.00000E+00
    0.00000E+00         0.00000E+00         0.00000E+00
 
    0.11857E+07         0.81527E+06         0.00000E+00
    0.81527E+06        -0.30441E+07         0.00000E+00
    0.00000E+00         0.00000E+00         0.00000E+00
 
    0.11608E+07         0.88370E+06         0.00000E+00
    0.88370E+06        -0.30395E+07         0.00000E+00
    0.00000E+00         0.00000E+00         0.00000E+00
 
    0.11355E+07         0.95174E+06         0.00000E+00
    0.95174E+06        -0.30345E+07         0.00000E+00
    0.00000E+00         0.00000E+00         0.00000E+00
 
    0.11099E+07         0.10194E+07         0.00000E+00
    0.10194E+07        -0.30292E+07         0.00000E+00
    0.00000E+00         0.00000E+00         0.00000E+00
 
    0.10839E+07         0.10866E+07         0.00000E+00
    0.10866E+07        -0.30235E+07         0.00000E+00
    0.00000E+00         0.00000E+00         0.00000E+00
 
    0.10577E+07         0.11535E+07         0.00000E+00
    0.11535E+07        -0.30174E+07         0.00000E+00
    0.00000E+00         0.00000E+00         0.00000E+00
 
    0.10311E+07         0.12200E+07         0.00000E+00
    0.12200E+07        -0.30110E+07         0.00000E+00
    0.00000E+00         0.00000E+00         0.00000E+00
 
    0.10043E+07         0.12860E+07         0.00000E+00
    0.12860E+07        -0.30042E+07         0.00000E+00
    0.00000E+00         0.00000E+00         0.00000E+00
 
    0.97709E+06         0.13517E+07         0.00000E+00
    0.13517E+07        -0.29970E+07         0.00000E+00
    0.00000E+00         0.00000E+00         0.00000E+00
 
    0.94960E+06         0.14170E+07         0.00000E+00
    0.14170E+07        -0.29895E+07         0.00000E+00
    0.00000E+00         0.00000E+00         0.00000E+00
 
    0.92180E+06         0.14818E+07         0.00000E+00
    0.14818E+07        -0.29817E+07         0.00000E+00
    0.00000E+00         0.00000E+00         0.00000E+00
 
    0.89370E+06         0.15463E+07         0.00000E+00
    0.15463E+07        -0.29735E+07         0.00000E+00
    0.00000E+00         0.00000E+00         0.00000E+00
 
    0.86529E+06         0.16104E+07         0.00000E+00
    0.16104E+07        -0.29649E+07         0.00000E+00
    0.00000E+00         0.00000E+00         0.00000E+00
 
    0.83658E+06         0.16740E+07         0.00000E+00
    0.16740E+07        -0.29560E+07         0.00000E+00
    0.00000E+00         0.00000E+00         0.00000E+00
 
    0.80757E+06         0.17373E+07         0.00000E+00
    0.17373E+07        -0.29468E+07         0.00000E+00
    0.00000E+00         0.00000E+00         0.00000E+00
 
    0.77825E+06         0.18001E+07         0.00000E+00
    0.18001E+07        -0.29372E+07         0.00000E+00
    0.00000E+00         0.00000E+00         0.00000E+00
 
    0.74864E+06         0.18626E+07         0.00000E+00
    0.18626E+07        -0.29272E+07         0.00000E+00
    0.00000E+00         0.00000E+00         0.00000E+00
 
    0.71872E+06         0.19246E+07         0.00000E+00
    0.19246E+07        -0.29169E+07         0.00000E+00
    0.00000E+00         0.00000E+00         0.00000E+00
 
    0.68849E+06         0.19862E+07         0.00000E+00
    0.19862E+07        -0.29062E+07         0.00000E+00
    0.00000E+00         0.00000E+00         0.00000E+00
 
    0.65797E+06         0.20474E+07         0.00000E+00
    0.20474E+07        -0.28951E+07         0.00000E+00
    0.00000E+00         0.00000E+00         0.00000E+00
 
    0.62714E+06         0.21082E+07         0.00000E+00
    0.21082E+07        -0.28837E+07         0.00000E+00
    0.00000E+00         0.00000E+00         0.00000E+00
 
    0.59600E+06         0.21686E+07         0.00000E+00
    0.21686E+07        -0.28720E+07         0.00000E+00
    0.00000E+00         0.00000E+00         0.00000E+00
 
    0.56456E+06         0.22286E+07         0.00000E+00
    0.22286E+07        -0.28599E+07         0.00000E+00
    0.00000E+00         0.00000E+00         0.00000E+00
 
    0.53282E+06         0.22881E+07         0.00000E+00
    0.22881E+07        -0.28474E+07         0.00000E+00
    0.00000E+00         0.00000E+00         0.00000E+00
 
    0.50076E+06         0.23472E+07         0.00000E+00
    0.23472E+07        -0.28346E+07         0.00000E+00
    0.00000E+00         0.00000E+00         0.00000E+00
 
    0.46839E+06         0.24059E+07         0.00000E+00
    0.24059E+07        -0.28214E+07         0.00000E+00
    0.00000E+00         0.00000E+00         0.00000E+00
 
    0.43571E+06         0.24642E+07         0.00000E+00
    0.24642E+07        -0.28078E+07         0.00000E+00
    0.00000E+00         0.00000E+00         0.00000E+00
 
    0.40272E+06         0.25220E+07         0.00000E+00
    0.25220E+07        -0.27939E+07         0.00000E+00
    0.00000E+00         0.00000E+00         0.00000E+00
 
    0.36941E+06         0.25794E+07         0.00000E+00
    0.25794E+07        -0.27796E+07         0.00000E+00
    0.00000E+00         0.00000E+00         0.00000E+00
 
    0.33578E+06         0.26363E+07         0.00000E+00
    0.26363E+07        -0.27649E+07         0.00000E+00
    0.00000E+00         0.00000E+00         0.00000E+00
 
    0.30184E+06         0.26928E+07         0.00000E+00
    0.26928E+07        -0.27499E+07         0.00000E+00
    0.00000E+00         0.00000E+00         0.00000E+00
 
    0.26757E+06         0.27489E+07         0.00000E+00
    0.27489E+07        -0.27345E+07         0.00000E+00
    0.00000E+00         0.00000E+00         0.00000E+00
 
    0.23297E+06         0.28045E+07         0.00000E+00
    0.28045E+07        -0.27187E+07         0.00000E+00
    0.00000E+00         0.00000E+00         0.00000E+00
 
    0.19804E+06         0.28597E+07         0.00000E+00
    0.28597E+07        -0.27025E+07         0.00000E+00
    0.00000E+00         0.00000E+00         0.00000E+00
 
    0.16279E+06         0.29144E+07         0.00000E+00
    0.29144E+07        -0.26860E+07         0.00000E+00
    0.00000E+00         0.00000E+00         0.00000E+00
 
    0.12720E+06         0.29686E+07         0.00000E+00
    0.29686E+07        -0.26691E+07         0.00000E+00
    0.00000E+00         0.00000E+00         0.00000E+00
 
    0.91270E+05         0.30224E+07         0.00000E+00
    0.30224E+07        -0.26518E+07         0.00000E+00
    0.00000E+00         0.00000E+00         0.00000E+00
 
    0.55002E+05         0.30757E+07         0.00000E+00
    0.30757E+07        -0.26341E+07         0.00000E+00
    0.00000E+00         0.00000E+00         0.00000E+00
 
    0.18392E+05         0.31285E+07         0.00000E+00
    0.31285E+07        -0.26160E+07         0.00000E+00
    0.00000E+00         0.00000E+00         0.00000E+00
 
    0.15408E+07         0.37885E+05         0.00000E+00
    0.37885E+05        -0.33362E+07         0.00000E+00
    0.00000E+00         0.00000E+00         0.00000E+00
 
    0.15178E+07         0.11256E+06         0.00000E+00
    0.11256E+06        -0.33357E+07         0.00000E+00
    0.00000E+00         0.00000E+00         0.00000E+00
 
    0.14944E+07         0.18684E+06         0.00000E+00
    0.18684E+06        -0.33349E+07         0.00000E+00
    0.00000E+00         0.00000E+00         0.00000E+00
 
    0.14706E+07         0.26072E+06         0.00000E+00
    0.26072E+06        -0.33336E+07         0.00000E+00
    0.00000E+00         0.00000E+00         0.00000E+00
 
    0.14464E+07         0.33420E+06         0.00000E+00
    0.33420E+06        -0.33320E+07         0.00000E+00
    0.00000E+00         0.00000E+00         0.00000E+00
 
    0.14219E+07         0.40728E+06         0.00000E+00
    0.40728E+06        -0.33299E+07         0.00000E+00
    0.00000E+00         0.00000E+00         0.00000E+00
 
    0.13970E+07         0.47996E+06         0.00000E+00
    0.47996E+06        -0.33274E+07         0.00000E+00
    0.00000E+00         0.00000E+00         0.00000E+00
 
    0.13717E+07         0.55225E+06         0.00000E+00
    0.55225E+06        -0.33245E+07         0.00000E+00
    0.00000E+00         0.00000E+00         0.00000E+00
 
    0.13461E+07         0.62413E+06         0.00000E+00
    0.62413E+06        -0.33212E+07         0.00000E+00
    0.00000E+00         0.00000E+00         0.00000E+00
 
    0.13202E+07         0.69562E+06         0.00000E+00
    0.69562E+06        -0.33175E+07         0.00000E+00
    0.00000E+00         0.00000E+00         0.00000E+00
 
    0.12939E+07         0.76670E+06         0.00000E+00
    0.76670E+06        -0.33135E+07         0.00000E+00
    0.00000E+00         0.00000E+00         0.00000E+00
 
    0.12673E+07         0.83739E+06         0.00000E+00
    0.83739E+06        -0.33090E+07         0.00000E+00
    0.00000E+00         0.00000E+00         0.00000E+00
 
    0.12403E+07         0.90768E+06         0.00000E+00
    0.90768E+06        -0.33042E+07         0.00000E+00
    0.00000E+00         0.00000E+00         0.00000E+00
 
    0.12131E+07         0.97757E+06         0.00000E+00
    0.97757E+06        -0.32990E+07         0.00000E+00
    0.00000E+00         0.00000E+00         0.00000E+00
 
    0.11855E+07         0.10471E+07         0.00000E+00
    0.10471E+07        -0.32934E+07         0.00000E+00
    0.00000E+00         0.00000E+00         0.00000E+00
 
    0.11575E+07         0.11161E+07         0.00000E+00
    0.11161E+07        -0.32874E+07         0.00000E+00
    0.00000E+00         0.00000E+00         0.00000E+00
 
    0.11293E+07         0.11848E+07         0.00000E+00
    0.11848E+07        -0.32810E+07         0.00000E+00
    0.00000E+00         0.00000E+00         0.00000E+00
 
    0.11007E+07         0.12531E+07         0.00000E+00
    0.12531E+07        -0.32743E+07         0.00000E+00
    0.00000E+00         0.00000E+00         0.00000E+00
 
    0.10718E+07         0.13210E+07         0.00000E+00
    0.13210E+07        -0.32672E+07         0.00000E+00
    0.00000E+00         0.00000E+00         0.00000E+00
 
    0.10426E+07         0.13885E+07         0.00000E+00
    0.13885E+07        -0.32597E+07         0.00000E+00
    0.00000E+00         0.00000E+00         0.00000E+00
 
    0.10131E+07         0.14556E+07         0.00000E+00
    0.14556E+07        -0.32518E+07         0.00000E+00
    0.00000E+00         0.00000E+00         0.00000E+00
 
    0.98329E+06         0.15223E+07         0.00000E+00
    0.15223E+07        -0.32436E+07         0.00000E+00
    0.00000E+00         0.00000E+00         0.00000E+00
 
    0.95316E+06         0.15886E+07         0.00000E+00
    0.15886E+07        -0.32350E+07         0.00000E+00
    0.00000E+00         0.00000E+00         0.00000E+00
 
    0.92272E+06         0.16545E+07         0.00000E+00
    0.16545E+07        -0.32260E+07         0.00000E+00
    0.00000E+00         0.00000E+00         0.00000E+00
 
    0.89197E+06         0.17200E+07         0.00000E+00
    0.17200E+07        -0.32166E+07         0.00000E+00
    0.00000E+00         0.00000E+00         0.00000E+00
 
    0.86092E+06         0.17851E+07         0.00000E+00
    0.17851E+07        -0.32069E+07         0.00000E+00
    0.00000E+00         0.00000E+00         0.00000E+00
 
    0.82956E+06         0.18498E+07         0.00000E+00
    0.18498E+07        -0.31968E+07         0.00000E+00
    0.00000E+00         0.00000E+00         0.00000E+00
 
    0.79788E+06         0.19141E+07         0.00000E+00
    0.19141E+07        -0.31863E+07         0.00000E+00
    0.00000E+00         0.00000E+00         0.00000E+00
 
    0.76590E+06         0.19780E+07         0.00000E+00
    0.19780E+07        -0.31754E+07         0.00000E+00
    0.00000E+00         0.00000E+00         0.00000E+00
 
    0.73361E+06         0.20415E+07         0.00000E+00
    0.20415E+07        -0.31642E+07         0.00000E+00
    0.00000E+00         0.00000E+00         0.00000E+00
 
    0.70101E+06         0.21045E+07         0.00000E+00
    0.21045E+07        -0.31526E+07         0.00000E+00
    0.00000E+00         0.00000E+00         0.00000E+00
 
    0.66810E+06         0.21672E+07         0.00000E+00
    0.21672E+07        -0.31406E+07         0.00000E+00
    0.00000E+00         0.00000E+00         0.00000E+00
 
    0.63487E+06         0.22294E+07         0.00000E+00
    0.22294E+07        -0.31282E+07         0.00000E+00
    0.00000E+00         0.00000E+00         0.00000E+00
 
    0.60133E+06         0.22913E+07         0.00000E+00
    0.22913E+07        -0.31154E+07         0.00000E+00
    0.00000E+00         0.00000E+00         0.00000E+00
 
    0.56746E+06         0.23527E+07         0.00000E+00
    0.23527E+07        -0.31022E+07         0.00000E+00
    0.00000E+00         0.00000E+00         0.00000E+00
 
    0.53328E+06         0.24137E+07         0.00000E+00
    0.24137E+07        -0.30887E+07         0.00000E+00
    0.00000E+00         0.00000E+00         0.00000E+00
 
    0.49878E+06         0.24743E+07         0.00000E+00
    0.24743E+07        -0.30748E+07         0.00000E+00
    0.00000E+00         0.00000E+00         0.00000E+00
 
    0.46395E+06         0.25345E+07         0.00000E+00
    0.25345E+07        -0.30604E+07         0.00000E+00
    0.00000E+00         0.00000E+00         0.00000E+00
 
    0.42880E+06         0.25943E+07         0.00000E+00
    0.25943E+07        -0.30457E+07         0.00000E+00
    0.00000E+00         0.00000E+00         0.00000E+00
 
    0.39332E+06         0.26536E+07         0.00000E+00
    0.26536E+07        -0.30306E+07         0.00000E+00
    0.00000E+00         0.00000E+00         0.00000E+00
 
    0.35750E+06         0.27125E+07         0.00000E+00
    0.27125E+07        -0.30151E+07         0.00000E+00
    0.00000E+00         0.00000E+00         0.00000E+00
 
    0.32134E+06         0.27710E+07         0.00000E+00
    0.27710E+07        -0.29991E+07         0.00000E+00
    0.00000E+00         0.00000E+00         0.00000E+00
 
    0.28485E+06         0.28291E+07         0.00000E+00
    0.28291E+07        -0.29828E+07         0.00000E+00
    0.00000E+00         0.00000E+00         0.00000E+00
 
    0.24802E+06         0.28867E+07         0.00000E+00
    0.28867E+07        -0.29661E+07         0.00000E+00
    0.00000E+00         0.00000E+00         0.00000E+00
 
    0.21083E+06         0.29438E+07         0.00000E+00
    0.29438E+07        -0.29489E+07         0.00000E+00
    0.00000E+00         0.00000E+00         0.00000E+00
 
    0.17330E+06         0.30005E+07         0.00000E+00
    0.30005E+07        -0.29314E+07         0.00000E+00
    0.00000E+00         0.00000E+00         0.00000E+00
 
    0.13541E+06         0.30568E+07         0.00000E+00
    0.30568E+07        -0.29134E+07         0.00000E+00
    0.00000E+00         0.00000E+00         0.00000E+00
 
    0.97164E+05         0.31126E+07         0.00000E+00
    0.31126E+07        -0.28950E+07         0.00000E+00
    0.00000E+00         0.00000E+00         0.00000E+00
 
    0.58555E+05         0.31680E+07         0.00000E+00
    0.31680E+07        -0.28762E+07         0.00000E+00
    0.00000E+00         0.00000E+00         0.00000E+00
 
    0.19580E+05         0.32229E+07         0.00000E+00
    0.32229E+07        -0.28569E+07         0.00000E+00
    0.00000E+00         0.00000E+00         0.00000E+00
 
    0.16436E+07         0.38954E+05         0.00000E+00
    0.38954E+05        -0.36129E+07         0.00000E+00
    0.00000E+00         0.00000E+00         0.00000E+00
 
    0.16186E+07         0.11571E+06         0.00000E+00
    0.11571E+06        -0.36125E+07         0.00000E+00
    0.00000E+00         0.00000E+00         0.00000E+00
 
    0.15931E+07         0.19206E+06         0.00000E+00
    0.19206E+06        -0.36116E+07         0.00000E+00
    0.00000E+00         0.00000E+00         0.00000E+00
 
    0.15673E+07         0.26799E+06         0.00000E+00
    0.26799E+06        -0.36103E+07         0.00000E+00
    0.00000E+00         0.00000E+00         0.00000E+00
 
    0.15411E+07         0.34350E+06         0.00000E+00
    0.34350E+06        -0.36086E+07         0.00000E+00
    0.00000E+00         0.00000E+00         0.00000E+00
 
    0.15145E+07         0.41860E+06         0.00000E+00
    0.41860E+06        -0.36064E+07         0.00000E+00
    0.00000E+00         0.00000E+00         0.00000E+00
 
    0.14876E+07         0.49329E+06         0.00000E+00
    0.49329E+06        -0.36038E+07         0.00000E+00
    0.00000E+00         0.00000E+00         0.00000E+00
 
    0.14603E+07         0.56757E+06         0.00000E+00
    0.56757E+06        -0.36008E+07         0.00000E+00
    0.00000E+00         0.00000E+00         0.00000E+00
 
    0.14327E+07         0.64143E+06         0.00000E+00
    0.64143E+06        -0.35974E+07         0.00000E+00
    0.00000E+00         0.00000E+00         0.00000E+00
 
    0.14047E+07         0.71489E+06         0.00000E+00
    0.71489E+06        -0.35936E+07         0.00000E+00
    0.00000E+00         0.00000E+00         0.00000E+00
 
    0.13764E+07         0.78794E+06         0.00000E+00
    0.78794E+06        -0.35894E+07         0.00000E+00
    0.00000E+00         0.00000E+00         0.00000E+00
 
    0.13477E+07         0.86058E+06         0.00000E+00
    0.86058E+06        -0.35847E+07         0.00000E+00
    0.00000E+00         0.00000E+00         0.00000E+00
 
    0.13187E+07         0.93282E+06         0.00000E+00
    0.93282E+06        -0.35797E+07         0.00000E+00
    0.00000E+00         0.00000E+00         0.00000E+00
 
    0.12894E+07         0.10047E+07         0.00000E+00
    0.10047E+07        -0.35743E+07         0.00000E+00
    0.00000E+00         0.00000E+00         0.00000E+00
 
    0.12598E+07         0.10761E+07         0.00000E+00
    0.10761E+07        -0.35684E+07         0.00000E+00
    0.00000E+00         0.00000E+00         0.00000E+00
 
    0.12298E+07         0.11471E+07         0.00000E+00
    0.11471E+07        -0.35622E+07         0.00000E+00
    0.00000E+00         0.00000E+00         0.00000E+00
 
    0.11996E+07         0.12177E+07         0.00000E+00
    0.12177E+07        -0.35556E+07         0.00000E+00
    0.00000E+00         0.00000E+00         0.00000E+00
 
    0.11690E+07         0.12879E+07         0.00000E+00
    0.12879E+07        -0.35486E+07         0.00000E+00
    0.00000E+00         0.00000E+00         0.00000E+00
 
    0.11381E+07         0.13578E+07         0.00000E+00
    0.13578E+07        -0.35412E+07         0.00000E+00
    0.00000E+00         0.00000E+00         0.00000E+00
 
    0.11068E+07         0.14272E+07         0.00000E+00
    0.14272E+07        -0.35334E+07         0.00000E+00
    0.00000E+00         0.00000E+00         0.00000E+00
 
    0.10753E+07         0.14962E+07         0.00000E+00
    0.14962E+07        -0.35252E+07         0.00000E+00
    0.00000E+00         0.00000E+00         0.00000E+00
 
    0.10435E+07         0.15648E+07         0.00000E+00
    0.15648E+07        -0.35166E+07         0.00000E+00
    0.00000E+00         0.00000E+00         0.00000E+00
 
    0.10113E+07         0.16331E+07         0.00000E+00
    0.16331E+07        -0.35076E+07         0.00000E+00
    0.00000E+00         0.00000E+00         0.00000E+00
 
    0.97885E+06         0.17009E+07         0.00000E+00
    0.17009E+07        -0.34982E+07         0.00000E+00
    0.00000E+00         0.00000E+00         0.00000E+00
 
    0.94608E+06         0.17683E+07         0.00000E+00
    0.17683E+07        -0.34884E+07         0.00000E+00
    0.00000E+00         0.00000E+00         0.00000E+00
 
    0.91300E+06         0.18354E+07         0.00000E+00
    0.18354E+07        -0.34783E+07         0.00000E+00
    0.00000E+00         0.00000E+00         0.00000E+00
 
    0.87961E+06         0.19020E+07         0.00000E+00
    0.19020E+07        -0.34677E+07         0.00000E+00
    0.00000E+00         0.00000E+00         0.00000E+00
 
    0.84591E+06         0.19683E+07         0.00000E+00
    0.19683E+07        -0.34567E+07         0.00000E+00
    0.00000E+00         0.00000E+00         0.00000E+00
 
    0.81189E+06         0.20341E+07         0.00000E+00
    0.20341E+07        -0.34454E+07         0.00000E+00
    0.00000E+00         0.00000E+00         0.00000E+00
 
    0.77756E+06         0.20996E+07         0.00000E+00
    0.20996E+07        -0.34336E+07         0.00000E+00
    0.00000E+00         0.00000E+00         0.00000E+00
 
    0.74292E+06         0.21646E+07         0.00000E+00
    0.21646E+07        -0.34215E+07         0.00000E+00
    0.00000E+00         0.00000E+00         0.00000E+00
 
    0.70796E+06         0.22293E+07         0.00000E+00
    0.22293E+07        -0.34089E+07         0.00000E+00
    0.00000E+00         0.00000E+00         0.00000E+00
 
    0.67268E+06         0.22935E+07         0.00000E+00
    0.22935E+07        -0.33959E+07         0.00000E+00
    0.00000E+00         0.00000E+00         0.00000E+00
 
    0.63707E+06         0.23574E+07         0.00000E+00
    0.23574E+07        -0.33825E+07         0.00000E+00
    0.00000E+00         0.00000E+00         0.00000E+00
 
    0.60115E+06         0.24209E+07         0.00000E+00
    0.24209E+07        -0.33687E+07         0.00000E+00
    0.00000E+00         0.00000E+00         0.00000E+00
 
    0.56489E+06         0.24839E+07         0.00000E+00
    0.24839E+07        -0.33545E+07         0.00000E+00
    0.00000E+00         0.00000E+00         0.00000E+00
 
    0.52830E+06         0.25466E+07         0.00000E+00
    0.25466E+07        -0.33399E+07         0.00000E+00
    0.00000E+00         0.00000E+00         0.00000E+00
 
    0.49138E+06         0.26088E+07         0.00000E+00
    0.26088E+07        -0.33248E+07         0.00000E+00
    0.00000E+00         0.00000E+00         0.00000E+00
 
    0.45412E+06         0.26706E+07         0.00000E+00
    0.26706E+07        -0.33094E+07         0.00000E+00
    0.00000E+00         0.00000E+00         0.00000E+00
 
    0.41652E+06         0.27321E+07         0.00000E+00
    0.27321E+07        -0.32935E+07         0.00000E+00
    0.00000E+00         0.00000E+00         0.00000E+00
 
    0.37857E+06         0.27931E+07         0.00000E+00
    0.27931E+07        -0.32771E+07         0.00000E+00
    0.00000E+00         0.00000E+00         0.00000E+00
 
    0.34027E+06         0.28537E+07         0.00000E+00
    0.28537E+07        -0.32604E+07         0.00000E+00
    0.00000E+00         0.00000E+00         0.00000E+00
 
    0.30162E+06         0.29138E+07         0.00000E+00
    0.29138E+07        -0.32432E+07         0.00000E+00
    0.00000E+00         0.00000E+00         0.00000E+00
 
    0.26261E+06         0.29736E+07         0.00000E+00
    0.29736E+07        -0.32255E+07         0.00000E+00
    0.00000E+00         0.00000E+00         0.00000E+00
 
    0.22324E+06         0.30329E+07         0.00000E+00
    0.30329E+07        -0.32075E+07         0.00000E+00
    0.00000E+00         0.00000E+00         0.00000E+00
 
    0.18349E+06         0.30918E+07         0.00000E+00
    0.30918E+07        -0.31889E+07         0.00000E+00
    0.00000E+00         0.00000E+00         0.00000E+00
 
    0.14338E+06         0.31503E+07         0.00000E+00
    0.31503E+07        -0.31699E+07         0.00000E+00
    0.00000E+00         0.00000E+00         0.00000E+00
 
    0.10288E+06         0.32083E+07         0.00000E+00
    0.32083E+07        -0.31505E+07         0.00000E+00
    0.00000E+00         0.00000E+00         0.00000E+00
 
    0.62001E+05         0.32659E+07         0.00000E+00
    0.32659E+07        -0.31306E+07         0.00000E+00
    0.00000E+00         0.00000E+00         0.00000E+00
 
    0.20732E+05         0.33230E+07         0.00000E+00
    0.33230E+07        -0.31102E+07         0.00000E+00
    0.00000E+00         0.00000E+00         0.00000E+00
 
    0.17456E+07         0.40067E+05         0.00000E+00
    0.40067E+05        -0.39012E+07         0.00000E+00
    0.00000E+00         0.00000E+00         0.00000E+00
 
    0.17185E+07         0.11900E+06         0.00000E+00
    0.11900E+06        -0.39008E+07         0.00000E+00
    0.00000E+00         0.00000E+00         0.00000E+00
 
    0.16909E+07         0.19750E+06         0.00000E+00
    0.19750E+06        -0.38999E+07         0.00000E+00
    0.00000E+00         0.00000E+00         0.00000E+00
 
    0.16629E+07         0.27556E+06         0.00000E+00
    0.27556E+06        -0.38985E+07         0.00000E+00
    0.00000E+00         0.00000E+00         0.00000E+00
 
    0.16346E+07         0.35319E+06         0.00000E+00
    0.35319E+06        -0.38967E+07         0.00000E+00
    0.00000E+00         0.00000E+00         0.00000E+00
 
    0.16059E+07         0.43040E+06         0.00000E+00
    0.43040E+06        -0.38945E+07         0.00000E+00
    0.00000E+00         0.00000E+00         0.00000E+00
 
    0.15769E+07         0.50717E+06         0.00000E+00
    0.50717E+06        -0.38918E+07         0.00000E+00
    0.00000E+00         0.00000E+00         0.00000E+00
 
    0.15475E+07         0.58353E+06         0.00000E+00
    0.58353E+06        -0.38887E+07         0.00000E+00
    0.00000E+00         0.00000E+00         0.00000E+00
 
    0.15178E+07         0.65946E+06         0.00000E+00
    0.65946E+06        -0.38852E+07         0.00000E+00
    0.00000E+00         0.00000E+00         0.00000E+00
 
    0.14877E+07         0.73498E+06         0.00000E+00
    0.73498E+06        -0.38812E+07         0.00000E+00
    0.00000E+00         0.00000E+00         0.00000E+00
 
    0.14573E+07         0.81007E+06         0.00000E+00
    0.81007E+06        -0.38769E+07         0.00000E+00
    0.00000E+00         0.00000E+00         0.00000E+00
 
    0.14266E+07         0.88475E+06         0.00000E+00
    0.88475E+06        -0.38721E+07         0.00000E+00
    0.00000E+00         0.00000E+00         0.00000E+00
 
    0.13955E+07         0.95902E+06         0.00000E+00
    0.95902E+06        -0.38669E+07         0.00000E+00
    0.00000E+00         0.00000E+00         0.00000E+00
 
    0.13642E+07         0.10329E+07         0.00000E+00
    0.10329E+07        -0.38613E+07         0.00000E+00
    0.00000E+00         0.00000E+00         0.00000E+00
 
    0.13325E+07         0.11063E+07         0.00000E+00
    0.11063E+07        -0.38553E+07         0.00000E+00
    0.00000E+00         0.00000E+00         0.00000E+00
 
    0.13005E+07         0.11794E+07         0.00000E+00
    0.11794E+07        -0.38488E+07         0.00000E+00
    0.00000E+00         0.00000E+00         0.00000E+00
 
    0.12681E+07         0.12520E+07         0.00000E+00
    0.12520E+07        -0.38420E+07         0.00000E+00
    0.00000E+00         0.00000E+00         0.00000E+00
 
    0.12355E+07         0.13243E+07         0.00000E+00
    0.13243E+07        -0.38347E+07         0.00000E+00
    0.00000E+00         0.00000E+00         0.00000E+00
 
    0.12026E+07         0.13961E+07         0.00000E+00
    0.13961E+07        -0.38271E+07         0.00000E+00
    0.00000E+00         0.00000E+00         0.00000E+00
 
    0.11693E+07         0.14675E+07         0.00000E+00
    0.14675E+07        -0.38190E+07         0.00000E+00
    0.00000E+00         0.00000E+00         0.00000E+00
 
    0.11358E+07         0.15386E+07         0.00000E+00
    0.15386E+07        -0.38105E+07         0.00000E+00
    0.00000E+00         0.00000E+00         0.00000E+00
 
    0.11019E+07         0.16092E+07         0.00000E+00
    0.16092E+07        -0.38016E+07         0.00000E+00
    0.00000E+00         0.00000E+00         0.00000E+00
 
    0.10678E+07         0.16795E+07         0.00000E+00
    0.16795E+07        -0.37923E+07         0.00000E+00
    0.00000E+00         0.00000E+00         0.00000E+00
 
    0.10333E+07         0.17493E+07         0.00000E+00
    0.17493E+07        -0.37826E+07         0.00000E+00
    0.00000E+00         0.00000E+00         0.00000E+00
 
    0.99851E+06         0.18188E+07         0.00000E+00
    0.18188E+07        -0.37724E+07         0.00000E+00
    0.00000E+00         0.00000E+00         0.00000E+00
 
    0.96343E+06         0.18879E+07         0.00000E+00
    0.18879E+07        -0.37619E+07         0.00000E+00
    0.00000E+00         0.00000E+00         0.00000E+00
 
    0.92804E+06         0.19566E+07         0.00000E+00
    0.19566E+07        -0.37509E+07         0.00000E+00
    0.00000E+00         0.00000E+00         0.00000E+00
 
    0.89234E+06         0.20249E+07         0.00000E+00
    0.20249E+07        -0.37396E+07         0.00000E+00
    0.00000E+00         0.00000E+00         0.00000E+00
 
    0.85633E+06         0.20928E+07         0.00000E+00
    0.20928E+07        -0.37278E+07         0.00000E+00
    0.00000E+00         0.00000E+00         0.00000E+00
 
    0.82000E+06         0.21604E+07         0.00000E+00
    0.21604E+07        -0.37155E+07         0.00000E+00
    0.00000E+00         0.00000E+00         0.00000E+00
 
    0.78336E+06         0.22275E+07         0.00000E+00
    0.22275E+07        -0.37029E+07         0.00000E+00
    0.00000E+00         0.00000E+00         0.00000E+00
 
    0.74640E+06         0.22943E+07         0.00000E+00
    0.22943E+07        -0.36898E+07         0.00000E+00
    0.00000E+00         0.00000E+00         0.00000E+00
 
    0.70912E+06         0.23606E+07         0.00000E+00
    0.23606E+07        -0.36763E+07         0.00000E+00
    0.00000E+00         0.00000E+00         0.00000E+00
 
    0.67151E+06         0.24266E+07         0.00000E+00
    0.24266E+07        -0.36624E+07         0.00000E+00
    0.00000E+00         0.00000E+00         0.00000E+00
 
    0.63358E+06         0.24922E+07         0.00000E+00
    0.24922E+07        -0.36480E+07         0.00000E+00
    0.00000E+00         0.00000E+00         0.00000E+00
 
    0.59531E+06         0.25575E+07         0.00000E+00
    0.25575E+07        -0.36332E+07         0.00000E+00
    0.00000E+00         0.00000E+00         0.00000E+00
 
    0.55670E+06         0.26223E+07         0.00000E+00
    0.26223E+07        -0.36179E+07         0.00000E+00
    0.00000E+00         0.00000E+00         0.00000E+00
 
    0.51776E+06         0.26867E+07         0.00000E+00
    0.26867E+07        -0.36022E+07         0.00000E+00
    0.00000E+00         0.00000E+00         0.00000E+00
 
    0.47846E+06         0.27508E+07         0.00000E+00
    0.27508E+07        -0.35860E+07         0.00000E+00
    0.00000E+00         0.00000E+00         0.00000E+00
 
    0.43882E+06         0.28144E+07         0.00000E+00
    0.28144E+07        -0.35694E+07         0.00000E+00
    0.00000E+00         0.00000E+00         0.00000E+00
 
    0.39882E+06         0.28777E+07         0.00000E+00
    0.28777E+07        -0.35523E+07         0.00000E+00
    0.00000E+00         0.00000E+00         0.00000E+00
 
    0.35846E+06         0.29405E+07         0.00000E+00
    0.29405E+07        -0.35348E+07         0.00000E+00
    0.00000E+00         0.00000E+00         0.00000E+00
 
    0.31773E+06         0.30030E+07         0.00000E+00
    0.30030E+07        -0.35168E+07         0.00000E+00
    0.00000E+00         0.00000E+00         0.00000E+00
 
    0.27663E+06         0.30651E+07         0.00000E+00
    0.30651E+07        -0.34983E+07         0.00000E+00
    0.00000E+00         0.00000E+00         0.00000E+00
 
    0.23515E+06         0.31267E+07         0.00000E+00
    0.31267E+07        -0.34793E+07         0.00000E+00
    0.00000E+00         0.00000E+00         0.00000E+00
 
    0.19328E+06         0.31879E+07         0.00000E+00
    0.31879E+07        -0.34598E+07         0.00000E+00
    0.00000E+00         0.00000E+00         0.00000E+00
 
    0.15102E+06         0.32488E+07         0.00000E+00
    0.32488E+07        -0.34399E+07         0.00000E+00
    0.00000E+00         0.00000E+00         0.00000E+00
 
    0.10837E+06         0.33092E+07         0.00000E+00
    0.33092E+07        -0.34195E+07         0.00000E+00
    0.00000E+00         0.00000E+00         0.00000E+00
 
    0.65309E+05         0.33692E+07         0.00000E+00
    0.33692E+07        -0.33985E+07         0.00000E+00
    0.00000E+00         0.00000E+00         0.00000E+00
 
    0.21839E+05         0.34287E+07         0.00000E+00
    0.34287E+07        -0.33771E+07         0.00000E+00
    0.00000E+00         0.00000E+00         0.00000E+00
 
    0.18463E+07         0.41221E+05         0.00000E+00
    0.41221E+05        -0.42020E+07         0.00000E+00
    0.00000E+00         0.00000E+00         0.00000E+00
 
    0.18169E+07         0.12240E+06         0.00000E+00
    0.12240E+06        -0.42015E+07         0.00000E+00
    0.00000E+00         0.00000E+00         0.00000E+00
 
    0.17871E+07         0.20313E+06         0.00000E+00
    0.20313E+06        -0.42006E+07         0.00000E+00
    0.00000E+00         0.00000E+00         0.00000E+00
 
    0.17569E+07         0.28340E+06         0.00000E+00
    0.28340E+06        -0.41992E+07         0.00000E+00
    0.00000E+00         0.00000E+00         0.00000E+00
 
    0.17264E+07         0.36323E+06         0.00000E+00
    0.36323E+06        -0.41973E+07         0.00000E+00
    0.00000E+00         0.00000E+00         0.00000E+00
 
    0.16955E+07         0.44261E+06         0.00000E+00
    0.44261E+06        -0.41951E+07         0.00000E+00
    0.00000E+00         0.00000E+00         0.00000E+00
 
    0.16643E+07         0.52155E+06         0.00000E+00
    0.52155E+06        -0.41923E+07         0.00000E+00
    0.00000E+00         0.00000E+00         0.00000E+00
 
    0.16327E+07         0.60005E+06         0.00000E+00
    0.60005E+06        -0.41892E+07         0.00000E+00
    0.00000E+00         0.00000E+00         0.00000E+00
 
    0.16009E+07         0.67813E+06         0.00000E+00
    0.67813E+06        -0.41855E+07         0.00000E+00
    0.00000E+00         0.00000E+00         0.00000E+00
 
    0.15687E+07         0.75577E+06         0.00000E+00
    0.75577E+06        -0.41815E+07         0.00000E+00
    0.00000E+00         0.00000E+00         0.00000E+00
 
    0.15361E+07         0.83299E+06         0.00000E+00
    0.83299E+06        -0.41770E+07         0.00000E+00
    0.00000E+00         0.00000E+00         0.00000E+00
 
    0.15033E+07         0.90978E+06         0.00000E+00
    0.90978E+06        -0.41721E+07         0.00000E+00
    0.00000E+00         0.00000E+00         0.00000E+00
 
    0.14701E+07         0.98615E+06         0.00000E+00
    0.98615E+06        -0.41668E+07         0.00000E+00
    0.00000E+00         0.00000E+00         0.00000E+00
 
    0.14367E+07         0.10621E+07         0.00000E+00
    0.10621E+07        -0.41610E+07         0.00000E+00
    0.00000E+00         0.00000E+00         0.00000E+00
 
    0.14029E+07         0.11377E+07         0.00000E+00
    0.11377E+07        -0.41549E+07         0.00000E+00
    0.00000E+00         0.00000E+00         0.00000E+00
 
    0.13688E+07         0.12128E+07         0.00000E+00
    0.12128E+07        -0.41482E+07         0.00000E+00
    0.00000E+00         0.00000E+00         0.00000E+00
 
    0.13345E+07         0.12875E+07         0.00000E+00
    0.12875E+07        -0.41412E+07         0.00000E+00
    0.00000E+00         0.00000E+00         0.00000E+00
 
    0.12998E+07         0.13619E+07         0.00000E+00
    0.13619E+07        -0.41338E+07         0.00000E+00
    0.00000E+00         0.00000E+00         0.00000E+00
 
    0.12648E+07         0.14358E+07         0.00000E+00
    0.14358E+07        -0.41259E+07         0.00000E+00
    0.00000E+00         0.00000E+00         0.00000E+00
 
    0.12296E+07         0.15093E+07         0.00000E+00
    0.15093E+07        -0.41176E+07         0.00000E+00
    0.00000E+00         0.00000E+00         0.00000E+00
 
    0.11940E+07         0.15825E+07         0.00000E+00
    0.15825E+07        -0.41089E+07         0.00000E+00
    0.00000E+00         0.00000E+00         0.00000E+00
 
    0.11581E+07         0.16552E+07         0.00000E+00
    0.16552E+07        -0.40997E+07         0.00000E+00
    0.00000E+00         0.00000E+00         0.00000E+00
 
    0.11220E+07         0.17276E+07         0.00000E+00
    0.17276E+07        -0.40901E+07         0.00000E+00
    0.00000E+00         0.00000E+00         0.00000E+00
 
    0.10855E+07         0.17996E+07         0.00000E+00
    0.17996E+07        -0.40801E+07         0.00000E+00
    0.00000E+00         0.00000E+00         0.00000E+00
 
    0.10488E+07         0.18712E+07         0.00000E+00
    0.18712E+07        -0.40697E+07         0.00000E+00
    0.00000E+00         0.00000E+00         0.00000E+00
 
    0.10117E+07         0.19424E+07         0.00000E+00
    0.19424E+07        -0.40588E+07         0.00000E+00
    0.00000E+00         0.00000E+00         0.00000E+00
 
    0.97439E+06         0.20133E+07         0.00000E+00
    0.20133E+07        -0.40475E+07         0.00000E+00
    0.00000E+00         0.00000E+00         0.00000E+00
 
    0.93674E+06         0.20837E+07         0.00000E+00
    0.20837E+07        -0.40358E+07         0.00000E+00
    0.00000E+00         0.00000E+00         0.00000E+00
 
    0.89879E+06         0.21538E+07         0.00000E+00
    0.21538E+07        -0.40236E+07         0.00000E+00
    0.00000E+00         0.00000E+00         0.00000E+00
 
    0.86052E+06         0.22236E+07         0.00000E+00
    0.22236E+07        -0.40110E+07         0.00000E+00
    0.00000E+00         0.00000E+00         0.00000E+00
 
    0.82195E+06         0.22929E+07         0.00000E+00
    0.22929E+07        -0.39979E+07         0.00000E+00
    0.00000E+00         0.00000E+00         0.00000E+00
 
    0.78305E+06         0.23619E+07         0.00000E+00
    0.23619E+07        -0.39844E+07         0.00000E+00
    0.00000E+00         0.00000E+00         0.00000E+00
 
    0.74384E+06         0.24305E+07         0.00000E+00
    0.24305E+07        -0.39704E+07         0.00000E+00
    0.00000E+00         0.00000E+00         0.00000E+00
 
    0.70430E+06         0.24987E+07         0.00000E+00
    0.24987E+07        -0.39560E+07         0.00000E+00
    0.00000E+00         0.00000E+00         0.00000E+00
 
    0.66444E+06         0.25666E+07         0.00000E+00
    0.25666E+07        -0.39411E+07         0.00000E+00
    0.00000E+00         0.00000E+00         0.00000E+00
 
    0.62424E+06         0.26341E+07         0.00000E+00
    0.26341E+07        -0.39257E+07         0.00000E+00
    0.00000E+00         0.00000E+00         0.00000E+00
 
    0.58370E+06         0.27013E+07         0.00000E+00
    0.27013E+07        -0.39099E+07         0.00000E+00
    0.00000E+00         0.00000E+00         0.00000E+00
 
    0.54282E+06         0.27680E+07         0.00000E+00
    0.27680E+07        -0.38936E+07         0.00000E+00
    0.00000E+00         0.00000E+00         0.00000E+00
 
    0.50158E+06         0.28344E+07         0.00000E+00
    0.28344E+07        -0.38768E+07         0.00000E+00
    0.00000E+00         0.00000E+00         0.00000E+00
 
    0.45999E+06         0.29004E+07         0.00000E+00
    0.29004E+07        -0.38595E+07         0.00000E+00
    0.00000E+00         0.00000E+00         0.00000E+00
 
    0.41803E+06         0.29661E+07         0.00000E+00
    0.29661E+07        -0.38418E+07         0.00000E+00
    0.00000E+00         0.00000E+00         0.00000E+00
 
    0.37571E+06         0.30314E+07         0.00000E+00
    0.30314E+07        -0.38235E+07         0.00000E+00
    0.00000E+00         0.00000E+00         0.00000E+00
 
    0.33300E+06         0.30963E+07         0.00000E+00
    0.30963E+07        -0.38047E+07         0.00000E+00
    0.00000E+00         0.00000E+00         0.00000E+00
 
    0.28992E+06         0.31608E+07         0.00000E+00
    0.31608E+07        -0.37855E+07         0.00000E+00
    0.00000E+00         0.00000E+00         0.00000E+00
 
    0.24644E+06         0.32249E+07         0.00000E+00
    0.32249E+07        -0.37657E+07         0.00000E+00
    0.00000E+00         0.00000E+00         0.00000E+00
 
    0.20256E+06         0.32887E+07         0.00000E+00
    0.32887E+07        -0.37454E+07         0.00000E+00
    0.00000E+00         0.00000E+00         0.00000E+00
 
    0.15827E+06         0.33520E+07         0.00000E+00
    0.33520E+07        -0.37246E+07         0.00000E+00
    0.00000E+00         0.00000E+00         0.00000E+00
 
    0.11357E+06         0.34150E+07         0.00000E+00
    0.34150E+07        -0.37032E+07         0.00000E+00
    0.00000E+00         0.00000E+00         0.00000E+00
 
    0.68445E+05         0.34776E+07         0.00000E+00
    0.34776E+07        -0.36813E+07         0.00000E+00
    0.00000E+00         0.00000E+00         0.00000E+00
 
    0.22888E+05         0.35398E+07         0.00000E+00
    0.35398E+07        -0.36589E+07         0.00000E+00
    0.00000E+00         0.00000E+00         0.00000E+00
 
    0.19450E+07         0.42408E+05         0.00000E+00
    0.42408E+05        -0.45162E+07         0.00000E+00
    0.00000E+00         0.00000E+00         0.00000E+00
 
    0.19132E+07         0.12590E+06         0.00000E+00
    0.12590E+06        -0.45157E+07         0.00000E+00
    0.00000E+00         0.00000E+00         0.00000E+00
 
    0.18811E+07         0.20892E+06         0.00000E+00
    0.20892E+06        -0.45147E+07         0.00000E+00
    0.00000E+00         0.00000E+00         0.00000E+00
 
    0.18486E+07         0.29147E+06         0.00000E+00
    0.29147E+06        -0.45133E+07         0.00000E+00
    0.00000E+00         0.00000E+00         0.00000E+00
 
    0.18158E+07         0.37355E+06         0.00000E+00
    0.37355E+06        -0.45115E+07         0.00000E+00
    0.00000E+00         0.00000E+00         0.00000E+00
 
    0.17827E+07         0.45517E+06         0.00000E+00
    0.45517E+06        -0.45091E+07         0.00000E+00
    0.00000E+00         0.00000E+00         0.00000E+00
 
    0.17492E+07         0.53634E+06         0.00000E+00
    0.53634E+06        -0.45064E+07         0.00000E+00
    0.00000E+00         0.00000E+00         0.00000E+00
 
    0.17154E+07         0.61705E+06         0.00000E+00
    0.61705E+06        -0.45031E+07         0.00000E+00
    0.00000E+00         0.00000E+00         0.00000E+00
 
    0.16813E+07         0.69733E+06         0.00000E+00
    0.69733E+06        -0.44995E+07         0.00000E+00
    0.00000E+00         0.00000E+00         0.00000E+00
 
    0.16469E+07         0.77716E+06         0.00000E+00
    0.77716E+06        -0.44953E+07         0.00000E+00
    0.00000E+00         0.00000E+00         0.00000E+00
 
    0.16122E+07         0.85656E+06         0.00000E+00
    0.85656E+06        -0.44908E+07         0.00000E+00
    0.00000E+00         0.00000E+00         0.00000E+00
 
    0.15772E+07         0.93553E+06         0.00000E+00
    0.93553E+06        -0.44858E+07         0.00000E+00
    0.00000E+00         0.00000E+00         0.00000E+00
 
    0.15419E+07         0.10141E+07         0.00000E+00
    0.10141E+07        -0.44804E+07         0.00000E+00
    0.00000E+00         0.00000E+00         0.00000E+00
 
    0.15064E+07         0.10922E+07         0.00000E+00
    0.10922E+07        -0.44745E+07         0.00000E+00
    0.00000E+00         0.00000E+00         0.00000E+00
 
    0.14705E+07         0.11699E+07         0.00000E+00
    0.11699E+07        -0.44682E+07         0.00000E+00
    0.00000E+00         0.00000E+00         0.00000E+00
 
    0.14343E+07         0.12472E+07         0.00000E+00
    0.12472E+07        -0.44615E+07         0.00000E+00
    0.00000E+00         0.00000E+00         0.00000E+00
 
    0.13979E+07         0.13241E+07         0.00000E+00
    0.13241E+07        -0.44543E+07         0.00000E+00
    0.00000E+00         0.00000E+00         0.00000E+00
 
    0.13612E+07         0.14006E+07         0.00000E+00
    0.14006E+07        -0.44467E+07         0.00000E+00
    0.00000E+00         0.00000E+00         0.00000E+00
 
    0.13242E+07         0.14767E+07         0.00000E+00
    0.14767E+07        -0.44387E+07         0.00000E+00
    0.00000E+00         0.00000E+00         0.00000E+00
 
    0.12869E+07         0.15524E+07         0.00000E+00
    0.15524E+07        -0.44302E+07         0.00000E+00
    0.00000E+00         0.00000E+00         0.00000E+00
 
    0.12494E+07         0.16277E+07         0.00000E+00
    0.16277E+07        -0.44213E+07         0.00000E+00
    0.00000E+00         0.00000E+00         0.00000E+00
 
    0.12116E+07         0.17027E+07         0.00000E+00
    0.17027E+07        -0.44119E+07         0.00000E+00
    0.00000E+00         0.00000E+00         0.00000E+00
 
    0.11734E+07         0.17772E+07         0.00000E+00
    0.17772E+07        -0.44022E+07         0.00000E+00
    0.00000E+00         0.00000E+00         0.00000E+00
 
    0.11351E+07         0.18514E+07         0.00000E+00
    0.18514E+07        -0.43919E+07         0.00000E+00
    0.00000E+00         0.00000E+00         0.00000E+00
 
    0.10964E+07         0.19252E+07         0.00000E+00
    0.19252E+07        -0.43812E+07         0.00000E+00
    0.00000E+00         0.00000E+00         0.00000E+00
 
    0.10574E+07         0.19987E+07         0.00000E+00
    0.19987E+07        -0.43701E+07         0.00000E+00
    0.00000E+00         0.00000E+00         0.00000E+00
 
    0.10182E+07         0.20718E+07         0.00000E+00
    0.20718E+07        -0.43586E+07         0.00000E+00
    0.00000E+00         0.00000E+00         0.00000E+00
 
    0.97863E+06         0.21445E+07         0.00000E+00
    0.21445E+07        -0.43465E+07         0.00000E+00
    0.00000E+00         0.00000E+00         0.00000E+00
 
    0.93879E+06         0.22169E+07         0.00000E+00
    0.22169E+07        -0.43340E+07         0.00000E+00
    0.00000E+00         0.00000E+00         0.00000E+00
 
    0.89866E+06         0.22889E+07         0.00000E+00
    0.22889E+07        -0.43211E+07         0.00000E+00
    0.00000E+00         0.00000E+00         0.00000E+00
 
    0.85822E+06         0.23605E+07         0.00000E+00
    0.23605E+07        -0.43077E+07         0.00000E+00
    0.00000E+00         0.00000E+00         0.00000E+00
 
    0.81748E+06         0.24318E+07         0.00000E+00
    0.24318E+07        -0.42938E+07         0.00000E+00
    0.00000E+00         0.00000E+00         0.00000E+00
 
    0.77642E+06         0.25028E+07         0.00000E+00
    0.25028E+07        -0.42794E+07         0.00000E+00
    0.00000E+00         0.00000E+00         0.00000E+00
 
    0.73505E+06         0.25734E+07         0.00000E+00
    0.25734E+07        -0.42646E+07         0.00000E+00
    0.00000E+00         0.00000E+00         0.00000E+00
 
    0.69335E+06         0.26436E+07         0.00000E+00
    0.26436E+07        -0.42493E+07         0.00000E+00
    0.00000E+00         0.00000E+00         0.00000E+00
 
    0.65132E+06         0.27136E+07         0.00000E+00
    0.27136E+07        -0.42334E+07         0.00000E+00
    0.00000E+00         0.00000E+00         0.00000E+00
 
    0.60895E+06         0.27831E+07         0.00000E+00
    0.27831E+07        -0.42171E+07         0.00000E+00
    0.00000E+00         0.00000E+00         0.00000E+00
 
    0.56624E+06         0.28523E+07         0.00000E+00
    0.28523E+07        -0.42003E+07         0.00000E+00
    0.00000E+00         0.00000E+00         0.00000E+00
 
    0.52317E+06         0.29212E+07         0.00000E+00
    0.29212E+07        -0.41830E+07         0.00000E+00
    0.00000E+00         0.00000E+00         0.00000E+00
 
    0.47975E+06         0.29898E+07         0.00000E+00
    0.29898E+07        -0.41651E+07         0.00000E+00
    0.00000E+00         0.00000E+00         0.00000E+00
 
    0.43596E+06         0.30580E+07         0.00000E+00
    0.30580E+07        -0.41468E+07         0.00000E+00
    0.00000E+00         0.00000E+00         0.00000E+00
 
    0.39180E+06         0.31258E+07         0.00000E+00
    0.31258E+07        -0.41279E+07         0.00000E+00
    0.00000E+00         0.00000E+00         0.00000E+00
 
    0.34725E+06         0.31933E+07         0.00000E+00
    0.31933E+07        -0.41085E+07         0.00000E+00
    0.00000E+00         0.00000E+00         0.00000E+00
 
    0.30230E+06         0.32604E+07         0.00000E+00
    0.32604E+07        -0.40885E+07         0.00000E+00
    0.00000E+00         0.00000E+00         0.00000E+00
 
    0.25696E+06         0.33272E+07         0.00000E+00
    0.33272E+07        -0.40680E+07         0.00000E+00
    0.00000E+00         0.00000E+00         0.00000E+00
 
    0.21120E+06         0.33937E+07         0.00000E+00
    0.33937E+07        -0.40469E+07         0.00000E+00
    0.00000E+00         0.00000E+00         0.00000E+00
 
    0.16502E+06         0.34597E+07         0.00000E+00
    0.34597E+07        -0.40252E+07         0.00000E+00
    0.00000E+00         0.00000E+00         0.00000E+00
 
    0.11842E+06         0.35255E+07         0.00000E+00
    0.35255E+07        -0.40030E+07         0.00000E+00
    0.00000E+00         0.00000E+00         0.00000E+00
 
    0.71366E+05         0.35908E+07         0.00000E+00
    0.35908E+07        -0.39802E+07         0.00000E+00
    0.00000E+00         0.00000E+00         0.00000E+00
 
    0.23865E+05         0.36558E+07         0.00000E+00
    0.36558E+07        -0.39569E+07         0.00000E+00
    0.00000E+00         0.00000E+00         0.00000E+00
 
    0.20409E+07         0.43623E+05         0.00000E+00
    0.43623E+05        -0.48448E+07         0.00000E+00
    0.00000E+00         0.00000E+00         0.00000E+00
 
    0.20067E+07         0.12948E+06         0.00000E+00
    0.12948E+06        -0.48443E+07         0.00000E+00
    0.00000E+00         0.00000E+00         0.00000E+00
 
    0.19722E+07         0.21484E+06         0.00000E+00
    0.21484E+06        -0.48434E+07         0.00000E+00
    0.00000E+00         0.00000E+00         0.00000E+00
 
    0.19373E+07         0.29971E+06         0.00000E+00
    0.29971E+06        -0.48420E+07         0.00000E+00
    0.00000E+00         0.00000E+00         0.00000E+00
 
    0.19021E+07         0.38410E+06         0.00000E+00
    0.38410E+06        -0.48401E+07         0.00000E+00
    0.00000E+00         0.00000E+00         0.00000E+00
 
    0.18666E+07         0.46801E+06         0.00000E+00
    0.46801E+06        -0.48377E+07         0.00000E+00
    0.00000E+00         0.00000E+00         0.00000E+00
 
    0.18309E+07         0.55145E+06         0.00000E+00
    0.55145E+06        -0.48349E+07         0.00000E+00
    0.00000E+00         0.00000E+00         0.00000E+00
 
    0.17948E+07         0.63443E+06         0.00000E+00
    0.63443E+06        -0.48317E+07         0.00000E+00
    0.00000E+00         0.00000E+00         0.00000E+00
 
    0.17584E+07         0.71695E+06         0.00000E+00
    0.71695E+06        -0.48280E+07         0.00000E+00
    0.00000E+00         0.00000E+00         0.00000E+00
 
    0.17218E+07         0.79902E+06         0.00000E+00
    0.79902E+06        -0.48238E+07         0.00000E+00
    0.00000E+00         0.00000E+00         0.00000E+00
 
    0.16849E+07         0.88065E+06         0.00000E+00
    0.88065E+06        -0.48192E+07         0.00000E+00
    0.00000E+00         0.00000E+00         0.00000E+00
 
    0.16477E+07         0.96184E+06         0.00000E+00
    0.96184E+06        -0.48142E+07         0.00000E+00
    0.00000E+00         0.00000E+00         0.00000E+00
 
    0.16102E+07         0.10426E+07         0.00000E+00
    0.10426E+07        -0.48087E+07         0.00000E+00
    0.00000E+00         0.00000E+00         0.00000E+00
 
    0.15725E+07         0.11229E+07         0.00000E+00
    0.11229E+07        -0.48027E+07         0.00000E+00
    0.00000E+00         0.00000E+00         0.00000E+00
 
    0.15345E+07         0.12029E+07         0.00000E+00
    0.12029E+07        -0.47964E+07         0.00000E+00
    0.00000E+00         0.00000E+00         0.00000E+00
 
    0.14963E+07         0.12824E+07         0.00000E+00
    0.12824E+07        -0.47896E+07         0.00000E+00
    0.00000E+00         0.00000E+00         0.00000E+00
 
    0.14578E+07         0.13615E+07         0.00000E+00
    0.13615E+07        -0.47823E+07         0.00000E+00
    0.00000E+00         0.00000E+00         0.00000E+00
 
    0.14191E+07         0.14402E+07         0.00000E+00
    0.14402E+07        -0.47746E+07         0.00000E+00
    0.00000E+00         0.00000E+00         0.00000E+00
 
    0.13800E+07         0.15185E+07         0.00000E+00
    0.15185E+07        -0.47665E+07         0.00000E+00
    0.00000E+00         0.00000E+00         0.00000E+00
 
    0.13408E+07         0.15965E+07         0.00000E+00
    0.15965E+07        -0.47579E+07         0.00000E+00
    0.00000E+00         0.00000E+00         0.00000E+00
 
    0.13013E+07         0.16740E+07         0.00000E+00
    0.16740E+07        -0.47489E+07         0.00000E+00
    0.00000E+00         0.00000E+00         0.00000E+00
 
    0.12615E+07         0.17512E+07         0.00000E+00
    0.17512E+07        -0.47394E+07         0.00000E+00
    0.00000E+00         0.00000E+00         0.00000E+00
 
    0.12215E+07         0.18280E+07         0.00000E+00
    0.18280E+07        -0.47295E+07         0.00000E+00
    0.00000E+00         0.00000E+00         0.00000E+00
 
    0.11812E+07         0.19045E+07         0.00000E+00
    0.19045E+07        -0.47191E+07         0.00000E+00
    0.00000E+00         0.00000E+00         0.00000E+00
 
    0.11407E+07         0.19806E+07         0.00000E+00
    0.19806E+07        -0.47083E+07         0.00000E+00
    0.00000E+00         0.00000E+00         0.00000E+00
 
    0.10998E+07         0.20563E+07         0.00000E+00
    0.20563E+07        -0.46970E+07         0.00000E+00
    0.00000E+00         0.00000E+00         0.00000E+00
 
    0.10588E+07         0.21317E+07         0.00000E+00
    0.21317E+07        -0.46852E+07         0.00000E+00
    0.00000E+00         0.00000E+00         0.00000E+00
 
    0.10174E+07         0.22068E+07         0.00000E+00
    0.22068E+07        -0.46730E+07         0.00000E+00
    0.00000E+00         0.00000E+00         0.00000E+00
 
    0.97578E+06         0.22815E+07         0.00000E+00
    0.22815E+07        -0.46603E+07         0.00000E+00
    0.00000E+00         0.00000E+00         0.00000E+00
 
    0.93386E+06         0.23559E+07         0.00000E+00
    0.23559E+07        -0.46471E+07         0.00000E+00
    0.00000E+00         0.00000E+00         0.00000E+00
 
    0.89167E+06         0.24300E+07         0.00000E+00
    0.24300E+07        -0.46334E+07         0.00000E+00
    0.00000E+00         0.00000E+00         0.00000E+00
 
    0.84917E+06         0.25037E+07         0.00000E+00
    0.25037E+07        -0.46192E+07         0.00000E+00
    0.00000E+00         0.00000E+00         0.00000E+00
 
    0.80638E+06         0.25771E+07         0.00000E+00
    0.25771E+07        -0.46046E+07         0.00000E+00
    0.00000E+00         0.00000E+00         0.00000E+00
 
    0.76328E+06         0.26501E+07         0.00000E+00
    0.26501E+07        -0.45894E+07         0.00000E+00
    0.00000E+00         0.00000E+00         0.00000E+00
 
    0.71986E+06         0.27229E+07         0.00000E+00
    0.27229E+07        -0.45738E+07         0.00000E+00
    0.00000E+00         0.00000E+00         0.00000E+00
 
    0.67613E+06         0.27953E+07         0.00000E+00
    0.27953E+07        -0.45576E+07         0.00000E+00
    0.00000E+00         0.00000E+00         0.00000E+00
 
    0.63206E+06         0.28675E+07         0.00000E+00
    0.28675E+07        -0.45409E+07         0.00000E+00
    0.00000E+00         0.00000E+00         0.00000E+00
 
    0.58766E+06         0.29393E+07         0.00000E+00
    0.29393E+07        -0.45236E+07         0.00000E+00
    0.00000E+00         0.00000E+00         0.00000E+00
 
    0.54290E+06         0.30108E+07         0.00000E+00
    0.30108E+07        -0.45059E+07         0.00000E+00
    0.00000E+00         0.00000E+00         0.00000E+00
 
    0.49779E+06         0.30820E+07         0.00000E+00
    0.30820E+07        -0.44875E+07         0.00000E+00
    0.00000E+00         0.00000E+00         0.00000E+00
 
    0.45232E+06         0.31528E+07         0.00000E+00
    0.31528E+07        -0.44687E+07         0.00000E+00
    0.00000E+00         0.00000E+00         0.00000E+00
 
    0.40646E+06         0.32234E+07         0.00000E+00
    0.32234E+07        -0.44492E+07         0.00000E+00
    0.00000E+00         0.00000E+00         0.00000E+00
 
    0.36022E+06         0.32936E+07         0.00000E+00
    0.32936E+07        -0.44292E+07         0.00000E+00
    0.00000E+00         0.00000E+00         0.00000E+00
 
    0.31358E+06         0.33636E+07         0.00000E+00
    0.33636E+07        -0.44087E+07         0.00000E+00
    0.00000E+00         0.00000E+00         0.00000E+00
 
    0.26654E+06         0.34332E+07         0.00000E+00
    0.34332E+07        -0.43875E+07         0.00000E+00
    0.00000E+00         0.00000E+00         0.00000E+00
 
    0.21907E+06         0.35025E+07         0.00000E+00
    0.35025E+07        -0.43658E+07         0.00000E+00
    0.00000E+00         0.00000E+00         0.00000E+00
 
    0.17117E+06         0.35715E+07         0.00000E+00
    0.35715E+07        -0.43434E+07         0.00000E+00
    0.00000E+00         0.00000E+00         0.00000E+00
 
    0.12282E+06         0.36401E+07         0.00000E+00
    0.36401E+07        -0.43204E+07         0.00000E+00
    0.00000E+00         0.00000E+00         0.00000E+00
 
    0.74023E+05         0.37084E+07         0.00000E+00
    0.37084E+07        -0.42968E+07         0.00000E+00
    0.00000E+00         0.00000E+00         0.00000E+00
 
    0.24754E+05         0.37764E+07         0.00000E+00
    0.37764E+07        -0.42726E+07         0.00000E+00
    0.00000E+00         0.00000E+00         0.00000E+00
 
    0.21334E+07         0.44858E+05         0.00000E+00
    0.44858E+05        -0.51890E+07         0.00000E+00
    0.00000E+00         0.00000E+00         0.00000E+00
 
    0.20966E+07         0.13312E+06         0.00000E+00
    0.13312E+06        -0.51885E+07         0.00000E+00
    0.00000E+00         0.00000E+00         0.00000E+00
 
    0.20595E+07         0.22085E+06         0.00000E+00
    0.22085E+06        -0.51875E+07         0.00000E+00
    0.00000E+00         0.00000E+00         0.00000E+00
 
    0.20222E+07         0.30808E+06         0.00000E+00
    0.30808E+06        -0.51861E+07         0.00000E+00
    0.00000E+00         0.00000E+00         0.00000E+00
 
    0.19845E+07         0.39481E+06         0.00000E+00
    0.39481E+06        -0.51842E+07         0.00000E+00
    0.00000E+00         0.00000E+00         0.00000E+00
 
    0.19466E+07         0.48104E+06         0.00000E+00
    0.48104E+06        -0.51819E+07         0.00000E+00
    0.00000E+00         0.00000E+00         0.00000E+00
 
    0.19084E+07         0.56678E+06         0.00000E+00
    0.56678E+06        -0.51791E+07         0.00000E+00
    0.00000E+00         0.00000E+00         0.00000E+00
 
    0.18700E+07         0.65205E+06         0.00000E+00
    0.65205E+06        -0.51758E+07         0.00000E+00
    0.00000E+00         0.00000E+00         0.00000E+00
 
    0.18313E+07         0.73686E+06         0.00000E+00
    0.73686E+06        -0.51721E+07         0.00000E+00
    0.00000E+00         0.00000E+00         0.00000E+00
 
    0.17924E+07         0.82120E+06         0.00000E+00
    0.82120E+06        -0.51679E+07         0.00000E+00
    0.00000E+00         0.00000E+00         0.00000E+00
 
    0.17532E+07         0.90509E+06         0.00000E+00
    0.90509E+06        -0.51633E+07         0.00000E+00
    0.00000E+00         0.00000E+00         0.00000E+00
 
    0.17138E+07         0.98854E+06         0.00000E+00
    0.98854E+06        -0.51583E+07         0.00000E+00
    0.00000E+00         0.00000E+00         0.00000E+00
 
    0.16741E+07         0.10716E+07         0.00000E+00
    0.10716E+07        -0.51528E+07         0.00000E+00
    0.00000E+00         0.00000E+00         0.00000E+00
 
    0.16343E+07         0.11541E+07         0.00000E+00
    0.11541E+07        -0.51468E+07         0.00000E+00
    0.00000E+00         0.00000E+00         0.00000E+00
 
    0.15942E+07         0.12363E+07         0.00000E+00
    0.12363E+07        -0.51405E+07         0.00000E+00
    0.00000E+00         0.00000E+00         0.00000E+00
 
    0.15538E+07         0.13181E+07         0.00000E+00
    0.13181E+07        -0.51336E+07         0.00000E+00
    0.00000E+00         0.00000E+00         0.00000E+00
 
    0.15133E+07         0.13995E+07         0.00000E+00
    0.13995E+07        -0.51264E+07         0.00000E+00
    0.00000E+00         0.00000E+00         0.00000E+00
 
    0.14725E+07         0.14804E+07         0.00000E+00
    0.14804E+07        -0.51187E+07         0.00000E+00
    0.00000E+00         0.00000E+00         0.00000E+00
 
    0.14315E+07         0.15610E+07         0.00000E+00
    0.15610E+07        -0.51105E+07         0.00000E+00
    0.00000E+00         0.00000E+00         0.00000E+00
 
    0.13903E+07         0.16412E+07         0.00000E+00
    0.16412E+07        -0.51019E+07         0.00000E+00
    0.00000E+00         0.00000E+00         0.00000E+00
 
    0.13489E+07         0.17211E+07         0.00000E+00
    0.17211E+07        -0.50928E+07         0.00000E+00
    0.00000E+00         0.00000E+00         0.00000E+00
 
    0.13072E+07         0.18006E+07         0.00000E+00
    0.18006E+07        -0.50833E+07         0.00000E+00
    0.00000E+00         0.00000E+00         0.00000E+00
 
    0.12654E+07         0.18797E+07         0.00000E+00
    0.18797E+07        -0.50733E+07         0.00000E+00
    0.00000E+00         0.00000E+00         0.00000E+00
 
    0.12232E+07         0.19585E+07         0.00000E+00
    0.19585E+07        -0.50628E+07         0.00000E+00
    0.00000E+00         0.00000E+00         0.00000E+00
 
    0.11809E+07         0.20369E+07         0.00000E+00
    0.20369E+07        -0.50519E+07         0.00000E+00
    0.00000E+00         0.00000E+00         0.00000E+00
 
    0.11383E+07         0.21150E+07         0.00000E+00
    0.21150E+07        -0.50405E+07         0.00000E+00
    0.00000E+00         0.00000E+00         0.00000E+00
 
    0.10955E+07         0.21928E+07         0.00000E+00
    0.21928E+07        -0.50287E+07         0.00000E+00
    0.00000E+00         0.00000E+00         0.00000E+00
 
    0.10524E+07         0.22703E+07         0.00000E+00
    0.22703E+07        -0.50163E+07         0.00000E+00
    0.00000E+00         0.00000E+00         0.00000E+00
 
    0.10091E+07         0.23474E+07         0.00000E+00
    0.23474E+07        -0.50035E+07         0.00000E+00
    0.00000E+00         0.00000E+00         0.00000E+00
 
    0.96552E+06         0.24242E+07         0.00000E+00
    0.24242E+07        -0.49902E+07         0.00000E+00
    0.00000E+00         0.00000E+00         0.00000E+00
 
    0.92167E+06         0.25008E+07         0.00000E+00
    0.25008E+07        -0.49763E+07         0.00000E+00
    0.00000E+00         0.00000E+00         0.00000E+00
 
    0.87755E+06         0.25770E+07         0.00000E+00
    0.25770E+07        -0.49620E+07         0.00000E+00
    0.00000E+00         0.00000E+00         0.00000E+00
 
    0.83316E+06         0.26529E+07         0.00000E+00
    0.26529E+07        -0.49472E+07         0.00000E+00
    0.00000E+00         0.00000E+00         0.00000E+00
 
    0.78847E+06         0.27286E+07         0.00000E+00
    0.27286E+07        -0.49318E+07         0.00000E+00
    0.00000E+00         0.00000E+00         0.00000E+00
 
    0.74348E+06         0.28039E+07         0.00000E+00
    0.28039E+07        -0.49159E+07         0.00000E+00
    0.00000E+00         0.00000E+00         0.00000E+00
 
    0.69819E+06         0.28790E+07         0.00000E+00
    0.28790E+07        -0.48994E+07         0.00000E+00
    0.00000E+00         0.00000E+00         0.00000E+00
 
    0.65258E+06         0.29538E+07         0.00000E+00
    0.29538E+07        -0.48825E+07         0.00000E+00
    0.00000E+00         0.00000E+00         0.00000E+00
 
    0.60665E+06         0.30283E+07         0.00000E+00
    0.30283E+07        -0.48649E+07         0.00000E+00
    0.00000E+00         0.00000E+00         0.00000E+00
 
    0.56037E+06         0.31026E+07         0.00000E+00
    0.31026E+07        -0.48468E+07         0.00000E+00
    0.00000E+00         0.00000E+00         0.00000E+00
 
    0.51375E+06         0.31765E+07         0.00000E+00
    0.31765E+07        -0.48281E+07         0.00000E+00
    0.00000E+00         0.00000E+00         0.00000E+00
 
    0.46677E+06         0.32502E+07         0.00000E+00
    0.32502E+07        -0.48089E+07         0.00000E+00
    0.00000E+00         0.00000E+00         0.00000E+00
 
    0.41941E+06         0.33236E+07         0.00000E+00
    0.33236E+07        -0.47890E+07         0.00000E+00
    0.00000E+00         0.00000E+00         0.00000E+00
 
    0.37167E+06         0.33968E+07         0.00000E+00
    0.33968E+07        -0.47686E+07         0.00000E+00
    0.00000E+00         0.00000E+00         0.00000E+00
 
    0.32353E+06         0.34697E+07         0.00000E+00
    0.34697E+07        -0.47475E+07         0.00000E+00
    0.00000E+00         0.00000E+00         0.00000E+00
 
    0.27497E+06         0.35423E+07         0.00000E+00
    0.35423E+07        -0.47258E+07         0.00000E+00
    0.00000E+00         0.00000E+00         0.00000E+00
 
    0.22599E+06         0.36146E+07         0.00000E+00
    0.36146E+07        -0.47035E+07         0.00000E+00
    0.00000E+00         0.00000E+00         0.00000E+00
 
    0.17657E+06         0.36867E+07         0.00000E+00
    0.36867E+07        -0.46805E+07         0.00000E+00
    0.00000E+00         0.00000E+00         0.00000E+00
 
    0.12670E+06         0.37584E+07         0.00000E+00
    0.37584E+07        -0.46569E+07         0.00000E+00
    0.00000E+00         0.00000E+00         0.00000E+00
 
    0.76360E+05         0.38299E+07         0.00000E+00
    0.38299E+07        -0.46326E+07         0.00000E+00
    0.00000E+00         0.00000E+00         0.00000E+00
 
    0.25535E+05         0.39011E+07         0.00000E+00
    0.39011E+07        -0.46077E+07         0.00000E+00
    0.00000E+00         0.00000E+00         0.00000E+00
 
    0.22214E+07         0.46105E+05         0.00000E+00
    0.46105E+05        -0.55497E+07         0.00000E+00
    0.00000E+00         0.00000E+00         0.00000E+00
 
    0.21819E+07         0.13678E+06         0.00000E+00
    0.13678E+06        -0.55492E+07         0.00000E+00
    0.00000E+00         0.00000E+00         0.00000E+00
 
    0.21422E+07         0.22692E+06         0.00000E+00
    0.22692E+06        -0.55483E+07         0.00000E+00
    0.00000E+00         0.00000E+00         0.00000E+00
 
    0.21022E+07         0.31652E+06         0.00000E+00
    0.31652E+06        -0.55469E+07         0.00000E+00
    0.00000E+00         0.00000E+00         0.00000E+00
 
    0.20620E+07         0.40560E+06         0.00000E+00
    0.40560E+06        -0.55450E+07         0.00000E+00
    0.00000E+00         0.00000E+00         0.00000E+00
 
    0.20216E+07         0.49416E+06         0.00000E+00
    0.49416E+06        -0.55427E+07         0.00000E+00
    0.00000E+00         0.00000E+00         0.00000E+00
 
    0.19809E+07         0.58223E+06         0.00000E+00
    0.58223E+06        -0.55399E+07         0.00000E+00
    0.00000E+00         0.00000E+00         0.00000E+00
 
    0.19400E+07         0.66981E+06         0.00000E+00
    0.66981E+06        -0.55367E+07         0.00000E+00
    0.00000E+00         0.00000E+00         0.00000E+00
 
    0.18990E+07         0.75690E+06         0.00000E+00
    0.75690E+06        -0.55330E+07         0.00000E+00
    0.00000E+00         0.00000E+00         0.00000E+00
 
    0.18577E+07         0.84353E+06         0.00000E+00
    0.84353E+06        -0.55289E+07         0.00000E+00
    0.00000E+00         0.00000E+00         0.00000E+00
 
    0.18162E+07         0.92970E+06         0.00000E+00
    0.92970E+06        -0.55243E+07         0.00000E+00
    0.00000E+00         0.00000E+00         0.00000E+00
 
    0.17745E+07         0.10154E+07         0.00000E+00
    0.10154E+07        -0.55193E+07         0.00000E+00
    0.00000E+00         0.00000E+00         0.00000E+00
 
    0.17327E+07         0.11007E+07         0.00000E+00
    0.11007E+07        -0.55138E+07         0.00000E+00
    0.00000E+00         0.00000E+00         0.00000E+00
 
    0.16907E+07         0.11856E+07         0.00000E+00
    0.11856E+07        -0.55079E+07         0.00000E+00
    0.00000E+00         0.00000E+00         0.00000E+00
 
    0.16484E+07         0.12700E+07         0.00000E+00
    0.12700E+07        -0.55016E+07         0.00000E+00
    0.00000E+00         0.00000E+00         0.00000E+00
 
    0.16060E+07         0.13540E+07         0.00000E+00
    0.13540E+07        -0.54948E+07         0.00000E+00
    0.00000E+00         0.00000E+00         0.00000E+00
 
    0.15635E+07         0.14377E+07         0.00000E+00
    0.14377E+07        -0.54876E+07         0.00000E+00
    0.00000E+00         0.00000E+00         0.00000E+00
 
    0.15207E+07         0.15209E+07         0.00000E+00
    0.15209E+07        -0.54799E+07         0.00000E+00
    0.00000E+00         0.00000E+00         0.00000E+00
 
    0.14778E+07         0.16038E+07         0.00000E+00
    0.16038E+07        -0.54718E+07         0.00000E+00
    0.00000E+00         0.00000E+00         0.00000E+00
 
    0.14346E+07         0.16863E+07         0.00000E+00
    0.16863E+07        -0.54633E+07         0.00000E+00
    0.00000E+00         0.00000E+00         0.00000E+00
 
    0.13913E+07         0.17685E+07         0.00000E+00
    0.17685E+07        -0.54542E+07         0.00000E+00
    0.00000E+00         0.00000E+00         0.00000E+00
 
    0.13479E+07         0.18503E+07         0.00000E+00
    0.18503E+07        -0.54447E+07         0.00000E+00
    0.00000E+00         0.00000E+00         0.00000E+00
 
    0.13042E+07         0.19318E+07         0.00000E+00
    0.19318E+07        -0.54348E+07         0.00000E+00
    0.00000E+00         0.00000E+00         0.00000E+00
 
    0.12603E+07         0.20129E+07         0.00000E+00
    0.20129E+07        -0.54244E+07         0.00000E+00
    0.00000E+00         0.00000E+00         0.00000E+00
 
    0.12163E+07         0.20938E+07         0.00000E+00
    0.20938E+07        -0.54135E+07         0.00000E+00
    0.00000E+00         0.00000E+00         0.00000E+00
 
    0.11720E+07         0.21743E+07         0.00000E+00
    0.21743E+07        -0.54021E+07         0.00000E+00
    0.00000E+00         0.00000E+00         0.00000E+00
 
    0.11276E+07         0.22545E+07         0.00000E+00
    0.22545E+07        -0.53902E+07         0.00000E+00
    0.00000E+00         0.00000E+00         0.00000E+00
 
    0.10829E+07         0.23344E+07         0.00000E+00
    0.23344E+07        -0.53779E+07         0.00000E+00
    0.00000E+00         0.00000E+00         0.00000E+00
 
    0.10380E+07         0.24140E+07         0.00000E+00
    0.24140E+07        -0.53651E+07         0.00000E+00
    0.00000E+00         0.00000E+00         0.00000E+00
 
    0.99291E+06         0.24934E+07         0.00000E+00
    0.24934E+07        -0.53517E+07         0.00000E+00
    0.00000E+00         0.00000E+00         0.00000E+00
 
    0.94756E+06         0.25725E+07         0.00000E+00
    0.25725E+07        -0.53378E+07         0.00000E+00
    0.00000E+00         0.00000E+00         0.00000E+00
 
    0.90197E+06         0.26513E+07         0.00000E+00
    0.26513E+07        -0.53234E+07         0.00000E+00
    0.00000E+00         0.00000E+00         0.00000E+00
 
    0.85612E+06         0.27298E+07         0.00000E+00
    0.27298E+07        -0.53085E+07         0.00000E+00
    0.00000E+00         0.00000E+00         0.00000E+00
 
    0.81001E+06         0.28081E+07         0.00000E+00
    0.28081E+07        -0.52931E+07         0.00000E+00
    0.00000E+00         0.00000E+00         0.00000E+00
 
    0.76363E+06         0.28862E+07         0.00000E+00
    0.28862E+07        -0.52771E+07         0.00000E+00
    0.00000E+00         0.00000E+00         0.00000E+00
 
    0.71697E+06         0.29640E+07         0.00000E+00
    0.29640E+07        -0.52605E+07         0.00000E+00
    0.00000E+00         0.00000E+00         0.00000E+00
 
    0.67000E+06         0.30416E+07         0.00000E+00
    0.30416E+07        -0.52433E+07         0.00000E+00
    0.00000E+00         0.00000E+00         0.00000E+00
 
    0.62273E+06         0.31189E+07         0.00000E+00
    0.31189E+07        -0.52256E+07         0.00000E+00
    0.00000E+00         0.00000E+00         0.00000E+00
 
    0.57514E+06         0.31960E+07         0.00000E+00
    0.31960E+07        -0.52073E+07         0.00000E+00
    0.00000E+00         0.00000E+00         0.00000E+00
 
    0.52721E+06         0.32729E+07         0.00000E+00
    0.32729E+07        -0.51884E+07         0.00000E+00
    0.00000E+00         0.00000E+00         0.00000E+00
 
    0.47893E+06         0.33495E+07         0.00000E+00
    0.33495E+07        -0.51689E+07         0.00000E+00
    0.00000E+00         0.00000E+00         0.00000E+00
 
    0.43029E+06         0.34260E+07         0.00000E+00
    0.34260E+07        -0.51488E+07         0.00000E+00
    0.00000E+00         0.00000E+00         0.00000E+00
 
    0.38127E+06         0.35022E+07         0.00000E+00
    0.35022E+07        -0.51280E+07         0.00000E+00
    0.00000E+00         0.00000E+00         0.00000E+00
 
    0.33186E+06         0.35781E+07         0.00000E+00
    0.35781E+07        -0.51066E+07         0.00000E+00
    0.00000E+00         0.00000E+00         0.00000E+00
 
    0.28203E+06         0.36539E+07         0.00000E+00
    0.36539E+07        -0.50845E+07         0.00000E+00
    0.00000E+00         0.00000E+00         0.00000E+00
 
    0.23179E+06         0.37294E+07         0.00000E+00
    0.37294E+07        -0.50617E+07         0.00000E+00
    0.00000E+00         0.00000E+00         0.00000E+00
 
    0.18109E+06         0.38048E+07         0.00000E+00
    0.38048E+07        -0.50383E+07         0.00000E+00
    0.00000E+00         0.00000E+00         0.00000E+00
 
    0.12994E+06         0.38798E+07         0.00000E+00
    0.38798E+07        -0.50142E+07         0.00000E+00
    0.00000E+00         0.00000E+00         0.00000E+00
 
    0.78312E+05         0.39547E+07         0.00000E+00
    0.39547E+07        -0.49893E+07         0.00000E+00
    0.00000E+00         0.00000E+00         0.00000E+00
 
    0.26188E+05         0.40294E+07         0.00000E+00
    0.40294E+07        -0.49638E+07         0.00000E+00
    0.00000E+00         0.00000E+00         0.00000E+00
 
    0.23038E+07         0.47354E+05         0.00000E+00
    0.47354E+05        -0.59282E+07         0.00000E+00
    0.00000E+00         0.00000E+00         0.00000E+00
 
    0.22615E+07         0.14045E+06         0.00000E+00
    0.14045E+06        -0.59277E+07         0.00000E+00
    0.00000E+00         0.00000E+00         0.00000E+00
 
    0.22191E+07         0.23298E+06         0.00000E+00
    0.23298E+06        -0.59268E+07         0.00000E+00
    0.00000E+00         0.00000E+00         0.00000E+00
 
    0.21764E+07         0.32495E+06         0.00000E+00
    0.32495E+06        -0.59254E+07         0.00000E+00
    0.00000E+00         0.00000E+00         0.00000E+00
 
    0.21335E+07         0.41638E+06         0.00000E+00
    0.41638E+06        -0.59235E+07         0.00000E+00
    0.00000E+00         0.00000E+00         0.00000E+00
 
    0.20905E+07         0.50728E+06         0.00000E+00
    0.50728E+06        -0.59213E+07         0.00000E+00
    0.00000E+00         0.00000E+00         0.00000E+00
 
    0.20472E+07         0.59766E+06         0.00000E+00
    0.59766E+06        -0.59185E+07         0.00000E+00
    0.00000E+00         0.00000E+00         0.00000E+00
 
    0.20039E+07         0.68753E+06         0.00000E+00
    0.68753E+06        -0.59154E+07         0.00000E+00
    0.00000E+00         0.00000E+00         0.00000E+00
 
    0.19603E+07         0.77691E+06         0.00000E+00
    0.77691E+06        -0.59118E+07         0.00000E+00
    0.00000E+00         0.00000E+00         0.00000E+00
 
    0.19167E+07         0.86582E+06         0.00000E+00
    0.86582E+06        -0.59077E+07         0.00000E+00
    0.00000E+00         0.00000E+00         0.00000E+00
 
    0.18729E+07         0.95426E+06         0.00000E+00
    0.95426E+06        -0.59032E+07         0.00000E+00
    0.00000E+00         0.00000E+00         0.00000E+00
 
    0.18289E+07         0.10422E+07         0.00000E+00
    0.10422E+07        -0.58983E+07         0.00000E+00
    0.00000E+00         0.00000E+00         0.00000E+00
 
    0.17848E+07         0.11298E+07         0.00000E+00
    0.11298E+07        -0.58930E+07         0.00000E+00
    0.00000E+00         0.00000E+00         0.00000E+00
 
    0.17406E+07         0.12169E+07         0.00000E+00
    0.12169E+07        -0.58872E+07         0.00000E+00
    0.00000E+00         0.00000E+00         0.00000E+00
 
    0.16963E+07         0.13036E+07         0.00000E+00
    0.13036E+07        -0.58810E+07         0.00000E+00
    0.00000E+00         0.00000E+00         0.00000E+00
 
    0.16518E+07         0.13899E+07         0.00000E+00
    0.13899E+07        -0.58743E+07         0.00000E+00
    0.00000E+00         0.00000E+00         0.00000E+00
 
    0.16072E+07         0.14758E+07         0.00000E+00
    0.14758E+07        -0.58672E+07         0.00000E+00
    0.00000E+00         0.00000E+00         0.00000E+00
 
    0.15625E+07         0.15614E+07         0.00000E+00
    0.15614E+07        -0.58597E+07         0.00000E+00
    0.00000E+00         0.00000E+00         0.00000E+00
 
    0.15177E+07         0.16465E+07         0.00000E+00
    0.16465E+07        -0.58517E+07         0.00000E+00
    0.00000E+00         0.00000E+00         0.00000E+00
 
    0.14727E+07         0.17314E+07         0.00000E+00
    0.17314E+07        -0.58433E+07         0.00000E+00
    0.00000E+00         0.00000E+00         0.00000E+00
 
    0.14276E+07         0.18159E+07         0.00000E+00
    0.18159E+07        -0.58344E+07         0.00000E+00
    0.00000E+00         0.00000E+00         0.00000E+00
 
    0.13824E+07         0.19000E+07         0.00000E+00
    0.19000E+07        -0.58251E+07         0.00000E+00
    0.00000E+00         0.00000E+00         0.00000E+00
 
    0.13370E+07         0.19838E+07         0.00000E+00
    0.19838E+07        -0.58152E+07         0.00000E+00
    0.00000E+00         0.00000E+00         0.00000E+00
 
    0.12915E+07         0.20674E+07         0.00000E+00
    0.20674E+07        -0.58050E+07         0.00000E+00
    0.00000E+00         0.00000E+00         0.00000E+00
 
    0.12459E+07         0.21506E+07         0.00000E+00
    0.21506E+07        -0.57942E+07         0.00000E+00
    0.00000E+00         0.00000E+00         0.00000E+00
 
    0.12001E+07         0.22336E+07         0.00000E+00
    0.22336E+07        -0.57830E+07         0.00000E+00
    0.00000E+00         0.00000E+00         0.00000E+00
 
    0.11541E+07         0.23163E+07         0.00000E+00
    0.23163E+07        -0.57712E+07         0.00000E+00
    0.00000E+00         0.00000E+00         0.00000E+00
 
    0.11080E+07         0.23987E+07         0.00000E+00
    0.23987E+07        -0.57590E+07         0.00000E+00
    0.00000E+00         0.00000E+00         0.00000E+00
 
    0.10617E+07         0.24809E+07         0.00000E+00
    0.24809E+07        -0.57463E+07         0.00000E+00
    0.00000E+00         0.00000E+00         0.00000E+00
 
    0.10152E+07         0.25628E+07         0.00000E+00
    0.25628E+07        -0.57330E+07         0.00000E+00
    0.00000E+00         0.00000E+00         0.00000E+00
 
    0.96854E+06         0.26445E+07         0.00000E+00
    0.26445E+07        -0.57193E+07         0.00000E+00
    0.00000E+00         0.00000E+00         0.00000E+00
 
    0.92165E+06         0.27259E+07         0.00000E+00
    0.27259E+07        -0.57049E+07         0.00000E+00
    0.00000E+00         0.00000E+00         0.00000E+00
 
    0.87455E+06         0.28072E+07         0.00000E+00
    0.28072E+07        -0.56901E+07         0.00000E+00
    0.00000E+00         0.00000E+00         0.00000E+00
 
    0.82722E+06         0.28882E+07         0.00000E+00
    0.28882E+07        -0.56747E+07         0.00000E+00
    0.00000E+00         0.00000E+00         0.00000E+00
 
    0.77965E+06         0.29690E+07         0.00000E+00
    0.29690E+07        -0.56587E+07         0.00000E+00
    0.00000E+00         0.00000E+00         0.00000E+00
 
    0.73182E+06         0.30497E+07         0.00000E+00
    0.30497E+07        -0.56422E+07         0.00000E+00
    0.00000E+00         0.00000E+00         0.00000E+00
 
    0.68373E+06         0.31301E+07         0.00000E+00
    0.31301E+07        -0.56250E+07         0.00000E+00
    0.00000E+00         0.00000E+00         0.00000E+00
 
    0.63536E+06         0.32104E+07         0.00000E+00
    0.32104E+07        -0.56073E+07         0.00000E+00
    0.00000E+00         0.00000E+00         0.00000E+00
 
    0.58668E+06         0.32904E+07         0.00000E+00
    0.32904E+07        -0.55889E+07         0.00000E+00
    0.00000E+00         0.00000E+00         0.00000E+00
 
    0.53770E+06         0.33703E+07         0.00000E+00
    0.33703E+07        -0.55700E+07         0.00000E+00
    0.00000E+00         0.00000E+00         0.00000E+00
 
    0.48838E+06         0.34501E+07         0.00000E+00
    0.34501E+07        -0.55504E+07         0.00000E+00
    0.00000E+00         0.00000E+00         0.00000E+00
 
    0.43872E+06         0.35296E+07         0.00000E+00
    0.35296E+07        -0.55301E+07         0.00000E+00
    0.00000E+00         0.00000E+00         0.00000E+00
 
    0.38869E+06         0.36090E+07         0.00000E+00
    0.36090E+07        -0.55091E+07         0.00000E+00
    0.00000E+00         0.00000E+00         0.00000E+00
 
    0.33828E+06         0.36883E+07         0.00000E+00
    0.36883E+07        -0.54875E+07         0.00000E+00
    0.00000E+00         0.00000E+00         0.00000E+00
 
    0.28746E+06         0.37674E+07         0.00000E+00
    0.37674E+07        -0.54652E+07         0.00000E+00
    0.00000E+00         0.00000E+00         0.00000E+00
 
    0.23623E+06         0.38463E+07         0.00000E+00
    0.38463E+07        -0.54422E+07         0.00000E+00
    0.00000E+00         0.00000E+00         0.00000E+00
 
    0.18456E+06         0.39250E+07         0.00000E+00
    0.39250E+07        -0.54184E+07         0.00000E+00
    0.00000E+00         0.00000E+00         0.00000E+00
 
    0.13242E+06         0.40036E+07         0.00000E+00
    0.40036E+07        -0.53940E+07         0.00000E+00
    0.00000E+00         0.00000E+00         0.00000E+00
 
    0.79805E+05         0.40821E+07         0.00000E+00
    0.40821E+07        -0.53687E+07         0.00000E+00
    0.00000E+00         0.00000E+00         0.00000E+00
 
    0.26687E+05         0.41604E+07         0.00000E+00
    0.41604E+07        -0.53427E+07         0.00000E+00
    0.00000E+00         0.00000E+00         0.00000E+00
 
    0.23795E+07         0.48595E+05         0.00000E+00
    0.48595E+05        -0.63255E+07         0.00000E+00
    0.00000E+00         0.00000E+00         0.00000E+00
 
    0.23343E+07         0.14409E+06         0.00000E+00
    0.14409E+06        -0.63250E+07         0.00000E+00
    0.00000E+00         0.00000E+00         0.00000E+00
 
    0.22889E+07         0.23899E+06         0.00000E+00
    0.23899E+06        -0.63241E+07         0.00000E+00
    0.00000E+00         0.00000E+00         0.00000E+00
 
    0.22434E+07         0.33330E+06         0.00000E+00
    0.33330E+06        -0.63228E+07         0.00000E+00
    0.00000E+00         0.00000E+00         0.00000E+00
 
    0.21978E+07         0.42705E+06         0.00000E+00
    0.42705E+06        -0.63210E+07         0.00000E+00
    0.00000E+00         0.00000E+00         0.00000E+00
 
    0.21520E+07         0.52024E+06         0.00000E+00
    0.52024E+06        -0.63188E+07         0.00000E+00
    0.00000E+00         0.00000E+00         0.00000E+00
 
    0.21062E+07         0.61291E+06         0.00000E+00
    0.61291E+06        -0.63162E+07         0.00000E+00
    0.00000E+00         0.00000E+00         0.00000E+00
 
    0.20602E+07         0.70505E+06         0.00000E+00
    0.70505E+06        -0.63131E+07         0.00000E+00
    0.00000E+00         0.00000E+00         0.00000E+00
 
    0.20142E+07         0.79668E+06         0.00000E+00
    0.79668E+06        -0.63096E+07         0.00000E+00
    0.00000E+00         0.00000E+00         0.00000E+00
 
    0.19681E+07         0.88783E+06         0.00000E+00
    0.88783E+06        -0.63057E+07         0.00000E+00
    0.00000E+00         0.00000E+00         0.00000E+00
 
    0.19219E+07         0.97851E+06         0.00000E+00
    0.97851E+06        -0.63014E+07         0.00000E+00
    0.00000E+00         0.00000E+00         0.00000E+00
 
    0.18756E+07         0.10687E+07         0.00000E+00
    0.10687E+07        -0.62966E+07         0.00000E+00
    0.00000E+00         0.00000E+00         0.00000E+00
 
    0.18293E+07         0.11585E+07         0.00000E+00
    0.11585E+07        -0.62915E+07         0.00000E+00
    0.00000E+00         0.00000E+00         0.00000E+00
 
    0.17829E+07         0.12479E+07         0.00000E+00
    0.12479E+07        -0.62859E+07         0.00000E+00
    0.00000E+00         0.00000E+00         0.00000E+00
 
    0.17365E+07         0.13368E+07         0.00000E+00
    0.13368E+07        -0.62798E+07         0.00000E+00
    0.00000E+00         0.00000E+00         0.00000E+00
 
    0.16900E+07         0.14253E+07         0.00000E+00
    0.14253E+07        -0.62734E+07         0.00000E+00
    0.00000E+00         0.00000E+00         0.00000E+00
 
    0.16434E+07         0.15135E+07         0.00000E+00
    0.15135E+07        -0.62665E+07         0.00000E+00
    0.00000E+00         0.00000E+00         0.00000E+00
 
    0.15968E+07         0.16013E+07         0.00000E+00
    0.16013E+07        -0.62592E+07         0.00000E+00
    0.00000E+00         0.00000E+00         0.00000E+00
 
    0.15501E+07         0.16888E+07         0.00000E+00
    0.16888E+07        -0.62515E+07         0.00000E+00
    0.00000E+00         0.00000E+00         0.00000E+00
 
    0.15034E+07         0.17759E+07         0.00000E+00
    0.17759E+07        -0.62433E+07         0.00000E+00
    0.00000E+00         0.00000E+00         0.00000E+00
 
    0.14566E+07         0.18627E+07         0.00000E+00
    0.18627E+07        -0.62346E+07         0.00000E+00
    0.00000E+00         0.00000E+00         0.00000E+00
 
    0.14097E+07         0.19492E+07         0.00000E+00
    0.19492E+07        -0.62255E+07         0.00000E+00
    0.00000E+00         0.00000E+00         0.00000E+00
 
    0.13628E+07         0.20354E+07         0.00000E+00
    0.20354E+07        -0.62160E+07         0.00000E+00
    0.00000E+00         0.00000E+00         0.00000E+00
 
    0.13158E+07         0.21213E+07         0.00000E+00
    0.21213E+07        -0.62060E+07         0.00000E+00
    0.00000E+00         0.00000E+00         0.00000E+00
 
    0.12687E+07         0.22069E+07         0.00000E+00
    0.22069E+07        -0.61955E+07         0.00000E+00
    0.00000E+00         0.00000E+00         0.00000E+00
 
    0.12215E+07         0.22923E+07         0.00000E+00
    0.22923E+07        -0.61845E+07         0.00000E+00
    0.00000E+00         0.00000E+00         0.00000E+00
 
    0.11742E+07         0.23775E+07         0.00000E+00
    0.23775E+07        -0.61731E+07         0.00000E+00
    0.00000E+00         0.00000E+00         0.00000E+00
 
    0.11267E+07         0.24625E+07         0.00000E+00
    0.24625E+07        -0.61611E+07         0.00000E+00
    0.00000E+00         0.00000E+00         0.00000E+00
 
    0.10792E+07         0.25472E+07         0.00000E+00
    0.25472E+07        -0.61486E+07         0.00000E+00
    0.00000E+00         0.00000E+00         0.00000E+00
 
    0.10315E+07         0.26317E+07         0.00000E+00
    0.26317E+07        -0.61356E+07         0.00000E+00
    0.00000E+00         0.00000E+00         0.00000E+00
 
    0.98373E+06         0.27160E+07         0.00000E+00
    0.27160E+07        -0.61221E+07         0.00000E+00
    0.00000E+00         0.00000E+00         0.00000E+00
 
    0.93577E+06         0.28002E+07         0.00000E+00
    0.28002E+07        -0.61080E+07         0.00000E+00
    0.00000E+00         0.00000E+00         0.00000E+00
 
    0.88763E+06         0.28842E+07         0.00000E+00
    0.28842E+07        -0.60934E+07         0.00000E+00
    0.00000E+00         0.00000E+00         0.00000E+00
 
    0.83932E+06         0.29680E+07         0.00000E+00
    0.29680E+07        -0.60782E+07         0.00000E+00
    0.00000E+00         0.00000E+00         0.00000E+00
 
    0.79080E+06         0.30517E+07         0.00000E+00
    0.30517E+07        -0.60625E+07         0.00000E+00
    0.00000E+00         0.00000E+00         0.00000E+00
 
    0.74207E+06         0.31352E+07         0.00000E+00
    0.31352E+07        -0.60461E+07         0.00000E+00
    0.00000E+00         0.00000E+00         0.00000E+00
 
    0.69311E+06         0.32186E+07         0.00000E+00
    0.32186E+07        -0.60291E+07         0.00000E+00
    0.00000E+00         0.00000E+00         0.00000E+00
 
    0.64390E+06         0.33019E+07         0.00000E+00
    0.33019E+07        -0.60115E+07         0.00000E+00
    0.00000E+00         0.00000E+00         0.00000E+00
 
    0.59443E+06         0.33850E+07         0.00000E+00
    0.33850E+07        -0.59933E+07         0.00000E+00
    0.00000E+00         0.00000E+00         0.00000E+00
 
    0.54468E+06         0.34681E+07         0.00000E+00
    0.34681E+07        -0.59745E+07         0.00000E+00
    0.00000E+00         0.00000E+00         0.00000E+00
 
    0.49462E+06         0.35510E+07         0.00000E+00
    0.35510E+07        -0.59549E+07         0.00000E+00
    0.00000E+00         0.00000E+00         0.00000E+00
 
    0.44424E+06         0.36338E+07         0.00000E+00
    0.36338E+07        -0.59347E+07         0.00000E+00
    0.00000E+00         0.00000E+00         0.00000E+00
 
    0.39352E+06         0.37166E+07         0.00000E+00
    0.37166E+07        -0.59138E+07         0.00000E+00
    0.00000E+00         0.00000E+00         0.00000E+00
 
    0.34243E+06         0.37992E+07         0.00000E+00
    0.37992E+07        -0.58921E+07         0.00000E+00
    0.00000E+00         0.00000E+00         0.00000E+00
 
    0.29096E+06         0.38818E+07         0.00000E+00
    0.38818E+07        -0.58698E+07         0.00000E+00
    0.00000E+00         0.00000E+00         0.00000E+00
 
    0.23908E+06         0.39643E+07         0.00000E+00
    0.39643E+07        -0.58467E+07         0.00000E+00
    0.00000E+00         0.00000E+00         0.00000E+00
 
    0.18677E+06         0.40466E+07         0.00000E+00
    0.40466E+07        -0.58228E+07         0.00000E+00
    0.00000E+00         0.00000E+00         0.00000E+00
 
    0.13400E+06         0.41289E+07         0.00000E+00
    0.41289E+07        -0.57981E+07         0.00000E+00
    0.00000E+00         0.00000E+00         0.00000E+00
 
    0.80755E+05         0.42112E+07         0.00000E+00
    0.42112E+07        -0.57727E+07         0.00000E+00
    0.00000E+00         0.00000E+00         0.00000E+00
 
    0.27005E+05         0.42933E+07         0.00000E+00
    0.42933E+07        -0.57464E+07         0.00000E+00
    0.00000E+00         0.00000E+00         0.00000E+00
 
    0.24472E+07         0.49816E+05         0.00000E+00
    0.49816E+05        -0.67428E+07         0.00000E+00
    0.00000E+00         0.00000E+00         0.00000E+00
 
    0.23988E+07         0.14766E+06         0.00000E+00
    0.14766E+06        -0.67424E+07         0.00000E+00
    0.00000E+00         0.00000E+00         0.00000E+00
 
    0.23504E+07         0.24487E+06         0.00000E+00
    0.24487E+06        -0.67415E+07         0.00000E+00
    0.00000E+00         0.00000E+00         0.00000E+00
 
    0.23019E+07         0.34147E+06         0.00000E+00
    0.34147E+06        -0.67403E+07         0.00000E+00
    0.00000E+00         0.00000E+00         0.00000E+00
 
    0.22534E+07         0.43748E+06         0.00000E+00
    0.43748E+06        -0.67386E+07         0.00000E+00
    0.00000E+00         0.00000E+00         0.00000E+00
 
    0.22048E+07         0.53292E+06         0.00000E+00
    0.53292E+06        -0.67365E+07         0.00000E+00
    0.00000E+00         0.00000E+00         0.00000E+00
 
    0.21562E+07         0.62780E+06         0.00000E+00
    0.62780E+06        -0.67340E+07         0.00000E+00
    0.00000E+00         0.00000E+00         0.00000E+00
 
    0.21077E+07         0.72215E+06         0.00000E+00
    0.72215E+06        -0.67311E+07         0.00000E+00
    0.00000E+00         0.00000E+00         0.00000E+00
 
    0.20591E+07         0.81598E+06         0.00000E+00
    0.81598E+06        -0.67277E+07         0.00000E+00
    0.00000E+00         0.00000E+00         0.00000E+00
 
    0.20105E+07         0.90931E+06         0.00000E+00
    0.90931E+06        -0.67240E+07         0.00000E+00
    0.00000E+00         0.00000E+00         0.00000E+00
 
    0.19619E+07         0.10022E+07         0.00000E+00
    0.10022E+07        -0.67199E+07         0.00000E+00
    0.00000E+00         0.00000E+00         0.00000E+00
 
    0.19133E+07         0.10945E+07         0.00000E+00
    0.10945E+07        -0.67154E+07         0.00000E+00
    0.00000E+00         0.00000E+00         0.00000E+00
 
    0.18647E+07         0.11865E+07         0.00000E+00
    0.11865E+07        -0.67105E+07         0.00000E+00
    0.00000E+00         0.00000E+00         0.00000E+00
 
    0.18162E+07         0.12780E+07         0.00000E+00
    0.12780E+07        -0.67052E+07         0.00000E+00
    0.00000E+00         0.00000E+00         0.00000E+00
 
    0.17677E+07         0.13691E+07         0.00000E+00
    0.13691E+07        -0.66994E+07         0.00000E+00
    0.00000E+00         0.00000E+00         0.00000E+00
 
    0.17192E+07         0.14599E+07         0.00000E+00
    0.14599E+07        -0.66933E+07         0.00000E+00
    0.00000E+00         0.00000E+00         0.00000E+00
 
    0.16707E+07         0.15502E+07         0.00000E+00
    0.15502E+07        -0.66867E+07         0.00000E+00
    0.00000E+00         0.00000E+00         0.00000E+00
 
    0.16222E+07         0.16402E+07         0.00000E+00
    0.16402E+07        -0.66798E+07         0.00000E+00
    0.00000E+00         0.00000E+00         0.00000E+00
 
    0.15738E+07         0.17299E+07         0.00000E+00
    0.17299E+07        -0.66724E+07         0.00000E+00
    0.00000E+00         0.00000E+00         0.00000E+00
 
    0.15254E+07         0.18193E+07         0.00000E+00
    0.18193E+07        -0.66645E+07         0.00000E+00
    0.00000E+00         0.00000E+00         0.00000E+00
 
    0.14770E+07         0.19084E+07         0.00000E+00
    0.19084E+07        -0.66563E+07         0.00000E+00
    0.00000E+00         0.00000E+00         0.00000E+00
 
    0.14286E+07         0.19972E+07         0.00000E+00
    0.19972E+07        -0.66476E+07         0.00000E+00
    0.00000E+00         0.00000E+00         0.00000E+00
 
    0.13802E+07         0.20857E+07         0.00000E+00
    0.20857E+07        -0.66384E+07         0.00000E+00
    0.00000E+00         0.00000E+00         0.00000E+00
 
    0.13318E+07         0.21740E+07         0.00000E+00
    0.21740E+07        -0.66288E+07         0.00000E+00
    0.00000E+00         0.00000E+00         0.00000E+00
 
    0.12834E+07         0.22620E+07         0.00000E+00
    0.22620E+07        -0.66188E+07         0.00000E+00
    0.00000E+00         0.00000E+00         0.00000E+00
 
    0.12350E+07         0.23499E+07         0.00000E+00
    0.23499E+07        -0.66082E+07         0.00000E+00
    0.00000E+00         0.00000E+00         0.00000E+00
 
    0.11865E+07         0.24375E+07         0.00000E+00
    0.24375E+07        -0.65972E+07         0.00000E+00
    0.00000E+00         0.00000E+00         0.00000E+00
 
    0.11380E+07         0.25250E+07         0.00000E+00
    0.25250E+07        -0.65856E+07         0.00000E+00
    0.00000E+00         0.00000E+00         0.00000E+00
 
    0.10895E+07         0.26123E+07         0.00000E+00
    0.26123E+07        -0.65736E+07         0.00000E+00
    0.00000E+00         0.00000E+00         0.00000E+00
 
    0.10409E+07         0.26994E+07         0.00000E+00
    0.26994E+07        -0.65610E+07         0.00000E+00
    0.00000E+00         0.00000E+00         0.00000E+00
 
    0.99216E+06         0.27864E+07         0.00000E+00
    0.27864E+07        -0.65479E+07         0.00000E+00
    0.00000E+00         0.00000E+00         0.00000E+00
 
    0.94336E+06         0.28733E+07         0.00000E+00
    0.28733E+07        -0.65343E+07         0.00000E+00
    0.00000E+00         0.00000E+00         0.00000E+00
 
    0.89446E+06         0.29600E+07         0.00000E+00
    0.29600E+07        -0.65201E+07         0.00000E+00
    0.00000E+00         0.00000E+00         0.00000E+00
 
    0.84543E+06         0.30467E+07         0.00000E+00
    0.30467E+07        -0.65053E+07         0.00000E+00
    0.00000E+00         0.00000E+00         0.00000E+00
 
    0.79625E+06         0.31333E+07         0.00000E+00
    0.31333E+07        -0.64899E+07         0.00000E+00
    0.00000E+00         0.00000E+00         0.00000E+00
 
    0.74692E+06         0.32197E+07         0.00000E+00
    0.32197E+07        -0.64740E+07         0.00000E+00
    0.00000E+00         0.00000E+00         0.00000E+00
 
    0.69740E+06         0.33062E+07         0.00000E+00
    0.33062E+07        -0.64574E+07         0.00000E+00
    0.00000E+00         0.00000E+00         0.00000E+00
 
    0.64768E+06         0.33925E+07         0.00000E+00
    0.33925E+07        -0.64401E+07         0.00000E+00
    0.00000E+00         0.00000E+00         0.00000E+00
 
    0.59774E+06         0.34789E+07         0.00000E+00
    0.34789E+07        -0.64222E+07         0.00000E+00
    0.00000E+00         0.00000E+00         0.00000E+00
 
    0.54756E+06         0.35651E+07         0.00000E+00
    0.35651E+07        -0.64037E+07         0.00000E+00
    0.00000E+00         0.00000E+00         0.00000E+00
 
    0.49711E+06         0.36514E+07         0.00000E+00
    0.36514E+07        -0.63844E+07         0.00000E+00
    0.00000E+00         0.00000E+00         0.00000E+00
 
    0.44638E+06         0.37376E+07         0.00000E+00
    0.37376E+07        -0.63645E+07         0.00000E+00
    0.00000E+00         0.00000E+00         0.00000E+00
 
    0.39533E+06         0.38238E+07         0.00000E+00
    0.38238E+07        -0.63438E+07         0.00000E+00
    0.00000E+00         0.00000E+00         0.00000E+00
 
    0.34395E+06         0.39100E+07         0.00000E+00
    0.39100E+07        -0.63223E+07         0.00000E+00
    0.00000E+00         0.00000E+00         0.00000E+00
 
    0.29220E+06         0.39962E+07         0.00000E+00
    0.39962E+07        -0.63001E+07         0.00000E+00
    0.00000E+00         0.00000E+00         0.00000E+00
 
    0.24007E+06         0.40824E+07         0.00000E+00
    0.40824E+07        -0.62772E+07         0.00000E+00
    0.00000E+00         0.00000E+00         0.00000E+00
 
    0.18752E+06         0.41686E+07         0.00000E+00
    0.41686E+07        -0.62534E+07         0.00000E+00
    0.00000E+00         0.00000E+00         0.00000E+00
 
    0.13453E+06         0.42548E+07         0.00000E+00
    0.42548E+07        -0.62288E+07         0.00000E+00
    0.00000E+00         0.00000E+00         0.00000E+00
 
    0.81068E+05         0.43410E+07         0.00000E+00
    0.43410E+07        -0.62033E+07         0.00000E+00
    0.00000E+00         0.00000E+00         0.00000E+00
 
    0.27108E+05         0.44272E+07         0.00000E+00
    0.44272E+07        -0.61770E+07         0.00000E+00
    0.00000E+00         0.00000E+00         0.00000E+00
 
    0.25052E+07         0.51002E+05         0.00000E+00
    0.51002E+05        -0.71814E+07         0.00000E+00
    0.00000E+00         0.00000E+00         0.00000E+00
 
    0.24535E+07         0.15111E+06         0.00000E+00
    0.15111E+06        -0.71810E+07         0.00000E+00
    0.00000E+00         0.00000E+00         0.00000E+00
 
    0.24019E+07         0.25055E+06         0.00000E+00
    0.25055E+06        -0.71802E+07         0.00000E+00
    0.00000E+00         0.00000E+00         0.00000E+00
 
    0.23503E+07         0.34935E+06         0.00000E+00
    0.34935E+06        -0.71790E+07         0.00000E+00
    0.00000E+00         0.00000E+00         0.00000E+00
 
    0.22988E+07         0.44753E+06         0.00000E+00
    0.44753E+06        -0.71775E+07         0.00000E+00
    0.00000E+00         0.00000E+00         0.00000E+00
 
    0.22473E+07         0.54512E+06         0.00000E+00
    0.54512E+06        -0.71755E+07         0.00000E+00
    0.00000E+00         0.00000E+00         0.00000E+00
 
    0.21959E+07         0.64213E+06         0.00000E+00
    0.64213E+06        -0.71732E+07         0.00000E+00
    0.00000E+00         0.00000E+00         0.00000E+00
 
    0.21446E+07         0.73858E+06         0.00000E+00
    0.73858E+06        -0.71705E+07         0.00000E+00
    0.00000E+00         0.00000E+00         0.00000E+00
 
    0.20934E+07         0.83451E+06         0.00000E+00
    0.83451E+06        -0.71674E+07         0.00000E+00
    0.00000E+00         0.00000E+00         0.00000E+00
 
    0.20422E+07         0.92992E+06         0.00000E+00
    0.92992E+06        -0.71639E+07         0.00000E+00
    0.00000E+00         0.00000E+00         0.00000E+00
 
    0.19912E+07         0.10248E+07         0.00000E+00
    0.10248E+07        -0.71601E+07         0.00000E+00
    0.00000E+00         0.00000E+00         0.00000E+00
 
    0.19403E+07         0.11193E+07         0.00000E+00
    0.11193E+07        -0.71559E+07         0.00000E+00
    0.00000E+00         0.00000E+00         0.00000E+00
 
    0.18895E+07         0.12133E+07         0.00000E+00
    0.12133E+07        -0.71513E+07         0.00000E+00
    0.00000E+00         0.00000E+00         0.00000E+00
 
    0.18388E+07         0.13069E+07         0.00000E+00
    0.13069E+07        -0.71464E+07         0.00000E+00
    0.00000E+00         0.00000E+00         0.00000E+00
 
    0.17883E+07         0.14001E+07         0.00000E+00
    0.14001E+07        -0.71411E+07         0.00000E+00
    0.00000E+00         0.00000E+00         0.00000E+00
 
    0.17378E+07         0.14930E+07         0.00000E+00
    0.14930E+07        -0.71353E+07         0.00000E+00
    0.00000E+00         0.00000E+00         0.00000E+00
 
    0.16875E+07         0.15854E+07         0.00000E+00
    0.15854E+07        -0.71292E+07         0.00000E+00
    0.00000E+00         0.00000E+00         0.00000E+00
 
    0.16373E+07         0.16776E+07         0.00000E+00
    0.16776E+07        -0.71227E+07         0.00000E+00
    0.00000E+00         0.00000E+00         0.00000E+00
 
    0.15872E+07         0.17694E+07         0.00000E+00
    0.17694E+07        -0.71158E+07         0.00000E+00
    0.00000E+00         0.00000E+00         0.00000E+00
 
    0.15372E+07         0.18610E+07         0.00000E+00
    0.18610E+07        -0.71085E+07         0.00000E+00
    0.00000E+00         0.00000E+00         0.00000E+00
 
    0.14874E+07         0.19522E+07         0.00000E+00
    0.19522E+07        -0.71008E+07         0.00000E+00
    0.00000E+00         0.00000E+00         0.00000E+00
 
    0.14376E+07         0.20433E+07         0.00000E+00
    0.20433E+07        -0.70926E+07         0.00000E+00
    0.00000E+00         0.00000E+00         0.00000E+00
 
    0.13879E+07         0.21341E+07         0.00000E+00
    0.21341E+07        -0.70841E+07         0.00000E+00
    0.00000E+00         0.00000E+00         0.00000E+00
 
    0.13383E+07         0.22247E+07         0.00000E+00
    0.22247E+07        -0.70750E+07         0.00000E+00
    0.00000E+00         0.00000E+00         0.00000E+00
 
    0.12888E+07         0.23151E+07         0.00000E+00
    0.23151E+07        -0.70655E+07         0.00000E+00
    0.00000E+00         0.00000E+00         0.00000E+00
 
    0.12394E+07         0.24053E+07         0.00000E+00
    0.24053E+07        -0.70556E+07         0.00000E+00
    0.00000E+00         0.00000E+00         0.00000E+00
 
    0.11900E+07         0.24954E+07         0.00000E+00
    0.24954E+07        -0.70452E+07         0.00000E+00
    0.00000E+00         0.00000E+00         0.00000E+00
 
    0.11406E+07         0.25853E+07         0.00000E+00
    0.25853E+07        -0.70343E+07         0.00000E+00
    0.00000E+00         0.00000E+00         0.00000E+00
 
    0.10913E+07         0.26752E+07         0.00000E+00
    0.26752E+07        -0.70228E+07         0.00000E+00
    0.00000E+00         0.00000E+00         0.00000E+00
 
    0.10420E+07         0.27649E+07         0.00000E+00
    0.27649E+07        -0.70109E+07         0.00000E+00
    0.00000E+00         0.00000E+00         0.00000E+00
 
    0.99271E+06         0.28546E+07         0.00000E+00
    0.28546E+07        -0.69984E+07         0.00000E+00
    0.00000E+00         0.00000E+00         0.00000E+00
 
    0.94338E+06         0.29442E+07         0.00000E+00
    0.29442E+07        -0.69854E+07         0.00000E+00
    0.00000E+00         0.00000E+00         0.00000E+00
 
    0.89401E+06         0.30337E+07         0.00000E+00
    0.30337E+07        -0.69718E+07         0.00000E+00
    0.00000E+00         0.00000E+00         0.00000E+00
 
    0.84458E+06         0.31233E+07         0.00000E+00
    0.31233E+07        -0.69577E+07         0.00000E+00
    0.00000E+00         0.00000E+00         0.00000E+00
 
    0.79508E+06         0.32128E+07         0.00000E+00
    0.32128E+07        -0.69429E+07         0.00000E+00
    0.00000E+00         0.00000E+00         0.00000E+00
 
    0.74549E+06         0.33023E+07         0.00000E+00
    0.33023E+07        -0.69275E+07         0.00000E+00
    0.00000E+00         0.00000E+00         0.00000E+00
 
    0.69577E+06         0.33918E+07         0.00000E+00
    0.33918E+07        -0.69115E+07         0.00000E+00
    0.00000E+00         0.00000E+00         0.00000E+00
 
    0.64591E+06         0.34813E+07         0.00000E+00
    0.34813E+07        -0.68949E+07         0.00000E+00
    0.00000E+00         0.00000E+00         0.00000E+00
 
    0.59589E+06         0.35708E+07         0.00000E+00
    0.35708E+07        -0.68776E+07         0.00000E+00
    0.00000E+00         0.00000E+00         0.00000E+00
 
    0.54567E+06         0.36604E+07         0.00000E+00
    0.36604E+07        -0.68595E+07         0.00000E+00
    0.00000E+00         0.00000E+00         0.00000E+00
 
    0.49524E+06         0.37501E+07         0.00000E+00
    0.37501E+07        -0.68408E+07         0.00000E+00
    0.00000E+00         0.00000E+00         0.00000E+00
 
    0.44457E+06         0.38398E+07         0.00000E+00
    0.38398E+07        -0.68214E+07         0.00000E+00
    0.00000E+00         0.00000E+00         0.00000E+00
 
    0.39362E+06         0.39296E+07         0.00000E+00
    0.39296E+07        -0.68012E+07         0.00000E+00
    0.00000E+00         0.00000E+00         0.00000E+00
 
    0.34238E+06         0.40195E+07         0.00000E+00
    0.40195E+07        -0.67802E+07         0.00000E+00
    0.00000E+00         0.00000E+00         0.00000E+00
 
    0.29081E+06         0.41095E+07         0.00000E+00
    0.41095E+07        -0.67584E+07         0.00000E+00
    0.00000E+00         0.00000E+00         0.00000E+00
 
    0.23888E+06         0.41995E+07         0.00000E+00
    0.41995E+07        -0.67358E+07         0.00000E+00
    0.00000E+00         0.00000E+00         0.00000E+00
 
    0.18657E+06         0.42897E+07         0.00000E+00
    0.42897E+07        -0.67123E+07         0.00000E+00
    0.00000E+00         0.00000E+00         0.00000E+00
 
    0.13383E+06         0.43800E+07         0.00000E+00
    0.43800E+07        -0.66880E+07         0.00000E+00
    0.00000E+00         0.00000E+00         0.00000E+00
 
    0.80639E+05         0.44704E+07         0.00000E+00
    0.44704E+07        -0.66628E+07         0.00000E+00
    0.00000E+00         0.00000E+00         0.00000E+00
 
    0.26964E+05         0.45608E+07         0.00000E+00
    0.45608E+07        -0.66367E+07         0.00000E+00
    0.00000E+00         0.00000E+00         0.00000E+00
 
    0.25519E+07         0.52135E+05         0.00000E+00
    0.52135E+05        -0.76425E+07         0.00000E+00
    0.00000E+00         0.00000E+00         0.00000E+00
 
    0.24968E+07         0.15439E+06         0.00000E+00
    0.15439E+06        -0.76421E+07         0.00000E+00
    0.00000E+00         0.00000E+00         0.00000E+00
 
    0.24418E+07         0.25593E+06         0.00000E+00
    0.25593E+06        -0.76414E+07         0.00000E+00
    0.00000E+00         0.00000E+00         0.00000E+00
 
    0.23869E+07         0.35681E+06         0.00000E+00
    0.35681E+06        -0.76403E+07         0.00000E+00
    0.00000E+00         0.00000E+00         0.00000E+00
 
    0.23323E+07         0.45703E+06         0.00000E+00
    0.45703E+06        -0.76389E+07         0.00000E+00
    0.00000E+00         0.00000E+00         0.00000E+00
 
    0.22777E+07         0.55662E+06         0.00000E+00
    0.55662E+06        -0.76371E+07         0.00000E+00
    0.00000E+00         0.00000E+00         0.00000E+00
 
    0.22234E+07         0.65562E+06         0.00000E+00
    0.65562E+06        -0.76350E+07         0.00000E+00
    0.00000E+00         0.00000E+00         0.00000E+00
 
    0.21693E+07         0.75405E+06         0.00000E+00
    0.75405E+06        -0.76326E+07         0.00000E+00
    0.00000E+00         0.00000E+00         0.00000E+00
 
    0.21154E+07         0.85193E+06         0.00000E+00
    0.85193E+06        -0.76298E+07         0.00000E+00
    0.00000E+00         0.00000E+00         0.00000E+00
 
    0.20616E+07         0.94929E+06         0.00000E+00
    0.94929E+06        -0.76267E+07         0.00000E+00
    0.00000E+00         0.00000E+00         0.00000E+00
 
    0.20082E+07         0.10462E+07         0.00000E+00
    0.10462E+07        -0.76233E+07         0.00000E+00
    0.00000E+00         0.00000E+00         0.00000E+00
 
    0.19549E+07         0.11426E+07         0.00000E+00
    0.11426E+07        -0.76195E+07         0.00000E+00
    0.00000E+00         0.00000E+00         0.00000E+00
 
    0.19019E+07         0.12385E+07         0.00000E+00
    0.12385E+07        -0.76154E+07         0.00000E+00
    0.00000E+00         0.00000E+00         0.00000E+00
 
    0.18491E+07         0.13341E+07         0.00000E+00
    0.13341E+07        -0.76109E+07         0.00000E+00
    0.00000E+00         0.00000E+00         0.00000E+00
 
    0.17965E+07         0.14292E+07         0.00000E+00
    0.14292E+07        -0.76061E+07         0.00000E+00
    0.00000E+00         0.00000E+00         0.00000E+00
 
    0.17442E+07         0.15240E+07         0.00000E+00
    0.15240E+07        -0.76010E+07         0.00000E+00
    0.00000E+00         0.00000E+00         0.00000E+00
 
    0.16921E+07         0.16185E+07         0.00000E+00
    0.16185E+07        -0.75954E+07         0.00000E+00
    0.00000E+00         0.00000E+00         0.00000E+00
 
    0.16403E+07         0.17127E+07         0.00000E+00
    0.17127E+07        -0.75896E+07         0.00000E+00
    0.00000E+00         0.00000E+00         0.00000E+00
 
    0.15887E+07         0.18065E+07         0.00000E+00
    0.18065E+07        -0.75833E+07         0.00000E+00
    0.00000E+00         0.00000E+00         0.00000E+00
 
    0.15373E+07         0.19001E+07         0.00000E+00
    0.19001E+07        -0.75767E+07         0.00000E+00
    0.00000E+00         0.00000E+00         0.00000E+00
 
    0.14861E+07         0.19935E+07         0.00000E+00
    0.19935E+07        -0.75697E+07         0.00000E+00
    0.00000E+00         0.00000E+00         0.00000E+00
 
    0.14351E+07         0.20867E+07         0.00000E+00
    0.20867E+07        -0.75622E+07         0.00000E+00
    0.00000E+00         0.00000E+00         0.00000E+00
 
    0.13844E+07         0.21797E+07         0.00000E+00
    0.21797E+07        -0.75544E+07         0.00000E+00
    0.00000E+00         0.00000E+00         0.00000E+00
 
    0.13338E+07         0.22725E+07         0.00000E+00
    0.22725E+07        -0.75461E+07         0.00000E+00
    0.00000E+00         0.00000E+00         0.00000E+00
 
    0.12834E+07         0.23652E+07         0.00000E+00
    0.23652E+07        -0.75374E+07         0.00000E+00
    0.00000E+00         0.00000E+00         0.00000E+00
 
    0.12332E+07         0.24577E+07         0.00000E+00
    0.24577E+07        -0.75283E+07         0.00000E+00
    0.00000E+00         0.00000E+00         0.00000E+00
 
    0.11832E+07         0.25502E+07         0.00000E+00
    0.25502E+07        -0.75187E+07         0.00000E+00
    0.00000E+00         0.00000E+00         0.00000E+00
 
    0.11332E+07         0.26426E+07         0.00000E+00
    0.26426E+07        -0.75086E+07         0.00000E+00
    0.00000E+00         0.00000E+00         0.00000E+00
 
    0.10834E+07         0.27349E+07         0.00000E+00
    0.27349E+07        -0.74980E+07         0.00000E+00
    0.00000E+00         0.00000E+00         0.00000E+00
 
    0.10338E+07         0.28272E+07         0.00000E+00
    0.28272E+07        -0.74870E+07         0.00000E+00
    0.00000E+00         0.00000E+00         0.00000E+00
 
    0.98417E+06         0.29195E+07         0.00000E+00
    0.29195E+07        -0.74754E+07         0.00000E+00
    0.00000E+00         0.00000E+00         0.00000E+00
 
    0.93464E+06         0.30119E+07         0.00000E+00
    0.30119E+07        -0.74632E+07         0.00000E+00
    0.00000E+00         0.00000E+00         0.00000E+00
 
    0.88517E+06         0.31042E+07         0.00000E+00
    0.31042E+07        -0.74505E+07         0.00000E+00
    0.00000E+00         0.00000E+00         0.00000E+00
 
    0.83572E+06         0.31966E+07         0.00000E+00
    0.31966E+07        -0.74372E+07         0.00000E+00
    0.00000E+00         0.00000E+00         0.00000E+00
 
    0.78628E+06         0.32890E+07         0.00000E+00
    0.32890E+07        -0.74233E+07         0.00000E+00
    0.00000E+00         0.00000E+00         0.00000E+00
 
    0.73682E+06         0.33815E+07         0.00000E+00
    0.33815E+07        -0.74088E+07         0.00000E+00
    0.00000E+00         0.00000E+00         0.00000E+00
 
    0.68732E+06         0.34742E+07         0.00000E+00
    0.34742E+07        -0.73937E+07         0.00000E+00
    0.00000E+00         0.00000E+00         0.00000E+00
 
    0.63775E+06         0.35669E+07         0.00000E+00
    0.35669E+07        -0.73778E+07         0.00000E+00
    0.00000E+00         0.00000E+00         0.00000E+00
 
    0.58808E+06         0.36597E+07         0.00000E+00
    0.36597E+07        -0.73614E+07         0.00000E+00
    0.00000E+00         0.00000E+00         0.00000E+00
 
    0.53828E+06         0.37527E+07         0.00000E+00
    0.37527E+07        -0.73442E+07         0.00000E+00
    0.00000E+00         0.00000E+00         0.00000E+00
 
    0.48834E+06         0.38459E+07         0.00000E+00
    0.38459E+07        -0.73262E+07         0.00000E+00
    0.00000E+00         0.00000E+00         0.00000E+00
 
    0.43820E+06         0.39392E+07         0.00000E+00
    0.39392E+07        -0.73075E+07         0.00000E+00
    0.00000E+00         0.00000E+00         0.00000E+00
 
    0.38786E+06         0.40327E+07         0.00000E+00
    0.40327E+07        -0.72881E+07         0.00000E+00
    0.00000E+00         0.00000E+00         0.00000E+00
 
    0.33726E+06         0.41264E+07         0.00000E+00
    0.41264E+07        -0.72678E+07         0.00000E+00
    0.00000E+00         0.00000E+00         0.00000E+00
 
    0.28638E+06         0.42203E+07         0.00000E+00
    0.42203E+07        -0.72467E+07         0.00000E+00
    0.00000E+00         0.00000E+00         0.00000E+00
 
    0.23519E+06         0.43144E+07         0.00000E+00
    0.43144E+07        -0.72248E+07         0.00000E+00
    0.00000E+00         0.00000E+00         0.00000E+00
 
    0.18364E+06         0.44087E+07         0.00000E+00
    0.44087E+07        -0.72020E+07         0.00000E+00
    0.00000E+00         0.00000E+00         0.00000E+00
 
    0.13171E+06         0.45032E+07         0.00000E+00
    0.45032E+07        -0.71782E+07         0.00000E+00
    0.00000E+00         0.00000E+00         0.00000E+00
 
    0.79352E+05         0.45979E+07         0.00000E+00
    0.45979E+07        -0.71535E+07         0.00000E+00
    0.00000E+00         0.00000E+00         0.00000E+00
 
    0.26531E+05         0.46929E+07         0.00000E+00
    0.46929E+07        -0.71279E+07         0.00000E+00
    0.00000E+00         0.00000E+00         0.00000E+00
 
    0.25854E+07         0.53194E+05         0.00000E+00
    0.53194E+05        -0.81272E+07         0.00000E+00
    0.00000E+00         0.00000E+00         0.00000E+00
 
    0.25265E+07         0.15742E+06         0.00000E+00
    0.15742E+06        -0.81269E+07         0.00000E+00
    0.00000E+00         0.00000E+00         0.00000E+00
 
    0.24680E+07         0.26090E+06         0.00000E+00
    0.26090E+06        -0.81262E+07         0.00000E+00
    0.00000E+00         0.00000E+00         0.00000E+00
 
    0.24097E+07         0.36366E+06         0.00000E+00
    0.36366E+06        -0.81253E+07         0.00000E+00
    0.00000E+00         0.00000E+00         0.00000E+00
 
    0.23517E+07         0.46574E+06         0.00000E+00
    0.46574E+06        -0.81241E+07         0.00000E+00
    0.00000E+00         0.00000E+00         0.00000E+00
 
    0.22940E+07         0.56716E+06         0.00000E+00
    0.56716E+06        -0.81226E+07         0.00000E+00
    0.00000E+00         0.00000E+00         0.00000E+00
 
    0.22367E+07         0.66796E+06         0.00000E+00
    0.66796E+06        -0.81208E+07         0.00000E+00
    0.00000E+00         0.00000E+00         0.00000E+00
 
    0.21796E+07         0.76816E+06         0.00000E+00
    0.76816E+06        -0.81187E+07         0.00000E+00
    0.00000E+00         0.00000E+00         0.00000E+00
 
    0.21230E+07         0.86781E+06         0.00000E+00
    0.86781E+06        -0.81163E+07         0.00000E+00
    0.00000E+00         0.00000E+00         0.00000E+00
 
    0.20666E+07         0.96693E+06         0.00000E+00
    0.96693E+06        -0.81137E+07         0.00000E+00
    0.00000E+00         0.00000E+00         0.00000E+00
 
    0.20107E+07         0.10655E+07         0.00000E+00
    0.10655E+07        -0.81107E+07         0.00000E+00
    0.00000E+00         0.00000E+00         0.00000E+00
 
    0.19551E+07         0.11637E+07         0.00000E+00
    0.11637E+07        -0.81075E+07         0.00000E+00
    0.00000E+00         0.00000E+00         0.00000E+00
 
    0.18998E+07         0.12614E+07         0.00000E+00
    0.12614E+07        -0.81040E+07         0.00000E+00
    0.00000E+00         0.00000E+00         0.00000E+00
 
    0.18450E+07         0.13587E+07         0.00000E+00
    0.13587E+07        -0.81001E+07         0.00000E+00
    0.00000E+00         0.00000E+00         0.00000E+00
 
    0.17905E+07         0.14557E+07         0.00000E+00
    0.14557E+07        -0.80960E+07         0.00000E+00
    0.00000E+00         0.00000E+00         0.00000E+00
 
    0.17364E+07         0.15523E+07         0.00000E+00
    0.15523E+07        -0.80916E+07         0.00000E+00
    0.00000E+00         0.00000E+00         0.00000E+00
 
    0.16827E+07         0.16486E+07         0.00000E+00
    0.16486E+07        -0.80868E+07         0.00000E+00
    0.00000E+00         0.00000E+00         0.00000E+00
 
    0.16293E+07         0.17446E+07         0.00000E+00
    0.17446E+07        -0.80818E+07         0.00000E+00
    0.00000E+00         0.00000E+00         0.00000E+00
 
    0.15764E+07         0.18404E+07         0.00000E+00
    0.18404E+07        -0.80763E+07         0.00000E+00
    0.00000E+00         0.00000E+00         0.00000E+00
 
    0.15237E+07         0.19359E+07         0.00000E+00
    0.19359E+07        -0.80706E+07         0.00000E+00
    0.00000E+00         0.00000E+00         0.00000E+00
 
    0.14714E+07         0.20312E+07         0.00000E+00
    0.20312E+07        -0.80645E+07         0.00000E+00
    0.00000E+00         0.00000E+00         0.00000E+00
 
    0.14195E+07         0.21264E+07         0.00000E+00
    0.21264E+07        -0.80580E+07         0.00000E+00
    0.00000E+00         0.00000E+00         0.00000E+00
 
    0.13679E+07         0.22214E+07         0.00000E+00
    0.22214E+07        -0.80511E+07         0.00000E+00
    0.00000E+00         0.00000E+00         0.00000E+00
 
    0.13166E+07         0.23164E+07         0.00000E+00
    0.23164E+07        -0.80439E+07         0.00000E+00
    0.00000E+00         0.00000E+00         0.00000E+00
 
    0.12656E+07         0.24112E+07         0.00000E+00
    0.24112E+07        -0.80362E+07         0.00000E+00
    0.00000E+00         0.00000E+00         0.00000E+00
 
    0.12149E+07         0.25060E+07         0.00000E+00
    0.25060E+07        -0.80281E+07         0.00000E+00
    0.00000E+00         0.00000E+00         0.00000E+00
 
    0.11645E+07         0.26008E+07         0.00000E+00
    0.26008E+07        -0.80196E+07         0.00000E+00
    0.00000E+00         0.00000E+00         0.00000E+00
 
    0.11143E+07         0.26955E+07         0.00000E+00
    0.26955E+07        -0.80106E+07         0.00000E+00
    0.00000E+00         0.00000E+00         0.00000E+00
 
    0.10644E+07         0.27903E+07         0.00000E+00
    0.27903E+07        -0.80011E+07         0.00000E+00
    0.00000E+00         0.00000E+00         0.00000E+00
 
    0.10147E+07         0.28851E+07         0.00000E+00
    0.28851E+07        -0.79911E+07         0.00000E+00
    0.00000E+00         0.00000E+00         0.00000E+00
 
    0.96521E+06         0.29800E+07         0.00000E+00
    0.29800E+07        -0.79806E+07         0.00000E+00
    0.00000E+00         0.00000E+00         0.00000E+00
 
    0.91589E+06         0.30750E+07         0.00000E+00
    0.30750E+07        -0.79696E+07         0.00000E+00
    0.00000E+00         0.00000E+00         0.00000E+00
 
    0.86672E+06         0.31701E+07         0.00000E+00
    0.31701E+07        -0.79581E+07         0.00000E+00
    0.00000E+00         0.00000E+00         0.00000E+00
 
    0.81767E+06         0.32653E+07         0.00000E+00
    0.32653E+07        -0.79459E+07         0.00000E+00
    0.00000E+00         0.00000E+00         0.00000E+00
 
    0.76874E+06         0.33607E+07         0.00000E+00
    0.33607E+07        -0.79332E+07         0.00000E+00
    0.00000E+00         0.00000E+00         0.00000E+00
 
    0.71987E+06         0.34562E+07         0.00000E+00
    0.34562E+07        -0.79198E+07         0.00000E+00
    0.00000E+00         0.00000E+00         0.00000E+00
 
    0.67106E+06         0.35520E+07         0.00000E+00
    0.35520E+07        -0.79058E+07         0.00000E+00
    0.00000E+00         0.00000E+00         0.00000E+00
 
    0.62226E+06         0.36479E+07         0.00000E+00
    0.36479E+07        -0.78912E+07         0.00000E+00
    0.00000E+00         0.00000E+00         0.00000E+00
 
    0.57345E+06         0.37441E+07         0.00000E+00
    0.37441E+07        -0.78758E+07         0.00000E+00
    0.00000E+00         0.00000E+00         0.00000E+00
 
    0.52460E+06         0.38406E+07         0.00000E+00
    0.38406E+07        -0.78597E+07         0.00000E+00
    0.00000E+00         0.00000E+00         0.00000E+00
 
    0.47567E+06         0.39373E+07         0.00000E+00
    0.39373E+07        -0.78429E+07         0.00000E+00
    0.00000E+00         0.00000E+00         0.00000E+00
 
    0.42663E+06         0.40343E+07         0.00000E+00
    0.40343E+07        -0.78253E+07         0.00000E+00
    0.00000E+00         0.00000E+00         0.00000E+00
 
    0.37744E+06         0.41316E+07         0.00000E+00
    0.41316E+07        -0.78069E+07         0.00000E+00
    0.00000E+00         0.00000E+00         0.00000E+00
 
    0.32806E+06         0.42292E+07         0.00000E+00
    0.42292E+07        -0.77877E+07         0.00000E+00
    0.00000E+00         0.00000E+00         0.00000E+00
 
    0.27847E+06         0.43271E+07         0.00000E+00
    0.43271E+07        -0.77676E+07         0.00000E+00
    0.00000E+00         0.00000E+00         0.00000E+00
 
    0.22861E+06         0.44253E+07         0.00000E+00
    0.44253E+07        -0.77467E+07         0.00000E+00
    0.00000E+00         0.00000E+00         0.00000E+00
 
    0.17846E+06         0.45239E+07         0.00000E+00
    0.45239E+07        -0.77248E+07         0.00000E+00
    0.00000E+00         0.00000E+00         0.00000E+00
 
    0.12796E+06         0.46229E+07         0.00000E+00
    0.46229E+07        -0.77020E+07         0.00000E+00
    0.00000E+00         0.00000E+00         0.00000E+00
 
    0.77078E+05         0.47222E+07         0.00000E+00
    0.47222E+07        -0.76781E+07         0.00000E+00
    0.00000E+00         0.00000E+00         0.00000E+00
 
    0.25768E+05         0.48219E+07         0.00000E+00
    0.48219E+07        -0.76533E+07         0.00000E+00
    0.00000E+00         0.00000E+00         0.00000E+00
 
    0.26034E+07         0.54147E+05         0.00000E+00
    0.54147E+05        -0.86368E+07         0.00000E+00
    0.00000E+00         0.00000E+00         0.00000E+00
 
    0.25406E+07         0.16011E+06         0.00000E+00
    0.16011E+06        -0.86365E+07         0.00000E+00
    0.00000E+00         0.00000E+00         0.00000E+00
 
    0.24783E+07         0.26528E+06         0.00000E+00
    0.26528E+06        -0.86360E+07         0.00000E+00
    0.00000E+00         0.00000E+00         0.00000E+00
 
    0.24164E+07         0.36969E+06         0.00000E+00
    0.36969E+06        -0.86353E+07         0.00000E+00
    0.00000E+00         0.00000E+00         0.00000E+00
 
    0.23549E+07         0.47338E+06         0.00000E+00
    0.47338E+06        -0.86343E+07         0.00000E+00
    0.00000E+00         0.00000E+00         0.00000E+00
 
    0.22939E+07         0.57637E+06         0.00000E+00
    0.57637E+06        -0.86331E+07         0.00000E+00
    0.00000E+00         0.00000E+00         0.00000E+00
 
    0.22334E+07         0.67872E+06         0.00000E+00
    0.67872E+06        -0.86317E+07         0.00000E+00
    0.00000E+00         0.00000E+00         0.00000E+00
 
    0.21734E+07         0.78046E+06         0.00000E+00
    0.78046E+06        -0.86301E+07         0.00000E+00
    0.00000E+00         0.00000E+00         0.00000E+00
 
    0.21139E+07         0.88162E+06         0.00000E+00
    0.88162E+06        -0.86282E+07         0.00000E+00
    0.00000E+00         0.00000E+00         0.00000E+00
 
    0.20549E+07         0.98224E+06         0.00000E+00
    0.98224E+06        -0.86261E+07         0.00000E+00
    0.00000E+00         0.00000E+00         0.00000E+00
 
    0.19965E+07         0.10824E+07         0.00000E+00
    0.10824E+07        -0.86238E+07         0.00000E+00
    0.00000E+00         0.00000E+00         0.00000E+00
 
    0.19386E+07         0.11820E+07         0.00000E+00
    0.11820E+07        -0.86213E+07         0.00000E+00
    0.00000E+00         0.00000E+00         0.00000E+00
 
    0.18812E+07         0.12813E+07         0.00000E+00
    0.12813E+07        -0.86185E+07         0.00000E+00
    0.00000E+00         0.00000E+00         0.00000E+00
 
    0.18244E+07         0.13801E+07         0.00000E+00
    0.13801E+07        -0.86155E+07         0.00000E+00
    0.00000E+00         0.00000E+00         0.00000E+00
 
    0.17681E+07         0.14786E+07         0.00000E+00
    0.14786E+07        -0.86123E+07         0.00000E+00
    0.00000E+00         0.00000E+00         0.00000E+00
 
    0.17123E+07         0.15768E+07         0.00000E+00
    0.15768E+07        -0.86087E+07         0.00000E+00
    0.00000E+00         0.00000E+00         0.00000E+00
 
    0.16571E+07         0.16747E+07         0.00000E+00
    0.16747E+07        -0.86050E+07         0.00000E+00
    0.00000E+00         0.00000E+00         0.00000E+00
 
    0.16024E+07         0.17724E+07         0.00000E+00
    0.17724E+07        -0.86009E+07         0.00000E+00
    0.00000E+00         0.00000E+00         0.00000E+00
 
    0.15483E+07         0.18698E+07         0.00000E+00
    0.18698E+07        -0.85966E+07         0.00000E+00
    0.00000E+00         0.00000E+00         0.00000E+00
 
    0.14946E+07         0.19671E+07         0.00000E+00
    0.19671E+07        -0.85919E+07         0.00000E+00
    0.00000E+00         0.00000E+00         0.00000E+00
 
    0.14414E+07         0.20642E+07         0.00000E+00
    0.20642E+07        -0.85869E+07         0.00000E+00
    0.00000E+00         0.00000E+00         0.00000E+00
 
    0.13888E+07         0.21613E+07         0.00000E+00
    0.21613E+07        -0.85816E+07         0.00000E+00
    0.00000E+00         0.00000E+00         0.00000E+00
 
    0.13366E+07         0.22582E+07         0.00000E+00
    0.22582E+07        -0.85760E+07         0.00000E+00
    0.00000E+00         0.00000E+00         0.00000E+00
 
    0.12849E+07         0.23551E+07         0.00000E+00
    0.23551E+07        -0.85700E+07         0.00000E+00
    0.00000E+00         0.00000E+00         0.00000E+00
 
    0.12336E+07         0.24520E+07         0.00000E+00
    0.24520E+07        -0.85636E+07         0.00000E+00
    0.00000E+00         0.00000E+00         0.00000E+00
 
    0.11828E+07         0.25488E+07         0.00000E+00
    0.25488E+07        -0.85569E+07         0.00000E+00
    0.00000E+00         0.00000E+00         0.00000E+00
 
    0.11324E+07         0.26458E+07         0.00000E+00
    0.26458E+07        -0.85497E+07         0.00000E+00
    0.00000E+00         0.00000E+00         0.00000E+00
 
    0.10823E+07         0.27428E+07         0.00000E+00
    0.27428E+07        -0.85420E+07         0.00000E+00
    0.00000E+00         0.00000E+00         0.00000E+00
 
    0.10327E+07         0.28399E+07         0.00000E+00
    0.28399E+07        -0.85340E+07         0.00000E+00
    0.00000E+00         0.00000E+00         0.00000E+00
 
    0.98339E+06         0.29371E+07         0.00000E+00
    0.29371E+07        -0.85254E+07         0.00000E+00
    0.00000E+00         0.00000E+00         0.00000E+00
 
    0.93441E+06         0.30345E+07         0.00000E+00
    0.30345E+07        -0.85164E+07         0.00000E+00
    0.00000E+00         0.00000E+00         0.00000E+00
 
    0.88574E+06         0.31321E+07         0.00000E+00
    0.31321E+07        -0.85068E+07         0.00000E+00
    0.00000E+00         0.00000E+00         0.00000E+00
 
    0.83734E+06         0.32299E+07         0.00000E+00
    0.32299E+07        -0.84967E+07         0.00000E+00
    0.00000E+00         0.00000E+00         0.00000E+00
 
    0.78919E+06         0.33279E+07         0.00000E+00
    0.33279E+07        -0.84860E+07         0.00000E+00
    0.00000E+00         0.00000E+00         0.00000E+00
 
    0.74125E+06         0.34262E+07         0.00000E+00
    0.34262E+07        -0.84748E+07         0.00000E+00
    0.00000E+00         0.00000E+00         0.00000E+00
 
    0.69351E+06         0.35248E+07         0.00000E+00
    0.35248E+07        -0.84629E+07         0.00000E+00
    0.00000E+00         0.00000E+00         0.00000E+00
 
    0.64592E+06         0.36236E+07         0.00000E+00
    0.36236E+07        -0.84504E+07         0.00000E+00
    0.00000E+00         0.00000E+00         0.00000E+00
 
    0.59845E+06         0.37228E+07         0.00000E+00
    0.37228E+07        -0.84372E+07         0.00000E+00
    0.00000E+00         0.00000E+00         0.00000E+00
 
    0.55107E+06         0.38224E+07         0.00000E+00
    0.38224E+07        -0.84233E+07         0.00000E+00
    0.00000E+00         0.00000E+00         0.00000E+00
 
    0.50375E+06         0.39223E+07         0.00000E+00
    0.39223E+07        -0.84087E+07         0.00000E+00
    0.00000E+00         0.00000E+00         0.00000E+00
 
    0.45644E+06         0.40226E+07         0.00000E+00
    0.40226E+07        -0.83933E+07         0.00000E+00
    0.00000E+00         0.00000E+00         0.00000E+00
 
    0.40911E+06         0.41234E+07         0.00000E+00
    0.41234E+07        -0.83772E+07         0.00000E+00
    0.00000E+00         0.00000E+00         0.00000E+00
 
    0.36172E+06         0.42245E+07         0.00000E+00
    0.42245E+07        -0.83602E+07         0.00000E+00
    0.00000E+00         0.00000E+00         0.00000E+00
 
    0.31423E+06         0.43261E+07         0.00000E+00
    0.43261E+07        -0.83424E+07         0.00000E+00
    0.00000E+00         0.00000E+00         0.00000E+00
 
    0.26659E+06         0.44282E+07         0.00000E+00
    0.44282E+07        -0.83237E+07         0.00000E+00
    0.00000E+00         0.00000E+00         0.00000E+00
 
    0.21876E+06         0.45307E+07         0.00000E+00
    0.45307E+07        -0.83041E+07         0.00000E+00
    0.00000E+00         0.00000E+00         0.00000E+00
 
    0.17070E+06         0.46338E+07         0.00000E+00
    0.46338E+07        -0.82835E+07         0.00000E+00
    0.00000E+00         0.00000E+00         0.00000E+00
 
    0.12235E+06         0.47373E+07         0.00000E+00
    0.47373E+07        -0.82620E+07         0.00000E+00
    0.00000E+00         0.00000E+00         0.00000E+00
 
    0.73679E+05         0.48414E+07         0.00000E+00
    0.48414E+07        -0.82394E+07         0.00000E+00
    0.00000E+00         0.00000E+00         0.00000E+00
 
    0.24627E+05         0.49460E+07         0.00000E+00
    0.49460E+07        -0.82158E+07         0.00000E+00
    0.00000E+00         0.00000E+00         0.00000E+00
 
    0.26035E+07         0.54955E+05         0.00000E+00
    0.54955E+05        -0.91725E+07         0.00000E+00
    0.00000E+00         0.00000E+00         0.00000E+00
 
    0.25365E+07         0.16235E+06         0.00000E+00
    0.16235E+06        -0.91723E+07         0.00000E+00
    0.00000E+00         0.00000E+00         0.00000E+00
 
    0.24701E+07         0.26889E+06         0.00000E+00
    0.26889E+06        -0.91719E+07         0.00000E+00
    0.00000E+00         0.00000E+00         0.00000E+00
 
    0.24043E+07         0.37461E+06         0.00000E+00
    0.37461E+06        -0.91715E+07         0.00000E+00
    0.00000E+00         0.00000E+00         0.00000E+00
 
    0.23392E+07         0.47957E+06         0.00000E+00
    0.47957E+06        -0.91708E+07         0.00000E+00
    0.00000E+00         0.00000E+00         0.00000E+00
 
    0.22747E+07         0.58381E+06         0.00000E+00
    0.58381E+06        -0.91700E+07         0.00000E+00
    0.00000E+00         0.00000E+00         0.00000E+00
 
    0.22110E+07         0.68737E+06         0.00000E+00
    0.68737E+06        -0.91691E+07         0.00000E+00
    0.00000E+00         0.00000E+00         0.00000E+00
 
    0.21479E+07         0.79031E+06         0.00000E+00
    0.79031E+06        -0.91681E+07         0.00000E+00
    0.00000E+00         0.00000E+00         0.00000E+00
 
    0.20856E+07         0.89266E+06         0.00000E+00
    0.89266E+06        -0.91669E+07         0.00000E+00
    0.00000E+00         0.00000E+00         0.00000E+00
 
    0.20239E+07         0.99447E+06         0.00000E+00
    0.99447E+06        -0.91655E+07         0.00000E+00
    0.00000E+00         0.00000E+00         0.00000E+00
 
    0.19630E+07         0.10958E+07         0.00000E+00
    0.10958E+07        -0.91640E+07         0.00000E+00
    0.00000E+00         0.00000E+00         0.00000E+00
 
    0.19029E+07         0.11967E+07         0.00000E+00
    0.11967E+07        -0.91624E+07         0.00000E+00
    0.00000E+00         0.00000E+00         0.00000E+00
 
    0.18434E+07         0.12971E+07         0.00000E+00
    0.12971E+07        -0.91606E+07         0.00000E+00
    0.00000E+00         0.00000E+00         0.00000E+00
 
    0.17847E+07         0.13972E+07         0.00000E+00
    0.13972E+07        -0.91586E+07         0.00000E+00
    0.00000E+00         0.00000E+00         0.00000E+00
 
    0.17268E+07         0.14970E+07         0.00000E+00
    0.14970E+07        -0.91564E+07         0.00000E+00
    0.00000E+00         0.00000E+00         0.00000E+00
 
    0.16695E+07         0.15965E+07         0.00000E+00
    0.15965E+07        -0.91541E+07         0.00000E+00
    0.00000E+00         0.00000E+00         0.00000E+00
 
    0.16130E+07         0.16957E+07         0.00000E+00
    0.16957E+07        -0.91515E+07         0.00000E+00
    0.00000E+00         0.00000E+00         0.00000E+00
 
    0.15572E+07         0.17948E+07         0.00000E+00
    0.17948E+07        -0.91487E+07         0.00000E+00
    0.00000E+00         0.00000E+00         0.00000E+00
 
    0.15021E+07         0.18937E+07         0.00000E+00
    0.18937E+07        -0.91457E+07         0.00000E+00
    0.00000E+00         0.00000E+00         0.00000E+00
 
    0.14477E+07         0.19925E+07         0.00000E+00
    0.19925E+07        -0.91425E+07         0.00000E+00
    0.00000E+00         0.00000E+00         0.00000E+00
 
    0.13940E+07         0.20912E+07         0.00000E+00
    0.20912E+07        -0.91389E+07         0.00000E+00
    0.00000E+00         0.00000E+00         0.00000E+00
 
    0.13409E+07         0.21898E+07         0.00000E+00
    0.21898E+07        -0.91351E+07         0.00000E+00
    0.00000E+00         0.00000E+00         0.00000E+00
 
    0.12885E+07         0.22885E+07         0.00000E+00
    0.22885E+07        -0.91310E+07         0.00000E+00
    0.00000E+00         0.00000E+00         0.00000E+00
 
    0.12368E+07         0.23871E+07         0.00000E+00
    0.23871E+07        -0.91266E+07         0.00000E+00
    0.00000E+00         0.00000E+00         0.00000E+00
 
    0.11856E+07         0.24859E+07         0.00000E+00
    0.24859E+07        -0.91218E+07         0.00000E+00
    0.00000E+00         0.00000E+00         0.00000E+00
 
    0.11350E+07         0.25847E+07         0.00000E+00
    0.25847E+07        -0.91167E+07         0.00000E+00
    0.00000E+00         0.00000E+00         0.00000E+00
 
    0.10850E+07         0.26836E+07         0.00000E+00
    0.26836E+07        -0.91112E+07         0.00000E+00
    0.00000E+00         0.00000E+00         0.00000E+00
 
    0.10356E+07         0.27828E+07         0.00000E+00
    0.27828E+07        -0.91052E+07         0.00000E+00
    0.00000E+00         0.00000E+00         0.00000E+00
 
    0.98664E+06         0.28821E+07         0.00000E+00
    0.28821E+07        -0.90989E+07         0.00000E+00
    0.00000E+00         0.00000E+00         0.00000E+00
 
    0.93821E+06         0.29816E+07         0.00000E+00
    0.29816E+07        -0.90921E+07         0.00000E+00
    0.00000E+00         0.00000E+00         0.00000E+00
 
    0.89025E+06         0.30814E+07         0.00000E+00
    0.30814E+07        -0.90848E+07         0.00000E+00
    0.00000E+00         0.00000E+00         0.00000E+00
 
    0.84274E+06         0.31815E+07         0.00000E+00
    0.31815E+07        -0.90771E+07         0.00000E+00
    0.00000E+00         0.00000E+00         0.00000E+00
 
    0.79564E+06         0.32819E+07         0.00000E+00
    0.32819E+07        -0.90688E+07         0.00000E+00
    0.00000E+00         0.00000E+00         0.00000E+00
 
    0.74893E+06         0.33827E+07         0.00000E+00
    0.33827E+07        -0.90599E+07         0.00000E+00
    0.00000E+00         0.00000E+00         0.00000E+00
 
    0.70257E+06         0.34838E+07         0.00000E+00
    0.34838E+07        -0.90505E+07         0.00000E+00
    0.00000E+00         0.00000E+00         0.00000E+00
 
    0.65652E+06         0.35854E+07         0.00000E+00
    0.35854E+07        -0.90405E+07         0.00000E+00
    0.00000E+00         0.00000E+00         0.00000E+00
 
    0.61076E+06         0.36873E+07         0.00000E+00
    0.36873E+07        -0.90298E+07         0.00000E+00
    0.00000E+00         0.00000E+00         0.00000E+00
 
    0.56525E+06         0.37898E+07         0.00000E+00
    0.37898E+07        -0.90185E+07         0.00000E+00
    0.00000E+00         0.00000E+00         0.00000E+00
 
    0.51995E+06         0.38927E+07         0.00000E+00
    0.38927E+07        -0.90065E+07         0.00000E+00
    0.00000E+00         0.00000E+00         0.00000E+00
 
    0.47482E+06         0.39961E+07         0.00000E+00
    0.39961E+07        -0.89937E+07         0.00000E+00
    0.00000E+00         0.00000E+00         0.00000E+00
 
    0.42981E+06         0.41000E+07         0.00000E+00
    0.41000E+07        -0.89802E+07         0.00000E+00
    0.00000E+00         0.00000E+00         0.00000E+00
 
    0.38490E+06         0.42045E+07         0.00000E+00
    0.42045E+07        -0.89659E+07         0.00000E+00
    0.00000E+00         0.00000E+00         0.00000E+00
 
    0.34002E+06         0.43096E+07         0.00000E+00
    0.43096E+07        -0.89507E+07         0.00000E+00
    0.00000E+00         0.00000E+00         0.00000E+00
 
    0.29515E+06         0.44153E+07         0.00000E+00
    0.44153E+07        -0.89347E+07         0.00000E+00
    0.00000E+00         0.00000E+00         0.00000E+00
 
    0.25022E+06         0.45216E+07         0.00000E+00
    0.45216E+07        -0.89178E+07         0.00000E+00
    0.00000E+00         0.00000E+00         0.00000E+00
 
    0.20519E+06         0.46286E+07         0.00000E+00
    0.46286E+07        -0.89000E+07         0.00000E+00
    0.00000E+00         0.00000E+00         0.00000E+00
 
    0.16002E+06         0.47362E+07         0.00000E+00
    0.47362E+07        -0.88812E+07         0.00000E+00
    0.00000E+00         0.00000E+00         0.00000E+00
 
    0.11464E+06         0.48444E+07         0.00000E+00
    0.48444E+07        -0.88613E+07         0.00000E+00
    0.00000E+00         0.00000E+00         0.00000E+00
 
    0.69004E+05         0.49534E+07         0.00000E+00
    0.49534E+07        -0.88405E+07         0.00000E+00
    0.00000E+00         0.00000E+00         0.00000E+00
 
    0.23058E+05         0.50631E+07         0.00000E+00
    0.50631E+07        -0.88185E+07         0.00000E+00
    0.00000E+00         0.00000E+00         0.00000E+00
 
    0.25826E+07         0.55561E+05         0.00000E+00
    0.55561E+05        -0.97354E+07         0.00000E+00
    0.00000E+00         0.00000E+00         0.00000E+00
 
    0.25110E+07         0.16395E+06         0.00000E+00
    0.16395E+06        -0.97353E+07         0.00000E+00
    0.00000E+00         0.00000E+00         0.00000E+00
 
    0.24403E+07         0.27142E+06         0.00000E+00
    0.27142E+06        -0.97352E+07         0.00000E+00
    0.00000E+00         0.00000E+00         0.00000E+00
 
    0.23704E+07         0.37803E+06         0.00000E+00
    0.37803E+06        -0.97350E+07         0.00000E+00
    0.00000E+00         0.00000E+00         0.00000E+00
 
    0.23015E+07         0.48383E+06         0.00000E+00
    0.48383E+06        -0.97348E+07         0.00000E+00
    0.00000E+00         0.00000E+00         0.00000E+00
 
    0.22334E+07         0.58888E+06         0.00000E+00
    0.58888E+06        -0.97346E+07         0.00000E+00
    0.00000E+00         0.00000E+00         0.00000E+00
 
    0.21663E+07         0.69323E+06         0.00000E+00
    0.69323E+06        -0.97343E+07         0.00000E+00
    0.00000E+00         0.00000E+00         0.00000E+00
 
    0.21002E+07         0.79694E+06         0.00000E+00
    0.79694E+06        -0.97340E+07         0.00000E+00
    0.00000E+00         0.00000E+00         0.00000E+00
 
    0.20349E+07         0.90006E+06         0.00000E+00
    0.90006E+06        -0.97336E+07         0.00000E+00
    0.00000E+00         0.00000E+00         0.00000E+00
 
    0.19707E+07         0.10026E+07         0.00000E+00
    0.10026E+07        -0.97332E+07         0.00000E+00
    0.00000E+00         0.00000E+00         0.00000E+00
 
    0.19074E+07         0.11048E+07         0.00000E+00
    0.11048E+07        -0.97327E+07         0.00000E+00
    0.00000E+00         0.00000E+00         0.00000E+00
 
    0.18451E+07         0.12064E+07         0.00000E+00
    0.12064E+07        -0.97322E+07         0.00000E+00
    0.00000E+00         0.00000E+00         0.00000E+00
 
    0.17838E+07         0.13077E+07         0.00000E+00
    0.13077E+07        -0.97316E+07         0.00000E+00
    0.00000E+00         0.00000E+00         0.00000E+00
 
    0.17234E+07         0.14087E+07         0.00000E+00
    0.14087E+07        -0.97309E+07         0.00000E+00
    0.00000E+00         0.00000E+00         0.00000E+00
 
    0.16639E+07         0.15094E+07         0.00000E+00
    0.15094E+07        -0.97302E+07         0.00000E+00
    0.00000E+00         0.00000E+00         0.00000E+00
 
    0.16055E+07         0.16099E+07         0.00000E+00
    0.16099E+07        -0.97293E+07         0.00000E+00
    0.00000E+00         0.00000E+00         0.00000E+00
 
    0.15479E+07         0.17102E+07         0.00000E+00
    0.17102E+07        -0.97282E+07         0.00000E+00
    0.00000E+00         0.00000E+00         0.00000E+00
 
    0.14913E+07         0.18103E+07         0.00000E+00
    0.18103E+07        -0.97270E+07         0.00000E+00
    0.00000E+00         0.00000E+00         0.00000E+00
 
    0.14356E+07         0.19104E+07         0.00000E+00
    0.19104E+07        -0.97257E+07         0.00000E+00
    0.00000E+00         0.00000E+00         0.00000E+00
 
    0.13808E+07         0.20104E+07         0.00000E+00
    0.20104E+07        -0.97242E+07         0.00000E+00
    0.00000E+00         0.00000E+00         0.00000E+00
 
    0.13269E+07         0.21104E+07         0.00000E+00
    0.21104E+07        -0.97224E+07         0.00000E+00
    0.00000E+00         0.00000E+00         0.00000E+00
 
    0.12738E+07         0.22104E+07         0.00000E+00
    0.22104E+07        -0.97204E+07         0.00000E+00
    0.00000E+00         0.00000E+00         0.00000E+00
 
    0.12216E+07         0.23105E+07         0.00000E+00
    0.23105E+07        -0.97182E+07         0.00000E+00
    0.00000E+00         0.00000E+00         0.00000E+00
 
    0.11701E+07         0.24108E+07         0.00000E+00
    0.24108E+07        -0.97157E+07         0.00000E+00
    0.00000E+00         0.00000E+00         0.00000E+00
 
    0.11195E+07         0.25112E+07         0.00000E+00
    0.25112E+07        -0.97129E+07         0.00000E+00
    0.00000E+00         0.00000E+00         0.00000E+00
 
    0.10697E+07         0.26117E+07         0.00000E+00
    0.26117E+07        -0.97098E+07         0.00000E+00
    0.00000E+00         0.00000E+00         0.00000E+00
 
    0.10206E+07         0.27126E+07         0.00000E+00
    0.27126E+07        -0.97064E+07         0.00000E+00
    0.00000E+00         0.00000E+00         0.00000E+00
 
    0.97222E+06         0.28136E+07         0.00000E+00
    0.28136E+07        -0.97025E+07         0.00000E+00
    0.00000E+00         0.00000E+00         0.00000E+00
 
    0.92454E+06         0.29150E+07         0.00000E+00
    0.29150E+07        -0.96983E+07         0.00000E+00
    0.00000E+00         0.00000E+00         0.00000E+00
 
    0.87752E+06         0.30167E+07         0.00000E+00
    0.30167E+07        -0.96937E+07         0.00000E+00
    0.00000E+00         0.00000E+00         0.00000E+00
 
    0.83115E+06         0.31188E+07         0.00000E+00
    0.31188E+07        -0.96886E+07         0.00000E+00
    0.00000E+00         0.00000E+00         0.00000E+00
 
    0.78537E+06         0.32213E+07         0.00000E+00
    0.32213E+07        -0.96830E+07         0.00000E+00
    0.00000E+00         0.00000E+00         0.00000E+00
 
    0.74017E+06         0.33243E+07         0.00000E+00
    0.33243E+07        -0.96769E+07         0.00000E+00
    0.00000E+00         0.00000E+00         0.00000E+00
 
    0.69551E+06         0.34277E+07         0.00000E+00
    0.34277E+07        -0.96703E+07         0.00000E+00
    0.00000E+00         0.00000E+00         0.00000E+00
 
    0.65136E+06         0.35316E+07         0.00000E+00
    0.35316E+07        -0.96631E+07         0.00000E+00
    0.00000E+00         0.00000E+00         0.00000E+00
 
    0.60767E+06         0.36360E+07         0.00000E+00
    0.36360E+07        -0.96554E+07         0.00000E+00
    0.00000E+00         0.00000E+00         0.00000E+00
 
    0.56441E+06         0.37411E+07         0.00000E+00
    0.37411E+07        -0.96470E+07         0.00000E+00
    0.00000E+00         0.00000E+00         0.00000E+00
 
    0.52154E+06         0.38467E+07         0.00000E+00
    0.38467E+07        -0.96379E+07         0.00000E+00
    0.00000E+00         0.00000E+00         0.00000E+00
 
    0.47903E+06         0.39529E+07         0.00000E+00
    0.39529E+07        -0.96282E+07         0.00000E+00
    0.00000E+00         0.00000E+00         0.00000E+00
 
    0.43682E+06         0.40598E+07         0.00000E+00
    0.40598E+07        -0.96177E+07         0.00000E+00
    0.00000E+00         0.00000E+00         0.00000E+00
 
    0.39488E+06         0.41674E+07         0.00000E+00
    0.41674E+07        -0.96065E+07         0.00000E+00
    0.00000E+00         0.00000E+00         0.00000E+00
 
    0.35315E+06         0.42757E+07         0.00000E+00
    0.42757E+07        -0.95944E+07         0.00000E+00
    0.00000E+00         0.00000E+00         0.00000E+00
 
    0.31160E+06         0.43847E+07         0.00000E+00
    0.43847E+07        -0.95816E+07         0.00000E+00
    0.00000E+00         0.00000E+00         0.00000E+00
 
    0.27016E+06         0.44946E+07         0.00000E+00
    0.44946E+07        -0.95678E+07         0.00000E+00
    0.00000E+00         0.00000E+00         0.00000E+00
 
    0.22879E+06         0.46052E+07         0.00000E+00
    0.46052E+07        -0.95532E+07         0.00000E+00
    0.00000E+00         0.00000E+00         0.00000E+00
 
    0.18744E+06         0.47166E+07         0.00000E+00
    0.47166E+07        -0.95376E+07         0.00000E+00
    0.00000E+00         0.00000E+00         0.00000E+00
 
    0.14604E+06         0.48289E+07         0.00000E+00
    0.48289E+07        -0.95210E+07         0.00000E+00
    0.00000E+00         0.00000E+00         0.00000E+00
 
    0.10454E+06         0.49420E+07         0.00000E+00
    0.49420E+07        -0.95033E+07         0.00000E+00
    0.00000E+00         0.00000E+00         0.00000E+00
 
    0.62886E+05         0.50560E+07         0.00000E+00
    0.50560E+07        -0.94846E+07         0.00000E+00
    0.00000E+00         0.00000E+00         0.00000E+00
 
    0.21005E+05         0.51710E+07         0.00000E+00
    0.51710E+07        -0.94647E+07         0.00000E+00
    0.00000E+00         0.00000E+00         0.00000E+00
 
    0.25372E+07         0.55889E+05         0.00000E+00
    0.55889E+05        -0.10327E+08         0.00000E+00
    0.00000E+00         0.00000E+00         0.00000E+00
 
    0.24607E+07         0.16470E+06         0.00000E+00
    0.16470E+06        -0.10327E+08         0.00000E+00
    0.00000E+00         0.00000E+00         0.00000E+00
 
    0.23853E+07         0.27253E+06         0.00000E+00
    0.27253E+06        -0.10327E+08         0.00000E+00
    0.00000E+00         0.00000E+00         0.00000E+00
 
    0.23111E+07         0.37944E+06         0.00000E+00
    0.37944E+06        -0.10327E+08         0.00000E+00
    0.00000E+00         0.00000E+00         0.00000E+00
 
    0.22382E+07         0.48551E+06         0.00000E+00
    0.48551E+06        -0.10327E+08         0.00000E+00
    0.00000E+00         0.00000E+00         0.00000E+00
 
    0.21664E+07         0.59080E+06         0.00000E+00
    0.59080E+06        -0.10328E+08         0.00000E+00
    0.00000E+00         0.00000E+00         0.00000E+00
 
    0.20959E+07         0.69538E+06         0.00000E+00
    0.69538E+06        -0.10328E+08         0.00000E+00
    0.00000E+00         0.00000E+00         0.00000E+00
 
    0.20266E+07         0.79931E+06         0.00000E+00
    0.79931E+06        -0.10329E+08         0.00000E+00
    0.00000E+00         0.00000E+00         0.00000E+00
 
    0.19586E+07         0.90267E+06         0.00000E+00
    0.90267E+06        -0.10330E+08         0.00000E+00
    0.00000E+00         0.00000E+00         0.00000E+00
 
    0.18918E+07         0.10055E+07         0.00000E+00
    0.10055E+07        -0.10331E+08         0.00000E+00
    0.00000E+00         0.00000E+00         0.00000E+00
 
    0.18263E+07         0.11079E+07         0.00000E+00
    0.11079E+07        -0.10331E+08         0.00000E+00
    0.00000E+00         0.00000E+00         0.00000E+00
 
    0.17620E+07         0.12099E+07         0.00000E+00
    0.12099E+07        -0.10332E+08         0.00000E+00
    0.00000E+00         0.00000E+00         0.00000E+00
 
    0.16990E+07         0.13116E+07         0.00000E+00
    0.13116E+07        -0.10333E+08         0.00000E+00
    0.00000E+00         0.00000E+00         0.00000E+00
 
    0.16372E+07         0.14130E+07         0.00000E+00
    0.14130E+07        -0.10334E+08         0.00000E+00
    0.00000E+00         0.00000E+00         0.00000E+00
 
    0.15766E+07         0.15142E+07         0.00000E+00
    0.15142E+07        -0.10335E+08         0.00000E+00
    0.00000E+00         0.00000E+00         0.00000E+00
 
    0.15172E+07         0.16153E+07         0.00000E+00
    0.16153E+07        -0.10336E+08         0.00000E+00
    0.00000E+00         0.00000E+00         0.00000E+00
 
    0.14590E+07         0.17162E+07         0.00000E+00
    0.17162E+07        -0.10337E+08         0.00000E+00
    0.00000E+00         0.00000E+00         0.00000E+00
 
    0.14019E+07         0.18171E+07         0.00000E+00
    0.18171E+07        -0.10338E+08         0.00000E+00
    0.00000E+00         0.00000E+00         0.00000E+00
 
    0.13460E+07         0.19180E+07         0.00000E+00
    0.19180E+07        -0.10339E+08         0.00000E+00
    0.00000E+00         0.00000E+00         0.00000E+00
 
    0.12913E+07         0.20189E+07         0.00000E+00
    0.20189E+07        -0.10339E+08         0.00000E+00
    0.00000E+00         0.00000E+00         0.00000E+00
 
    0.12376E+07         0.21199E+07         0.00000E+00
    0.21199E+07        -0.10340E+08         0.00000E+00
    0.00000E+00         0.00000E+00         0.00000E+00
 
    0.11850E+07         0.22210E+07         0.00000E+00
    0.22210E+07        -0.10340E+08         0.00000E+00
    0.00000E+00         0.00000E+00         0.00000E+00
 
    0.11334E+07         0.23224E+07         0.00000E+00
    0.23224E+07        -0.10340E+08         0.00000E+00
    0.00000E+00         0.00000E+00         0.00000E+00
 
    0.10829E+07         0.24239E+07         0.00000E+00
    0.24239E+07        -0.10340E+08         0.00000E+00
    0.00000E+00         0.00000E+00         0.00000E+00
 
    0.10334E+07         0.25258E+07         0.00000E+00
    0.25258E+07        -0.10339E+08         0.00000E+00
    0.00000E+00         0.00000E+00         0.00000E+00
 
    0.98482E+06         0.26279E+07         0.00000E+00
    0.26279E+07        -0.10339E+08         0.00000E+00
    0.00000E+00         0.00000E+00         0.00000E+00
 
    0.93720E+06         0.27304E+07         0.00000E+00
    0.27304E+07        -0.10338E+08         0.00000E+00
    0.00000E+00         0.00000E+00         0.00000E+00
 
    0.89048E+06         0.28332E+07         0.00000E+00
    0.28332E+07        -0.10337E+08         0.00000E+00
    0.00000E+00         0.00000E+00         0.00000E+00
 
    0.84465E+06         0.29365E+07         0.00000E+00
    0.29365E+07        -0.10335E+08         0.00000E+00
    0.00000E+00         0.00000E+00         0.00000E+00
 
    0.79967E+06         0.30403E+07         0.00000E+00
    0.30403E+07        -0.10333E+08         0.00000E+00
    0.00000E+00         0.00000E+00         0.00000E+00
 
    0.75550E+06         0.31445E+07         0.00000E+00
    0.31445E+07        -0.10330E+08         0.00000E+00
    0.00000E+00         0.00000E+00         0.00000E+00
 
    0.71211E+06         0.32493E+07         0.00000E+00
    0.32493E+07        -0.10327E+08         0.00000E+00
    0.00000E+00         0.00000E+00         0.00000E+00
 
    0.66946E+06         0.33547E+07         0.00000E+00
    0.33547E+07        -0.10324E+08         0.00000E+00
    0.00000E+00         0.00000E+00         0.00000E+00
 
    0.62753E+06         0.34606E+07         0.00000E+00
    0.34606E+07        -0.10320E+08         0.00000E+00
    0.00000E+00         0.00000E+00         0.00000E+00
 
    0.58627E+06         0.35673E+07         0.00000E+00
    0.35673E+07        -0.10316E+08         0.00000E+00
    0.00000E+00         0.00000E+00         0.00000E+00
 
    0.54565E+06         0.36745E+07         0.00000E+00
    0.36745E+07        -0.10311E+08         0.00000E+00
    0.00000E+00         0.00000E+00         0.00000E+00
 
    0.50563E+06         0.37825E+07         0.00000E+00
    0.37825E+07        -0.10305E+08         0.00000E+00
    0.00000E+00         0.00000E+00         0.00000E+00
 
    0.46617E+06         0.38913E+07         0.00000E+00
    0.38913E+07        -0.10299E+08         0.00000E+00
    0.00000E+00         0.00000E+00         0.00000E+00
 
    0.42722E+06         0.40008E+07         0.00000E+00
    0.40008E+07        -0.10292E+08         0.00000E+00
    0.00000E+00         0.00000E+00         0.00000E+00
 
    0.38874E+06         0.41112E+07         0.00000E+00
    0.41112E+07        -0.10284E+08         0.00000E+00
    0.00000E+00         0.00000E+00         0.00000E+00
 
    0.35069E+06         0.42224E+07         0.00000E+00
    0.42224E+07        -0.10275E+08         0.00000E+00
    0.00000E+00         0.00000E+00         0.00000E+00
 
    0.31301E+06         0.43345E+07         0.00000E+00
    0.43345E+07        -0.10266E+08         0.00000E+00
    0.00000E+00         0.00000E+00         0.00000E+00
 
    0.27565E+06         0.44475E+07         0.00000E+00
    0.44475E+07        -0.10256E+08         0.00000E+00
    0.00000E+00         0.00000E+00         0.00000E+00
 
    0.23857E+06         0.45614E+07         0.00000E+00
    0.45614E+07        -0.10245E+08         0.00000E+00
    0.00000E+00         0.00000E+00         0.00000E+00
 
    0.20170E+06         0.46764E+07         0.00000E+00
    0.46764E+07        -0.10233E+08         0.00000E+00
    0.00000E+00         0.00000E+00         0.00000E+00
 
    0.16498E+06         0.47924E+07         0.00000E+00
    0.47924E+07        -0.10220E+08         0.00000E+00
    0.00000E+00         0.00000E+00         0.00000E+00
 
    0.12836E+06         0.49094E+07         0.00000E+00
    0.49094E+07        -0.10207E+08         0.00000E+00
    0.00000E+00         0.00000E+00         0.00000E+00
 
    0.91770E+05         0.50275E+07         0.00000E+00
    0.50275E+07        -0.10192E+08         0.00000E+00
    0.00000E+00         0.00000E+00         0.00000E+00
 
    0.55141E+05         0.51467E+07         0.00000E+00
    0.51467E+07        -0.10176E+08         0.00000E+00
    0.00000E+00         0.00000E+00         0.00000E+00
 
    0.18404E+05         0.52670E+07         0.00000E+00
    0.52670E+07        -0.10158E+08         0.00000E+00
    0.00000E+00         0.00000E+00         0.00000E+00
 
    0.24628E+07         0.55832E+05         0.00000E+00
    0.55832E+05        -0.10947E+08         0.00000E+00
    0.00000E+00         0.00000E+00         0.00000E+00
 
    0.23810E+07         0.16429E+06         0.00000E+00
    0.16429E+06        -0.10948E+08         0.00000E+00
    0.00000E+00         0.00000E+00         0.00000E+00
 
    0.23008E+07         0.27171E+06         0.00000E+00
    0.27171E+06        -0.10948E+08         0.00000E+00
    0.00000E+00         0.00000E+00         0.00000E+00
 
    0.22221E+07         0.37817E+06         0.00000E+00
    0.37817E+06        -0.10949E+08         0.00000E+00
    0.00000E+00         0.00000E+00         0.00000E+00
 
    0.21450E+07         0.48376E+06         0.00000E+00
    0.48376E+06        -0.10950E+08         0.00000E+00
    0.00000E+00         0.00000E+00         0.00000E+00
 
    0.20695E+07         0.58856E+06         0.00000E+00
    0.58856E+06        -0.10951E+08         0.00000E+00
    0.00000E+00         0.00000E+00         0.00000E+00
 
    0.19956E+07         0.69266E+06         0.00000E+00
    0.69266E+06        -0.10953E+08         0.00000E+00
    0.00000E+00         0.00000E+00         0.00000E+00
 
    0.19233E+07         0.79613E+06         0.00000E+00
    0.79613E+06        -0.10955E+08         0.00000E+00
    0.00000E+00         0.00000E+00         0.00000E+00
 
    0.18526E+07         0.89907E+06         0.00000E+00
    0.89907E+06        -0.10957E+08         0.00000E+00
    0.00000E+00         0.00000E+00         0.00000E+00
 
    0.17835E+07         0.10015E+07         0.00000E+00
    0.10015E+07        -0.10959E+08         0.00000E+00
    0.00000E+00         0.00000E+00         0.00000E+00
 
    0.17160E+07         0.11036E+07         0.00000E+00
    0.11036E+07        -0.10962E+08         0.00000E+00
    0.00000E+00         0.00000E+00         0.00000E+00
 
    0.16500E+07         0.12054E+07         0.00000E+00
    0.12054E+07        -0.10964E+08         0.00000E+00
    0.00000E+00         0.00000E+00         0.00000E+00
 
    0.15857E+07         0.13069E+07         0.00000E+00
    0.13069E+07        -0.10967E+08         0.00000E+00
    0.00000E+00         0.00000E+00         0.00000E+00
 
    0.15228E+07         0.14082E+07         0.00000E+00
    0.14082E+07        -0.10970E+08         0.00000E+00
    0.00000E+00         0.00000E+00         0.00000E+00
 
    0.14615E+07         0.15094E+07         0.00000E+00
    0.15094E+07        -0.10973E+08         0.00000E+00
    0.00000E+00         0.00000E+00         0.00000E+00
 
    0.14016E+07         0.16105E+07         0.00000E+00
    0.16105E+07        -0.10977E+08         0.00000E+00
    0.00000E+00         0.00000E+00         0.00000E+00
 
    0.13432E+07         0.17116E+07         0.00000E+00
    0.17116E+07        -0.10980E+08         0.00000E+00
    0.00000E+00         0.00000E+00         0.00000E+00
 
    0.12862E+07         0.18128E+07         0.00000E+00
    0.18128E+07        -0.10983E+08         0.00000E+00
    0.00000E+00         0.00000E+00         0.00000E+00
 
    0.12307E+07         0.19141E+07         0.00000E+00
    0.19141E+07        -0.10986E+08         0.00000E+00
    0.00000E+00         0.00000E+00         0.00000E+00
 
    0.11765E+07         0.20156E+07         0.00000E+00
    0.20156E+07        -0.10990E+08         0.00000E+00
    0.00000E+00         0.00000E+00         0.00000E+00
 
    0.11237E+07         0.21173E+07         0.00000E+00
    0.21173E+07        -0.10993E+08         0.00000E+00
    0.00000E+00         0.00000E+00         0.00000E+00
 
    0.10721E+07         0.22193E+07         0.00000E+00
    0.22193E+07        -0.10996E+08         0.00000E+00
    0.00000E+00         0.00000E+00         0.00000E+00
 
    0.10219E+07         0.23215E+07         0.00000E+00
    0.23215E+07        -0.10999E+08         0.00000E+00
    0.00000E+00         0.00000E+00         0.00000E+00
 
    0.97287E+06         0.24241E+07         0.00000E+00
    0.24241E+07        -0.11002E+08         0.00000E+00
    0.00000E+00         0.00000E+00         0.00000E+00
 
    0.92507E+06         0.25272E+07         0.00000E+00
    0.25272E+07        -0.11004E+08         0.00000E+00
    0.00000E+00         0.00000E+00         0.00000E+00
 
    0.87845E+06         0.26306E+07         0.00000E+00
    0.26306E+07        -0.11006E+08         0.00000E+00
    0.00000E+00         0.00000E+00         0.00000E+00
 
    0.83296E+06         0.27346E+07         0.00000E+00
    0.27346E+07        -0.11008E+08         0.00000E+00
    0.00000E+00         0.00000E+00         0.00000E+00
 
    0.78859E+06         0.28391E+07         0.00000E+00
    0.28391E+07        -0.11010E+08         0.00000E+00
    0.00000E+00         0.00000E+00         0.00000E+00
 
    0.74528E+06         0.29441E+07         0.00000E+00
    0.29441E+07        -0.11012E+08         0.00000E+00
    0.00000E+00         0.00000E+00         0.00000E+00
 
    0.70301E+06         0.30497E+07         0.00000E+00
    0.30497E+07        -0.11013E+08         0.00000E+00
    0.00000E+00         0.00000E+00         0.00000E+00
 
    0.66175E+06         0.31560E+07         0.00000E+00
    0.31560E+07        -0.11013E+08         0.00000E+00
    0.00000E+00         0.00000E+00         0.00000E+00
 
    0.62145E+06         0.32630E+07         0.00000E+00
    0.32630E+07        -0.11014E+08         0.00000E+00
    0.00000E+00         0.00000E+00         0.00000E+00
 
    0.58208E+06         0.33707E+07         0.00000E+00
    0.33707E+07        -0.11013E+08         0.00000E+00
    0.00000E+00         0.00000E+00         0.00000E+00
 
    0.54361E+06         0.34791E+07         0.00000E+00
    0.34791E+07        -0.11013E+08         0.00000E+00
    0.00000E+00         0.00000E+00         0.00000E+00
 
    0.50600E+06         0.35883E+07         0.00000E+00
    0.35883E+07        -0.11011E+08         0.00000E+00
    0.00000E+00         0.00000E+00         0.00000E+00
 
    0.46922E+06         0.36983E+07         0.00000E+00
    0.36983E+07        -0.11010E+08         0.00000E+00
    0.00000E+00         0.00000E+00         0.00000E+00
 
    0.43321E+06         0.38092E+07         0.00000E+00
    0.38092E+07        -0.11007E+08         0.00000E+00
    0.00000E+00         0.00000E+00         0.00000E+00
 
    0.39796E+06         0.39210E+07         0.00000E+00
    0.39210E+07        -0.11004E+08         0.00000E+00
    0.00000E+00         0.00000E+00         0.00000E+00
 
    0.36341E+06         0.40338E+07         0.00000E+00
    0.40338E+07        -0.11000E+08         0.00000E+00
    0.00000E+00         0.00000E+00         0.00000E+00
 
    0.32951E+06         0.41475E+07         0.00000E+00
    0.41475E+07        -0.10996E+08         0.00000E+00
    0.00000E+00         0.00000E+00         0.00000E+00
 
    0.29623E+06         0.42623E+07         0.00000E+00
    0.42623E+07        -0.10991E+08         0.00000E+00
    0.00000E+00         0.00000E+00         0.00000E+00
 
    0.26352E+06         0.43781E+07         0.00000E+00
    0.43781E+07        -0.10985E+08         0.00000E+00
    0.00000E+00         0.00000E+00         0.00000E+00
 
    0.23132E+06         0.44951E+07         0.00000E+00
    0.44951E+07        -0.10978E+08         0.00000E+00
    0.00000E+00         0.00000E+00         0.00000E+00
 
    0.19958E+06         0.46132E+07         0.00000E+00
    0.46132E+07        -0.10970E+08         0.00000E+00
    0.00000E+00         0.00000E+00         0.00000E+00
 
    0.16824E+06         0.47325E+07         0.00000E+00
    0.47325E+07        -0.10962E+08         0.00000E+00
    0.00000E+00         0.00000E+00         0.00000E+00
 
    0.13723E+06         0.48530E+07         0.00000E+00
    0.48530E+07        -0.10952E+08         0.00000E+00
    0.00000E+00         0.00000E+00         0.00000E+00
 
    0.10650E+06         0.49748E+07         0.00000E+00
    0.49748E+07        -0.10942E+08         0.00000E+00
    0.00000E+00         0.00000E+00         0.00000E+00
 
    0.75958E+05         0.50980E+07         0.00000E+00
    0.50980E+07        -0.10930E+08         0.00000E+00
    0.00000E+00         0.00000E+00         0.00000E+00
 
    0.45548E+05         0.52224E+07         0.00000E+00
    0.52224E+07        -0.10918E+08         0.00000E+00
    0.00000E+00         0.00000E+00         0.00000E+00
 
    0.15183E+05         0.53483E+07         0.00000E+00
    0.53483E+07        -0.10904E+08         0.00000E+00
    0.00000E+00         0.00000E+00         0.00000E+00
 
    0.23541E+07         0.55247E+05         0.00000E+00
    0.55247E+05        -0.11598E+08         0.00000E+00
    0.00000E+00         0.00000E+00         0.00000E+00
 
    0.22667E+07         0.16234E+06         0.00000E+00
    0.16234E+06        -0.11599E+08         0.00000E+00
    0.00000E+00         0.00000E+00         0.00000E+00
 
    0.21813E+07         0.26834E+06         0.00000E+00
    0.26834E+06        -0.11600E+08         0.00000E+00
    0.00000E+00         0.00000E+00         0.00000E+00
 
    0.20980E+07         0.37336E+06         0.00000E+00
    0.37336E+06        -0.11601E+08         0.00000E+00
    0.00000E+00         0.00000E+00         0.00000E+00
 
    0.20168E+07         0.47751E+06         0.00000E+00
    0.47751E+06        -0.11603E+08         0.00000E+00
    0.00000E+00         0.00000E+00         0.00000E+00
 
    0.19376E+07         0.58090E+06         0.00000E+00
    0.58090E+06        -0.11606E+08         0.00000E+00
    0.00000E+00         0.00000E+00         0.00000E+00
 
    0.18605E+07         0.68362E+06         0.00000E+00
    0.68362E+06        -0.11609E+08         0.00000E+00
    0.00000E+00         0.00000E+00         0.00000E+00
 
    0.17854E+07         0.78577E+06         0.00000E+00
    0.78577E+06        -0.11612E+08         0.00000E+00
    0.00000E+00         0.00000E+00         0.00000E+00
 
    0.17123E+07         0.88744E+06         0.00000E+00
    0.88744E+06        -0.11616E+08         0.00000E+00
    0.00000E+00         0.00000E+00         0.00000E+00
 
    0.16412E+07         0.98874E+06         0.00000E+00
    0.98874E+06        -0.11620E+08         0.00000E+00
    0.00000E+00         0.00000E+00         0.00000E+00
 
    0.15721E+07         0.10897E+07         0.00000E+00
    0.10897E+07        -0.11625E+08         0.00000E+00
    0.00000E+00         0.00000E+00         0.00000E+00
 
    0.15050E+07         0.11905E+07         0.00000E+00
    0.11905E+07        -0.11630E+08         0.00000E+00
    0.00000E+00         0.00000E+00         0.00000E+00
 
    0.14398E+07         0.12911E+07         0.00000E+00
    0.12911E+07        -0.11635E+08         0.00000E+00
    0.00000E+00         0.00000E+00         0.00000E+00
 
    0.13764E+07         0.13917E+07         0.00000E+00
    0.13917E+07        -0.11641E+08         0.00000E+00
    0.00000E+00         0.00000E+00         0.00000E+00
 
    0.13149E+07         0.14923E+07         0.00000E+00
    0.14923E+07        -0.11647E+08         0.00000E+00
    0.00000E+00         0.00000E+00         0.00000E+00
 
    0.12552E+07         0.15930E+07         0.00000E+00
    0.15930E+07        -0.11653E+08         0.00000E+00
    0.00000E+00         0.00000E+00         0.00000E+00
 
    0.11973E+07         0.16938E+07         0.00000E+00
    0.16938E+07        -0.11659E+08         0.00000E+00
    0.00000E+00         0.00000E+00         0.00000E+00
 
    0.11411E+07         0.17948E+07         0.00000E+00
    0.17948E+07        -0.11665E+08         0.00000E+00
    0.00000E+00         0.00000E+00         0.00000E+00
 
    0.10866E+07         0.18961E+07         0.00000E+00
    0.18961E+07        -0.11671E+08         0.00000E+00
    0.00000E+00         0.00000E+00         0.00000E+00
 
    0.10338E+07         0.19977E+07         0.00000E+00
    0.19977E+07        -0.11678E+08         0.00000E+00
    0.00000E+00         0.00000E+00         0.00000E+00
 
    0.98250E+06         0.20997E+07         0.00000E+00
    0.20997E+07        -0.11684E+08         0.00000E+00
    0.00000E+00         0.00000E+00         0.00000E+00
 
    0.93279E+06         0.22021E+07         0.00000E+00
    0.22021E+07        -0.11691E+08         0.00000E+00
    0.00000E+00         0.00000E+00         0.00000E+00
 
    0.88460E+06         0.23050E+07         0.00000E+00
    0.23050E+07        -0.11697E+08         0.00000E+00
    0.00000E+00         0.00000E+00         0.00000E+00
 
    0.83788E+06         0.24084E+07         0.00000E+00
    0.24084E+07        -0.11704E+08         0.00000E+00
    0.00000E+00         0.00000E+00         0.00000E+00
 
    0.79259E+06         0.25124E+07         0.00000E+00
    0.25124E+07        -0.11710E+08         0.00000E+00
    0.00000E+00         0.00000E+00         0.00000E+00
 
    0.74867E+06         0.26170E+07         0.00000E+00
    0.26170E+07        -0.11716E+08         0.00000E+00
    0.00000E+00         0.00000E+00         0.00000E+00
 
    0.70611E+06         0.27222E+07         0.00000E+00
    0.27222E+07        -0.11721E+08         0.00000E+00
    0.00000E+00         0.00000E+00         0.00000E+00
 
    0.66484E+06         0.28281E+07         0.00000E+00
    0.28281E+07        -0.11727E+08         0.00000E+00
    0.00000E+00         0.00000E+00         0.00000E+00
 
    0.62484E+06         0.29348E+07         0.00000E+00
    0.29348E+07        -0.11732E+08         0.00000E+00
    0.00000E+00         0.00000E+00         0.00000E+00
 
    0.58607E+06         0.30422E+07         0.00000E+00
    0.30422E+07        -0.11737E+08         0.00000E+00
    0.00000E+00         0.00000E+00         0.00000E+00
 
    0.54848E+06         0.31503E+07         0.00000E+00
    0.31503E+07        -0.11741E+08         0.00000E+00
    0.00000E+00         0.00000E+00         0.00000E+00
 
    0.51205E+06         0.32594E+07         0.00000E+00
    0.32594E+07        -0.11745E+08         0.00000E+00
    0.00000E+00         0.00000E+00         0.00000E+00
 
    0.47673E+06         0.33693E+07         0.00000E+00
    0.33693E+07        -0.11749E+08         0.00000E+00
    0.00000E+00         0.00000E+00         0.00000E+00
 
    0.44250E+06         0.34801E+07         0.00000E+00
    0.34801E+07        -0.11752E+08         0.00000E+00
    0.00000E+00         0.00000E+00         0.00000E+00
 
    0.40932E+06         0.35918E+07         0.00000E+00
    0.35918E+07        -0.11754E+08         0.00000E+00
    0.00000E+00         0.00000E+00         0.00000E+00
 
    0.37716E+06         0.37045E+07         0.00000E+00
    0.37045E+07        -0.11756E+08         0.00000E+00
    0.00000E+00         0.00000E+00         0.00000E+00
 
    0.34599E+06         0.38183E+07         0.00000E+00
    0.38183E+07        -0.11758E+08         0.00000E+00
    0.00000E+00         0.00000E+00         0.00000E+00
 
    0.31577E+06         0.39331E+07         0.00000E+00
    0.39331E+07        -0.11758E+08         0.00000E+00
    0.00000E+00         0.00000E+00         0.00000E+00
 
    0.28646E+06         0.40490E+07         0.00000E+00
    0.40490E+07        -0.11759E+08         0.00000E+00
    0.00000E+00         0.00000E+00         0.00000E+00
 
    0.25804E+06         0.41660E+07         0.00000E+00
    0.41660E+07        -0.11758E+08         0.00000E+00
    0.00000E+00         0.00000E+00         0.00000E+00
 
    0.23045E+06         0.42843E+07         0.00000E+00
    0.42843E+07        -0.11757E+08         0.00000E+00
    0.00000E+00         0.00000E+00         0.00000E+00
 
    0.20366E+06         0.44038E+07         0.00000E+00
    0.44038E+07        -0.11755E+08         0.00000E+00
    0.00000E+00         0.00000E+00         0.00000E+00
 
    0.17762E+06         0.45246E+07         0.00000E+00
    0.45246E+07        -0.11752E+08         0.00000E+00
    0.00000E+00         0.00000E+00         0.00000E+00
 
    0.15228E+06         0.46468E+07         0.00000E+00
    0.46468E+07        -0.11748E+08         0.00000E+00
    0.00000E+00         0.00000E+00         0.00000E+00
 
    0.12758E+06         0.47703E+07         0.00000E+00
    0.47703E+07        -0.11744E+08         0.00000E+00
    0.00000E+00         0.00000E+00         0.00000E+00
 
    0.10346E+06         0.48954E+07         0.00000E+00
    0.48954E+07        -0.11738E+08         0.00000E+00
    0.00000E+00         0.00000E+00         0.00000E+00
 
    0.79849E+05         0.50220E+07         0.00000E+00
    0.50220E+07        -0.11732E+08         0.00000E+00
    0.00000E+00         0.00000E+00         0.00000E+00
 
    0.56667E+05         0.51501E+07         0.00000E+00
    0.51501E+07        -0.11724E+08         0.00000E+00
    0.00000E+00         0.00000E+00         0.00000E+00
 
    0.33821E+05         0.52799E+07         0.00000E+00
    0.52799E+07        -0.11715E+08         0.00000E+00
    0.00000E+00         0.00000E+00         0.00000E+00
 
    0.11235E+05         0.54114E+07         0.00000E+00
    0.54114E+07        -0.11705E+08         0.00000E+00
    0.00000E+00         0.00000E+00         0.00000E+00
 
    0.22042E+07         0.53952E+05         0.00000E+00
    0.53952E+05        -0.12281E+08         0.00000E+00
    0.00000E+00         0.00000E+00         0.00000E+00
 
    0.21110E+07         0.15834E+06         0.00000E+00
    0.15834E+06        -0.12281E+08         0.00000E+00
    0.00000E+00         0.00000E+00         0.00000E+00
 
    0.20205E+07         0.26163E+06         0.00000E+00
    0.26163E+06        -0.12283E+08         0.00000E+00
    0.00000E+00         0.00000E+00         0.00000E+00
 
    0.19326E+07         0.36396E+06         0.00000E+00
    0.36396E+06        -0.12285E+08         0.00000E+00
    0.00000E+00         0.00000E+00         0.00000E+00
 
    0.18474E+07         0.46547E+06         0.00000E+00
    0.46547E+06        -0.12289E+08         0.00000E+00
    0.00000E+00         0.00000E+00         0.00000E+00
 
    0.17647E+07         0.56628E+06         0.00000E+00
    0.56628E+06        -0.12293E+08         0.00000E+00
    0.00000E+00         0.00000E+00         0.00000E+00
 
    0.16847E+07         0.66651E+06         0.00000E+00
    0.66651E+06        -0.12297E+08         0.00000E+00
    0.00000E+00         0.00000E+00         0.00000E+00
 
    0.16073E+07         0.76626E+06         0.00000E+00
    0.76626E+06        -0.12303E+08         0.00000E+00
    0.00000E+00         0.00000E+00         0.00000E+00
 
    0.15323E+07         0.86566E+06         0.00000E+00
    0.86566E+06        -0.12309E+08         0.00000E+00
    0.00000E+00         0.00000E+00         0.00000E+00
 
    0.14598E+07         0.96481E+06         0.00000E+00
    0.96481E+06        -0.12315E+08         0.00000E+00
    0.00000E+00         0.00000E+00         0.00000E+00
 
    0.13898E+07         0.10638E+07         0.00000E+00
    0.10638E+07        -0.12322E+08         0.00000E+00
    0.00000E+00         0.00000E+00         0.00000E+00
 
    0.13221E+07         0.11627E+07         0.00000E+00
    0.11627E+07        -0.12330E+08         0.00000E+00
    0.00000E+00         0.00000E+00         0.00000E+00
 
    0.12568E+07         0.12617E+07         0.00000E+00
    0.12617E+07        -0.12338E+08         0.00000E+00
    0.00000E+00         0.00000E+00         0.00000E+00
 
    0.11938E+07         0.13608E+07         0.00000E+00
    0.13608E+07        -0.12347E+08         0.00000E+00
    0.00000E+00         0.00000E+00         0.00000E+00
 
    0.11329E+07         0.14600E+07         0.00000E+00
    0.14600E+07        -0.12356E+08         0.00000E+00
    0.00000E+00         0.00000E+00         0.00000E+00
 
    0.10743E+07         0.15595E+07         0.00000E+00
    0.15595E+07        -0.12366E+08         0.00000E+00
    0.00000E+00         0.00000E+00         0.00000E+00
 
    0.10177E+07         0.16594E+07         0.00000E+00
    0.16594E+07        -0.12375E+08         0.00000E+00
    0.00000E+00         0.00000E+00         0.00000E+00
 
    0.96320E+06         0.17597E+07         0.00000E+00
    0.17597E+07        -0.12386E+08         0.00000E+00
    0.00000E+00         0.00000E+00         0.00000E+00
 
    0.91067E+06         0.18604E+07         0.00000E+00
    0.18604E+07        -0.12396E+08         0.00000E+00
    0.00000E+00         0.00000E+00         0.00000E+00
 
    0.86006E+06         0.19617E+07         0.00000E+00
    0.19617E+07        -0.12406E+08         0.00000E+00
    0.00000E+00         0.00000E+00         0.00000E+00
 
    0.81133E+06         0.20635E+07         0.00000E+00
    0.20635E+07        -0.12417E+08         0.00000E+00
    0.00000E+00         0.00000E+00         0.00000E+00
 
    0.76440E+06         0.21660E+07         0.00000E+00
    0.21660E+07        -0.12427E+08         0.00000E+00
    0.00000E+00         0.00000E+00         0.00000E+00
 
    0.71922E+06         0.22692E+07         0.00000E+00
    0.22692E+07        -0.12438E+08         0.00000E+00
    0.00000E+00         0.00000E+00         0.00000E+00
 
    0.67574E+06         0.23731E+07         0.00000E+00
    0.23731E+07        -0.12448E+08         0.00000E+00
    0.00000E+00         0.00000E+00         0.00000E+00
 
    0.63390E+06         0.24777E+07         0.00000E+00
    0.24777E+07        -0.12459E+08         0.00000E+00
    0.00000E+00         0.00000E+00         0.00000E+00
 
    0.59365E+06         0.25832E+07         0.00000E+00
    0.25832E+07        -0.12469E+08         0.00000E+00
    0.00000E+00         0.00000E+00         0.00000E+00
 
    0.55494E+06         0.26895E+07         0.00000E+00
    0.26895E+07        -0.12479E+08         0.00000E+00
    0.00000E+00         0.00000E+00         0.00000E+00
 
    0.51771E+06         0.27967E+07         0.00000E+00
    0.27967E+07        -0.12489E+08         0.00000E+00
    0.00000E+00         0.00000E+00         0.00000E+00
 
    0.48192E+06         0.29048E+07         0.00000E+00
    0.29048E+07        -0.12499E+08         0.00000E+00
    0.00000E+00         0.00000E+00         0.00000E+00
 
    0.44753E+06         0.30139E+07         0.00000E+00
    0.30139E+07        -0.12508E+08         0.00000E+00
    0.00000E+00         0.00000E+00         0.00000E+00
 
    0.41450E+06         0.31239E+07         0.00000E+00
    0.31239E+07        -0.12517E+08         0.00000E+00
    0.00000E+00         0.00000E+00         0.00000E+00
 
    0.38279E+06         0.32350E+07         0.00000E+00
    0.32350E+07        -0.12526E+08         0.00000E+00
    0.00000E+00         0.00000E+00         0.00000E+00
 
    0.35237E+06         0.33470E+07         0.00000E+00
    0.33470E+07        -0.12534E+08         0.00000E+00
    0.00000E+00         0.00000E+00         0.00000E+00
 
    0.32320E+06         0.34602E+07         0.00000E+00
    0.34602E+07        -0.12541E+08         0.00000E+00
    0.00000E+00         0.00000E+00         0.00000E+00
 
    0.29527E+06         0.35744E+07         0.00000E+00
    0.35744E+07        -0.12548E+08         0.00000E+00
    0.00000E+00         0.00000E+00         0.00000E+00
 
    0.26853E+06         0.36898E+07         0.00000E+00
    0.36898E+07        -0.12555E+08         0.00000E+00
    0.00000E+00         0.00000E+00         0.00000E+00
 
    0.24298E+06         0.38063E+07         0.00000E+00
    0.38063E+07        -0.12561E+08         0.00000E+00
    0.00000E+00         0.00000E+00         0.00000E+00
 
    0.21859E+06         0.39241E+07         0.00000E+00
    0.39241E+07        -0.12566E+08         0.00000E+00
    0.00000E+00         0.00000E+00         0.00000E+00
 
    0.19535E+06         0.40431E+07         0.00000E+00
    0.40431E+07        -0.12571E+08         0.00000E+00
    0.00000E+00         0.00000E+00         0.00000E+00
 
    0.17323E+06         0.41633E+07         0.00000E+00
    0.41633E+07        -0.12575E+08         0.00000E+00
    0.00000E+00         0.00000E+00         0.00000E+00
 
    0.15222E+06         0.42850E+07         0.00000E+00
    0.42850E+07        -0.12578E+08         0.00000E+00
    0.00000E+00         0.00000E+00         0.00000E+00
 
    0.13229E+06         0.44080E+07         0.00000E+00
    0.44080E+07        -0.12581E+08         0.00000E+00
    0.00000E+00         0.00000E+00         0.00000E+00
 
    0.11343E+06         0.45325E+07         0.00000E+00
    0.45325E+07        -0.12583E+08         0.00000E+00
    0.00000E+00         0.00000E+00         0.00000E+00
 
    0.95579E+05         0.46586E+07         0.00000E+00
    0.46586E+07        -0.12584E+08         0.00000E+00
    0.00000E+00         0.00000E+00         0.00000E+00
 
    0.78696E+05         0.47864E+07         0.00000E+00
    0.47864E+07        -0.12584E+08         0.00000E+00
    0.00000E+00         0.00000E+00         0.00000E+00
 
    0.62716E+05         0.49158E+07         0.00000E+00
    0.49158E+07        -0.12583E+08         0.00000E+00
    0.00000E+00         0.00000E+00         0.00000E+00
 
    0.47575E+05         0.50470E+07         0.00000E+00
    0.50470E+07        -0.12581E+08         0.00000E+00
    0.00000E+00         0.00000E+00         0.00000E+00
 
    0.33215E+05         0.51801E+07         0.00000E+00
    0.51801E+07        -0.12578E+08         0.00000E+00
    0.00000E+00         0.00000E+00         0.00000E+00
 
    0.19570E+05         0.53151E+07         0.00000E+00
    0.53151E+07        -0.12575E+08         0.00000E+00
    0.00000E+00         0.00000E+00         0.00000E+00
 
    0.64585E+04         0.54523E+07         0.00000E+00
    0.54523E+07        -0.12570E+08         0.00000E+00
    0.00000E+00         0.00000E+00         0.00000E+00
 
    0.20047E+07         0.51729E+05         0.00000E+00
    0.51729E+05        -0.12995E+08         0.00000E+00
    0.00000E+00         0.00000E+00         0.00000E+00
 
    0.19058E+07         0.15172E+06         0.00000E+00
    0.15172E+06        -0.12996E+08         0.00000E+00
    0.00000E+00         0.00000E+00         0.00000E+00
 
    0.18103E+07         0.25068E+06         0.00000E+00
    0.25068E+06        -0.12998E+08         0.00000E+00
    0.00000E+00         0.00000E+00         0.00000E+00
 
    0.17182E+07         0.34878E+06         0.00000E+00
    0.34878E+06        -0.13002E+08         0.00000E+00
    0.00000E+00         0.00000E+00         0.00000E+00
 
    0.16294E+07         0.44616E+06         0.00000E+00
    0.44616E+06        -0.13007E+08         0.00000E+00
    0.00000E+00         0.00000E+00         0.00000E+00
 
    0.15439E+07         0.54296E+06         0.00000E+00
    0.54296E+06        -0.13012E+08         0.00000E+00
    0.00000E+00         0.00000E+00         0.00000E+00
 
    0.14616E+07         0.63934E+06         0.00000E+00
    0.63934E+06        -0.13019E+08         0.00000E+00
    0.00000E+00         0.00000E+00         0.00000E+00
 
    0.13825E+07         0.73542E+06         0.00000E+00
    0.73542E+06        -0.13027E+08         0.00000E+00
    0.00000E+00         0.00000E+00         0.00000E+00
 
    0.13065E+07         0.83131E+06         0.00000E+00
    0.83131E+06        -0.13035E+08         0.00000E+00
    0.00000E+00         0.00000E+00         0.00000E+00
 
    0.12335E+07         0.92716E+06         0.00000E+00
    0.92716E+06        -0.13045E+08         0.00000E+00
    0.00000E+00         0.00000E+00         0.00000E+00
 
    0.11634E+07         0.10230E+07         0.00000E+00
    0.10230E+07        -0.13055E+08         0.00000E+00
    0.00000E+00         0.00000E+00         0.00000E+00
 
    0.10962E+07         0.11191E+07         0.00000E+00
    0.11191E+07        -0.13066E+08         0.00000E+00
    0.00000E+00         0.00000E+00         0.00000E+00
 
    0.10318E+07         0.12154E+07         0.00000E+00
    0.12154E+07        -0.13078E+08         0.00000E+00
    0.00000E+00         0.00000E+00         0.00000E+00
 
    0.97009E+06         0.13120E+07         0.00000E+00
    0.13120E+07        -0.13091E+08         0.00000E+00
    0.00000E+00         0.00000E+00         0.00000E+00
 
    0.91101E+06         0.14091E+07         0.00000E+00
    0.14091E+07        -0.13104E+08         0.00000E+00
    0.00000E+00         0.00000E+00         0.00000E+00
 
    0.85448E+06         0.15067E+07         0.00000E+00
    0.15067E+07        -0.13117E+08         0.00000E+00
    0.00000E+00         0.00000E+00         0.00000E+00
 
    0.80041E+06         0.16049E+07         0.00000E+00
    0.16049E+07        -0.13131E+08         0.00000E+00
    0.00000E+00         0.00000E+00         0.00000E+00
 
    0.74872E+06         0.17037E+07         0.00000E+00
    0.17037E+07        -0.13146E+08         0.00000E+00
    0.00000E+00         0.00000E+00         0.00000E+00
 
    0.69933E+06         0.18033E+07         0.00000E+00
    0.18033E+07        -0.13161E+08         0.00000E+00
    0.00000E+00         0.00000E+00         0.00000E+00
 
    0.65216E+06         0.19036E+07         0.00000E+00
    0.19036E+07        -0.13176E+08         0.00000E+00
    0.00000E+00         0.00000E+00         0.00000E+00
 
    0.60714E+06         0.20048E+07         0.00000E+00
    0.20048E+07        -0.13191E+08         0.00000E+00
    0.00000E+00         0.00000E+00         0.00000E+00
 
    0.56417E+06         0.21069E+07         0.00000E+00
    0.21069E+07        -0.13207E+08         0.00000E+00
    0.00000E+00         0.00000E+00         0.00000E+00
 
    0.52319E+06         0.22098E+07         0.00000E+00
    0.22098E+07        -0.13222E+08         0.00000E+00
    0.00000E+00         0.00000E+00         0.00000E+00
 
    0.48413E+06         0.23138E+07         0.00000E+00
    0.23138E+07        -0.13238E+08         0.00000E+00
    0.00000E+00         0.00000E+00         0.00000E+00
 
    0.44691E+06         0.24188E+07         0.00000E+00
    0.24188E+07        -0.13254E+08         0.00000E+00
    0.00000E+00         0.00000E+00         0.00000E+00
 
    0.41147E+06         0.25249E+07         0.00000E+00
    0.25249E+07        -0.13269E+08         0.00000E+00
    0.00000E+00         0.00000E+00         0.00000E+00
 
    0.37774E+06         0.26320E+07         0.00000E+00
    0.26320E+07        -0.13285E+08         0.00000E+00
    0.00000E+00         0.00000E+00         0.00000E+00
 
    0.34566E+06         0.27403E+07         0.00000E+00
    0.27403E+07        -0.13300E+08         0.00000E+00
    0.00000E+00         0.00000E+00         0.00000E+00
 
    0.31518E+06         0.28497E+07         0.00000E+00
    0.28497E+07        -0.13315E+08         0.00000E+00
    0.00000E+00         0.00000E+00         0.00000E+00
 
    0.28624E+06         0.29603E+07         0.00000E+00
    0.29603E+07        -0.13330E+08         0.00000E+00
    0.00000E+00         0.00000E+00         0.00000E+00
 
    0.25879E+06         0.30720E+07         0.00000E+00
    0.30720E+07        -0.13345E+08         0.00000E+00
    0.00000E+00         0.00000E+00         0.00000E+00
 
    0.23281E+06         0.31850E+07         0.00000E+00
    0.31850E+07        -0.13359E+08         0.00000E+00
    0.00000E+00         0.00000E+00         0.00000E+00
 
    0.20823E+06         0.32993E+07         0.00000E+00
    0.32993E+07        -0.13372E+08         0.00000E+00
    0.00000E+00         0.00000E+00         0.00000E+00
 
    0.18505E+06         0.34148E+07         0.00000E+00
    0.34148E+07        -0.13386E+08         0.00000E+00
    0.00000E+00         0.00000E+00         0.00000E+00
 
    0.16323E+06         0.35315E+07         0.00000E+00
    0.35315E+07        -0.13398E+08         0.00000E+00
    0.00000E+00         0.00000E+00         0.00000E+00
 
    0.14276E+06         0.36496E+07         0.00000E+00
    0.36496E+07        -0.13410E+08         0.00000E+00
    0.00000E+00         0.00000E+00         0.00000E+00
 
    0.12363E+06         0.37690E+07         0.00000E+00
    0.37690E+07        -0.13422E+08         0.00000E+00
    0.00000E+00         0.00000E+00         0.00000E+00
 
    0.10583E+06         0.38898E+07         0.00000E+00
    0.38898E+07        -0.13433E+08         0.00000E+00
    0.00000E+00         0.00000E+00         0.00000E+00
 
    0.89379E+05         0.40119E+07         0.00000E+00
    0.40119E+07        -0.13443E+08         0.00000E+00
    0.00000E+00         0.00000E+00         0.00000E+00
 
    0.74282E+05         0.41354E+07         0.00000E+00
    0.41354E+07        -0.13452E+08         0.00000E+00
    0.00000E+00         0.00000E+00         0.00000E+00
 
    0.60558E+05         0.42604E+07         0.00000E+00
    0.42604E+07        -0.13461E+08         0.00000E+00
    0.00000E+00         0.00000E+00         0.00000E+00
 
    0.48226E+05         0.43869E+07         0.00000E+00
    0.43869E+07        -0.13469E+08         0.00000E+00
    0.00000E+00         0.00000E+00         0.00000E+00
 
    0.37324E+05         0.45150E+07         0.00000E+00
    0.45150E+07        -0.13476E+08         0.00000E+00
    0.00000E+00         0.00000E+00         0.00000E+00
 
    0.27894E+05         0.46447E+07         0.00000E+00
    0.46447E+07        -0.13483E+08         0.00000E+00
    0.00000E+00         0.00000E+00         0.00000E+00
 
    0.19973E+05         0.47762E+07         0.00000E+00
    0.47762E+07        -0.13489E+08         0.00000E+00
    0.00000E+00         0.00000E+00         0.00000E+00
 
    0.13544E+05         0.49096E+07         0.00000E+00
    0.49096E+07        -0.13494E+08         0.00000E+00
    0.00000E+00         0.00000E+00         0.00000E+00
 
    0.85018E+04         0.50452E+07         0.00000E+00
    0.50452E+07        -0.13498E+08         0.00000E+00
    0.00000E+00         0.00000E+00         0.00000E+00
 
    0.46682E+04         0.51832E+07         0.00000E+00
    0.51832E+07        -0.13501E+08         0.00000E+00
    0.00000E+00         0.00000E+00         0.00000E+00
 
    0.18732E+04         0.53235E+07         0.00000E+00
    0.53235E+07        -0.13503E+08         0.00000E+00
    0.00000E+00         0.00000E+00         0.00000E+00
 
    0.36039E+03         0.54656E+07         0.00000E+00
    0.54656E+07        -0.13504E+08         0.00000E+00
    0.00000E+00         0.00000E+00         0.00000E+00
 
    0.17455E+07         0.48340E+05         0.00000E+00
    0.48340E+05        -0.13742E+08         0.00000E+00
    0.00000E+00         0.00000E+00         0.00000E+00
 
    0.16414E+07         0.14188E+06         0.00000E+00
    0.14188E+06        -0.13743E+08         0.00000E+00
    0.00000E+00         0.00000E+00         0.00000E+00
 
    0.15415E+07         0.23456E+06         0.00000E+00
    0.23456E+06        -0.13747E+08         0.00000E+00
    0.00000E+00         0.00000E+00         0.00000E+00
 
    0.14459E+07         0.32654E+06         0.00000E+00
    0.32654E+06        -0.13752E+08         0.00000E+00
    0.00000E+00         0.00000E+00         0.00000E+00
 
    0.13544E+07         0.41801E+06         0.00000E+00
    0.41801E+06        -0.13758E+08         0.00000E+00
    0.00000E+00         0.00000E+00         0.00000E+00
 
    0.12670E+07         0.50913E+06         0.00000E+00
    0.50913E+06        -0.13766E+08         0.00000E+00
    0.00000E+00         0.00000E+00         0.00000E+00
 
    0.11834E+07         0.60006E+06         0.00000E+00
    0.60006E+06        -0.13775E+08         0.00000E+00
    0.00000E+00         0.00000E+00         0.00000E+00
 
    0.11037E+07         0.69094E+06         0.00000E+00
    0.69094E+06        -0.13785E+08         0.00000E+00
    0.00000E+00         0.00000E+00         0.00000E+00
 
    0.10278E+07         0.78191E+06         0.00000E+00
    0.78191E+06        -0.13797E+08         0.00000E+00
    0.00000E+00         0.00000E+00         0.00000E+00
 
    0.95542E+06         0.87309E+06         0.00000E+00
    0.87309E+06        -0.13810E+08         0.00000E+00
    0.00000E+00         0.00000E+00         0.00000E+00
 
    0.88658E+06         0.96460E+06         0.00000E+00
    0.96460E+06        -0.13824E+08         0.00000E+00
    0.00000E+00         0.00000E+00         0.00000E+00
 
    0.82113E+06         0.10566E+07         0.00000E+00
    0.10566E+07        -0.13839E+08         0.00000E+00
    0.00000E+00         0.00000E+00         0.00000E+00
 
    0.75896E+06         0.11491E+07         0.00000E+00
    0.11491E+07        -0.13855E+08         0.00000E+00
    0.00000E+00         0.00000E+00         0.00000E+00
 
    0.69996E+06         0.12422E+07         0.00000E+00
    0.12422E+07        -0.13872E+08         0.00000E+00
    0.00000E+00         0.00000E+00         0.00000E+00
 
    0.64402E+06         0.13361E+07         0.00000E+00
    0.13361E+07        -0.13889E+08         0.00000E+00
    0.00000E+00         0.00000E+00         0.00000E+00
 
    0.59103E+06         0.14308E+07         0.00000E+00
    0.14308E+07        -0.13908E+08         0.00000E+00
    0.00000E+00         0.00000E+00         0.00000E+00
 
    0.54087E+06         0.15264E+07         0.00000E+00
    0.15264E+07        -0.13927E+08         0.00000E+00
    0.00000E+00         0.00000E+00         0.00000E+00
 
    0.49343E+06         0.16229E+07         0.00000E+00
    0.16229E+07        -0.13947E+08         0.00000E+00
    0.00000E+00         0.00000E+00         0.00000E+00
 
    0.44862E+06         0.17205E+07         0.00000E+00
    0.17205E+07        -0.13967E+08         0.00000E+00
    0.00000E+00         0.00000E+00         0.00000E+00
 
    0.40632E+06         0.18192E+07         0.00000E+00
    0.18192E+07        -0.13988E+08         0.00000E+00
    0.00000E+00         0.00000E+00         0.00000E+00
 
    0.36643E+06         0.19190E+07         0.00000E+00
    0.19190E+07        -0.14009E+08         0.00000E+00
    0.00000E+00         0.00000E+00         0.00000E+00
 
    0.32884E+06         0.20200E+07         0.00000E+00
    0.20200E+07        -0.14030E+08         0.00000E+00
    0.00000E+00         0.00000E+00         0.00000E+00
 
    0.29348E+06         0.21222E+07         0.00000E+00
    0.21222E+07        -0.14052E+08         0.00000E+00
    0.00000E+00         0.00000E+00         0.00000E+00
 
    0.26023E+06         0.22258E+07         0.00000E+00
    0.22258E+07        -0.14073E+08         0.00000E+00
    0.00000E+00         0.00000E+00         0.00000E+00
 
    0.22902E+06         0.23306E+07         0.00000E+00
    0.23306E+07        -0.14095E+08         0.00000E+00
    0.00000E+00         0.00000E+00         0.00000E+00
 
    0.19975E+06         0.24367E+07         0.00000E+00
    0.24367E+07        -0.14117E+08         0.00000E+00
    0.00000E+00         0.00000E+00         0.00000E+00
 
    0.17236E+06         0.25443E+07         0.00000E+00
    0.25443E+07        -0.14139E+08         0.00000E+00
    0.00000E+00         0.00000E+00         0.00000E+00
 
    0.14675E+06         0.26532E+07         0.00000E+00
    0.26532E+07        -0.14161E+08         0.00000E+00
    0.00000E+00         0.00000E+00         0.00000E+00
 
    0.12287E+06         0.27636E+07         0.00000E+00
    0.27636E+07        -0.14183E+08         0.00000E+00
    0.00000E+00         0.00000E+00         0.00000E+00
 
    0.10064E+06         0.28754E+07         0.00000E+00
    0.28754E+07        -0.14204E+08         0.00000E+00
    0.00000E+00         0.00000E+00         0.00000E+00
 
    0.80020E+05         0.29886E+07         0.00000E+00
    0.29886E+07        -0.14226E+08         0.00000E+00
    0.00000E+00         0.00000E+00         0.00000E+00
 
    0.60948E+05         0.31033E+07         0.00000E+00
    0.31033E+07        -0.14247E+08         0.00000E+00
    0.00000E+00         0.00000E+00         0.00000E+00
 
    0.43387E+05         0.32195E+07         0.00000E+00
    0.32195E+07        -0.14267E+08         0.00000E+00
    0.00000E+00         0.00000E+00         0.00000E+00
 
    0.27302E+05         0.33372E+07         0.00000E+00
    0.33372E+07        -0.14288E+08         0.00000E+00
    0.00000E+00         0.00000E+00         0.00000E+00
 
    0.12667E+05         0.34565E+07         0.00000E+00
    0.34565E+07        -0.14307E+08         0.00000E+00
    0.00000E+00         0.00000E+00         0.00000E+00
 
   -0.53429E+03         0.35772E+07         0.00000E+00
    0.35772E+07        -0.14327E+08         0.00000E+00
    0.00000E+00         0.00000E+00         0.00000E+00
 
   -0.12311E+05         0.36995E+07         0.00000E+00
    0.36995E+07        -0.14345E+08         0.00000E+00
    0.00000E+00         0.00000E+00         0.00000E+00
 
   -0.22652E+05         0.38233E+07         0.00000E+00
    0.38233E+07        -0.14364E+08         0.00000E+00
    0.00000E+00         0.00000E+00         0.00000E+00
 
   -0.31532E+05         0.39487E+07         0.00000E+00
    0.39487E+07        -0.14381E+08         0.00000E+00
    0.00000E+00         0.00000E+00         0.00000E+00
 
   -0.38903E+05         0.40756E+07         0.00000E+00
    0.40756E+07        -0.14398E+08         0.00000E+00
    0.00000E+00         0.00000E+00         0.00000E+00
 
   -0.44684E+05         0.42041E+07         0.00000E+00
    0.42041E+07        -0.14414E+08         0.00000E+00
    0.00000E+00         0.00000E+00         0.00000E+00
 
   -0.48804E+05         0.43343E+07         0.00000E+00
    0.43343E+07        -0.14429E+08         0.00000E+00
    0.00000E+00         0.00000E+00         0.00000E+00
 
   -0.51206E+05         0.44662E+07         0.00000E+00
    0.44662E+07        -0.14444E+08         0.00000E+00
    0.00000E+00         0.00000E+00         0.00000E+00
 
   -0.51830E+05         0.45998E+07         0.00000E+00
    0.45998E+07        -0.14457E+08         0.00000E+00
    0.00000E+00         0.00000E+00         0.00000E+00
 
   -0.50584E+05         0.47351E+07         0.00000E+00
    0.47351E+07        -0.14469E+08         0.00000E+00
    0.00000E+00         0.00000E+00         0.00000E+00
 
   -0.47153E+05         0.48720E+07         0.00000E+00
    0.48720E+07        -0.14481E+08         0.00000E+00
    0.00000E+00         0.00000E+00         0.00000E+00
 
   -0.41048E+05         0.50106E+07         0.00000E+00
    0.50106E+07        -0.14492E+08         0.00000E+00
    0.00000E+00         0.00000E+00         0.00000E+00
 
   -0.31833E+05         0.51514E+07         0.00000E+00
    0.51514E+07        -0.14502E+08         0.00000E+00
    0.00000E+00         0.00000E+00         0.00000E+00
 
   -0.19609E+05         0.52957E+07         0.00000E+00
    0.52957E+07        -0.14513E+08         0.00000E+00
    0.00000E+00         0.00000E+00         0.00000E+00
 
   -0.64110E+04         0.54459E+07         0.00000E+00
    0.54459E+07        -0.14522E+08         0.00000E+00
    0.00000E+00         0.00000E+00         0.00000E+00
 
    0.14148E+07         0.43552E+05         0.00000E+00
    0.43552E+05        -0.14521E+08         0.00000E+00
    0.00000E+00         0.00000E+00         0.00000E+00
 
    0.13065E+07         0.12824E+06         0.00000E+00
    0.12824E+06        -0.14524E+08         0.00000E+00
    0.00000E+00         0.00000E+00         0.00000E+00
 
    0.12034E+07         0.21235E+06         0.00000E+00
    0.21235E+06        -0.14528E+08         0.00000E+00
    0.00000E+00         0.00000E+00         0.00000E+00
 
    0.11056E+07         0.29608E+06         0.00000E+00
    0.29608E+06        -0.14534E+08         0.00000E+00
    0.00000E+00         0.00000E+00         0.00000E+00
 
    0.10127E+07         0.37961E+06         0.00000E+00
    0.37961E+06        -0.14543E+08         0.00000E+00
    0.00000E+00         0.00000E+00         0.00000E+00
 
    0.92469E+06         0.46313E+06         0.00000E+00
    0.46313E+06        -0.14553E+08         0.00000E+00
    0.00000E+00         0.00000E+00         0.00000E+00
 
    0.84140E+06         0.54681E+06         0.00000E+00
    0.54681E+06        -0.14565E+08         0.00000E+00
    0.00000E+00         0.00000E+00         0.00000E+00
 
    0.76267E+06         0.63078E+06         0.00000E+00
    0.63078E+06        -0.14578E+08         0.00000E+00
    0.00000E+00         0.00000E+00         0.00000E+00
 
    0.68835E+06         0.71519E+06         0.00000E+00
    0.71519E+06        -0.14593E+08         0.00000E+00
    0.00000E+00         0.00000E+00         0.00000E+00
 
    0.61827E+06         0.80019E+06         0.00000E+00
    0.80019E+06        -0.14610E+08         0.00000E+00
    0.00000E+00         0.00000E+00         0.00000E+00
 
    0.55229E+06         0.88588E+06         0.00000E+00
    0.88588E+06        -0.14628E+08         0.00000E+00
    0.00000E+00         0.00000E+00         0.00000E+00
 
    0.49026E+06         0.97238E+06         0.00000E+00
    0.97238E+06        -0.14648E+08         0.00000E+00
    0.00000E+00         0.00000E+00         0.00000E+00
 
    0.43202E+06         0.10598E+07         0.00000E+00
    0.10598E+07        -0.14668E+08         0.00000E+00
    0.00000E+00         0.00000E+00         0.00000E+00
 
    0.37741E+06         0.11482E+07         0.00000E+00
    0.11482E+07        -0.14690E+08         0.00000E+00
    0.00000E+00         0.00000E+00         0.00000E+00
 
    0.32630E+06         0.12378E+07         0.00000E+00
    0.12378E+07        -0.14713E+08         0.00000E+00
    0.00000E+00         0.00000E+00         0.00000E+00
 
    0.27854E+06         0.13285E+07         0.00000E+00
    0.13285E+07        -0.14737E+08         0.00000E+00
    0.00000E+00         0.00000E+00         0.00000E+00
 
    0.23398E+06         0.14204E+07         0.00000E+00
    0.14204E+07        -0.14761E+08         0.00000E+00
    0.00000E+00         0.00000E+00         0.00000E+00
 
    0.19247E+06         0.15137E+07         0.00000E+00
    0.15137E+07        -0.14787E+08         0.00000E+00
    0.00000E+00         0.00000E+00         0.00000E+00
 
    0.15390E+06         0.16084E+07         0.00000E+00
    0.16084E+07        -0.14813E+08         0.00000E+00
    0.00000E+00         0.00000E+00         0.00000E+00
 
    0.11811E+06         0.17045E+07         0.00000E+00
    0.17045E+07        -0.14840E+08         0.00000E+00
    0.00000E+00         0.00000E+00         0.00000E+00
 
    0.84989E+05         0.18020E+07         0.00000E+00
    0.18020E+07        -0.14867E+08         0.00000E+00
    0.00000E+00         0.00000E+00         0.00000E+00
 
    0.54403E+05         0.19011E+07         0.00000E+00
    0.19011E+07        -0.14895E+08         0.00000E+00
    0.00000E+00         0.00000E+00         0.00000E+00
 
    0.26234E+05         0.20018E+07         0.00000E+00
    0.20018E+07        -0.14923E+08         0.00000E+00
    0.00000E+00         0.00000E+00         0.00000E+00
 
    0.36737E+03         0.21040E+07         0.00000E+00
    0.21040E+07        -0.14952E+08         0.00000E+00
    0.00000E+00         0.00000E+00         0.00000E+00
 
   -0.23307E+05         0.22079E+07         0.00000E+00
    0.22079E+07        -0.14981E+08         0.00000E+00
    0.00000E+00         0.00000E+00         0.00000E+00
 
   -0.44893E+05         0.23134E+07         0.00000E+00
    0.23134E+07        -0.15010E+08         0.00000E+00
    0.00000E+00         0.00000E+00         0.00000E+00
 
   -0.64488E+05         0.24206E+07         0.00000E+00
    0.24206E+07        -0.15040E+08         0.00000E+00
    0.00000E+00         0.00000E+00         0.00000E+00
 
   -0.82182E+05         0.25295E+07         0.00000E+00
    0.25295E+07        -0.15069E+08         0.00000E+00
    0.00000E+00         0.00000E+00         0.00000E+00
 
   -0.98057E+05         0.26401E+07         0.00000E+00
    0.26401E+07        -0.15099E+08         0.00000E+00
    0.00000E+00         0.00000E+00         0.00000E+00
 
   -0.11219E+06         0.27524E+07         0.00000E+00
    0.27524E+07        -0.15128E+08         0.00000E+00
    0.00000E+00         0.00000E+00         0.00000E+00
 
   -0.12465E+06         0.28664E+07         0.00000E+00
    0.28664E+07        -0.15158E+08         0.00000E+00
    0.00000E+00         0.00000E+00         0.00000E+00
 
   -0.13549E+06         0.29821E+07         0.00000E+00
    0.29821E+07        -0.15187E+08         0.00000E+00
    0.00000E+00         0.00000E+00         0.00000E+00
 
   -0.14478E+06         0.30995E+07         0.00000E+00
    0.30995E+07        -0.15216E+08         0.00000E+00
    0.00000E+00         0.00000E+00         0.00000E+00
 
   -0.15254E+06         0.32187E+07         0.00000E+00
    0.32187E+07        -0.15245E+08         0.00000E+00
    0.00000E+00         0.00000E+00         0.00000E+00
 
   -0.15880E+06         0.33397E+07         0.00000E+00
    0.33397E+07        -0.15274E+08         0.00000E+00
    0.00000E+00         0.00000E+00         0.00000E+00
 
   -0.16355E+06         0.34624E+07         0.00000E+00
    0.34624E+07        -0.15303E+08         0.00000E+00
    0.00000E+00         0.00000E+00         0.00000E+00
 
   -0.16680E+06         0.35868E+07         0.00000E+00
    0.35868E+07        -0.15331E+08         0.00000E+00
    0.00000E+00         0.00000E+00         0.00000E+00
 
   -0.16853E+06         0.37130E+07         0.00000E+00
    0.37130E+07        -0.15359E+08         0.00000E+00
    0.00000E+00         0.00000E+00         0.00000E+00
 
   -0.16875E+06         0.38411E+07         0.00000E+00
    0.38411E+07        -0.15387E+08         0.00000E+00
    0.00000E+00         0.00000E+00         0.00000E+00
 
   -0.16745E+06         0.39710E+07         0.00000E+00
    0.39710E+07        -0.15414E+08         0.00000E+00
    0.00000E+00         0.00000E+00         0.00000E+00
 
   -0.16460E+06         0.41027E+07         0.00000E+00
    0.41027E+07        -0.15441E+08         0.00000E+00
    0.00000E+00         0.00000E+00         0.00000E+00
 
   -0.15999E+06         0.42360E+07         0.00000E+00
    0.42360E+07        -0.15467E+08         0.00000E+00
    0.00000E+00         0.00000E+00         0.00000E+00
 
   -0.15323E+06         0.43708E+07         0.00000E+00
    0.43708E+07        -0.15492E+08         0.00000E+00
    0.00000E+00         0.00000E+00         0.00000E+00
 
   -0.14383E+06         0.45075E+07         0.00000E+00
    0.45075E+07        -0.15519E+08         0.00000E+00
    0.00000E+00         0.00000E+00         0.00000E+00
 
   -0.13141E+06         0.46465E+07         0.00000E+00
    0.46465E+07        -0.15545E+08         0.00000E+00
    0.00000E+00         0.00000E+00         0.00000E+00
 
   -0.11638E+06         0.47892E+07         0.00000E+00
    0.47892E+07        -0.15571E+08         0.00000E+00
    0.00000E+00         0.00000E+00         0.00000E+00
 
   -0.99461E+05         0.49349E+07         0.00000E+00
    0.49349E+07        -0.15594E+08         0.00000E+00
    0.00000E+00         0.00000E+00         0.00000E+00
 
   -0.80732E+05         0.50826E+07         0.00000E+00
    0.50826E+07        -0.15612E+08         0.00000E+00
    0.00000E+00         0.00000E+00         0.00000E+00
 
   -0.57957E+05         0.52285E+07         0.00000E+00
    0.52285E+07        -0.15628E+08         0.00000E+00
    0.00000E+00         0.00000E+00         0.00000E+00
 
   -0.22511E+05         0.53677E+07         0.00000E+00
    0.53677E+07        -0.15646E+08         0.00000E+00
    0.00000E+00         0.00000E+00         0.00000E+00
 
    0.99931E+06         0.37180E+05         0.00000E+00
    0.37180E+05        -0.15334E+08         0.00000E+00
    0.00000E+00         0.00000E+00         0.00000E+00
 
    0.88857E+06         0.11034E+06         0.00000E+00
    0.11034E+06        -0.15337E+08         0.00000E+00
    0.00000E+00         0.00000E+00         0.00000E+00
 
    0.78422E+06         0.18338E+06         0.00000E+00
    0.18338E+06        -0.15342E+08         0.00000E+00
    0.00000E+00         0.00000E+00         0.00000E+00
 
    0.68602E+06         0.25650E+06         0.00000E+00
    0.25650E+06        -0.15350E+08         0.00000E+00
    0.00000E+00         0.00000E+00         0.00000E+00
 
    0.59376E+06         0.32990E+06         0.00000E+00
    0.32990E+06        -0.15361E+08         0.00000E+00
    0.00000E+00         0.00000E+00         0.00000E+00
 
    0.50724E+06         0.40374E+06         0.00000E+00
    0.40374E+06        -0.15374E+08         0.00000E+00
    0.00000E+00         0.00000E+00         0.00000E+00
 
    0.42622E+06         0.47821E+06         0.00000E+00
    0.47821E+06        -0.15388E+08         0.00000E+00
    0.00000E+00         0.00000E+00         0.00000E+00
 
    0.35051E+06         0.55343E+06         0.00000E+00
    0.55343E+06        -0.15405E+08         0.00000E+00
    0.00000E+00         0.00000E+00         0.00000E+00
 
    0.27990E+06         0.62957E+06         0.00000E+00
    0.62957E+06        -0.15424E+08         0.00000E+00
    0.00000E+00         0.00000E+00         0.00000E+00
 
    0.21417E+06         0.70675E+06         0.00000E+00
    0.70675E+06        -0.15445E+08         0.00000E+00
    0.00000E+00         0.00000E+00         0.00000E+00
 
    0.15312E+06         0.78507E+06         0.00000E+00
    0.78507E+06        -0.15467E+08         0.00000E+00
    0.00000E+00         0.00000E+00         0.00000E+00
 
    0.96555E+05         0.86466E+06         0.00000E+00
    0.86466E+06        -0.15491E+08         0.00000E+00
    0.00000E+00         0.00000E+00         0.00000E+00
 
    0.44274E+05         0.94561E+06         0.00000E+00
    0.94561E+06        -0.15517E+08         0.00000E+00
    0.00000E+00         0.00000E+00         0.00000E+00
 
   -0.39166E+04         0.10280E+07         0.00000E+00
    0.10280E+07        -0.15543E+08         0.00000E+00
    0.00000E+00         0.00000E+00         0.00000E+00
 
   -0.48205E+05         0.11119E+07         0.00000E+00
    0.11119E+07        -0.15572E+08         0.00000E+00
    0.00000E+00         0.00000E+00         0.00000E+00
 
   -0.88775E+05         0.11974E+07         0.00000E+00
    0.11974E+07        -0.15601E+08         0.00000E+00
    0.00000E+00         0.00000E+00         0.00000E+00
 
   -0.12581E+06         0.12846E+07         0.00000E+00
    0.12846E+07        -0.15632E+08         0.00000E+00
    0.00000E+00         0.00000E+00         0.00000E+00
 
   -0.15948E+06         0.13735E+07         0.00000E+00
    0.13735E+07        -0.15663E+08         0.00000E+00
    0.00000E+00         0.00000E+00         0.00000E+00
 
   -0.18997E+06         0.14642E+07         0.00000E+00
    0.14642E+07        -0.15696E+08         0.00000E+00
    0.00000E+00         0.00000E+00         0.00000E+00
 
   -0.21742E+06         0.15567E+07         0.00000E+00
    0.15567E+07        -0.15729E+08         0.00000E+00
    0.00000E+00         0.00000E+00         0.00000E+00
 
   -0.24201E+06         0.16510E+07         0.00000E+00
    0.16510E+07        -0.15763E+08         0.00000E+00
    0.00000E+00         0.00000E+00         0.00000E+00
 
   -0.26389E+06         0.17472E+07         0.00000E+00
    0.17472E+07        -0.15798E+08         0.00000E+00
    0.00000E+00         0.00000E+00         0.00000E+00
 
   -0.28321E+06         0.18453E+07         0.00000E+00
    0.18453E+07        -0.15833E+08         0.00000E+00
    0.00000E+00         0.00000E+00         0.00000E+00
 
   -0.30009E+06         0.19453E+07         0.00000E+00
    0.19453E+07        -0.15869E+08         0.00000E+00
    0.00000E+00         0.00000E+00         0.00000E+00
 
   -0.31468E+06         0.20472E+07         0.00000E+00
    0.20472E+07        -0.15906E+08         0.00000E+00
    0.00000E+00         0.00000E+00         0.00000E+00
 
   -0.32711E+06         0.21511E+07         0.00000E+00
    0.21511E+07        -0.15943E+08         0.00000E+00
    0.00000E+00         0.00000E+00         0.00000E+00
 
   -0.33748E+06         0.22569E+07         0.00000E+00
    0.22569E+07        -0.15980E+08         0.00000E+00
    0.00000E+00         0.00000E+00         0.00000E+00
 
   -0.34592E+06         0.23647E+07         0.00000E+00
    0.23647E+07        -0.16017E+08         0.00000E+00
    0.00000E+00         0.00000E+00         0.00000E+00
 
   -0.35252E+06         0.24743E+07         0.00000E+00
    0.24743E+07        -0.16055E+08         0.00000E+00
    0.00000E+00         0.00000E+00         0.00000E+00
 
   -0.35738E+06         0.25859E+07         0.00000E+00
    0.25859E+07        -0.16094E+08         0.00000E+00
    0.00000E+00         0.00000E+00         0.00000E+00
 
   -0.36055E+06         0.26994E+07         0.00000E+00
    0.26994E+07        -0.16132E+08         0.00000E+00
    0.00000E+00         0.00000E+00         0.00000E+00
 
   -0.36211E+06         0.28148E+07         0.00000E+00
    0.28148E+07        -0.16170E+08         0.00000E+00
    0.00000E+00         0.00000E+00         0.00000E+00
 
   -0.36211E+06         0.29320E+07         0.00000E+00
    0.29320E+07        -0.16209E+08         0.00000E+00
    0.00000E+00         0.00000E+00         0.00000E+00
 
   -0.36061E+06         0.30512E+07         0.00000E+00
    0.30512E+07        -0.16248E+08         0.00000E+00
    0.00000E+00         0.00000E+00         0.00000E+00
 
   -0.35768E+06         0.31722E+07         0.00000E+00
    0.31722E+07        -0.16287E+08         0.00000E+00
    0.00000E+00         0.00000E+00         0.00000E+00
 
   -0.35338E+06         0.32951E+07         0.00000E+00
    0.32951E+07        -0.16326E+08         0.00000E+00
    0.00000E+00         0.00000E+00         0.00000E+00
 
   -0.34773E+06         0.34196E+07         0.00000E+00
    0.34196E+07        -0.16365E+08         0.00000E+00
    0.00000E+00         0.00000E+00         0.00000E+00
 
   -0.34056E+06         0.35457E+07         0.00000E+00
    0.35457E+07        -0.16404E+08         0.00000E+00
    0.00000E+00         0.00000E+00         0.00000E+00
 
   -0.33171E+06         0.36734E+07         0.00000E+00
    0.36734E+07        -0.16444E+08         0.00000E+00
    0.00000E+00         0.00000E+00         0.00000E+00
 
   -0.32090E+06         0.38026E+07         0.00000E+00
    0.38026E+07        -0.16485E+08         0.00000E+00
    0.00000E+00         0.00000E+00         0.00000E+00
 
   -0.30790E+06         0.39339E+07         0.00000E+00
    0.39339E+07        -0.16526E+08         0.00000E+00
    0.00000E+00         0.00000E+00         0.00000E+00
 
   -0.29331E+06         0.40681E+07         0.00000E+00
    0.40681E+07        -0.16569E+08         0.00000E+00
    0.00000E+00         0.00000E+00         0.00000E+00
 
   -0.27807E+06         0.42049E+07         0.00000E+00
    0.42049E+07        -0.16611E+08         0.00000E+00
    0.00000E+00         0.00000E+00         0.00000E+00
 
   -0.26280E+06         0.43430E+07         0.00000E+00
    0.43430E+07        -0.16648E+08         0.00000E+00
    0.00000E+00         0.00000E+00         0.00000E+00
 
   -0.24720E+06         0.44802E+07         0.00000E+00
    0.44802E+07        -0.16685E+08         0.00000E+00
    0.00000E+00         0.00000E+00         0.00000E+00
 
   -0.22695E+06         0.46113E+07         0.00000E+00
    0.46113E+07        -0.16725E+08         0.00000E+00
    0.00000E+00         0.00000E+00         0.00000E+00
 
   -0.19625E+06         0.47410E+07         0.00000E+00
    0.47410E+07        -0.16779E+08         0.00000E+00
    0.00000E+00         0.00000E+00         0.00000E+00
 
   -0.15421E+06         0.48741E+07         0.00000E+00
    0.48741E+07        -0.16861E+08         0.00000E+00
    0.00000E+00         0.00000E+00        -0.27859E+04
 
   -0.15260E+06         0.49954E+07         0.00000E+00
    0.49954E+07        -0.16937E+08         0.00000E+00
    0.00000E+00         0.00000E+00        -0.57964E+05
 
   -0.15300E+06         0.51130E+07         0.00000E+00
    0.51130E+07        -0.17016E+08         0.00000E+00
    0.00000E+00         0.00000E+00        -0.12072E+06
 
    0.48484E+06         0.29122E+05         0.00000E+00
    0.29122E+05        -0.16180E+08         0.00000E+00
    0.00000E+00         0.00000E+00         0.00000E+00
 
    0.37447E+06         0.87971E+05         0.00000E+00
    0.87971E+05        -0.16183E+08         0.00000E+00
    0.00000E+00         0.00000E+00         0.00000E+00
 
    0.27155E+06         0.14734E+06         0.00000E+00
    0.14734E+06        -0.16190E+08         0.00000E+00
    0.00000E+00         0.00000E+00         0.00000E+00
 
    0.17577E+06         0.20743E+06         0.00000E+00
    0.20743E+06        -0.16200E+08         0.00000E+00
    0.00000E+00         0.00000E+00         0.00000E+00
 
    0.86850E+05         0.26841E+06         0.00000E+00
    0.26841E+06        -0.16212E+08         0.00000E+00
    0.00000E+00         0.00000E+00         0.00000E+00
 
    0.44959E+04         0.33046E+06         0.00000E+00
    0.33046E+06        -0.16227E+08         0.00000E+00
    0.00000E+00         0.00000E+00         0.00000E+00
 
   -0.71570E+05         0.39373E+06         0.00000E+00
    0.39373E+06        -0.16245E+08         0.00000E+00
    0.00000E+00         0.00000E+00         0.00000E+00
 
   -0.14162E+06         0.45836E+06         0.00000E+00
    0.45836E+06        -0.16265E+08         0.00000E+00
    0.00000E+00         0.00000E+00         0.00000E+00
 
   -0.20593E+06         0.52448E+06         0.00000E+00
    0.52448E+06        -0.16288E+08         0.00000E+00
    0.00000E+00         0.00000E+00         0.00000E+00
 
   -0.26476E+06         0.59219E+06         0.00000E+00
    0.59219E+06        -0.16312E+08         0.00000E+00
    0.00000E+00         0.00000E+00         0.00000E+00
 
   -0.31837E+06         0.66161E+06         0.00000E+00
    0.66161E+06        -0.16339E+08         0.00000E+00
    0.00000E+00         0.00000E+00         0.00000E+00
 
   -0.36700E+06         0.73283E+06         0.00000E+00
    0.73283E+06        -0.16367E+08         0.00000E+00
    0.00000E+00         0.00000E+00         0.00000E+00
 
   -0.41091E+06         0.80593E+06         0.00000E+00
    0.80593E+06        -0.16398E+08         0.00000E+00
    0.00000E+00         0.00000E+00         0.00000E+00
 
   -0.45033E+06         0.88099E+06         0.00000E+00
    0.88099E+06        -0.16430E+08         0.00000E+00
    0.00000E+00         0.00000E+00         0.00000E+00
 
   -0.48550E+06         0.95807E+06         0.00000E+00
    0.95807E+06        -0.16463E+08         0.00000E+00
    0.00000E+00         0.00000E+00         0.00000E+00
 
   -0.51664E+06         0.10372E+07         0.00000E+00
    0.10372E+07        -0.16498E+08         0.00000E+00
    0.00000E+00         0.00000E+00         0.00000E+00
 
   -0.54399E+06         0.11185E+07         0.00000E+00
    0.11185E+07        -0.16534E+08         0.00000E+00
    0.00000E+00         0.00000E+00         0.00000E+00
 
   -0.56774E+06         0.12019E+07         0.00000E+00
    0.12019E+07        -0.16572E+08         0.00000E+00
    0.00000E+00         0.00000E+00         0.00000E+00
 
   -0.58811E+06         0.12876E+07         0.00000E+00
    0.12876E+07        -0.16610E+08         0.00000E+00
    0.00000E+00         0.00000E+00         0.00000E+00
 
   -0.60530E+06         0.13754E+07         0.00000E+00
    0.13754E+07        -0.16650E+08         0.00000E+00
    0.00000E+00         0.00000E+00         0.00000E+00
 
   -0.61950E+06         0.14654E+07         0.00000E+00
    0.14654E+07        -0.16690E+08         0.00000E+00
    0.00000E+00         0.00000E+00         0.00000E+00
 
   -0.63091E+06         0.15578E+07         0.00000E+00
    0.15578E+07        -0.16732E+08         0.00000E+00
    0.00000E+00         0.00000E+00         0.00000E+00
 
   -0.63969E+06         0.16523E+07         0.00000E+00
    0.16523E+07        -0.16774E+08         0.00000E+00
    0.00000E+00         0.00000E+00         0.00000E+00
 
   -0.64604E+06         0.17491E+07         0.00000E+00
    0.17491E+07        -0.16817E+08         0.00000E+00
    0.00000E+00         0.00000E+00         0.00000E+00
 
   -0.65009E+06         0.18481E+07         0.00000E+00
    0.18481E+07        -0.16861E+08         0.00000E+00
    0.00000E+00         0.00000E+00         0.00000E+00
 
   -0.65202E+06         0.19493E+07         0.00000E+00
    0.19493E+07        -0.16905E+08         0.00000E+00
    0.00000E+00         0.00000E+00         0.00000E+00
 
   -0.65194E+06         0.20526E+07         0.00000E+00
    0.20526E+07        -0.16950E+08         0.00000E+00
    0.00000E+00         0.00000E+00         0.00000E+00
 
   -0.65000E+06         0.21581E+07         0.00000E+00
    0.21581E+07        -0.16995E+08         0.00000E+00
    0.00000E+00         0.00000E+00         0.00000E+00
 
   -0.64631E+06         0.22657E+07         0.00000E+00
    0.22657E+07        -0.17041E+08         0.00000E+00
    0.00000E+00         0.00000E+00         0.00000E+00
 
   -0.64104E+06         0.23754E+07         0.00000E+00
    0.23754E+07        -0.17087E+08         0.00000E+00
    0.00000E+00         0.00000E+00         0.00000E+00
 
   -0.63433E+06         0.24872E+07         0.00000E+00
    0.24872E+07        -0.17134E+08         0.00000E+00
    0.00000E+00         0.00000E+00         0.00000E+00
 
   -0.62629E+06         0.26009E+07         0.00000E+00
    0.26009E+07        -0.17181E+08         0.00000E+00
    0.00000E+00         0.00000E+00         0.00000E+00
 
   -0.61695E+06         0.27163E+07         0.00000E+00
    0.27163E+07        -0.17228E+08         0.00000E+00
    0.00000E+00         0.00000E+00         0.00000E+00
 
   -0.60626E+06         0.28334E+07         0.00000E+00
    0.28334E+07        -0.17276E+08         0.00000E+00
    0.00000E+00         0.00000E+00         0.00000E+00
 
   -0.59411E+06         0.29520E+07         0.00000E+00
    0.29520E+07        -0.17325E+08         0.00000E+00
    0.00000E+00         0.00000E+00         0.00000E+00
 
   -0.58035E+06         0.30724E+07         0.00000E+00
    0.30724E+07        -0.17374E+08         0.00000E+00
    0.00000E+00         0.00000E+00         0.00000E+00
 
   -0.56520E+06         0.31950E+07         0.00000E+00
    0.31950E+07        -0.17424E+08         0.00000E+00
    0.00000E+00         0.00000E+00         0.00000E+00
 
   -0.54949E+06         0.33202E+07         0.00000E+00
    0.33202E+07        -0.17475E+08         0.00000E+00
    0.00000E+00         0.00000E+00         0.00000E+00
 
   -0.53374E+06         0.34467E+07         0.00000E+00
    0.34467E+07        -0.17523E+08         0.00000E+00
    0.00000E+00         0.00000E+00         0.00000E+00
 
   -0.51884E+06         0.35748E+07         0.00000E+00
    0.35748E+07        -0.17570E+08         0.00000E+00
    0.00000E+00         0.00000E+00         0.00000E+00
 
   -0.50477E+06         0.37009E+07         0.00000E+00
    0.37009E+07        -0.17617E+08         0.00000E+00
    0.00000E+00         0.00000E+00         0.00000E+00
 
   -0.48757E+06         0.38214E+07         0.00000E+00
    0.38214E+07        -0.17666E+08         0.00000E+00
    0.00000E+00         0.00000E+00         0.00000E+00
 
   -0.46253E+06         0.39398E+07         0.00000E+00
    0.39398E+07        -0.17725E+08         0.00000E+00
    0.00000E+00         0.00000E+00         0.00000E+00
 
   -0.42674E+06         0.40615E+07         0.00000E+00
    0.40615E+07        -0.17812E+08         0.00000E+00
    0.00000E+00         0.00000E+00         0.00000E+00
 
   -0.42184E+06         0.41752E+07         0.00000E+00
    0.41752E+07        -0.17891E+08         0.00000E+00
    0.00000E+00         0.00000E+00        -0.43650E+05
 
   -0.42183E+06         0.42871E+07         0.00000E+00
    0.42871E+07        -0.17971E+08         0.00000E+00
    0.00000E+00         0.00000E+00        -0.10039E+06
 
   -0.43528E+06         0.43927E+07         0.00000E+00
    0.43927E+07        -0.18045E+08         0.00000E+00
    0.00000E+00         0.00000E+00        -0.17880E+06
 
   -0.48772E+06         0.44811E+07         0.00000E+00
    0.44811E+07        -0.18105E+08         0.00000E+00
    0.00000E+00         0.00000E+00        -0.30312E+06
 
   -0.55318E+06         0.45679E+07         0.00000E+00
    0.45679E+07        -0.18190E+08         0.00000E+00
    0.00000E+00         0.00000E+00        -0.44514E+06
 
   -0.61948E+06         0.46431E+07         0.00000E+00
    0.46431E+07        -0.18284E+08         0.00000E+00
    0.00000E+00         0.00000E+00        -0.58546E+06
 
   -0.14257E+06         0.19394E+05         0.00000E+00
    0.19394E+05        -0.17058E+08         0.00000E+00
    0.00000E+00         0.00000E+00         0.00000E+00
 
   -0.24880E+06         0.61207E+05         0.00000E+00
    0.61207E+05        -0.17062E+08         0.00000E+00
    0.00000E+00         0.00000E+00         0.00000E+00
 
   -0.34660E+06         0.10438E+06         0.00000E+00
    0.10438E+06        -0.17070E+08         0.00000E+00
    0.00000E+00         0.00000E+00         0.00000E+00
 
   -0.43635E+06         0.14910E+06         0.00000E+00
    0.14910E+06        -0.17081E+08         0.00000E+00
    0.00000E+00         0.00000E+00         0.00000E+00
 
   -0.51843E+06         0.19550E+06         0.00000E+00
    0.19550E+06        -0.17095E+08         0.00000E+00
    0.00000E+00         0.00000E+00         0.00000E+00
 
   -0.59318E+06         0.24374E+06         0.00000E+00
    0.24374E+06        -0.17113E+08         0.00000E+00
    0.00000E+00         0.00000E+00         0.00000E+00
 
   -0.66096E+06         0.29394E+06         0.00000E+00
    0.29394E+06        -0.17133E+08         0.00000E+00
    0.00000E+00         0.00000E+00         0.00000E+00
 
   -0.72211E+06         0.34622E+06         0.00000E+00
    0.34622E+06        -0.17157E+08         0.00000E+00
    0.00000E+00         0.00000E+00         0.00000E+00
 
   -0.77694E+06         0.40068E+06         0.00000E+00
    0.40068E+06        -0.17182E+08         0.00000E+00
    0.00000E+00         0.00000E+00         0.00000E+00
 
   -0.82580E+06         0.45742E+06         0.00000E+00
    0.45742E+06        -0.17211E+08         0.00000E+00
    0.00000E+00         0.00000E+00         0.00000E+00
 
   -0.86898E+06         0.51651E+06         0.00000E+00
    0.51651E+06        -0.17241E+08         0.00000E+00
    0.00000E+00         0.00000E+00         0.00000E+00
 
   -0.90679E+06         0.57803E+06         0.00000E+00
    0.57803E+06        -0.17274E+08         0.00000E+00
    0.00000E+00         0.00000E+00         0.00000E+00
 
   -0.93952E+06         0.64203E+06         0.00000E+00
    0.64203E+06        -0.17308E+08         0.00000E+00
    0.00000E+00         0.00000E+00         0.00000E+00
 
   -0.96747E+06         0.70857E+06         0.00000E+00
    0.70857E+06        -0.17345E+08         0.00000E+00
    0.00000E+00         0.00000E+00         0.00000E+00
 
   -0.99090E+06         0.77768E+06         0.00000E+00
    0.77768E+06        -0.17383E+08         0.00000E+00
    0.00000E+00         0.00000E+00         0.00000E+00
 
   -0.10101E+07         0.84941E+06         0.00000E+00
    0.84941E+06        -0.17423E+08         0.00000E+00
    0.00000E+00         0.00000E+00         0.00000E+00
 
   -0.10253E+07         0.92378E+06         0.00000E+00
    0.92378E+06        -0.17464E+08         0.00000E+00
    0.00000E+00         0.00000E+00         0.00000E+00
 
   -0.10368E+07         0.10008E+07         0.00000E+00
    0.10008E+07        -0.17507E+08         0.00000E+00
    0.00000E+00         0.00000E+00         0.00000E+00
 
   -0.10449E+07         0.10805E+07         0.00000E+00
    0.10805E+07        -0.17551E+08         0.00000E+00
    0.00000E+00         0.00000E+00         0.00000E+00
 
   -0.10497E+07         0.11628E+07         0.00000E+00
    0.11628E+07        -0.17596E+08         0.00000E+00
    0.00000E+00         0.00000E+00         0.00000E+00
 
   -0.10516E+07         0.12478E+07         0.00000E+00
    0.12478E+07        -0.17642E+08         0.00000E+00
    0.00000E+00         0.00000E+00         0.00000E+00
 
   -0.10507E+07         0.13354E+07         0.00000E+00
    0.13354E+07        -0.17690E+08         0.00000E+00
    0.00000E+00         0.00000E+00         0.00000E+00
 
   -0.10472E+07         0.14256E+07         0.00000E+00
    0.14256E+07        -0.17738E+08         0.00000E+00
    0.00000E+00         0.00000E+00         0.00000E+00
 
   -0.10413E+07         0.15184E+07         0.00000E+00
    0.15184E+07        -0.17787E+08         0.00000E+00
    0.00000E+00         0.00000E+00         0.00000E+00
 
   -0.10333E+07         0.16138E+07         0.00000E+00
    0.16138E+07        -0.17837E+08         0.00000E+00
    0.00000E+00         0.00000E+00         0.00000E+00
 
   -0.10235E+07         0.17117E+07         0.00000E+00
    0.17117E+07        -0.17887E+08         0.00000E+00
    0.00000E+00         0.00000E+00         0.00000E+00
 
   -0.10119E+07         0.18119E+07         0.00000E+00
    0.18119E+07        -0.17938E+08         0.00000E+00
    0.00000E+00         0.00000E+00         0.00000E+00
 
   -0.99883E+06         0.19145E+07         0.00000E+00
    0.19145E+07        -0.17990E+08         0.00000E+00
    0.00000E+00         0.00000E+00         0.00000E+00
 
   -0.98428E+06         0.20192E+07         0.00000E+00
    0.20192E+07        -0.18042E+08         0.00000E+00
    0.00000E+00         0.00000E+00         0.00000E+00
 
   -0.96826E+06         0.21259E+07         0.00000E+00
    0.21259E+07        -0.18095E+08         0.00000E+00
    0.00000E+00         0.00000E+00         0.00000E+00
 
   -0.95072E+06         0.22346E+07         0.00000E+00
    0.22346E+07        -0.18148E+08         0.00000E+00
    0.00000E+00         0.00000E+00         0.00000E+00
 
   -0.93190E+06         0.23459E+07         0.00000E+00
    0.23459E+07        -0.18203E+08         0.00000E+00
    0.00000E+00         0.00000E+00         0.00000E+00
 
   -0.91243E+06         0.24598E+07         0.00000E+00
    0.24598E+07        -0.18258E+08         0.00000E+00
    0.00000E+00         0.00000E+00         0.00000E+00
 
   -0.89296E+06         0.25761E+07         0.00000E+00
    0.25761E+07        -0.18312E+08         0.00000E+00
    0.00000E+00         0.00000E+00         0.00000E+00
 
   -0.87432E+06         0.26942E+07         0.00000E+00
    0.26942E+07        -0.18364E+08         0.00000E+00
    0.00000E+00         0.00000E+00         0.00000E+00
 
   -0.85717E+06         0.28127E+07         0.00000E+00
    0.28127E+07        -0.18415E+08         0.00000E+00
    0.00000E+00         0.00000E+00         0.00000E+00
 
   -0.83984E+06         0.29280E+07         0.00000E+00
    0.29280E+07        -0.18467E+08         0.00000E+00
    0.00000E+00         0.00000E+00         0.00000E+00
 
   -0.81830E+06         0.30397E+07         0.00000E+00
    0.30397E+07        -0.18520E+08         0.00000E+00
    0.00000E+00         0.00000E+00         0.00000E+00
 
   -0.79043E+06         0.31537E+07         0.00000E+00
    0.31537E+07        -0.18592E+08         0.00000E+00
    0.00000E+00         0.00000E+00         0.00000E+00
 
   -0.75528E+06         0.32679E+07         0.00000E+00
    0.32679E+07        -0.18678E+08         0.00000E+00
    0.00000E+00         0.00000E+00        -0.29491E+04
 
   -0.75041E+06         0.33783E+07         0.00000E+00
    0.33783E+07        -0.18753E+08         0.00000E+00
    0.00000E+00         0.00000E+00        -0.51580E+05
 
   -0.74126E+06         0.34909E+07         0.00000E+00
    0.34909E+07        -0.18829E+08         0.00000E+00
    0.00000E+00         0.00000E+00        -0.10526E+06
 
   -0.73888E+06         0.36020E+07         0.00000E+00
    0.36020E+07        -0.18898E+08         0.00000E+00
    0.00000E+00         0.00000E+00        -0.17695E+06
 
   -0.77237E+06         0.37017E+07         0.00000E+00
    0.37017E+07        -0.18949E+08         0.00000E+00
    0.00000E+00         0.00000E+00        -0.29691E+06
 
   -0.81453E+06         0.38003E+07         0.00000E+00
    0.38003E+07        -0.19018E+08         0.00000E+00
    0.00000E+00         0.00000E+00        -0.43322E+06
 
   -0.85842E+06         0.38918E+07         0.00000E+00
    0.38918E+07        -0.19095E+08         0.00000E+00
    0.00000E+00         0.00000E+00        -0.57301E+06
 
   -0.90668E+06         0.39745E+07         0.00000E+00
    0.39745E+07        -0.19177E+08         0.00000E+00
    0.00000E+00         0.00000E+00        -0.70874E+06
 
   -0.96430E+06         0.40551E+07         0.00000E+00
    0.40551E+07        -0.19262E+08         0.00000E+00
    0.00000E+00         0.00000E+00        -0.83969E+06
 
   -0.10272E+07         0.41338E+07         0.00000E+00
    0.41338E+07        -0.19344E+08         0.00000E+00
    0.00000E+00         0.00000E+00        -0.96048E+06
 
   -0.10967E+07         0.42149E+07         0.00000E+00
    0.42149E+07        -0.19423E+08         0.00000E+00
    0.00000E+00         0.00000E+00        -0.10760E+07
 
   -0.89569E+06         0.81443E+04         0.00000E+00
    0.81443E+04        -0.17968E+08         0.00000E+00
    0.00000E+00         0.00000E+00         0.00000E+00
 
   -0.99297E+06         0.30485E+05         0.00000E+00
    0.30485E+05        -0.17973E+08         0.00000E+00
    0.00000E+00         0.00000E+00         0.00000E+00
 
   -0.10810E+07         0.55231E+05         0.00000E+00
    0.55231E+05        -0.17981E+08         0.00000E+00
    0.00000E+00         0.00000E+00         0.00000E+00
 
   -0.11603E+07         0.82509E+05         0.00000E+00
    0.82509E+05        -0.17994E+08         0.00000E+00
    0.00000E+00         0.00000E+00         0.00000E+00
 
   -0.12312E+07         0.11243E+06         0.00000E+00
    0.11243E+06        -0.18010E+08         0.00000E+00
    0.00000E+00         0.00000E+00         0.00000E+00
 
   -0.12942E+07         0.14511E+06         0.00000E+00
    0.14511E+06        -0.18029E+08         0.00000E+00
    0.00000E+00         0.00000E+00         0.00000E+00
 
   -0.13497E+07         0.18061E+06         0.00000E+00
    0.18061E+06        -0.18052E+08         0.00000E+00
    0.00000E+00         0.00000E+00         0.00000E+00
 
   -0.13981E+07         0.21904E+06         0.00000E+00
    0.21904E+06        -0.18078E+08         0.00000E+00
    0.00000E+00         0.00000E+00         0.00000E+00
 
   -0.14397E+07         0.26046E+06         0.00000E+00
    0.26046E+06        -0.18106E+08         0.00000E+00
    0.00000E+00         0.00000E+00         0.00000E+00
 
   -0.14750E+07         0.30493E+06         0.00000E+00
    0.30493E+06        -0.18137E+08         0.00000E+00
    0.00000E+00         0.00000E+00         0.00000E+00
 
   -0.15043E+07         0.35250E+06         0.00000E+00
    0.35250E+06        -0.18171E+08         0.00000E+00
    0.00000E+00         0.00000E+00         0.00000E+00
 
   -0.15279E+07         0.40322E+06         0.00000E+00
    0.40322E+06        -0.18207E+08         0.00000E+00
    0.00000E+00         0.00000E+00         0.00000E+00
 
   -0.15463E+07         0.45712E+06         0.00000E+00
    0.45712E+06        -0.18245E+08         0.00000E+00
    0.00000E+00         0.00000E+00         0.00000E+00
 
   -0.15597E+07         0.51420E+06         0.00000E+00
    0.51420E+06        -0.18285E+08         0.00000E+00
    0.00000E+00         0.00000E+00         0.00000E+00
 
   -0.15685E+07         0.57449E+06         0.00000E+00
    0.57449E+06        -0.18327E+08         0.00000E+00
    0.00000E+00         0.00000E+00         0.00000E+00
 
   -0.15729E+07         0.63799E+06         0.00000E+00
    0.63799E+06        -0.18371E+08         0.00000E+00
    0.00000E+00         0.00000E+00         0.00000E+00
 
   -0.15733E+07         0.70467E+06         0.00000E+00
    0.70467E+06        -0.18416E+08         0.00000E+00
    0.00000E+00         0.00000E+00         0.00000E+00
 
   -0.15700E+07         0.77455E+06         0.00000E+00
    0.77455E+06        -0.18463E+08         0.00000E+00
    0.00000E+00         0.00000E+00         0.00000E+00
 
   -0.15632E+07         0.84766E+06         0.00000E+00
    0.84766E+06        -0.18511E+08         0.00000E+00
    0.00000E+00         0.00000E+00         0.00000E+00
 
   -0.15532E+07         0.92399E+06         0.00000E+00
    0.92399E+06        -0.18561E+08         0.00000E+00
    0.00000E+00         0.00000E+00         0.00000E+00
 
   -0.15405E+07         0.10034E+07         0.00000E+00
    0.10034E+07        -0.18611E+08         0.00000E+00
    0.00000E+00         0.00000E+00         0.00000E+00
 
   -0.15253E+07         0.10860E+07         0.00000E+00
    0.10860E+07        -0.18663E+08         0.00000E+00
    0.00000E+00         0.00000E+00         0.00000E+00
 
   -0.15077E+07         0.11716E+07         0.00000E+00
    0.11716E+07        -0.18716E+08         0.00000E+00
    0.00000E+00         0.00000E+00         0.00000E+00
 
   -0.14882E+07         0.12599E+07         0.00000E+00
    0.12599E+07        -0.18769E+08         0.00000E+00
    0.00000E+00         0.00000E+00         0.00000E+00
 
   -0.14665E+07         0.13509E+07         0.00000E+00
    0.13509E+07        -0.18823E+08         0.00000E+00
    0.00000E+00         0.00000E+00         0.00000E+00
 
   -0.14429E+07         0.14447E+07         0.00000E+00
    0.14447E+07        -0.18879E+08         0.00000E+00
    0.00000E+00         0.00000E+00         0.00000E+00
 
   -0.14176E+07         0.15417E+07         0.00000E+00
    0.15417E+07        -0.18934E+08         0.00000E+00
    0.00000E+00         0.00000E+00         0.00000E+00
 
   -0.13914E+07         0.16419E+07         0.00000E+00
    0.16419E+07        -0.18992E+08         0.00000E+00
    0.00000E+00         0.00000E+00         0.00000E+00
 
   -0.13647E+07         0.17452E+07         0.00000E+00
    0.17452E+07        -0.19049E+08         0.00000E+00
    0.00000E+00         0.00000E+00         0.00000E+00
 
   -0.13387E+07         0.18514E+07         0.00000E+00
    0.18514E+07        -0.19103E+08         0.00000E+00
    0.00000E+00         0.00000E+00         0.00000E+00
 
   -0.13141E+07         0.19590E+07         0.00000E+00
    0.19590E+07        -0.19157E+08         0.00000E+00
    0.00000E+00         0.00000E+00         0.00000E+00
 
   -0.12895E+07         0.20649E+07         0.00000E+00
    0.20649E+07        -0.19212E+08         0.00000E+00
    0.00000E+00         0.00000E+00         0.00000E+00
 
   -0.12622E+07         0.21691E+07         0.00000E+00
    0.21691E+07        -0.19267E+08         0.00000E+00
    0.00000E+00         0.00000E+00         0.00000E+00
 
   -0.12298E+07         0.22743E+07         0.00000E+00
    0.22743E+07        -0.19331E+08         0.00000E+00
    0.00000E+00         0.00000E+00         0.00000E+00
 
   -0.11899E+07         0.23821E+07         0.00000E+00
    0.23821E+07        -0.19414E+08         0.00000E+00
    0.00000E+00         0.00000E+00         0.00000E+00
 
   -0.11657E+07         0.24893E+07         0.00000E+00
    0.24893E+07        -0.19491E+08         0.00000E+00
    0.00000E+00         0.00000E+00        -0.30211E+05
 
   -0.11474E+07         0.25993E+07         0.00000E+00
    0.25993E+07        -0.19562E+08         0.00000E+00
    0.00000E+00         0.00000E+00        -0.79569E+05
 
   -0.11209E+07         0.27139E+07         0.00000E+00
    0.27139E+07        -0.19633E+08         0.00000E+00
    0.00000E+00         0.00000E+00        -0.13149E+06
 
   -0.11171E+07         0.28259E+07         0.00000E+00
    0.28259E+07        -0.19688E+08         0.00000E+00
    0.00000E+00         0.00000E+00        -0.22301E+06
 
   -0.11279E+07         0.29329E+07         0.00000E+00
    0.29329E+07        -0.19734E+08         0.00000E+00
    0.00000E+00         0.00000E+00        -0.34155E+06
 
   -0.11480E+07         0.30402E+07         0.00000E+00
    0.30402E+07        -0.19798E+08         0.00000E+00
    0.00000E+00         0.00000E+00        -0.47710E+06
 
   -0.11685E+07         0.31407E+07         0.00000E+00
    0.31407E+07        -0.19865E+08         0.00000E+00
    0.00000E+00         0.00000E+00        -0.61468E+06
 
   -0.11944E+07         0.32335E+07         0.00000E+00
    0.32335E+07        -0.19937E+08         0.00000E+00
    0.00000E+00         0.00000E+00        -0.74994E+06
 
   -0.12301E+07         0.33236E+07         0.00000E+00
    0.33236E+07        -0.20014E+08         0.00000E+00
    0.00000E+00         0.00000E+00        -0.88219E+06
 
   -0.12724E+07         0.34114E+07         0.00000E+00
    0.34114E+07        -0.20089E+08         0.00000E+00
    0.00000E+00         0.00000E+00        -0.10064E+07
 
   -0.13223E+07         0.34999E+07         0.00000E+00
    0.34999E+07        -0.20163E+08         0.00000E+00
    0.00000E+00         0.00000E+00        -0.11255E+07
 
   -0.13774E+07         0.35900E+07         0.00000E+00
    0.35900E+07        -0.20236E+08         0.00000E+00
    0.00000E+00         0.00000E+00        -0.12399E+07
 
   -0.14359E+07         0.36804E+07         0.00000E+00
    0.36804E+07        -0.20305E+08         0.00000E+00
    0.00000E+00         0.00000E+00        -0.13492E+07
 
   -0.14993E+07         0.37713E+07         0.00000E+00
    0.37713E+07        -0.20372E+08         0.00000E+00
    0.00000E+00         0.00000E+00        -0.14543E+07
 
   -0.15676E+07         0.38619E+07         0.00000E+00
    0.38619E+07        -0.20438E+08         0.00000E+00
    0.00000E+00         0.00000E+00        -0.15545E+07
 
   -0.17849E+07        -0.43266E+04         0.00000E+00
   -0.43266E+04        -0.18909E+08         0.00000E+00
    0.00000E+00         0.00000E+00         0.00000E+00
 
   -0.18675E+07        -0.33708E+04         0.00000E+00
   -0.33708E+04        -0.18914E+08         0.00000E+00
    0.00000E+00         0.00000E+00         0.00000E+00
 
   -0.19403E+07         0.11773E+04         0.00000E+00
    0.11773E+04        -0.18923E+08         0.00000E+00
    0.00000E+00         0.00000E+00         0.00000E+00
 
   -0.20038E+07         0.94012E+04         0.00000E+00
    0.94012E+04        -0.18937E+08         0.00000E+00
    0.00000E+00         0.00000E+00         0.00000E+00
 
   -0.20585E+07         0.21368E+05         0.00000E+00
    0.21368E+05        -0.18954E+08         0.00000E+00
    0.00000E+00         0.00000E+00         0.00000E+00
 
   -0.21049E+07         0.37137E+05         0.00000E+00
    0.37137E+05        -0.18974E+08         0.00000E+00
    0.00000E+00         0.00000E+00         0.00000E+00
 
   -0.21435E+07         0.56752E+05         0.00000E+00
    0.56752E+05        -0.18999E+08         0.00000E+00
    0.00000E+00         0.00000E+00         0.00000E+00
 
   -0.21746E+07         0.80228E+05         0.00000E+00
    0.80228E+05        -0.19026E+08         0.00000E+00
    0.00000E+00         0.00000E+00         0.00000E+00
 
   -0.21989E+07         0.10760E+06         0.00000E+00
    0.10760E+06        -0.19056E+08         0.00000E+00
    0.00000E+00         0.00000E+00         0.00000E+00
 
   -0.22165E+07         0.13888E+06         0.00000E+00
    0.13888E+06        -0.19089E+08         0.00000E+00
    0.00000E+00         0.00000E+00         0.00000E+00
 
   -0.22281E+07         0.17407E+06         0.00000E+00
    0.17407E+06        -0.19125E+08         0.00000E+00
    0.00000E+00         0.00000E+00         0.00000E+00
 
   -0.22338E+07         0.21316E+06         0.00000E+00
    0.21316E+06        -0.19163E+08         0.00000E+00
    0.00000E+00         0.00000E+00         0.00000E+00
 
   -0.22341E+07         0.25619E+06         0.00000E+00
    0.25619E+06        -0.19203E+08         0.00000E+00
    0.00000E+00         0.00000E+00         0.00000E+00
 
   -0.22295E+07         0.30322E+06         0.00000E+00
    0.30322E+06        -0.19246E+08         0.00000E+00
    0.00000E+00         0.00000E+00         0.00000E+00
 
   -0.22202E+07         0.35418E+06         0.00000E+00
    0.35418E+06        -0.19290E+08         0.00000E+00
    0.00000E+00         0.00000E+00         0.00000E+00
 
   -0.22067E+07         0.40905E+06         0.00000E+00
    0.40905E+06        -0.19337E+08         0.00000E+00
    0.00000E+00         0.00000E+00         0.00000E+00
 
   -0.21894E+07         0.46784E+06         0.00000E+00
    0.46784E+06        -0.19385E+08         0.00000E+00
    0.00000E+00         0.00000E+00         0.00000E+00
 
   -0.21685E+07         0.53036E+06         0.00000E+00
    0.53036E+06        -0.19434E+08         0.00000E+00
    0.00000E+00         0.00000E+00         0.00000E+00
 
   -0.21444E+07         0.59637E+06         0.00000E+00
    0.59637E+06        -0.19484E+08         0.00000E+00
    0.00000E+00         0.00000E+00         0.00000E+00
 
   -0.21171E+07         0.66588E+06         0.00000E+00
    0.66588E+06        -0.19536E+08         0.00000E+00
    0.00000E+00         0.00000E+00         0.00000E+00
 
   -0.20868E+07         0.73923E+06         0.00000E+00
    0.73923E+06        -0.19590E+08         0.00000E+00
    0.00000E+00         0.00000E+00         0.00000E+00
 
   -0.20540E+07         0.81646E+06         0.00000E+00
    0.81646E+06        -0.19644E+08         0.00000E+00
    0.00000E+00         0.00000E+00         0.00000E+00
 
   -0.20192E+07         0.89767E+06         0.00000E+00
    0.89767E+06        -0.19700E+08         0.00000E+00
    0.00000E+00         0.00000E+00         0.00000E+00
 
   -0.19833E+07         0.98302E+06         0.00000E+00
    0.98302E+06        -0.19757E+08         0.00000E+00
    0.00000E+00         0.00000E+00         0.00000E+00
 
   -0.19474E+07         0.10725E+07         0.00000E+00
    0.10725E+07        -0.19812E+08         0.00000E+00
    0.00000E+00         0.00000E+00         0.00000E+00
 
   -0.19122E+07         0.11640E+07         0.00000E+00
    0.11640E+07        -0.19866E+08         0.00000E+00
    0.00000E+00         0.00000E+00         0.00000E+00
 
   -0.18764E+07         0.12550E+07         0.00000E+00
    0.12550E+07        -0.19922E+08         0.00000E+00
    0.00000E+00         0.00000E+00         0.00000E+00
 
   -0.18373E+07         0.13463E+07         0.00000E+00
    0.13463E+07        -0.19977E+08         0.00000E+00
    0.00000E+00         0.00000E+00         0.00000E+00
 
   -0.17937E+07         0.14395E+07         0.00000E+00
    0.14395E+07        -0.20040E+08         0.00000E+00
    0.00000E+00         0.00000E+00         0.00000E+00
 
   -0.17433E+07         0.15358E+07         0.00000E+00
    0.15358E+07        -0.20119E+08         0.00000E+00
    0.00000E+00         0.00000E+00         0.00000E+00
 
   -0.17058E+07         0.16343E+07         0.00000E+00
    0.16343E+07        -0.20192E+08         0.00000E+00
    0.00000E+00         0.00000E+00        -0.28119E+05
 
   -0.16721E+07         0.17376E+07         0.00000E+00
    0.17376E+07        -0.20260E+08         0.00000E+00
    0.00000E+00         0.00000E+00        -0.73644E+05
 
   -0.16300E+07         0.18471E+07         0.00000E+00
    0.18471E+07        -0.20326E+08         0.00000E+00
    0.00000E+00         0.00000E+00        -0.12173E+06
 
   -0.15939E+07         0.19600E+07         0.00000E+00
    0.19600E+07        -0.20384E+08         0.00000E+00
    0.00000E+00         0.00000E+00        -0.19183E+06
 
   -0.15801E+07         0.20712E+07         0.00000E+00
    0.20712E+07        -0.20425E+08         0.00000E+00
    0.00000E+00         0.00000E+00        -0.30257E+06
 
   -0.15700E+07         0.21829E+07         0.00000E+00
    0.21829E+07        -0.20476E+08         0.00000E+00
    0.00000E+00         0.00000E+00        -0.42696E+06
 
   -0.15631E+07         0.22925E+07         0.00000E+00
    0.22925E+07        -0.20535E+08         0.00000E+00
    0.00000E+00         0.00000E+00        -0.55997E+06
 
   -0.15590E+07         0.23961E+07         0.00000E+00
    0.23961E+07        -0.20597E+08         0.00000E+00
    0.00000E+00         0.00000E+00        -0.69391E+06
 
   -0.15629E+07         0.24947E+07         0.00000E+00
    0.24947E+07        -0.20663E+08         0.00000E+00
    0.00000E+00         0.00000E+00        -0.82738E+06
 
   -0.15764E+07         0.25914E+07         0.00000E+00
    0.25914E+07        -0.20733E+08         0.00000E+00
    0.00000E+00         0.00000E+00        -0.95857E+06
 
   -0.15964E+07         0.26859E+07         0.00000E+00
    0.26859E+07        -0.20802E+08         0.00000E+00
    0.00000E+00         0.00000E+00        -0.10831E+07
 
   -0.16246E+07         0.27812E+07         0.00000E+00
    0.27812E+07        -0.20872E+08         0.00000E+00
    0.00000E+00         0.00000E+00        -0.12042E+07
 
   -0.16586E+07         0.28771E+07         0.00000E+00
    0.28771E+07        -0.20940E+08         0.00000E+00
    0.00000E+00         0.00000E+00        -0.13213E+07
 
   -0.16969E+07         0.29730E+07         0.00000E+00
    0.29730E+07        -0.21006E+08         0.00000E+00
    0.00000E+00         0.00000E+00        -0.14334E+07
 
   -0.17404E+07         0.30694E+07         0.00000E+00
    0.30694E+07        -0.21071E+08         0.00000E+00
    0.00000E+00         0.00000E+00        -0.15415E+07
 
   -0.17886E+07         0.31657E+07         0.00000E+00
    0.31657E+07        -0.21134E+08         0.00000E+00
    0.00000E+00         0.00000E+00        -0.16453E+07
 
   -0.18423E+07         0.32622E+07         0.00000E+00
    0.32622E+07        -0.21196E+08         0.00000E+00
    0.00000E+00         0.00000E+00        -0.17451E+07
 
   -0.19015E+07         0.33583E+07         0.00000E+00
    0.33583E+07        -0.21258E+08         0.00000E+00
    0.00000E+00         0.00000E+00        -0.18413E+07
 
   -0.19653E+07         0.34543E+07         0.00000E+00
    0.34543E+07        -0.21319E+08         0.00000E+00
    0.00000E+00         0.00000E+00        -0.19337E+07
 
   -0.20325E+07         0.35508E+07         0.00000E+00
    0.35508E+07        -0.21379E+08         0.00000E+00
    0.00000E+00         0.00000E+00        -0.20230E+07
 
   -0.28170E+07        -0.17560E+05         0.00000E+00
   -0.17560E+05        -0.19879E+08         0.00000E+00
    0.00000E+00         0.00000E+00         0.00000E+00
 
   -0.28783E+07        -0.39258E+05         0.00000E+00
   -0.39258E+05        -0.19884E+08         0.00000E+00
    0.00000E+00         0.00000E+00         0.00000E+00
 
   -0.29297E+07        -0.55985E+05         0.00000E+00
   -0.55985E+05        -0.19894E+08         0.00000E+00
    0.00000E+00         0.00000E+00         0.00000E+00
 
   -0.29715E+07        -0.67777E+05         0.00000E+00
   -0.67777E+05        -0.19907E+08         0.00000E+00
    0.00000E+00         0.00000E+00         0.00000E+00
 
   -0.30044E+07        -0.74655E+05         0.00000E+00
   -0.74655E+05        -0.19925E+08         0.00000E+00
    0.00000E+00         0.00000E+00         0.00000E+00
 
   -0.30289E+07        -0.76639E+05         0.00000E+00
   -0.76639E+05        -0.19946E+08         0.00000E+00
    0.00000E+00         0.00000E+00         0.00000E+00
 
   -0.30454E+07        -0.73715E+05         0.00000E+00
   -0.73715E+05        -0.19971E+08         0.00000E+00
    0.00000E+00         0.00000E+00         0.00000E+00
 
   -0.30544E+07        -0.65819E+05         0.00000E+00
   -0.65819E+05        -0.19999E+08         0.00000E+00
    0.00000E+00         0.00000E+00         0.00000E+00
 
   -0.30564E+07        -0.52991E+05         0.00000E+00
   -0.52991E+05        -0.20030E+08         0.00000E+00
    0.00000E+00         0.00000E+00         0.00000E+00
 
   -0.30519E+07        -0.35281E+05         0.00000E+00
   -0.35281E+05        -0.20064E+08         0.00000E+00
    0.00000E+00         0.00000E+00         0.00000E+00
 
   -0.30414E+07        -0.12669E+05         0.00000E+00
   -0.12669E+05        -0.20101E+08         0.00000E+00
    0.00000E+00         0.00000E+00         0.00000E+00
 
   -0.30254E+07         0.14758E+05         0.00000E+00
    0.14758E+05        -0.20140E+08         0.00000E+00
    0.00000E+00         0.00000E+00         0.00000E+00
 
   -0.30041E+07         0.46759E+05         0.00000E+00
    0.46759E+05        -0.20180E+08         0.00000E+00
    0.00000E+00         0.00000E+00         0.00000E+00
 
   -0.29779E+07         0.83097E+05         0.00000E+00
    0.83097E+05        -0.20223E+08         0.00000E+00
    0.00000E+00         0.00000E+00         0.00000E+00
 
   -0.29468E+07         0.12407E+06         0.00000E+00
    0.12407E+06        -0.20268E+08         0.00000E+00
    0.00000E+00         0.00000E+00         0.00000E+00
 
   -0.29114E+07         0.16984E+06         0.00000E+00
    0.16984E+06        -0.20315E+08         0.00000E+00
    0.00000E+00         0.00000E+00         0.00000E+00
 
   -0.28721E+07         0.22034E+06         0.00000E+00
    0.22034E+06        -0.20364E+08         0.00000E+00
    0.00000E+00         0.00000E+00         0.00000E+00
 
   -0.28296E+07         0.27587E+06         0.00000E+00
    0.27587E+06        -0.20415E+08         0.00000E+00
    0.00000E+00         0.00000E+00         0.00000E+00
 
   -0.27849E+07         0.33678E+06         0.00000E+00
    0.33678E+06        -0.20467E+08         0.00000E+00
    0.00000E+00         0.00000E+00         0.00000E+00
 
   -0.27392E+07         0.40233E+06         0.00000E+00
    0.40233E+06        -0.20518E+08         0.00000E+00
    0.00000E+00         0.00000E+00         0.00000E+00
 
   -0.26924E+07         0.47008E+06         0.00000E+00
    0.47008E+06        -0.20569E+08         0.00000E+00
    0.00000E+00         0.00000E+00         0.00000E+00
 
   -0.26429E+07         0.53938E+06         0.00000E+00
    0.53938E+06        -0.20622E+08         0.00000E+00
    0.00000E+00         0.00000E+00         0.00000E+00
 
   -0.25894E+07         0.61091E+06         0.00000E+00
    0.61091E+06        -0.20675E+08         0.00000E+00
    0.00000E+00         0.00000E+00         0.00000E+00
 
   -0.25307E+07         0.68562E+06         0.00000E+00
    0.68562E+06        -0.20733E+08         0.00000E+00
    0.00000E+00         0.00000E+00         0.00000E+00
 
   -0.24650E+07         0.76409E+06         0.00000E+00
    0.76409E+06        -0.20807E+08         0.00000E+00
    0.00000E+00         0.00000E+00        -0.41984E+03
 
   -0.24160E+07         0.84718E+06         0.00000E+00
    0.84718E+06        -0.20871E+08         0.00000E+00
    0.00000E+00         0.00000E+00        -0.36368E+05
 
   -0.23616E+07         0.93757E+06         0.00000E+00
    0.93757E+06        -0.20933E+08         0.00000E+00
    0.00000E+00         0.00000E+00        -0.78338E+05
 
   -0.22989E+07         0.10355E+07         0.00000E+00
    0.10355E+07        -0.20994E+08         0.00000E+00
    0.00000E+00         0.00000E+00        -0.12274E+06
 
   -0.22375E+07         0.11395E+07         0.00000E+00
    0.11395E+07        -0.21048E+08         0.00000E+00
    0.00000E+00         0.00000E+00        -0.18450E+06
 
   -0.21962E+07         0.12455E+07         0.00000E+00
    0.12455E+07        -0.21085E+08         0.00000E+00
    0.00000E+00         0.00000E+00        -0.28760E+06
 
   -0.21569E+07         0.13535E+07         0.00000E+00
    0.13535E+07        -0.21132E+08         0.00000E+00
    0.00000E+00         0.00000E+00        -0.40421E+06
 
   -0.21196E+07         0.14616E+07         0.00000E+00
    0.14616E+07        -0.21184E+08         0.00000E+00
    0.00000E+00         0.00000E+00        -0.52998E+06
 
   -0.20844E+07         0.15667E+07         0.00000E+00
    0.15667E+07        -0.21238E+08         0.00000E+00
    0.00000E+00         0.00000E+00        -0.65881E+06
 
   -0.20555E+07         0.16678E+07         0.00000E+00
    0.16678E+07        -0.21296E+08         0.00000E+00
    0.00000E+00         0.00000E+00        -0.78922E+06
 
   -0.20360E+07         0.17674E+07         0.00000E+00
    0.17674E+07        -0.21359E+08         0.00000E+00
    0.00000E+00         0.00000E+00        -0.92029E+06
 
   -0.20241E+07         0.18659E+07         0.00000E+00
    0.18659E+07        -0.21423E+08         0.00000E+00
    0.00000E+00         0.00000E+00        -0.10481E+07
 
   -0.20200E+07         0.19641E+07         0.00000E+00
    0.19641E+07        -0.21487E+08         0.00000E+00
    0.00000E+00         0.00000E+00        -0.11731E+07
 
   -0.20235E+07         0.20628E+07         0.00000E+00
    0.20628E+07        -0.21553E+08         0.00000E+00
    0.00000E+00         0.00000E+00        -0.12958E+07
 
   -0.20328E+07         0.21618E+07         0.00000E+00
    0.21618E+07        -0.21617E+08         0.00000E+00
    0.00000E+00         0.00000E+00        -0.14149E+07
 
   -0.20476E+07         0.22610E+07         0.00000E+00
    0.22610E+07        -0.21680E+08         0.00000E+00
    0.00000E+00         0.00000E+00        -0.15298E+07
 
   -0.20685E+07         0.23608E+07         0.00000E+00
    0.23608E+07        -0.21743E+08         0.00000E+00
    0.00000E+00         0.00000E+00        -0.16414E+07
 
   -0.20948E+07         0.24608E+07         0.00000E+00
    0.24608E+07        -0.21804E+08         0.00000E+00
    0.00000E+00         0.00000E+00        -0.17488E+07
 
   -0.21272E+07         0.25612E+07         0.00000E+00
    0.25612E+07        -0.21865E+08         0.00000E+00
    0.00000E+00         0.00000E+00        -0.18525E+07
 
   -0.21659E+07         0.26617E+07         0.00000E+00
    0.26617E+07        -0.21925E+08         0.00000E+00
    0.00000E+00         0.00000E+00        -0.19526E+07
 
   -0.22098E+07         0.27625E+07         0.00000E+00
    0.27625E+07        -0.21985E+08         0.00000E+00
    0.00000E+00         0.00000E+00        -0.20493E+07
 
   -0.22583E+07         0.28637E+07         0.00000E+00
    0.28637E+07        -0.22044E+08         0.00000E+00
    0.00000E+00         0.00000E+00        -0.21428E+07
 
   -0.23106E+07         0.29653E+07         0.00000E+00
    0.29653E+07        -0.22101E+08         0.00000E+00
    0.00000E+00         0.00000E+00        -0.22330E+07
 
   -0.23667E+07         0.30686E+07         0.00000E+00
    0.30686E+07        -0.22156E+08         0.00000E+00
    0.00000E+00         0.00000E+00        -0.23204E+07
 
   -0.24269E+07         0.31727E+07         0.00000E+00
    0.31727E+07        -0.22210E+08         0.00000E+00
    0.00000E+00         0.00000E+00        -0.24049E+07
 
   -0.24918E+07         0.32773E+07         0.00000E+00
    0.32773E+07        -0.22262E+08         0.00000E+00
    0.00000E+00         0.00000E+00        -0.24860E+07
 
   -0.39945E+07        -0.31345E+05         0.00000E+00
   -0.31345E+05        -0.20876E+08         0.00000E+00
    0.00000E+00         0.00000E+00         0.00000E+00
 
   -0.40274E+07        -0.75948E+05         0.00000E+00
   -0.75948E+05        -0.20881E+08         0.00000E+00
    0.00000E+00         0.00000E+00         0.00000E+00
 
   -0.40506E+07        -0.11430E+06         0.00000E+00
   -0.11430E+06        -0.20891E+08         0.00000E+00
    0.00000E+00         0.00000E+00         0.00000E+00
 
   -0.40644E+07        -0.14636E+06         0.00000E+00
   -0.14636E+06        -0.20905E+08         0.00000E+00
    0.00000E+00         0.00000E+00         0.00000E+00
 
   -0.40694E+07        -0.17215E+06         0.00000E+00
   -0.17215E+06        -0.20922E+08         0.00000E+00
    0.00000E+00         0.00000E+00         0.00000E+00
 
   -0.40663E+07        -0.19175E+06         0.00000E+00
   -0.19175E+06        -0.20943E+08         0.00000E+00
    0.00000E+00         0.00000E+00         0.00000E+00
 
   -0.40555E+07        -0.20538E+06         0.00000E+00
   -0.20538E+06        -0.20968E+08         0.00000E+00
    0.00000E+00         0.00000E+00         0.00000E+00
 
   -0.40373E+07        -0.21334E+06         0.00000E+00
   -0.21334E+06        -0.20995E+08         0.00000E+00
    0.00000E+00         0.00000E+00         0.00000E+00
 
   -0.40121E+07        -0.21549E+06         0.00000E+00
   -0.21549E+06        -0.21025E+08         0.00000E+00
    0.00000E+00         0.00000E+00         0.00000E+00
 
   -0.39804E+07        -0.21166E+06         0.00000E+00
   -0.21166E+06        -0.21058E+08         0.00000E+00
    0.00000E+00         0.00000E+00         0.00000E+00
 
   -0.39426E+07        -0.20195E+06         0.00000E+00
   -0.20195E+06        -0.21094E+08         0.00000E+00
    0.00000E+00         0.00000E+00         0.00000E+00
 
   -0.38993E+07        -0.18620E+06         0.00000E+00
   -0.18620E+06        -0.21133E+08         0.00000E+00
    0.00000E+00         0.00000E+00         0.00000E+00
 
   -0.38513E+07        -0.16400E+06         0.00000E+00
   -0.16400E+06        -0.21175E+08         0.00000E+00
    0.00000E+00         0.00000E+00         0.00000E+00
 
   -0.38000E+07        -0.13524E+06         0.00000E+00
   -0.13524E+06        -0.21217E+08         0.00000E+00
    0.00000E+00         0.00000E+00         0.00000E+00
 
   -0.37461E+07        -0.10201E+06         0.00000E+00
   -0.10201E+06        -0.21259E+08         0.00000E+00
    0.00000E+00         0.00000E+00         0.00000E+00
 
   -0.36884E+07        -0.65698E+05         0.00000E+00
   -0.65698E+05        -0.21303E+08         0.00000E+00
    0.00000E+00         0.00000E+00         0.00000E+00
 
   -0.36258E+07        -0.25711E+05         0.00000E+00
   -0.25711E+05        -0.21348E+08         0.00000E+00
    0.00000E+00         0.00000E+00         0.00000E+00
 
   -0.35577E+07         0.18306E+05         0.00000E+00
    0.18306E+05        -0.21394E+08         0.00000E+00
    0.00000E+00         0.00000E+00         0.00000E+00
 
   -0.34830E+07         0.66805E+05         0.00000E+00
    0.66805E+05        -0.21445E+08         0.00000E+00
    0.00000E+00         0.00000E+00         0.00000E+00
 
   -0.34094E+07         0.12051E+06         0.00000E+00
    0.12051E+06        -0.21505E+08         0.00000E+00
    0.00000E+00         0.00000E+00        -0.13884E+05
 
   -0.33414E+07         0.18158E+06         0.00000E+00
    0.18158E+06        -0.21558E+08         0.00000E+00
    0.00000E+00         0.00000E+00        -0.50390E+05
 
   -0.32651E+07         0.25118E+06         0.00000E+00
    0.25118E+06        -0.21611E+08         0.00000E+00
    0.00000E+00         0.00000E+00        -0.88446E+05
 
   -0.31805E+07         0.32930E+06         0.00000E+00
    0.32930E+06        -0.21663E+08         0.00000E+00
    0.00000E+00         0.00000E+00        -0.12877E+06
 
   -0.30952E+07         0.41505E+06         0.00000E+00
    0.41505E+06        -0.21709E+08         0.00000E+00
    0.00000E+00         0.00000E+00        -0.18523E+06
 
   -0.30249E+07         0.50569E+06         0.00000E+00
    0.50569E+06        -0.21740E+08         0.00000E+00
    0.00000E+00         0.00000E+00        -0.27964E+06
 
   -0.29566E+07         0.59996E+06         0.00000E+00
    0.59996E+06        -0.21783E+08         0.00000E+00
    0.00000E+00         0.00000E+00        -0.38956E+06
 
   -0.28872E+07         0.69564E+06         0.00000E+00
    0.69564E+06        -0.21828E+08         0.00000E+00
    0.00000E+00         0.00000E+00        -0.50590E+06
 
   -0.28189E+07         0.79086E+06         0.00000E+00
    0.79086E+06        -0.21874E+08         0.00000E+00
    0.00000E+00         0.00000E+00        -0.62656E+06
 
   -0.27556E+07         0.88428E+06         0.00000E+00
    0.88428E+06        -0.21924E+08         0.00000E+00
    0.00000E+00         0.00000E+00        -0.75061E+06
 
   -0.27005E+07         0.97754E+06         0.00000E+00
    0.97754E+06        -0.21979E+08         0.00000E+00
    0.00000E+00         0.00000E+00        -0.87746E+06
 
   -0.26523E+07         0.10715E+07         0.00000E+00
    0.10715E+07        -0.22035E+08         0.00000E+00
    0.00000E+00         0.00000E+00        -0.10036E+07
 
   -0.26115E+07         0.11663E+07         0.00000E+00
    0.11663E+07        -0.22092E+08         0.00000E+00
    0.00000E+00         0.00000E+00        -0.11291E+07
 
   -0.25784E+07         0.12621E+07         0.00000E+00
    0.12621E+07        -0.22152E+08         0.00000E+00
    0.00000E+00         0.00000E+00        -0.12545E+07
 
   -0.25520E+07         0.13587E+07         0.00000E+00
    0.13587E+07        -0.22212E+08         0.00000E+00
    0.00000E+00         0.00000E+00        -0.13782E+07
 
   -0.25318E+07         0.14560E+07         0.00000E+00
    0.14560E+07        -0.22272E+08         0.00000E+00
    0.00000E+00         0.00000E+00        -0.14992E+07
 
   -0.25184E+07         0.15544E+07         0.00000E+00
    0.15544E+07        -0.22332E+08         0.00000E+00
    0.00000E+00         0.00000E+00        -0.16176E+07
 
   -0.25115E+07         0.16538E+07         0.00000E+00
    0.16538E+07        -0.22392E+08         0.00000E+00
    0.00000E+00         0.00000E+00        -0.17331E+07
 
   -0.25111E+07         0.17542E+07         0.00000E+00
    0.17542E+07        -0.22451E+08         0.00000E+00
    0.00000E+00         0.00000E+00        -0.18452E+07
 
   -0.25177E+07         0.18556E+07         0.00000E+00
    0.18556E+07        -0.22510E+08         0.00000E+00
    0.00000E+00         0.00000E+00        -0.19541E+07
 
   -0.25308E+07         0.19577E+07         0.00000E+00
    0.19577E+07        -0.22569E+08         0.00000E+00
    0.00000E+00         0.00000E+00        -0.20598E+07
 
   -0.25498E+07         0.20605E+07         0.00000E+00
    0.20605E+07        -0.22628E+08         0.00000E+00
    0.00000E+00         0.00000E+00        -0.21623E+07
 
   -0.25743E+07         0.21642E+07         0.00000E+00
    0.21642E+07        -0.22686E+08         0.00000E+00
    0.00000E+00         0.00000E+00        -0.22617E+07
 
   -0.26038E+07         0.22687E+07         0.00000E+00
    0.22687E+07        -0.22742E+08         0.00000E+00
    0.00000E+00         0.00000E+00        -0.23577E+07
 
   -0.26378E+07         0.23751E+07         0.00000E+00
    0.23751E+07        -0.22797E+08         0.00000E+00
    0.00000E+00         0.00000E+00        -0.24510E+07
 
   -0.26768E+07         0.24822E+07         0.00000E+00
    0.24822E+07        -0.22851E+08         0.00000E+00
    0.00000E+00         0.00000E+00        -0.25410E+07
 
   -0.27210E+07         0.25904E+07         0.00000E+00
    0.25904E+07        -0.22904E+08         0.00000E+00
    0.00000E+00         0.00000E+00        -0.26279E+07
 
   -0.27707E+07         0.26986E+07         0.00000E+00
    0.26986E+07        -0.22957E+08         0.00000E+00
    0.00000E+00         0.00000E+00        -0.27115E+07
 
   -0.28254E+07         0.28057E+07         0.00000E+00
    0.28057E+07        -0.23009E+08         0.00000E+00
    0.00000E+00         0.00000E+00        -0.27917E+07
 
   -0.28849E+07         0.29140E+07         0.00000E+00
    0.29140E+07        -0.23060E+08         0.00000E+00
    0.00000E+00         0.00000E+00        -0.28695E+07
 
   -0.29488E+07         0.30234E+07         0.00000E+00
    0.30234E+07        -0.23111E+08         0.00000E+00
    0.00000E+00         0.00000E+00        -0.29449E+07
 
   -0.53149E+07        -0.43904E+05         0.00000E+00
   -0.43904E+05        -0.21898E+08         0.00000E+00
    0.00000E+00         0.00000E+00         0.00000E+00
 
   -0.53131E+07        -0.11185E+06         0.00000E+00
   -0.11185E+06        -0.21903E+08         0.00000E+00
    0.00000E+00         0.00000E+00         0.00000E+00
 
   -0.53013E+07        -0.17197E+06         0.00000E+00
   -0.17197E+06        -0.21912E+08         0.00000E+00
    0.00000E+00         0.00000E+00         0.00000E+00
 
   -0.52803E+07        -0.22445E+06         0.00000E+00
   -0.22445E+06        -0.21925E+08         0.00000E+00
    0.00000E+00         0.00000E+00         0.00000E+00
 
   -0.52505E+07        -0.26935E+06         0.00000E+00
   -0.26935E+06        -0.21942E+08         0.00000E+00
    0.00000E+00         0.00000E+00         0.00000E+00
 
   -0.52127E+07        -0.30656E+06         0.00000E+00
   -0.30656E+06        -0.21963E+08         0.00000E+00
    0.00000E+00         0.00000E+00         0.00000E+00
 
   -0.51676E+07        -0.33576E+06         0.00000E+00
   -0.33576E+06        -0.21987E+08         0.00000E+00
    0.00000E+00         0.00000E+00         0.00000E+00
 
   -0.51166E+07        -0.35675E+06         0.00000E+00
   -0.35675E+06        -0.22016E+08         0.00000E+00
    0.00000E+00         0.00000E+00         0.00000E+00
 
   -0.50605E+07        -0.37100E+06         0.00000E+00
   -0.37100E+06        -0.22044E+08         0.00000E+00
    0.00000E+00         0.00000E+00         0.00000E+00
 
   -0.49988E+07        -0.37988E+06         0.00000E+00
   -0.37988E+06        -0.22074E+08         0.00000E+00
    0.00000E+00         0.00000E+00         0.00000E+00
 
   -0.49307E+07        -0.38320E+06         0.00000E+00
   -0.38320E+06        -0.22107E+08         0.00000E+00
    0.00000E+00         0.00000E+00         0.00000E+00
 
   -0.48559E+07        -0.38077E+06         0.00000E+00
   -0.38077E+06        -0.22140E+08         0.00000E+00
    0.00000E+00         0.00000E+00         0.00000E+00
 
   -0.47739E+07        -0.37252E+06         0.00000E+00
   -0.37252E+06        -0.22175E+08         0.00000E+00
    0.00000E+00         0.00000E+00         0.00000E+00
 
   -0.46868E+07        -0.35810E+06         0.00000E+00
   -0.35810E+06        -0.22215E+08         0.00000E+00
    0.00000E+00         0.00000E+00        -0.52642E+04
 
   -0.46061E+07        -0.33572E+06         0.00000E+00
   -0.33572E+06        -0.22257E+08         0.00000E+00
    0.00000E+00         0.00000E+00        -0.37331E+05
 
   -0.45170E+07        -0.30389E+06         0.00000E+00
   -0.30389E+06        -0.22297E+08         0.00000E+00
    0.00000E+00         0.00000E+00        -0.70234E+05
 
   -0.44202E+07        -0.26269E+06         0.00000E+00
   -0.26269E+06        -0.22338E+08         0.00000E+00
    0.00000E+00         0.00000E+00        -0.10439E+06
 
   -0.43150E+07        -0.21215E+06         0.00000E+00
   -0.21215E+06        -0.22377E+08         0.00000E+00
    0.00000E+00         0.00000E+00        -0.14057E+06
 
   -0.42085E+07        -0.15290E+06         0.00000E+00
   -0.15290E+06        -0.22410E+08         0.00000E+00
    0.00000E+00         0.00000E+00        -0.19317E+06
 
   -0.41127E+07        -0.87036E+05         0.00000E+00
   -0.87036E+05        -0.22437E+08         0.00000E+00
    0.00000E+00         0.00000E+00        -0.28132E+06
 
   -0.40155E+07        -0.16679E+05         0.00000E+00
   -0.16679E+05        -0.22471E+08         0.00000E+00
    0.00000E+00         0.00000E+00        -0.38066E+06
 
   -0.39154E+07         0.56695E+05         0.00000E+00
    0.56695E+05        -0.22505E+08         0.00000E+00
    0.00000E+00         0.00000E+00        -0.48505E+06
 
   -0.38152E+07         0.13170E+06         0.00000E+00
    0.13170E+06        -0.22541E+08         0.00000E+00
    0.00000E+00         0.00000E+00        -0.59420E+06
 
   -0.37181E+07         0.20706E+06         0.00000E+00
    0.20706E+06        -0.22580E+08         0.00000E+00
    0.00000E+00         0.00000E+00        -0.70786E+06
 
   -0.36273E+07         0.28376E+06         0.00000E+00
    0.28376E+06        -0.22624E+08         0.00000E+00
    0.00000E+00         0.00000E+00        -0.82563E+06
 
   -0.35414E+07         0.36297E+06         0.00000E+00
    0.36297E+06        -0.22668E+08         0.00000E+00
    0.00000E+00         0.00000E+00        -0.94380E+06
 
   -0.34619E+07         0.44478E+06         0.00000E+00
    0.44478E+06        -0.22715E+08         0.00000E+00
    0.00000E+00         0.00000E+00        -0.10643E+07
 
   -0.33886E+07         0.52850E+06         0.00000E+00
    0.52850E+06        -0.22764E+08         0.00000E+00
    0.00000E+00         0.00000E+00        -0.11866E+07
 
   -0.33213E+07         0.61398E+06         0.00000E+00
    0.61398E+06        -0.22816E+08         0.00000E+00
    0.00000E+00         0.00000E+00        -0.13095E+07
 
   -0.32600E+07         0.70107E+06         0.00000E+00
    0.70107E+06        -0.22867E+08         0.00000E+00
    0.00000E+00         0.00000E+00        -0.14317E+07
 
   -0.32054E+07         0.78995E+06         0.00000E+00
    0.78995E+06        -0.22920E+08         0.00000E+00
    0.00000E+00         0.00000E+00        -0.15534E+07
 
   -0.31575E+07         0.88074E+06         0.00000E+00
    0.88074E+06        -0.22974E+08         0.00000E+00
    0.00000E+00         0.00000E+00        -0.16738E+07
 
   -0.31163E+07         0.97351E+06         0.00000E+00
    0.97351E+06        -0.23028E+08         0.00000E+00
    0.00000E+00         0.00000E+00        -0.17924E+07
 
   -0.30824E+07         0.10683E+07         0.00000E+00
    0.10683E+07        -0.23082E+08         0.00000E+00
    0.00000E+00         0.00000E+00        -0.19092E+07
 
   -0.30556E+07         0.11650E+07         0.00000E+00
    0.11650E+07        -0.23138E+08         0.00000E+00
    0.00000E+00         0.00000E+00        -0.20241E+07
 
   -0.30358E+07         0.12634E+07         0.00000E+00
    0.12634E+07        -0.23194E+08         0.00000E+00
    0.00000E+00         0.00000E+00        -0.21366E+07
 
   -0.30228E+07         0.13635E+07         0.00000E+00
    0.13635E+07        -0.23249E+08         0.00000E+00
    0.00000E+00         0.00000E+00        -0.22466E+07
 
   -0.30165E+07         0.14653E+07         0.00000E+00
    0.14653E+07        -0.23305E+08         0.00000E+00
    0.00000E+00         0.00000E+00        -0.23539E+07
 
   -0.30164E+07         0.15689E+07         0.00000E+00
    0.15689E+07        -0.23361E+08         0.00000E+00
    0.00000E+00         0.00000E+00        -0.24581E+07
 
   -0.30222E+07         0.16746E+07         0.00000E+00
    0.16746E+07        -0.23415E+08         0.00000E+00
    0.00000E+00         0.00000E+00        -0.25596E+07
 
   -0.30345E+07         0.17819E+07         0.00000E+00
    0.17819E+07        -0.23470E+08         0.00000E+00
    0.00000E+00         0.00000E+00        -0.26576E+07
 
   -0.30530E+07         0.18907E+07         0.00000E+00
    0.18907E+07        -0.23523E+08         0.00000E+00
    0.00000E+00         0.00000E+00        -0.27524E+07
 
   -0.30781E+07         0.19999E+07         0.00000E+00
    0.19999E+07        -0.23576E+08         0.00000E+00
    0.00000E+00         0.00000E+00        -0.28434E+07
 
   -0.31091E+07         0.21091E+07         0.00000E+00
    0.21091E+07        -0.23629E+08         0.00000E+00
    0.00000E+00         0.00000E+00        -0.29309E+07
 
   -0.31457E+07         0.22199E+07         0.00000E+00
    0.22199E+07        -0.23681E+08         0.00000E+00
    0.00000E+00         0.00000E+00        -0.30155E+07
 
   -0.31877E+07         0.23308E+07         0.00000E+00
    0.23308E+07        -0.23732E+08         0.00000E+00
    0.00000E+00         0.00000E+00        -0.30968E+07
 
   -0.32351E+07         0.24422E+07         0.00000E+00
    0.24422E+07        -0.23783E+08         0.00000E+00
    0.00000E+00         0.00000E+00        -0.31751E+07
 
   -0.32871E+07         0.25547E+07         0.00000E+00
    0.25547E+07        -0.23833E+08         0.00000E+00
    0.00000E+00         0.00000E+00        -0.32509E+07
 
   -0.33429E+07         0.26673E+07         0.00000E+00
    0.26673E+07        -0.23882E+08         0.00000E+00
    0.00000E+00         0.00000E+00        -0.33244E+07
 
   -0.34021E+07         0.27807E+07         0.00000E+00
    0.27807E+07        -0.23929E+08         0.00000E+00
    0.00000E+00         0.00000E+00        -0.33965E+07
 
   -0.67726E+07        -0.58380E+05         0.00000E+00
   -0.58380E+05        -0.22945E+08         0.00000E+00
    0.00000E+00         0.00000E+00         0.00000E+00
 
   -0.67285E+07        -0.14630E+06         0.00000E+00
   -0.14630E+06        -0.22950E+08         0.00000E+00
    0.00000E+00         0.00000E+00         0.00000E+00
 
   -0.66761E+07        -0.22620E+06         0.00000E+00
   -0.22620E+06        -0.22958E+08         0.00000E+00
    0.00000E+00         0.00000E+00         0.00000E+00
 
   -0.66149E+07        -0.29804E+06         0.00000E+00
   -0.29804E+06        -0.22970E+08         0.00000E+00
    0.00000E+00         0.00000E+00         0.00000E+00
 
   -0.65448E+07        -0.36173E+06         0.00000E+00
   -0.36173E+06        -0.22986E+08         0.00000E+00
    0.00000E+00         0.00000E+00         0.00000E+00
 
   -0.64657E+07        -0.41717E+06         0.00000E+00
   -0.41717E+06        -0.23004E+08         0.00000E+00
    0.00000E+00         0.00000E+00         0.00000E+00
 
   -0.63773E+07        -0.46441E+06         0.00000E+00
   -0.46441E+06        -0.23024E+08         0.00000E+00
    0.00000E+00         0.00000E+00         0.00000E+00
 
   -0.62829E+07        -0.50304E+06         0.00000E+00
   -0.50304E+06        -0.23043E+08         0.00000E+00
    0.00000E+00         0.00000E+00        -0.70509E+04
 
   -0.61889E+07        -0.53187E+06         0.00000E+00
   -0.53187E+06        -0.23069E+08         0.00000E+00
    0.00000E+00         0.00000E+00        -0.34704E+05
 
   -0.60869E+07        -0.54968E+06         0.00000E+00
   -0.54968E+06        -0.23096E+08         0.00000E+00
    0.00000E+00         0.00000E+00        -0.64139E+05
 
   -0.59771E+07        -0.55643E+06         0.00000E+00
   -0.55643E+06        -0.23123E+08         0.00000E+00
    0.00000E+00         0.00000E+00        -0.94400E+05
 
   -0.58596E+07        -0.55226E+06         0.00000E+00
   -0.55226E+06        -0.23150E+08         0.00000E+00
    0.00000E+00         0.00000E+00        -0.12587E+06
 
   -0.57335E+07        -0.53728E+06         0.00000E+00
   -0.53728E+06        -0.23176E+08         0.00000E+00
    0.00000E+00         0.00000E+00        -0.15917E+06
 
   -0.56083E+07        -0.51240E+06         0.00000E+00
   -0.51240E+06        -0.23196E+08         0.00000E+00
    0.00000E+00         0.00000E+00        -0.21474E+06
 
   -0.54885E+07        -0.47998E+06         0.00000E+00
   -0.47998E+06        -0.23218E+08         0.00000E+00
    0.00000E+00         0.00000E+00        -0.29894E+06
 
   -0.53635E+07        -0.44178E+06         0.00000E+00
   -0.44178E+06        -0.23240E+08         0.00000E+00
    0.00000E+00         0.00000E+00        -0.38722E+06
 
   -0.52353E+07        -0.39869E+06         0.00000E+00
   -0.39869E+06        -0.23262E+08         0.00000E+00
    0.00000E+00         0.00000E+00        -0.47969E+06
 
   -0.51057E+07        -0.35199E+06         0.00000E+00
   -0.35199E+06        -0.23286E+08         0.00000E+00
    0.00000E+00         0.00000E+00        -0.57650E+06
 
   -0.49780E+07        -0.30281E+06         0.00000E+00
   -0.30281E+06        -0.23312E+08         0.00000E+00
    0.00000E+00         0.00000E+00        -0.67774E+06
 
   -0.48538E+07        -0.25021E+06         0.00000E+00
   -0.25021E+06        -0.23340E+08         0.00000E+00
    0.00000E+00         0.00000E+00        -0.78223E+06
 
   -0.47331E+07        -0.19320E+06         0.00000E+00
   -0.19320E+06        -0.23370E+08         0.00000E+00
    0.00000E+00         0.00000E+00        -0.88867E+06
 
   -0.46166E+07        -0.13239E+06         0.00000E+00
   -0.13239E+06        -0.23403E+08         0.00000E+00
    0.00000E+00         0.00000E+00        -0.99859E+06
 
   -0.45043E+07        -0.68694E+05         0.00000E+00
   -0.68694E+05        -0.23438E+08         0.00000E+00
    0.00000E+00         0.00000E+00        -0.11115E+07
 
   -0.43965E+07        -0.23061E+04         0.00000E+00
   -0.23061E+04        -0.23475E+08         0.00000E+00
    0.00000E+00         0.00000E+00        -0.12263E+07
 
   -0.42934E+07         0.66732E+05         0.00000E+00
    0.66732E+05        -0.23513E+08         0.00000E+00
    0.00000E+00         0.00000E+00        -0.13420E+07
 
   -0.41961E+07         0.13811E+06         0.00000E+00
    0.13811E+06        -0.23553E+08         0.00000E+00
    0.00000E+00         0.00000E+00        -0.14588E+07
 
   -0.41044E+07         0.21194E+06         0.00000E+00
    0.21194E+06        -0.23594E+08         0.00000E+00
    0.00000E+00         0.00000E+00        -0.15761E+07
 
   -0.40188E+07         0.28856E+06         0.00000E+00
    0.28856E+06        -0.23635E+08         0.00000E+00
    0.00000E+00         0.00000E+00        -0.16935E+07
 
   -0.39398E+07         0.36789E+06         0.00000E+00
    0.36789E+06        -0.23679E+08         0.00000E+00
    0.00000E+00         0.00000E+00        -0.18107E+07
 
   -0.38674E+07         0.44989E+06         0.00000E+00
    0.44989E+06        -0.23723E+08         0.00000E+00
    0.00000E+00         0.00000E+00        -0.19279E+07
 
   -0.38015E+07         0.53438E+06         0.00000E+00
    0.53438E+06        -0.23769E+08         0.00000E+00
    0.00000E+00         0.00000E+00        -0.20446E+07
 
   -0.37425E+07         0.62132E+06         0.00000E+00
    0.62132E+06        -0.23817E+08         0.00000E+00
    0.00000E+00         0.00000E+00        -0.21603E+07
 
   -0.36904E+07         0.71076E+06         0.00000E+00
    0.71076E+06        -0.23865E+08         0.00000E+00
    0.00000E+00         0.00000E+00        -0.22750E+07
 
   -0.36454E+07         0.80269E+06         0.00000E+00
    0.80269E+06        -0.23914E+08         0.00000E+00
    0.00000E+00         0.00000E+00        -0.23882E+07
 
   -0.36073E+07         0.89729E+06         0.00000E+00
    0.89729E+06        -0.23964E+08         0.00000E+00
    0.00000E+00         0.00000E+00        -0.24997E+07
 
   -0.35759E+07         0.99471E+06         0.00000E+00
    0.99471E+06        -0.24014E+08         0.00000E+00
    0.00000E+00         0.00000E+00        -0.26093E+07
 
   -0.35517E+07         0.10949E+07         0.00000E+00
    0.10949E+07        -0.24065E+08         0.00000E+00
    0.00000E+00         0.00000E+00        -0.27167E+07
 
   -0.35345E+07         0.11975E+07         0.00000E+00
    0.11975E+07        -0.24116E+08         0.00000E+00
    0.00000E+00         0.00000E+00        -0.28218E+07
 
   -0.35249E+07         0.13023E+07         0.00000E+00
    0.13023E+07        -0.24168E+08         0.00000E+00
    0.00000E+00         0.00000E+00        -0.29240E+07
 
   -0.35227E+07         0.14086E+07         0.00000E+00
    0.14086E+07        -0.24220E+08         0.00000E+00
    0.00000E+00         0.00000E+00        -0.30232E+07
 
   -0.35275E+07         0.15169E+07         0.00000E+00
    0.15169E+07        -0.24272E+08         0.00000E+00
    0.00000E+00         0.00000E+00        -0.31195E+07
 
   -0.35396E+07         0.16269E+07         0.00000E+00
    0.16269E+07        -0.24324E+08         0.00000E+00
    0.00000E+00         0.00000E+00        -0.32123E+07
 
   -0.35590E+07         0.17387E+07         0.00000E+00
    0.17387E+07        -0.24376E+08         0.00000E+00
    0.00000E+00         0.00000E+00        -0.33015E+07
 
   -0.35850E+07         0.18521E+07         0.00000E+00
    0.18521E+07        -0.24428E+08         0.00000E+00
    0.00000E+00         0.00000E+00        -0.33872E+07
 
   -0.36175E+07         0.19660E+07         0.00000E+00
    0.19660E+07        -0.24479E+08         0.00000E+00
    0.00000E+00         0.00000E+00        -0.34692E+07
 
   -0.36554E+07         0.20815E+07         0.00000E+00
    0.20815E+07        -0.24529E+08         0.00000E+00
    0.00000E+00         0.00000E+00        -0.35482E+07
 
   -0.36975E+07         0.21992E+07         0.00000E+00
    0.21992E+07        -0.24577E+08         0.00000E+00
    0.00000E+00         0.00000E+00        -0.36245E+07
 
   -0.37431E+07         0.23185E+07         0.00000E+00
    0.23185E+07        -0.24623E+08         0.00000E+00
    0.00000E+00         0.00000E+00        -0.36982E+07
 
   -0.37922E+07         0.24401E+07         0.00000E+00
    0.24401E+07        -0.24667E+08         0.00000E+00
    0.00000E+00         0.00000E+00        -0.37696E+07
 
   -0.38447E+07         0.25636E+07         0.00000E+00
    0.25636E+07        -0.24708E+08         0.00000E+00
    0.00000E+00         0.00000E+00        -0.38383E+07
 
   -0.83675E+07        -0.70452E+05         0.00000E+00
   -0.70452E+05        -0.23996E+08         0.00000E+00
    0.00000E+00         0.00000E+00        -0.29662E+04
 
   -0.82743E+07        -0.18931E+06         0.00000E+00
   -0.18931E+06        -0.23997E+08         0.00000E+00
    0.00000E+00         0.00000E+00        -0.17329E+05
 
   -0.81690E+07        -0.29363E+06         0.00000E+00
   -0.29363E+06        -0.24006E+08         0.00000E+00
    0.00000E+00         0.00000E+00        -0.38726E+05
 
   -0.80530E+07        -0.38347E+06         0.00000E+00
   -0.38347E+06        -0.24019E+08         0.00000E+00
    0.00000E+00         0.00000E+00        -0.63773E+05
 
   -0.79271E+07        -0.45865E+06         0.00000E+00
   -0.45865E+06        -0.24033E+08         0.00000E+00
    0.00000E+00         0.00000E+00        -0.90754E+05
 
   -0.77921E+07        -0.51934E+06         0.00000E+00
   -0.51934E+06        -0.24048E+08         0.00000E+00
    0.00000E+00         0.00000E+00        -0.11931E+06
 
   -0.76483E+07        -0.56588E+06         0.00000E+00
   -0.56588E+06        -0.24062E+08         0.00000E+00
    0.00000E+00         0.00000E+00        -0.14956E+06
 
   -0.74958E+07        -0.59899E+06         0.00000E+00
   -0.59899E+06        -0.24079E+08         0.00000E+00
    0.00000E+00         0.00000E+00        -0.18269E+06
 
   -0.73485E+07        -0.62032E+06         0.00000E+00
   -0.62032E+06        -0.24092E+08         0.00000E+00
    0.00000E+00         0.00000E+00        -0.25223E+06
 
   -0.71967E+07        -0.63210E+06         0.00000E+00
   -0.63210E+06        -0.24103E+08         0.00000E+00
    0.00000E+00         0.00000E+00        -0.32999E+06
 
   -0.70403E+07        -0.63532E+06         0.00000E+00
   -0.63532E+06        -0.24114E+08         0.00000E+00
    0.00000E+00         0.00000E+00        -0.41093E+06
 
   -0.68805E+07        -0.63100E+06         0.00000E+00
   -0.63100E+06        -0.24125E+08         0.00000E+00
    0.00000E+00         0.00000E+00        -0.49524E+06
 
   -0.67197E+07        -0.62054E+06         0.00000E+00
   -0.62054E+06        -0.24137E+08         0.00000E+00
    0.00000E+00         0.00000E+00        -0.58291E+06
 
   -0.65600E+07        -0.60478E+06         0.00000E+00
   -0.60478E+06        -0.24151E+08         0.00000E+00
    0.00000E+00         0.00000E+00        -0.67385E+06
 
   -0.64023E+07        -0.58250E+06         0.00000E+00
   -0.58250E+06        -0.24165E+08         0.00000E+00
    0.00000E+00         0.00000E+00        -0.76632E+06
 
   -0.62473E+07        -0.55360E+06         0.00000E+00
   -0.55360E+06        -0.24182E+08         0.00000E+00
    0.00000E+00         0.00000E+00        -0.86183E+06
 
   -0.60947E+07        -0.51951E+06         0.00000E+00
   -0.51951E+06        -0.24200E+08         0.00000E+00
    0.00000E+00         0.00000E+00        -0.96051E+06
 
   -0.59447E+07        -0.48102E+06         0.00000E+00
   -0.48102E+06        -0.24220E+08         0.00000E+00
    0.00000E+00         0.00000E+00        -0.10620E+07
 
   -0.57981E+07        -0.43844E+06         0.00000E+00
   -0.43844E+06        -0.24241E+08         0.00000E+00
    0.00000E+00         0.00000E+00        -0.11653E+07
 
   -0.56554E+07        -0.39216E+06         0.00000E+00
   -0.39216E+06        -0.24262E+08         0.00000E+00
    0.00000E+00         0.00000E+00        -0.12701E+07
 
   -0.55174E+07        -0.34271E+06         0.00000E+00
   -0.34271E+06        -0.24285E+08         0.00000E+00
    0.00000E+00         0.00000E+00        -0.13763E+07
 
   -0.53840E+07        -0.29001E+06         0.00000E+00
   -0.29001E+06        -0.24309E+08         0.00000E+00
    0.00000E+00         0.00000E+00        -0.14836E+07
 
   -0.52557E+07        -0.23394E+06         0.00000E+00
   -0.23394E+06        -0.24334E+08         0.00000E+00
    0.00000E+00         0.00000E+00        -0.15920E+07
 
   -0.51330E+07        -0.17471E+06         0.00000E+00
   -0.17471E+06        -0.24361E+08         0.00000E+00
    0.00000E+00         0.00000E+00        -0.17011E+07
 
   -0.50161E+07        -0.11267E+06         0.00000E+00
   -0.11267E+06        -0.24389E+08         0.00000E+00
    0.00000E+00         0.00000E+00        -0.18112E+07
 
   -0.49050E+07        -0.47742E+05         0.00000E+00
   -0.47742E+05        -0.24418E+08         0.00000E+00
    0.00000E+00         0.00000E+00        -0.19218E+07
 
   -0.47997E+07         0.19886E+05         0.00000E+00
    0.19886E+05        -0.24449E+08         0.00000E+00
    0.00000E+00         0.00000E+00        -0.20330E+07
 
   -0.47007E+07         0.90030E+05         0.00000E+00
    0.90030E+05        -0.24481E+08         0.00000E+00
    0.00000E+00         0.00000E+00        -0.21443E+07
 
   -0.46081E+07         0.16282E+06         0.00000E+00
    0.16282E+06        -0.24515E+08         0.00000E+00
    0.00000E+00         0.00000E+00        -0.22557E+07
 
   -0.45220E+07         0.23831E+06         0.00000E+00
    0.23831E+06        -0.24550E+08         0.00000E+00
    0.00000E+00         0.00000E+00        -0.23669E+07
 
   -0.44426E+07         0.31660E+06         0.00000E+00
    0.31660E+06        -0.24587E+08         0.00000E+00
    0.00000E+00         0.00000E+00        -0.24779E+07
 
   -0.43699E+07         0.39788E+06         0.00000E+00
    0.39788E+06        -0.24625E+08         0.00000E+00
    0.00000E+00         0.00000E+00        -0.25884E+07
 
   -0.43038E+07         0.48207E+06         0.00000E+00
    0.48207E+06        -0.24665E+08         0.00000E+00
    0.00000E+00         0.00000E+00        -0.26984E+07
 
   -0.42445E+07         0.56937E+06         0.00000E+00
    0.56937E+06        -0.24706E+08         0.00000E+00
    0.00000E+00         0.00000E+00        -0.28077E+07
 
   -0.41922E+07         0.65958E+06         0.00000E+00
    0.65958E+06        -0.24748E+08         0.00000E+00
    0.00000E+00         0.00000E+00        -0.29161E+07
 
   -0.41473E+07         0.75258E+06         0.00000E+00
    0.75258E+06        -0.24793E+08         0.00000E+00
    0.00000E+00         0.00000E+00        -0.30234E+07
 
   -0.41097E+07         0.84832E+06         0.00000E+00
    0.84832E+06        -0.24838E+08         0.00000E+00
    0.00000E+00         0.00000E+00        -0.31294E+07
 
   -0.40795E+07         0.94696E+06         0.00000E+00
    0.94696E+06        -0.24885E+08         0.00000E+00
    0.00000E+00         0.00000E+00        -0.32338E+07
 
   -0.40572E+07         0.10486E+07         0.00000E+00
    0.10486E+07        -0.24933E+08         0.00000E+00
    0.00000E+00         0.00000E+00        -0.33361E+07
 
   -0.40427E+07         0.11535E+07         0.00000E+00
    0.11535E+07        -0.24983E+08         0.00000E+00
    0.00000E+00         0.00000E+00        -0.34361E+07
 
   -0.40362E+07         0.12610E+07         0.00000E+00
    0.12610E+07        -0.25032E+08         0.00000E+00
    0.00000E+00         0.00000E+00        -0.35333E+07
 
   -0.40371E+07         0.13716E+07         0.00000E+00
    0.13716E+07        -0.25083E+08         0.00000E+00
    0.00000E+00         0.00000E+00        -0.36278E+07
 
   -0.40449E+07         0.14854E+07         0.00000E+00
    0.14854E+07        -0.25133E+08         0.00000E+00
    0.00000E+00         0.00000E+00        -0.37198E+07
 
   -0.40589E+07         0.16023E+07         0.00000E+00
    0.16023E+07        -0.25183E+08         0.00000E+00
    0.00000E+00         0.00000E+00        -0.38092E+07
 
   -0.40786E+07         0.17229E+07         0.00000E+00
    0.17229E+07        -0.25232E+08         0.00000E+00
    0.00000E+00         0.00000E+00        -0.38960E+07
 
   -0.41036E+07         0.18475E+07         0.00000E+00
    0.18475E+07        -0.25279E+08         0.00000E+00
    0.00000E+00         0.00000E+00        -0.39803E+07
 
   -0.41360E+07         0.19733E+07         0.00000E+00
    0.19733E+07        -0.25325E+08         0.00000E+00
    0.00000E+00         0.00000E+00        -0.40604E+07
 
   -0.41756E+07         0.20998E+07         0.00000E+00
    0.20998E+07        -0.25371E+08         0.00000E+00
    0.00000E+00         0.00000E+00        -0.41368E+07
 
   -0.42235E+07         0.22262E+07         0.00000E+00
    0.22262E+07        -0.25417E+08         0.00000E+00
    0.00000E+00         0.00000E+00        -0.42087E+07
 
   -0.42795E+07         0.23492E+07         0.00000E+00
    0.23492E+07        -0.25465E+08         0.00000E+00
    0.00000E+00         0.00000E+00        -0.42765E+07
 
   -0.10100E+08        -0.10110E+06         0.00000E+00
   -0.10110E+06        -0.25073E+08         0.00000E+00
    0.00000E+00         0.00000E+00        -0.15817E+06
 
   -0.99190E+07        -0.22378E+06         0.00000E+00
   -0.22378E+06        -0.25081E+08         0.00000E+00
    0.00000E+00         0.00000E+00        -0.18280E+06
 
   -0.97339E+07        -0.32911E+06         0.00000E+00
   -0.32911E+06        -0.25086E+08         0.00000E+00
    0.00000E+00         0.00000E+00        -0.23685E+06
 
   -0.95425E+07        -0.41774E+06         0.00000E+00
   -0.41774E+06        -0.25090E+08         0.00000E+00
    0.00000E+00         0.00000E+00        -0.30394E+06
 
   -0.93448E+07        -0.49142E+06         0.00000E+00
   -0.49142E+06        -0.25093E+08         0.00000E+00
    0.00000E+00         0.00000E+00        -0.37511E+06
 
   -0.91427E+07        -0.55163E+06         0.00000E+00
   -0.55163E+06        -0.25095E+08         0.00000E+00
    0.00000E+00         0.00000E+00        -0.45036E+06
 
   -0.89384E+07        -0.59979E+06         0.00000E+00
   -0.59979E+06        -0.25098E+08         0.00000E+00
    0.00000E+00         0.00000E+00        -0.52895E+06
 
   -0.87336E+07        -0.63764E+06         0.00000E+00
   -0.63764E+06        -0.25101E+08         0.00000E+00
    0.00000E+00         0.00000E+00        -0.61021E+06
 
   -0.85303E+07        -0.66522E+06         0.00000E+00
   -0.66522E+06        -0.25104E+08         0.00000E+00
    0.00000E+00         0.00000E+00        -0.69336E+06
 
   -0.83293E+07        -0.68228E+06         0.00000E+00
   -0.68228E+06        -0.25108E+08         0.00000E+00
    0.00000E+00         0.00000E+00        -0.77907E+06
 
   -0.81303E+07        -0.69029E+06         0.00000E+00
   -0.69029E+06        -0.25113E+08         0.00000E+00
    0.00000E+00         0.00000E+00        -0.86734E+06
 
   -0.79333E+07        -0.69050E+06         0.00000E+00
   -0.69050E+06        -0.25119E+08         0.00000E+00
    0.00000E+00         0.00000E+00        -0.95815E+06
 
   -0.77395E+07        -0.68374E+06         0.00000E+00
   -0.68374E+06        -0.25125E+08         0.00000E+00
    0.00000E+00         0.00000E+00        -0.10508E+07
 
   -0.75492E+07        -0.67051E+06         0.00000E+00
   -0.67051E+06        -0.25132E+08         0.00000E+00
    0.00000E+00         0.00000E+00        -0.11447E+07
 
   -0.73628E+07        -0.65176E+06         0.00000E+00
   -0.65176E+06        -0.25139E+08         0.00000E+00
    0.00000E+00         0.00000E+00        -0.12399E+07
 
   -0.71806E+07        -0.62791E+06         0.00000E+00
   -0.62791E+06        -0.25146E+08         0.00000E+00
    0.00000E+00         0.00000E+00        -0.13361E+07
 
   -0.70032E+07        -0.59904E+06         0.00000E+00
   -0.59904E+06        -0.25154E+08         0.00000E+00
    0.00000E+00         0.00000E+00        -0.14332E+07
 
   -0.68311E+07        -0.56555E+06         0.00000E+00
   -0.56555E+06        -0.25162E+08         0.00000E+00
    0.00000E+00         0.00000E+00        -0.15311E+07
 
   -0.66647E+07        -0.52799E+06         0.00000E+00
   -0.52799E+06        -0.25171E+08         0.00000E+00
    0.00000E+00         0.00000E+00        -0.16296E+07
 
   -0.65040E+07        -0.48677E+06         0.00000E+00
   -0.48677E+06        -0.25181E+08         0.00000E+00
    0.00000E+00         0.00000E+00        -0.17288E+07
 
   -0.63490E+07        -0.44213E+06         0.00000E+00
   -0.44213E+06        -0.25192E+08         0.00000E+00
    0.00000E+00         0.00000E+00        -0.18285E+07
 
   -0.61996E+07        -0.39445E+06         0.00000E+00
   -0.39445E+06        -0.25204E+08         0.00000E+00
    0.00000E+00         0.00000E+00        -0.19289E+07
 
   -0.60564E+07        -0.34407E+06         0.00000E+00
   -0.34407E+06        -0.25216E+08         0.00000E+00
    0.00000E+00         0.00000E+00        -0.20295E+07
 
   -0.59195E+07        -0.29110E+06         0.00000E+00
   -0.29110E+06        -0.25230E+08         0.00000E+00
    0.00000E+00         0.00000E+00        -0.21304E+07
 
   -0.57887E+07        -0.23558E+06         0.00000E+00
   -0.23558E+06        -0.25246E+08         0.00000E+00
    0.00000E+00         0.00000E+00        -0.22315E+07
 
   -0.56644E+07        -0.17765E+06         0.00000E+00
   -0.17765E+06        -0.25262E+08         0.00000E+00
    0.00000E+00         0.00000E+00        -0.23327E+07
 
   -0.55463E+07        -0.11736E+06         0.00000E+00
   -0.11736E+06        -0.25280E+08         0.00000E+00
    0.00000E+00         0.00000E+00        -0.24343E+07
 
   -0.54345E+07        -0.54632E+05         0.00000E+00
   -0.54632E+05        -0.25300E+08         0.00000E+00
    0.00000E+00         0.00000E+00        -0.25362E+07
 
   -0.53290E+07         0.10532E+05         0.00000E+00
    0.10532E+05        -0.25322E+08         0.00000E+00
    0.00000E+00         0.00000E+00        -0.26383E+07
 
   -0.52298E+07         0.78199E+05         0.00000E+00
    0.78199E+05        -0.25346E+08         0.00000E+00
    0.00000E+00         0.00000E+00        -0.27408E+07
 
   -0.51365E+07         0.14841E+06         0.00000E+00
    0.14841E+06        -0.25371E+08         0.00000E+00
    0.00000E+00         0.00000E+00        -0.28436E+07
 
   -0.50496E+07         0.22117E+06         0.00000E+00
    0.22117E+06        -0.25399E+08         0.00000E+00
    0.00000E+00         0.00000E+00        -0.29469E+07
 
   -0.49689E+07         0.29662E+06         0.00000E+00
    0.29662E+06        -0.25428E+08         0.00000E+00
    0.00000E+00         0.00000E+00        -0.30508E+07
 
   -0.48945E+07         0.37478E+06         0.00000E+00
    0.37478E+06        -0.25460E+08         0.00000E+00
    0.00000E+00         0.00000E+00        -0.31552E+07
 
   -0.48268E+07         0.45603E+06         0.00000E+00
    0.45603E+06        -0.25495E+08         0.00000E+00
    0.00000E+00         0.00000E+00        -0.32598E+07
 
   -0.47660E+07         0.54046E+06         0.00000E+00
    0.54046E+06        -0.25531E+08         0.00000E+00
    0.00000E+00         0.00000E+00        -0.33645E+07
 
   -0.47121E+07         0.62837E+06         0.00000E+00
    0.62837E+06        -0.25570E+08         0.00000E+00
    0.00000E+00         0.00000E+00        -0.34691E+07
 
   -0.46654E+07         0.71996E+06         0.00000E+00
    0.71996E+06        -0.25611E+08         0.00000E+00
    0.00000E+00         0.00000E+00        -0.35733E+07
 
   -0.46257E+07         0.81549E+06         0.00000E+00
    0.81549E+06        -0.25654E+08         0.00000E+00
    0.00000E+00         0.00000E+00        -0.36772E+07
 
   -0.45930E+07         0.91495E+06         0.00000E+00
    0.91495E+06        -0.25698E+08         0.00000E+00
    0.00000E+00         0.00000E+00        -0.37807E+07
 
   -0.45672E+07         0.10188E+07         0.00000E+00
    0.10188E+07        -0.25745E+08         0.00000E+00
    0.00000E+00         0.00000E+00        -0.38835E+07
 
   -0.45485E+07         0.11273E+07         0.00000E+00
    0.11273E+07        -0.25792E+08         0.00000E+00
    0.00000E+00         0.00000E+00        -0.39857E+07
 
   -0.45366E+07         0.12404E+07         0.00000E+00
    0.12404E+07        -0.25841E+08         0.00000E+00
    0.00000E+00         0.00000E+00        -0.40874E+07
 
   -0.45332E+07         0.13579E+07         0.00000E+00
    0.13579E+07        -0.25891E+08         0.00000E+00
    0.00000E+00         0.00000E+00        -0.41869E+07
 
   -0.45397E+07         0.14781E+07         0.00000E+00
    0.14781E+07        -0.25943E+08         0.00000E+00
    0.00000E+00         0.00000E+00        -0.42833E+07
 
   -0.45568E+07         0.15991E+07         0.00000E+00
    0.15991E+07        -0.25996E+08         0.00000E+00
    0.00000E+00         0.00000E+00        -0.43754E+07
 
   -0.45840E+07         0.17226E+07         0.00000E+00
    0.17226E+07        -0.26051E+08         0.00000E+00
    0.00000E+00         0.00000E+00        -0.44635E+07
 
   -0.46205E+07         0.18479E+07         0.00000E+00
    0.18479E+07        -0.26106E+08         0.00000E+00
    0.00000E+00         0.00000E+00        -0.45474E+07
 
   -0.46639E+07         0.19742E+07         0.00000E+00
    0.19742E+07        -0.26161E+08         0.00000E+00
    0.00000E+00         0.00000E+00        -0.46275E+07
 
   -0.47128E+07         0.21082E+07         0.00000E+00
    0.21082E+07        -0.26211E+08         0.00000E+00
    0.00000E+00         0.00000E+00        -0.47027E+07
 
   -0.11894E+08        -0.89097E+05         0.00000E+00
   -0.89097E+05        -0.26174E+08         0.00000E+00
    0.00000E+00         0.00000E+00        -0.53970E+06
 
   -0.11611E+08        -0.22326E+06         0.00000E+00
   -0.22326E+06        -0.26174E+08         0.00000E+00
    0.00000E+00         0.00000E+00        -0.60694E+06
 
   -0.11330E+08        -0.33284E+06         0.00000E+00
   -0.33284E+06        -0.26171E+08         0.00000E+00
    0.00000E+00         0.00000E+00        -0.67673E+06
 
   -0.11052E+08        -0.42391E+06         0.00000E+00
   -0.42391E+06        -0.26165E+08         0.00000E+00
    0.00000E+00         0.00000E+00        -0.74941E+06
 
   -0.10779E+08        -0.49858E+06         0.00000E+00
   -0.49858E+06        -0.26162E+08         0.00000E+00
    0.00000E+00         0.00000E+00        -0.82701E+06
 
   -0.10511E+08        -0.55906E+06         0.00000E+00
   -0.55906E+06        -0.26157E+08         0.00000E+00
    0.00000E+00         0.00000E+00        -0.90672E+06
 
   -0.10247E+08        -0.60760E+06         0.00000E+00
   -0.60760E+06        -0.26152E+08         0.00000E+00
    0.00000E+00         0.00000E+00        -0.98905E+06
 
   -0.99887E+07        -0.64498E+06         0.00000E+00
   -0.64498E+06        -0.26147E+08         0.00000E+00
    0.00000E+00         0.00000E+00        -0.10738E+07
 
   -0.97357E+07        -0.67236E+06         0.00000E+00
   -0.67236E+06        -0.26143E+08         0.00000E+00
    0.00000E+00         0.00000E+00        -0.11603E+07
 
   -0.94884E+07        -0.69078E+06         0.00000E+00
   -0.69078E+06        -0.26137E+08         0.00000E+00
    0.00000E+00         0.00000E+00        -0.12480E+07
 
   -0.92472E+07        -0.70068E+06         0.00000E+00
   -0.70068E+06        -0.26132E+08         0.00000E+00
    0.00000E+00         0.00000E+00        -0.13369E+07
 
   -0.90125E+07        -0.70264E+06         0.00000E+00
   -0.70264E+06        -0.26126E+08         0.00000E+00
    0.00000E+00         0.00000E+00        -0.14266E+07
 
   -0.87846E+07        -0.69744E+06         0.00000E+00
   -0.69744E+06        -0.26120E+08         0.00000E+00
    0.00000E+00         0.00000E+00        -0.15169E+07
 
   -0.85636E+07        -0.68585E+06         0.00000E+00
   -0.68585E+06        -0.26114E+08         0.00000E+00
    0.00000E+00         0.00000E+00        -0.16075E+07
 
   -0.83491E+07        -0.66840E+06         0.00000E+00
   -0.66840E+06        -0.26109E+08         0.00000E+00
    0.00000E+00         0.00000E+00        -0.16986E+07
 
   -0.81417E+07        -0.64579E+06         0.00000E+00
   -0.64579E+06        -0.26103E+08         0.00000E+00
    0.00000E+00         0.00000E+00        -0.17897E+07
 
   -0.79417E+07        -0.61868E+06         0.00000E+00
   -0.61868E+06        -0.26097E+08         0.00000E+00
    0.00000E+00         0.00000E+00        -0.18804E+07
 
   -0.77493E+07        -0.58764E+06         0.00000E+00
   -0.58764E+06        -0.26092E+08         0.00000E+00
    0.00000E+00         0.00000E+00        -0.19707E+07
 
   -0.75645E+07        -0.55306E+06         0.00000E+00
   -0.55306E+06        -0.26087E+08         0.00000E+00
    0.00000E+00         0.00000E+00        -0.20606E+07
 
   -0.73873E+07        -0.51537E+06         0.00000E+00
   -0.51537E+06        -0.26082E+08         0.00000E+00
    0.00000E+00         0.00000E+00        -0.21499E+07
 
   -0.72176E+07        -0.47495E+06         0.00000E+00
   -0.47495E+06        -0.26078E+08         0.00000E+00
    0.00000E+00         0.00000E+00        -0.22388E+07
 
   -0.70553E+07        -0.43216E+06         0.00000E+00
   -0.43216E+06        -0.26076E+08         0.00000E+00
    0.00000E+00         0.00000E+00        -0.23273E+07
 
   -0.69001E+07        -0.38721E+06         0.00000E+00
   -0.38721E+06        -0.26074E+08         0.00000E+00
    0.00000E+00         0.00000E+00        -0.24157E+07
 
   -0.67520E+07        -0.34031E+06         0.00000E+00
   -0.34031E+06        -0.26073E+08         0.00000E+00
    0.00000E+00         0.00000E+00        -0.25039E+07
 
   -0.66107E+07        -0.29154E+06         0.00000E+00
   -0.29154E+06        -0.26074E+08         0.00000E+00
    0.00000E+00         0.00000E+00        -0.25921E+07
 
   -0.64760E+07        -0.24105E+06         0.00000E+00
   -0.24105E+06        -0.26077E+08         0.00000E+00
    0.00000E+00         0.00000E+00        -0.26805E+07
 
   -0.63477E+07        -0.18892E+06         0.00000E+00
   -0.18892E+06        -0.26082E+08         0.00000E+00
    0.00000E+00         0.00000E+00        -0.27693E+07
 
   -0.62255E+07        -0.13513E+06         0.00000E+00
   -0.13513E+06        -0.26088E+08         0.00000E+00
    0.00000E+00         0.00000E+00        -0.28586E+07
 
   -0.61093E+07        -0.79723E+05         0.00000E+00
   -0.79723E+05        -0.26097E+08         0.00000E+00
    0.00000E+00         0.00000E+00        -0.29486E+07
 
   -0.59986E+07        -0.22614E+05         0.00000E+00
   -0.22614E+05        -0.26107E+08         0.00000E+00
    0.00000E+00         0.00000E+00        -0.30398E+07
 
   -0.58935E+07         0.36419E+05         0.00000E+00
    0.36419E+05        -0.26121E+08         0.00000E+00
    0.00000E+00         0.00000E+00        -0.31324E+07
 
   -0.57939E+07         0.97555E+05         0.00000E+00
    0.97555E+05        -0.26137E+08         0.00000E+00
    0.00000E+00         0.00000E+00        -0.32263E+07
 
   -0.57001E+07         0.16102E+06         0.00000E+00
    0.16102E+06        -0.26156E+08         0.00000E+00
    0.00000E+00         0.00000E+00        -0.33217E+07
 
   -0.56115E+07         0.22700E+06         0.00000E+00
    0.22700E+06        -0.26178E+08         0.00000E+00
    0.00000E+00         0.00000E+00        -0.34188E+07
 
   -0.55285E+07         0.29566E+06         0.00000E+00
    0.29566E+06        -0.26202E+08         0.00000E+00
    0.00000E+00         0.00000E+00        -0.35177E+07
 
   -0.54511E+07         0.36751E+06         0.00000E+00
    0.36751E+06        -0.26230E+08         0.00000E+00
    0.00000E+00         0.00000E+00        -0.36183E+07
 
   -0.53788E+07         0.44293E+06         0.00000E+00
    0.44293E+06        -0.26261E+08         0.00000E+00
    0.00000E+00         0.00000E+00        -0.37213E+07
 
   -0.53120E+07         0.52220E+06         0.00000E+00
    0.52220E+06        -0.26295E+08         0.00000E+00
    0.00000E+00         0.00000E+00        -0.38265E+07
 
   -0.52512E+07         0.60568E+06         0.00000E+00
    0.60568E+06        -0.26332E+08         0.00000E+00
    0.00000E+00         0.00000E+00        -0.39337E+07
 
   -0.51965E+07         0.69373E+06         0.00000E+00
    0.69373E+06        -0.26372E+08         0.00000E+00
    0.00000E+00         0.00000E+00        -0.40429E+07
 
   -0.51481E+07         0.78640E+06         0.00000E+00
    0.78640E+06        -0.26416E+08         0.00000E+00
    0.00000E+00         0.00000E+00        -0.41541E+07
 
   -0.51066E+07         0.88375E+06         0.00000E+00
    0.88375E+06        -0.26463E+08         0.00000E+00
    0.00000E+00         0.00000E+00        -0.42670E+07
 
   -0.50735E+07         0.98495E+06         0.00000E+00
    0.98495E+06        -0.26513E+08         0.00000E+00
    0.00000E+00         0.00000E+00        -0.43802E+07
 
   -0.50514E+07         0.10908E+07         0.00000E+00
    0.10908E+07        -0.26567E+08         0.00000E+00
    0.00000E+00         0.00000E+00        -0.44922E+07
 
   -0.50389E+07         0.12016E+07         0.00000E+00
    0.12016E+07        -0.26625E+08         0.00000E+00
    0.00000E+00         0.00000E+00        -0.46038E+07
 
   -0.50364E+07         0.13188E+07         0.00000E+00
    0.13188E+07        -0.26684E+08         0.00000E+00
    0.00000E+00         0.00000E+00        -0.47135E+07
 
   -0.50433E+07         0.14422E+07         0.00000E+00
    0.14422E+07        -0.26745E+08         0.00000E+00
    0.00000E+00         0.00000E+00        -0.48205E+07
 
   -0.50592E+07         0.15719E+07         0.00000E+00
    0.15719E+07        -0.26804E+08         0.00000E+00
    0.00000E+00         0.00000E+00        -0.49234E+07
 
   -0.50869E+07         0.17056E+07         0.00000E+00
    0.17056E+07        -0.26863E+08         0.00000E+00
    0.00000E+00         0.00000E+00        -0.50192E+07
 
   -0.51291E+07         0.18382E+07         0.00000E+00
    0.18382E+07        -0.26926E+08         0.00000E+00
    0.00000E+00         0.00000E+00        -0.51091E+07
 
   -0.13683E+08        -0.10478E+06         0.00000E+00
   -0.10478E+06        -0.27273E+08         0.00000E+00
    0.00000E+00         0.00000E+00        -0.10185E+07
 
   -0.13283E+08        -0.20715E+06         0.00000E+00
   -0.20715E+06        -0.27261E+08         0.00000E+00
    0.00000E+00         0.00000E+00        -0.10815E+07
 
   -0.12911E+08        -0.30165E+06         0.00000E+00
   -0.30165E+06        -0.27253E+08         0.00000E+00
    0.00000E+00         0.00000E+00        -0.11516E+07
 
   -0.12557E+08        -0.38315E+06         0.00000E+00
   -0.38315E+06        -0.27245E+08         0.00000E+00
    0.00000E+00         0.00000E+00        -0.12261E+07
 
   -0.12214E+08        -0.45458E+06         0.00000E+00
   -0.45458E+06        -0.27227E+08         0.00000E+00
    0.00000E+00         0.00000E+00        -0.12969E+07
 
   -0.11883E+08        -0.51529E+06         0.00000E+00
   -0.51529E+06        -0.27212E+08         0.00000E+00
    0.00000E+00         0.00000E+00        -0.13741E+07
 
   -0.11562E+08        -0.56365E+06         0.00000E+00
   -0.56365E+06        -0.27197E+08         0.00000E+00
    0.00000E+00         0.00000E+00        -0.14542E+07
 
   -0.11250E+08        -0.60106E+06         0.00000E+00
   -0.60106E+06        -0.27181E+08         0.00000E+00
    0.00000E+00         0.00000E+00        -0.15365E+07
 
   -0.10947E+08        -0.62815E+06         0.00000E+00
   -0.62815E+06        -0.27164E+08         0.00000E+00
    0.00000E+00         0.00000E+00        -0.16203E+07
 
   -0.10654E+08        -0.64502E+06         0.00000E+00
   -0.64502E+06        -0.27148E+08         0.00000E+00
    0.00000E+00         0.00000E+00        -0.17059E+07
 
   -0.10371E+08        -0.65278E+06         0.00000E+00
   -0.65278E+06        -0.27130E+08         0.00000E+00
    0.00000E+00         0.00000E+00        -0.17916E+07
 
   -0.10099E+08        -0.65262E+06         0.00000E+00
   -0.65262E+06        -0.27112E+08         0.00000E+00
    0.00000E+00         0.00000E+00        -0.18769E+07
 
   -0.98369E+07        -0.64534E+06         0.00000E+00
   -0.64534E+06        -0.27092E+08         0.00000E+00
    0.00000E+00         0.00000E+00        -0.19611E+07
 
   -0.95858E+07        -0.63175E+06         0.00000E+00
   -0.63175E+06        -0.27071E+08         0.00000E+00
    0.00000E+00         0.00000E+00        -0.20441E+07
 
   -0.93454E+07        -0.61280E+06         0.00000E+00
   -0.61280E+06        -0.27049E+08         0.00000E+00
    0.00000E+00         0.00000E+00        -0.21255E+07
 
   -0.91159E+07        -0.58943E+06         0.00000E+00
   -0.58943E+06        -0.27027E+08         0.00000E+00
    0.00000E+00         0.00000E+00        -0.22053E+07
 
   -0.88971E+07        -0.56245E+06         0.00000E+00
   -0.56245E+06        -0.27004E+08         0.00000E+00
    0.00000E+00         0.00000E+00        -0.22835E+07
 
   -0.86886E+07        -0.53255E+06         0.00000E+00
   -0.53255E+06        -0.26982E+08         0.00000E+00
    0.00000E+00         0.00000E+00        -0.23602E+07
 
   -0.84900E+07        -0.50027E+06         0.00000E+00
   -0.50027E+06        -0.26960E+08         0.00000E+00
    0.00000E+00         0.00000E+00        -0.24356E+07
 
   -0.83011E+07        -0.46608E+06         0.00000E+00
   -0.46608E+06        -0.26938E+08         0.00000E+00
    0.00000E+00         0.00000E+00        -0.25099E+07
 
   -0.81213E+07        -0.43031E+06         0.00000E+00
   -0.43031E+06        -0.26918E+08         0.00000E+00
    0.00000E+00         0.00000E+00        -0.25833E+07
 
   -0.79502E+07        -0.39319E+06         0.00000E+00
   -0.39319E+06        -0.26900E+08         0.00000E+00
    0.00000E+00         0.00000E+00        -0.26561E+07
 
   -0.77873E+07        -0.35497E+06         0.00000E+00
   -0.35497E+06        -0.26882E+08         0.00000E+00
    0.00000E+00         0.00000E+00        -0.27286E+07
 
   -0.76321E+07        -0.31582E+06         0.00000E+00
   -0.31582E+06        -0.26867E+08         0.00000E+00
    0.00000E+00         0.00000E+00        -0.28009E+07
 
   -0.74844E+07        -0.27592E+06         0.00000E+00
   -0.27592E+06        -0.26854E+08         0.00000E+00
    0.00000E+00         0.00000E+00        -0.28733E+07
 
   -0.73433E+07        -0.23520E+06         0.00000E+00
   -0.23520E+06        -0.26843E+08         0.00000E+00
    0.00000E+00         0.00000E+00        -0.29464E+07
 
   -0.72083E+07        -0.19358E+06         0.00000E+00
   -0.19358E+06        -0.26834E+08         0.00000E+00
    0.00000E+00         0.00000E+00        -0.30204E+07
 
   -0.70795E+07        -0.15108E+06         0.00000E+00
   -0.15108E+06        -0.26828E+08         0.00000E+00
    0.00000E+00         0.00000E+00        -0.30955E+07
 
   -0.69563E+07        -0.10760E+06         0.00000E+00
   -0.10760E+06        -0.26825E+08         0.00000E+00
    0.00000E+00         0.00000E+00        -0.31720E+07
 
   -0.68384E+07        -0.63083E+05         0.00000E+00
   -0.63083E+05        -0.26824E+08         0.00000E+00
    0.00000E+00         0.00000E+00        -0.32501E+07
 
   -0.67255E+07        -0.17462E+05         0.00000E+00
   -0.17462E+05        -0.26827E+08         0.00000E+00
    0.00000E+00         0.00000E+00        -0.33301E+07
 
   -0.66170E+07         0.29440E+05         0.00000E+00
    0.29440E+05        -0.26833E+08         0.00000E+00
    0.00000E+00         0.00000E+00        -0.34126E+07
 
   -0.65128E+07         0.77828E+05         0.00000E+00
    0.77828E+05        -0.26841E+08         0.00000E+00
    0.00000E+00         0.00000E+00        -0.34977E+07
 
   -0.64129E+07         0.12797E+06         0.00000E+00
    0.12797E+06        -0.26854E+08         0.00000E+00
    0.00000E+00         0.00000E+00        -0.35858E+07
 
   -0.63171E+07         0.18014E+06         0.00000E+00
    0.18014E+06        -0.26870E+08         0.00000E+00
    0.00000E+00         0.00000E+00        -0.36771E+07
 
   -0.62246E+07         0.23466E+06         0.00000E+00
    0.23466E+06        -0.26889E+08         0.00000E+00
    0.00000E+00         0.00000E+00        -0.37725E+07
 
   -0.61352E+07         0.29190E+06         0.00000E+00
    0.29190E+06        -0.26913E+08         0.00000E+00
    0.00000E+00         0.00000E+00        -0.38725E+07
 
   -0.60499E+07         0.35222E+06         0.00000E+00
    0.35222E+06        -0.26941E+08         0.00000E+00
    0.00000E+00         0.00000E+00        -0.39770E+07
 
   -0.59687E+07         0.41607E+06         0.00000E+00
    0.41607E+06        -0.26973E+08         0.00000E+00
    0.00000E+00         0.00000E+00        -0.40861E+07
 
   -0.58921E+07         0.48390E+06         0.00000E+00
    0.48390E+06        -0.27010E+08         0.00000E+00
    0.00000E+00         0.00000E+00        -0.42000E+07
 
   -0.58206E+07         0.55618E+06         0.00000E+00
    0.55618E+06        -0.27052E+08         0.00000E+00
    0.00000E+00         0.00000E+00        -0.43186E+07
 
   -0.57550E+07         0.63342E+06         0.00000E+00
    0.63342E+06        -0.27099E+08         0.00000E+00
    0.00000E+00         0.00000E+00        -0.44417E+07
 
   -0.56956E+07         0.71639E+06         0.00000E+00
    0.71639E+06        -0.27151E+08         0.00000E+00
    0.00000E+00         0.00000E+00        -0.45689E+07
 
   -0.56415E+07         0.80511E+06         0.00000E+00
    0.80511E+06        -0.27207E+08         0.00000E+00
    0.00000E+00         0.00000E+00        -0.47002E+07
 
   -0.55935E+07         0.90252E+06         0.00000E+00
    0.90252E+06        -0.27266E+08         0.00000E+00
    0.00000E+00         0.00000E+00        -0.48356E+07
 
   -0.55540E+07         0.10083E+07         0.00000E+00
    0.10083E+07        -0.27330E+08         0.00000E+00
    0.00000E+00         0.00000E+00        -0.49742E+07
 
   -0.55267E+07         0.11234E+07         0.00000E+00
    0.11234E+07        -0.27399E+08         0.00000E+00
    0.00000E+00         0.00000E+00        -0.51137E+07
 
   -0.55156E+07         0.12436E+07         0.00000E+00
    0.12436E+07        -0.27474E+08         0.00000E+00
    0.00000E+00         0.00000E+00        -0.52505E+07
 
   -0.55246E+07         0.13756E+07         0.00000E+00
    0.13756E+07        -0.27553E+08         0.00000E+00
    0.00000E+00         0.00000E+00        -0.53803E+07
 
   -0.55435E+07         0.15121E+07         0.00000E+00
    0.15121E+07        -0.27627E+08         0.00000E+00
    0.00000E+00         0.00000E+00        -0.54982E+07
 
   -0.15304E+08         0.11691E+05         0.00000E+00
    0.11691E+05        -0.28307E+08         0.00000E+00
    0.00000E+00         0.00000E+00        -0.15123E+07
 
   -0.14897E+08        -0.11822E+06         0.00000E+00
   -0.11822E+06        -0.28300E+08         0.00000E+00
    0.00000E+00         0.00000E+00        -0.15645E+07
 
   -0.14466E+08        -0.22925E+06         0.00000E+00
   -0.22925E+06        -0.28269E+08         0.00000E+00
    0.00000E+00         0.00000E+00        -0.16129E+07
 
   -0.14040E+08        -0.32094E+06         0.00000E+00
   -0.32094E+06        -0.28239E+08         0.00000E+00
    0.00000E+00         0.00000E+00        -0.16691E+07
 
   -0.13633E+08        -0.38853E+06         0.00000E+00
   -0.38853E+06        -0.28245E+08         0.00000E+00
    0.00000E+00         0.00000E+00        -0.17580E+07
 
   -0.13235E+08        -0.43951E+06         0.00000E+00
   -0.43951E+06        -0.28234E+08         0.00000E+00
    0.00000E+00         0.00000E+00        -0.18398E+07
 
   -0.12851E+08        -0.47773E+06         0.00000E+00
   -0.47773E+06        -0.28216E+08         0.00000E+00
    0.00000E+00         0.00000E+00        -0.19214E+07
 
   -0.12483E+08        -0.50282E+06         0.00000E+00
   -0.50282E+06        -0.28193E+08         0.00000E+00
    0.00000E+00         0.00000E+00        -0.20017E+07
 
   -0.12131E+08        -0.51716E+06         0.00000E+00
   -0.51716E+06        -0.28164E+08         0.00000E+00
    0.00000E+00         0.00000E+00        -0.20798E+07
 
   -0.11794E+08        -0.52398E+06         0.00000E+00
   -0.52398E+06        -0.28127E+08         0.00000E+00
    0.00000E+00         0.00000E+00        -0.21520E+07
 
   -0.11471E+08        -0.52299E+06         0.00000E+00
   -0.52299E+06        -0.28086E+08         0.00000E+00
    0.00000E+00         0.00000E+00        -0.22229E+07
 
   -0.11164E+08        -0.51428E+06         0.00000E+00
   -0.51428E+06        -0.28044E+08         0.00000E+00
    0.00000E+00         0.00000E+00        -0.22915E+07
 
   -0.10873E+08        -0.49959E+06         0.00000E+00
   -0.49959E+06        -0.27999E+08         0.00000E+00
    0.00000E+00         0.00000E+00        -0.23572E+07
 
   -0.10599E+08        -0.48076E+06         0.00000E+00
   -0.48076E+06        -0.27954E+08         0.00000E+00
    0.00000E+00         0.00000E+00        -0.24202E+07
 
   -0.10341E+08        -0.45913E+06         0.00000E+00
   -0.45913E+06        -0.27908E+08         0.00000E+00
    0.00000E+00         0.00000E+00        -0.24809E+07
 
   -0.10097E+08        -0.43561E+06         0.00000E+00
   -0.43561E+06        -0.27863E+08         0.00000E+00
    0.00000E+00         0.00000E+00        -0.25397E+07
 
   -0.98669E+07        -0.41074E+06         0.00000E+00
   -0.41074E+06        -0.27819E+08         0.00000E+00
    0.00000E+00         0.00000E+00        -0.25969E+07
 
   -0.96500E+07        -0.38493E+06         0.00000E+00
   -0.38493E+06        -0.27777E+08         0.00000E+00
    0.00000E+00         0.00000E+00        -0.26530E+07
 
   -0.94449E+07        -0.35849E+06         0.00000E+00
   -0.35849E+06        -0.27736E+08         0.00000E+00
    0.00000E+00         0.00000E+00        -0.27083E+07
 
   -0.92510E+07        -0.33166E+06         0.00000E+00
   -0.33166E+06        -0.27698E+08         0.00000E+00
    0.00000E+00         0.00000E+00        -0.27630E+07
 
   -0.90673E+07        -0.30456E+06         0.00000E+00
   -0.30456E+06        -0.27662E+08         0.00000E+00
    0.00000E+00         0.00000E+00        -0.28176E+07
 
   -0.88931E+07        -0.27730E+06         0.00000E+00
   -0.27730E+06        -0.27629E+08         0.00000E+00
    0.00000E+00         0.00000E+00        -0.28723E+07
 
   -0.87276E+07        -0.24992E+06         0.00000E+00
   -0.24992E+06        -0.27598E+08         0.00000E+00
    0.00000E+00         0.00000E+00        -0.29274E+07
 
   -0.85702E+07        -0.22241E+06         0.00000E+00
   -0.22241E+06        -0.27570E+08         0.00000E+00
    0.00000E+00         0.00000E+00        -0.29832E+07
 
   -0.84202E+07        -0.19475E+06         0.00000E+00
   -0.19475E+06        -0.27546E+08         0.00000E+00
    0.00000E+00         0.00000E+00        -0.30399E+07
 
   -0.82770E+07        -0.16694E+06         0.00000E+00
   -0.16694E+06        -0.27524E+08         0.00000E+00
    0.00000E+00         0.00000E+00        -0.30978E+07
 
   -0.81399E+07        -0.13898E+06         0.00000E+00
   -0.13898E+06        -0.27506E+08         0.00000E+00
    0.00000E+00         0.00000E+00        -0.31572E+07
 
   -0.80085E+07        -0.11082E+06         0.00000E+00
   -0.11082E+06        -0.27491E+08         0.00000E+00
    0.00000E+00         0.00000E+00        -0.32184E+07
 
   -0.78825E+07        -0.82367E+05         0.00000E+00
   -0.82367E+05        -0.27479E+08         0.00000E+00
    0.00000E+00         0.00000E+00        -0.32816E+07
 
   -0.77610E+07        -0.53529E+05         0.00000E+00
   -0.53529E+05        -0.27471E+08         0.00000E+00
    0.00000E+00         0.00000E+00        -0.33473E+07
 
   -0.76437E+07        -0.24158E+05         0.00000E+00
   -0.24158E+05        -0.27466E+08         0.00000E+00
    0.00000E+00         0.00000E+00        -0.34158E+07
 
   -0.75304E+07         0.58225E+04         0.00000E+00
    0.58225E+04        -0.27465E+08         0.00000E+00
    0.00000E+00         0.00000E+00        -0.34873E+07
 
   -0.74206E+07         0.36517E+05         0.00000E+00
    0.36517E+05        -0.27467E+08         0.00000E+00
    0.00000E+00         0.00000E+00        -0.35624E+07
 
   -0.73137E+07         0.68105E+05         0.00000E+00
    0.68105E+05        -0.27474E+08         0.00000E+00
    0.00000E+00         0.00000E+00        -0.36415E+07
 
   -0.72095E+07         0.10072E+06         0.00000E+00
    0.10072E+06        -0.27484E+08         0.00000E+00
    0.00000E+00         0.00000E+00        -0.37250E+07
 
   -0.71073E+07         0.13449E+06         0.00000E+00
    0.13449E+06        -0.27499E+08         0.00000E+00
    0.00000E+00         0.00000E+00        -0.38136E+07
 
   -0.70067E+07         0.16966E+06         0.00000E+00
    0.16966E+06        -0.27519E+08         0.00000E+00
    0.00000E+00         0.00000E+00        -0.39081E+07
 
   -0.69075E+07         0.20670E+06         0.00000E+00
    0.20670E+06        -0.27543E+08         0.00000E+00
    0.00000E+00         0.00000E+00        -0.40088E+07
 
   -0.68101E+07         0.24595E+06         0.00000E+00
    0.24595E+06        -0.27572E+08         0.00000E+00
    0.00000E+00         0.00000E+00        -0.41161E+07
 
   -0.67145E+07         0.28795E+06         0.00000E+00
    0.28795E+06        -0.27606E+08         0.00000E+00
    0.00000E+00         0.00000E+00        -0.42305E+07
 
   -0.66206E+07         0.33336E+06         0.00000E+00
    0.33336E+06        -0.27645E+08         0.00000E+00
    0.00000E+00         0.00000E+00        -0.43527E+07
 
   -0.65288E+07         0.38300E+06         0.00000E+00
    0.38300E+06        -0.27691E+08         0.00000E+00
    0.00000E+00         0.00000E+00        -0.44831E+07
 
   -0.64396E+07         0.43856E+06         0.00000E+00
    0.43856E+06        -0.27743E+08         0.00000E+00
    0.00000E+00         0.00000E+00        -0.46223E+07
 
   -0.63519E+07         0.50076E+06         0.00000E+00
    0.50076E+06        -0.27801E+08         0.00000E+00
    0.00000E+00         0.00000E+00        -0.47723E+07
 
   -0.62622E+07         0.56893E+06         0.00000E+00
    0.56893E+06        -0.27867E+08         0.00000E+00
    0.00000E+00         0.00000E+00        -0.49370E+07
 
   -0.61749E+07         0.64464E+06         0.00000E+00
    0.64464E+06        -0.27939E+08         0.00000E+00
    0.00000E+00         0.00000E+00        -0.51124E+07
 
   -0.60928E+07         0.73194E+06         0.00000E+00
    0.73194E+06        -0.28018E+08         0.00000E+00
    0.00000E+00         0.00000E+00        -0.52977E+07
 
   -0.60224E+07         0.83691E+06         0.00000E+00
    0.83691E+06        -0.28104E+08         0.00000E+00
    0.00000E+00         0.00000E+00        -0.54892E+07
 
   -0.59693E+07         0.95283E+06         0.00000E+00
    0.95283E+06        -0.28199E+08         0.00000E+00
    0.00000E+00         0.00000E+00        -0.56843E+07
 
   -0.59608E+07         0.10954E+07         0.00000E+00
    0.10954E+07        -0.28319E+08         0.00000E+00
    0.00000E+00         0.00000E+00        -0.58775E+07
 
   -0.16608E+08        -0.63457E+05         0.00000E+00
   -0.63457E+05        -0.29518E+08         0.00000E+00
    0.00000E+00         0.00000E+00        -0.51493E+07
 
   -0.16282E+08        -0.66805E+05         0.00000E+00
   -0.66805E+05        -0.29505E+08         0.00000E+00
    0.00000E+00         0.00000E+00        -0.40789E+07
 
   -0.15863E+08        -0.92745E+05         0.00000E+00
   -0.92745E+05        -0.29488E+08         0.00000E+00
    0.00000E+00         0.00000E+00        -0.32198E+07
 
   -0.15407E+08        -0.12735E+06         0.00000E+00
   -0.12735E+06        -0.29453E+08         0.00000E+00
    0.00000E+00         0.00000E+00        -0.25570E+07
 
   -0.14973E+08        -0.16903E+06         0.00000E+00
   -0.16903E+06        -0.29372E+08         0.00000E+00
    0.00000E+00         0.00000E+00        -0.23341E+07
 
   -0.14534E+08        -0.20331E+06         0.00000E+00
   -0.20331E+06        -0.29292E+08         0.00000E+00
    0.00000E+00         0.00000E+00        -0.23604E+07
 
   -0.14085E+08        -0.22321E+06         0.00000E+00
   -0.22321E+06        -0.29208E+08         0.00000E+00
    0.00000E+00         0.00000E+00        -0.23923E+07
 
   -0.13666E+08        -0.23308E+06         0.00000E+00
   -0.23308E+06        -0.29121E+08         0.00000E+00
    0.00000E+00         0.00000E+00        -0.24226E+07
 
   -0.13277E+08        -0.23671E+06         0.00000E+00
   -0.23671E+06        -0.29033E+08         0.00000E+00
    0.00000E+00         0.00000E+00        -0.24511E+07
 
   -0.12904E+08        -0.23453E+06         0.00000E+00
   -0.23453E+06        -0.28949E+08         0.00000E+00
    0.00000E+00         0.00000E+00        -0.24847E+07
 
   -0.12547E+08        -0.22591E+06         0.00000E+00
   -0.22591E+06        -0.28865E+08         0.00000E+00
    0.00000E+00         0.00000E+00        -0.25199E+07
 
   -0.12214E+08        -0.21436E+06         0.00000E+00
   -0.21436E+06        -0.28784E+08         0.00000E+00
    0.00000E+00         0.00000E+00        -0.25550E+07
 
   -0.11908E+08        -0.20225E+06         0.00000E+00
   -0.20225E+06        -0.28707E+08         0.00000E+00
    0.00000E+00         0.00000E+00        -0.25889E+07
 
   -0.11624E+08        -0.19019E+06         0.00000E+00
   -0.19019E+06        -0.28633E+08         0.00000E+00
    0.00000E+00         0.00000E+00        -0.26222E+07
 
   -0.11360E+08        -0.17832E+06         0.00000E+00
   -0.17832E+06        -0.28563E+08         0.00000E+00
    0.00000E+00         0.00000E+00        -0.26560E+07
 
   -0.11113E+08        -0.16656E+06         0.00000E+00
   -0.16656E+06        -0.28497E+08         0.00000E+00
    0.00000E+00         0.00000E+00        -0.26900E+07
 
   -0.10881E+08        -0.15495E+06         0.00000E+00
   -0.15495E+06        -0.28435E+08         0.00000E+00
    0.00000E+00         0.00000E+00        -0.27247E+07
 
   -0.10663E+08        -0.14362E+06         0.00000E+00
   -0.14362E+06        -0.28378E+08         0.00000E+00
    0.00000E+00         0.00000E+00        -0.27600E+07
 
   -0.10458E+08        -0.13256E+06         0.00000E+00
   -0.13256E+06        -0.28324E+08         0.00000E+00
    0.00000E+00         0.00000E+00        -0.27963E+07
 
   -0.10265E+08        -0.12174E+06         0.00000E+00
   -0.12174E+06        -0.28275E+08         0.00000E+00
    0.00000E+00         0.00000E+00        -0.28337E+07
 
   -0.10082E+08        -0.11110E+06         0.00000E+00
   -0.11110E+06        -0.28230E+08         0.00000E+00
    0.00000E+00         0.00000E+00        -0.28722E+07
 
   -0.99085E+07        -0.10064E+06         0.00000E+00
   -0.10064E+06        -0.28189E+08         0.00000E+00
    0.00000E+00         0.00000E+00        -0.29120E+07
 
   -0.97439E+07        -0.90307E+05         0.00000E+00
   -0.90307E+05        -0.28152E+08         0.00000E+00
    0.00000E+00         0.00000E+00        -0.29534E+07
 
   -0.95871E+07        -0.80082E+05         0.00000E+00
   -0.80082E+05        -0.28118E+08         0.00000E+00
    0.00000E+00         0.00000E+00        -0.29965E+07
 
   -0.94377E+07        -0.69928E+05         0.00000E+00
   -0.69928E+05        -0.28089E+08         0.00000E+00
    0.00000E+00         0.00000E+00        -0.30414E+07
 
   -0.92949E+07        -0.59819E+05         0.00000E+00
   -0.59819E+05        -0.28064E+08         0.00000E+00
    0.00000E+00         0.00000E+00        -0.30884E+07
 
   -0.91582E+07        -0.49735E+05         0.00000E+00
   -0.49735E+05        -0.28043E+08         0.00000E+00
    0.00000E+00         0.00000E+00        -0.31377E+07
 
   -0.90269E+07        -0.39659E+05         0.00000E+00
   -0.39659E+05        -0.28026E+08         0.00000E+00
    0.00000E+00         0.00000E+00        -0.31895E+07
 
   -0.89006E+07        -0.29550E+05         0.00000E+00
   -0.29550E+05        -0.28013E+08         0.00000E+00
    0.00000E+00         0.00000E+00        -0.32440E+07
 
   -0.87785E+07        -0.19387E+05         0.00000E+00
   -0.19387E+05        -0.28004E+08         0.00000E+00
    0.00000E+00         0.00000E+00        -0.33016E+07
 
   -0.86601E+07        -0.91409E+04         0.00000E+00
   -0.91409E+04        -0.27998E+08         0.00000E+00
    0.00000E+00         0.00000E+00        -0.33626E+07
 
   -0.85452E+07         0.12585E+04         0.00000E+00
    0.12585E+04        -0.27998E+08         0.00000E+00
    0.00000E+00         0.00000E+00        -0.34273E+07
 
   -0.84332E+07         0.11841E+05         0.00000E+00
    0.11841E+05        -0.28001E+08         0.00000E+00
    0.00000E+00         0.00000E+00        -0.34960E+07
 
   -0.83238E+07         0.22623E+05         0.00000E+00
    0.22623E+05        -0.28008E+08         0.00000E+00
    0.00000E+00         0.00000E+00        -0.35691E+07
 
   -0.82163E+07         0.33742E+05         0.00000E+00
    0.33742E+05        -0.28020E+08         0.00000E+00
    0.00000E+00         0.00000E+00        -0.36472E+07
 
   -0.81103E+07         0.45270E+05         0.00000E+00
    0.45270E+05        -0.28037E+08         0.00000E+00
    0.00000E+00         0.00000E+00        -0.37307E+07
 
   -0.80048E+07         0.57214E+05         0.00000E+00
    0.57214E+05        -0.28058E+08         0.00000E+00
    0.00000E+00         0.00000E+00        -0.38206E+07
 
   -0.78993E+07         0.69591E+05         0.00000E+00
    0.69591E+05        -0.28085E+08         0.00000E+00
    0.00000E+00         0.00000E+00        -0.39177E+07
 
   -0.77932E+07         0.82686E+05         0.00000E+00
    0.82686E+05        -0.28116E+08         0.00000E+00
    0.00000E+00         0.00000E+00        -0.40227E+07
 
   -0.76863E+07         0.96738E+05         0.00000E+00
    0.96738E+05        -0.28153E+08         0.00000E+00
    0.00000E+00         0.00000E+00        -0.41365E+07
 
   -0.75783E+07         0.11199E+06         0.00000E+00
    0.11199E+06        -0.28196E+08         0.00000E+00
    0.00000E+00         0.00000E+00        -0.42599E+07
 
   -0.74684E+07         0.12880E+06         0.00000E+00
    0.12880E+06        -0.28245E+08         0.00000E+00
    0.00000E+00         0.00000E+00        -0.43944E+07
 
   -0.73560E+07         0.14733E+06         0.00000E+00
    0.14733E+06        -0.28301E+08         0.00000E+00
    0.00000E+00         0.00000E+00        -0.45418E+07
 
   -0.72407E+07         0.16855E+06         0.00000E+00
    0.16855E+06        -0.28365E+08         0.00000E+00
    0.00000E+00         0.00000E+00        -0.47038E+07
 
   -0.71222E+07         0.19382E+06         0.00000E+00
    0.19382E+06        -0.28438E+08         0.00000E+00
    0.00000E+00         0.00000E+00        -0.48827E+07
 
   -0.69962E+07         0.22457E+06         0.00000E+00
    0.22457E+06        -0.28521E+08         0.00000E+00
    0.00000E+00         0.00000E+00        -0.50848E+07
 
   -0.68483E+07         0.26166E+06         0.00000E+00
    0.26166E+06        -0.28616E+08         0.00000E+00
    0.00000E+00         0.00000E+00        -0.53255E+07
 
   -0.66971E+07         0.30854E+06         0.00000E+00
    0.30854E+06        -0.28723E+08         0.00000E+00
    0.00000E+00         0.00000E+00        -0.55931E+07
 
   -0.65453E+07         0.37281E+06         0.00000E+00
    0.37281E+06        -0.28843E+08         0.00000E+00
    0.00000E+00         0.00000E+00        -0.58881E+07
 
   -0.63946E+07         0.44761E+06         0.00000E+00
    0.44761E+06        -0.28970E+08         0.00000E+00
    0.00000E+00         0.00000E+00        -0.62035E+07
 
TENSORS stresstot double 
   -0.57350E+08         0.91525E+04         0.00000E+00
    0.91525E+04        -0.49814E+08         0.00000E+00
    0.00000E+00         0.00000E+00        -0.58959E+08
 
   -0.57100E+08         0.73749E+05         0.00000E+00
    0.73749E+05        -0.49785E+08         0.00000E+00
    0.00000E+00         0.00000E+00        -0.60154E+08
 
   -0.57145E+08         0.62253E+05         0.00000E+00
    0.62253E+05        -0.49768E+08         0.00000E+00
    0.00000E+00         0.00000E+00        -0.61161E+08
 
   -0.57419E+08        -0.20846E+05         0.00000E+00
   -0.20846E+05        -0.49819E+08         0.00000E+00
    0.00000E+00         0.00000E+00        -0.61820E+08
 
   -0.57818E+08        -0.12984E+06         0.00000E+00
   -0.12984E+06        -0.49879E+08         0.00000E+00
    0.00000E+00         0.00000E+00        -0.62161E+08
 
   -0.58290E+08        -0.19499E+06         0.00000E+00
   -0.19499E+06        -0.49949E+08         0.00000E+00
    0.00000E+00         0.00000E+00        -0.62252E+08
 
   -0.58735E+08        -0.23311E+06         0.00000E+00
   -0.23311E+06        -0.50033E+08         0.00000E+00
    0.00000E+00         0.00000E+00        -0.62355E+08
 
   -0.59159E+08        -0.25561E+06         0.00000E+00
   -0.25561E+06        -0.50127E+08         0.00000E+00
    0.00000E+00         0.00000E+00        -0.62466E+08
 
   -0.59550E+08        -0.26834E+06         0.00000E+00
   -0.26834E+06        -0.50228E+08         0.00000E+00
    0.00000E+00         0.00000E+00        -0.62584E+08
 
   -0.59910E+08        -0.27539E+06         0.00000E+00
   -0.27539E+06        -0.50333E+08         0.00000E+00
    0.00000E+00         0.00000E+00        -0.62710E+08
 
   -0.60241E+08        -0.27796E+06         0.00000E+00
   -0.27796E+06        -0.50441E+08         0.00000E+00
    0.00000E+00         0.00000E+00        -0.62842E+08
 
   -0.60547E+08        -0.27645E+06         0.00000E+00
   -0.27645E+06        -0.50549E+08         0.00000E+00
    0.00000E+00         0.00000E+00        -0.62978E+08
 
   -0.60832E+08        -0.27179E+06         0.00000E+00
   -0.27179E+06        -0.50657E+08         0.00000E+00
    0.00000E+00         0.00000E+00        -0.63117E+08
 
   -0.61098E+08        -0.26702E+06         0.00000E+00
   -0.26702E+06        -0.50763E+08         0.00000E+00
    0.00000E+00         0.00000E+00        -0.63256E+08
 
   -0.61342E+08        -0.25954E+06         0.00000E+00
   -0.25954E+06        -0.50867E+08         0.00000E+00
    0.00000E+00         0.00000E+00        -0.63397E+08
 
   -0.61569E+08        -0.25034E+06         0.00000E+00
   -0.25034E+06        -0.50967E+08         0.00000E+00
    0.00000E+00         0.00000E+00        -0.63537E+08
 
   -0.61779E+08        -0.23995E+06         0.00000E+00
   -0.23995E+06        -0.51064E+08         0.00000E+00
    0.00000E+00         0.00000E+00        -0.63674E+08
 
   -0.61974E+08        -0.22857E+06         0.00000E+00
   -0.22857E+06        -0.51156E+08         0.00000E+00
    0.00000E+00         0.00000E+00        -0.63807E+08
 
   -0.62154E+08        -0.21656E+06         0.00000E+00
   -0.21656E+06        -0.51244E+08         0.00000E+00
    0.00000E+00         0.00000E+00        -0.63935E+08
 
   -0.62320E+08        -0.20387E+06         0.00000E+00
   -0.20387E+06        -0.51327E+08         0.00000E+00
    0.00000E+00         0.00000E+00        -0.64058E+08
 
   -0.62471E+08        -0.19179E+06         0.00000E+00
   -0.19179E+06        -0.51405E+08         0.00000E+00
    0.00000E+00         0.00000E+00        -0.64176E+08
 
   -0.62615E+08        -0.18018E+06         0.00000E+00
   -0.18018E+06        -0.51478E+08         0.00000E+00
    0.00000E+00         0.00000E+00        -0.64286E+08
 
   -0.62750E+08        -0.16865E+06         0.00000E+00
   -0.16865E+06        -0.51547E+08         0.00000E+00
    0.00000E+00         0.00000E+00        -0.64388E+08
 
   -0.62872E+08        -0.15737E+06         0.00000E+00
   -0.15737E+06        -0.51611E+08         0.00000E+00
    0.00000E+00         0.00000E+00        -0.64485E+08
 
   -0.62985E+08        -0.14655E+06         0.00000E+00
   -0.14655E+06        -0.51671E+08         0.00000E+00
    0.00000E+00         0.00000E+00        -0.64576E+08
 
   -0.63089E+08        -0.13621E+06         0.00000E+00
   -0.13621E+06        -0.51726E+08         0.00000E+00
    0.00000E+00         0.00000E+00        -0.64660E+08
 
   -0.63188E+08        -0.12627E+06         0.00000E+00
   -0.12627E+06        -0.51777E+08         0.00000E+00
    0.00000E+00         0.00000E+00        -0.64736E+08
 
   -0.63279E+08        -0.11668E+06         0.00000E+00
   -0.11668E+06        -0.51824E+08         0.00000E+00
    0.00000E+00         0.00000E+00        -0.64807E+08
 
   -0.63362E+08        -0.10748E+06         0.00000E+00
   -0.10748E+06        -0.51868E+08         0.00000E+00
    0.00000E+00         0.00000E+00        -0.64872E+08
 
   -0.63438E+08        -0.98530E+05         0.00000E+00
   -0.98530E+05        -0.51908E+08         0.00000E+00
    0.00000E+00         0.00000E+00        -0.64932E+08
 
   -0.63508E+08        -0.90037E+05         0.00000E+00
   -0.90037E+05        -0.51945E+08         0.00000E+00
    0.00000E+00         0.00000E+00        -0.64987E+08
 
   -0.63573E+08        -0.81782E+05         0.00000E+00
   -0.81782E+05        -0.51978E+08         0.00000E+00
    0.00000E+00         0.00000E+00        -0.65036E+08
 
   -0.63635E+08        -0.73626E+05         0.00000E+00
   -0.73626E+05        -0.52008E+08         0.00000E+00
    0.00000E+00         0.00000E+00        -0.65079E+08
 
   -0.63692E+08        -0.65492E+05         0.00000E+00
   -0.65492E+05        -0.52035E+08         0.00000E+00
    0.00000E+00         0.00000E+00        -0.65116E+08
 
   -0.63746E+08        -0.57217E+05         0.00000E+00
   -0.57217E+05        -0.52059E+08         0.00000E+00
    0.00000E+00         0.00000E+00        -0.65145E+08
 
   -0.63798E+08        -0.48793E+05         0.00000E+00
   -0.48793E+05        -0.52080E+08         0.00000E+00
    0.00000E+00         0.00000E+00        -0.65168E+08
 
   -0.63848E+08        -0.40164E+05         0.00000E+00
   -0.40164E+05        -0.52097E+08         0.00000E+00
    0.00000E+00         0.00000E+00        -0.65183E+08
 
   -0.63895E+08        -0.31145E+05         0.00000E+00
   -0.31145E+05        -0.52111E+08         0.00000E+00
    0.00000E+00         0.00000E+00        -0.65190E+08
 
   -0.63941E+08        -0.21871E+05         0.00000E+00
   -0.21871E+05        -0.52121E+08         0.00000E+00
    0.00000E+00         0.00000E+00        -0.65189E+08
 
   -0.63984E+08        -0.12420E+05         0.00000E+00
   -0.12420E+05        -0.52128E+08         0.00000E+00
    0.00000E+00         0.00000E+00        -0.65178E+08
 
   -0.64025E+08        -0.26597E+04         0.00000E+00
   -0.26597E+04        -0.52130E+08         0.00000E+00
    0.00000E+00         0.00000E+00        -0.65157E+08
 
   -0.64065E+08         0.74180E+04         0.00000E+00
    0.74180E+04        -0.52129E+08         0.00000E+00
    0.00000E+00         0.00000E+00        -0.65126E+08
 
   -0.64102E+08         0.17873E+05         0.00000E+00
    0.17873E+05        -0.52123E+08         0.00000E+00
    0.00000E+00         0.00000E+00        -0.65084E+08
 
   -0.64137E+08         0.28804E+05         0.00000E+00
    0.28804E+05        -0.52114E+08         0.00000E+00
    0.00000E+00         0.00000E+00        -0.65031E+08
 
   -0.64168E+08         0.40448E+05         0.00000E+00
    0.40448E+05        -0.52099E+08         0.00000E+00
    0.00000E+00         0.00000E+00        -0.64965E+08
 
   -0.64197E+08         0.53826E+05         0.00000E+00
    0.53826E+05        -0.52080E+08         0.00000E+00
    0.00000E+00         0.00000E+00        -0.64886E+08
 
   -0.64238E+08         0.69788E+05         0.00000E+00
    0.69788E+05        -0.52055E+08         0.00000E+00
    0.00000E+00         0.00000E+00        -0.64780E+08
 
   -0.64274E+08         0.88272E+05         0.00000E+00
    0.88272E+05        -0.52025E+08         0.00000E+00
    0.00000E+00         0.00000E+00        -0.64657E+08
 
   -0.64303E+08         0.10950E+06         0.00000E+00
    0.10950E+06        -0.51990E+08         0.00000E+00
    0.00000E+00         0.00000E+00        -0.64519E+08
 
   -0.64325E+08         0.13836E+06         0.00000E+00
    0.13836E+06        -0.51958E+08         0.00000E+00
    0.00000E+00         0.00000E+00        -0.64379E+08
 
   -0.57090E+08         0.23095E+06         0.00000E+00
    0.23095E+06        -0.50122E+08         0.00000E+00
    0.00000E+00         0.00000E+00        -0.63027E+08
 
   -0.57285E+08         0.88493E+05         0.00000E+00
    0.88493E+05        -0.50150E+08         0.00000E+00
    0.00000E+00         0.00000E+00        -0.63119E+08
 
   -0.57569E+08        -0.80405E+05         0.00000E+00
   -0.80405E+05        -0.50197E+08         0.00000E+00
    0.00000E+00         0.00000E+00        -0.63235E+08
 
   -0.57922E+08        -0.22996E+06         0.00000E+00
   -0.22996E+06        -0.50194E+08         0.00000E+00
    0.00000E+00         0.00000E+00        -0.63258E+08
 
   -0.58288E+08        -0.34824E+06         0.00000E+00
   -0.34824E+06        -0.50211E+08         0.00000E+00
    0.00000E+00         0.00000E+00        -0.63288E+08
 
   -0.58645E+08        -0.45123E+06         0.00000E+00
   -0.45123E+06        -0.50241E+08         0.00000E+00
    0.00000E+00         0.00000E+00        -0.63323E+08
 
   -0.59001E+08        -0.53604E+06         0.00000E+00
   -0.53604E+06        -0.50278E+08         0.00000E+00
    0.00000E+00         0.00000E+00        -0.63355E+08
 
   -0.59345E+08        -0.60051E+06         0.00000E+00
   -0.60051E+06        -0.50321E+08         0.00000E+00
    0.00000E+00         0.00000E+00        -0.63388E+08
 
   -0.59674E+08        -0.64657E+06         0.00000E+00
   -0.64657E+06        -0.50370E+08         0.00000E+00
    0.00000E+00         0.00000E+00        -0.63426E+08
 
   -0.59987E+08        -0.67681E+06         0.00000E+00
   -0.67681E+06        -0.50424E+08         0.00000E+00
    0.00000E+00         0.00000E+00        -0.63469E+08
 
   -0.60278E+08        -0.69390E+06         0.00000E+00
   -0.69390E+06        -0.50482E+08         0.00000E+00
    0.00000E+00         0.00000E+00        -0.63520E+08
 
   -0.60552E+08        -0.70044E+06         0.00000E+00
   -0.70044E+06        -0.50542E+08         0.00000E+00
    0.00000E+00         0.00000E+00        -0.63576E+08
 
   -0.60811E+08        -0.69785E+06         0.00000E+00
   -0.69785E+06        -0.50604E+08         0.00000E+00
    0.00000E+00         0.00000E+00        -0.63637E+08
 
   -0.61055E+08        -0.68694E+06         0.00000E+00
   -0.68694E+06        -0.50667E+08         0.00000E+00
    0.00000E+00         0.00000E+00        -0.63701E+08
 
   -0.61280E+08        -0.67078E+06         0.00000E+00
   -0.67078E+06        -0.50729E+08         0.00000E+00
    0.00000E+00         0.00000E+00        -0.63767E+08
 
   -0.61492E+08        -0.65000E+06         0.00000E+00
   -0.65000E+06        -0.50791E+08         0.00000E+00
    0.00000E+00         0.00000E+00        -0.63835E+08
 
   -0.61692E+08        -0.62546E+06         0.00000E+00
   -0.62546E+06        -0.50851E+08         0.00000E+00
    0.00000E+00         0.00000E+00        -0.63902E+08
 
   -0.61879E+08        -0.59847E+06         0.00000E+00
   -0.59847E+06        -0.50909E+08         0.00000E+00
    0.00000E+00         0.00000E+00        -0.63968E+08
 
   -0.62055E+08        -0.56957E+06         0.00000E+00
   -0.56957E+06        -0.50965E+08         0.00000E+00
    0.00000E+00         0.00000E+00        -0.64033E+08
 
   -0.62219E+08        -0.53995E+06         0.00000E+00
   -0.53995E+06        -0.51019E+08         0.00000E+00
    0.00000E+00         0.00000E+00        -0.64096E+08
 
   -0.62373E+08        -0.51017E+06         0.00000E+00
   -0.51017E+06        -0.51071E+08         0.00000E+00
    0.00000E+00         0.00000E+00        -0.64156E+08
 
   -0.62517E+08        -0.48060E+06         0.00000E+00
   -0.48060E+06        -0.51121E+08         0.00000E+00
    0.00000E+00         0.00000E+00        -0.64214E+08
 
   -0.62652E+08        -0.45115E+06         0.00000E+00
   -0.45115E+06        -0.51168E+08         0.00000E+00
    0.00000E+00         0.00000E+00        -0.64269E+08
 
   -0.62778E+08        -0.42247E+06         0.00000E+00
   -0.42247E+06        -0.51213E+08         0.00000E+00
    0.00000E+00         0.00000E+00        -0.64322E+08
 
   -0.62894E+08        -0.39491E+06         0.00000E+00
   -0.39491E+06        -0.51255E+08         0.00000E+00
    0.00000E+00         0.00000E+00        -0.64372E+08
 
   -0.63003E+08        -0.36856E+06         0.00000E+00
   -0.36856E+06        -0.51295E+08         0.00000E+00
    0.00000E+00         0.00000E+00        -0.64419E+08
 
   -0.63103E+08        -0.34317E+06         0.00000E+00
   -0.34317E+06        -0.51333E+08         0.00000E+00
    0.00000E+00         0.00000E+00        -0.64464E+08
 
   -0.63195E+08        -0.31842E+06         0.00000E+00
   -0.31842E+06        -0.51369E+08         0.00000E+00
    0.00000E+00         0.00000E+00        -0.64507E+08
 
   -0.63280E+08        -0.29438E+06         0.00000E+00
   -0.29438E+06        -0.51402E+08         0.00000E+00
    0.00000E+00         0.00000E+00        -0.64546E+08
 
   -0.63358E+08        -0.27108E+06         0.00000E+00
   -0.27108E+06        -0.51432E+08         0.00000E+00
    0.00000E+00         0.00000E+00        -0.64583E+08
 
   -0.63430E+08        -0.24828E+06         0.00000E+00
   -0.24828E+06        -0.51460E+08         0.00000E+00
    0.00000E+00         0.00000E+00        -0.64616E+08
 
   -0.63497E+08        -0.22586E+06         0.00000E+00
   -0.22586E+06        -0.51486E+08         0.00000E+00
    0.00000E+00         0.00000E+00        -0.64645E+08
 
   -0.63558E+08        -0.20364E+06         0.00000E+00
   -0.20364E+06        -0.51510E+08         0.00000E+00
    0.00000E+00         0.00000E+00        -0.64671E+08
 
   -0.63615E+08        -0.18135E+06         0.00000E+00
   -0.18135E+06        -0.51530E+08         0.00000E+00
    0.00000E+00         0.00000E+00        -0.64692E+08
 
   -0.63669E+08        -0.15885E+06         0.00000E+00
   -0.15885E+06        -0.51549E+08         0.00000E+00
    0.00000E+00         0.00000E+00        -0.64709E+08
 
   -0.63718E+08        -0.13587E+06         0.00000E+00
   -0.13587E+06        -0.51565E+08         0.00000E+00
    0.00000E+00         0.00000E+00        -0.64720E+08
 
   -0.63765E+08        -0.11218E+06         0.00000E+00
   -0.11218E+06        -0.51579E+08         0.00000E+00
    0.00000E+00         0.00000E+00        -0.64726E+08
 
   -0.63810E+08        -0.87737E+05         0.00000E+00
   -0.87737E+05        -0.51590E+08         0.00000E+00
    0.00000E+00         0.00000E+00        -0.64726E+08
 
   -0.63852E+08        -0.62320E+05         0.00000E+00
   -0.62320E+05        -0.51598E+08         0.00000E+00
    0.00000E+00         0.00000E+00        -0.64719E+08
 
   -0.63892E+08        -0.35687E+05         0.00000E+00
   -0.35687E+05        -0.51603E+08         0.00000E+00
    0.00000E+00         0.00000E+00        -0.64704E+08
 
   -0.63930E+08        -0.77498E+04         0.00000E+00
   -0.77498E+04        -0.51605E+08         0.00000E+00
    0.00000E+00         0.00000E+00        -0.64681E+08
 
   -0.63964E+08         0.21681E+05         0.00000E+00
    0.21681E+05        -0.51604E+08         0.00000E+00
    0.00000E+00         0.00000E+00        -0.64650E+08
 
   -0.63995E+08         0.52711E+05         0.00000E+00
    0.52711E+05        -0.51599E+08         0.00000E+00
    0.00000E+00         0.00000E+00        -0.64610E+08
 
   -0.64022E+08         0.85681E+05         0.00000E+00
    0.85681E+05        -0.51591E+08         0.00000E+00
    0.00000E+00         0.00000E+00        -0.64559E+08
 
   -0.64044E+08         0.12100E+06         0.00000E+00
    0.12100E+06        -0.51577E+08         0.00000E+00
    0.00000E+00         0.00000E+00        -0.64498E+08
 
   -0.64058E+08         0.15897E+06         0.00000E+00
    0.15897E+06        -0.51559E+08         0.00000E+00
    0.00000E+00         0.00000E+00        -0.64427E+08
 
   -0.64071E+08         0.20240E+06         0.00000E+00
    0.20240E+06        -0.51537E+08         0.00000E+00
    0.00000E+00         0.00000E+00        -0.64341E+08
 
   -0.64076E+08         0.25435E+06         0.00000E+00
    0.25435E+06        -0.51511E+08         0.00000E+00
    0.00000E+00         0.00000E+00        -0.64247E+08
 
   -0.64061E+08         0.31624E+06         0.00000E+00
    0.31624E+06        -0.51478E+08         0.00000E+00
    0.00000E+00         0.00000E+00        -0.64141E+08
 
   -0.63985E+08         0.38765E+06         0.00000E+00
    0.38765E+06        -0.51425E+08         0.00000E+00
    0.00000E+00         0.00000E+00        -0.64006E+08
 
   -0.57324E+08        -0.88776E+05         0.00000E+00
   -0.88776E+05        -0.50057E+08         0.00000E+00
    0.00000E+00         0.00000E+00        -0.63506E+08
 
   -0.57792E+08        -0.18525E+06         0.00000E+00
   -0.18525E+06        -0.50101E+08         0.00000E+00
    0.00000E+00         0.00000E+00        -0.63639E+08
 
   -0.58175E+08        -0.29607E+06         0.00000E+00
   -0.29607E+06        -0.50140E+08         0.00000E+00
    0.00000E+00         0.00000E+00        -0.63727E+08
 
   -0.58509E+08        -0.41335E+06         0.00000E+00
   -0.41335E+06        -0.50186E+08         0.00000E+00
    0.00000E+00         0.00000E+00        -0.63806E+08
 
   -0.58815E+08        -0.52922E+06         0.00000E+00
   -0.52922E+06        -0.50226E+08         0.00000E+00
    0.00000E+00         0.00000E+00        -0.63858E+08
 
   -0.59105E+08        -0.63222E+06         0.00000E+00
   -0.63222E+06        -0.50262E+08         0.00000E+00
    0.00000E+00         0.00000E+00        -0.63892E+08
 
   -0.59378E+08        -0.72013E+06         0.00000E+00
   -0.72013E+06        -0.50296E+08         0.00000E+00
    0.00000E+00         0.00000E+00        -0.63916E+08
 
   -0.59639E+08        -0.79229E+06         0.00000E+00
   -0.79229E+06        -0.50328E+08         0.00000E+00
    0.00000E+00         0.00000E+00        -0.63932E+08
 
   -0.59889E+08        -0.84835E+06         0.00000E+00
   -0.84835E+06        -0.50359E+08         0.00000E+00
    0.00000E+00         0.00000E+00        -0.63944E+08
 
   -0.60128E+08        -0.88870E+06         0.00000E+00
   -0.88870E+06        -0.50391E+08         0.00000E+00
    0.00000E+00         0.00000E+00        -0.63955E+08
 
   -0.60357E+08        -0.91492E+06         0.00000E+00
   -0.91492E+06        -0.50422E+08         0.00000E+00
    0.00000E+00         0.00000E+00        -0.63967E+08
 
   -0.60577E+08        -0.92854E+06         0.00000E+00
   -0.92854E+06        -0.50454E+08         0.00000E+00
    0.00000E+00         0.00000E+00        -0.63980E+08
 
   -0.60789E+08        -0.93133E+06         0.00000E+00
   -0.93133E+06        -0.50486E+08         0.00000E+00
    0.00000E+00         0.00000E+00        -0.63997E+08
 
   -0.60993E+08        -0.92422E+06         0.00000E+00
   -0.92422E+06        -0.50520E+08         0.00000E+00
    0.00000E+00         0.00000E+00        -0.64017E+08
 
   -0.61189E+08        -0.90877E+06         0.00000E+00
   -0.90877E+06        -0.50554E+08         0.00000E+00
    0.00000E+00         0.00000E+00        -0.64040E+08
 
   -0.61377E+08        -0.88671E+06         0.00000E+00
   -0.88671E+06        -0.50589E+08         0.00000E+00
    0.00000E+00         0.00000E+00        -0.64066E+08
 
   -0.61557E+08        -0.85948E+06         0.00000E+00
   -0.85948E+06        -0.50624E+08         0.00000E+00
    0.00000E+00         0.00000E+00        -0.64093E+08
 
   -0.61730E+08        -0.82805E+06         0.00000E+00
   -0.82805E+06        -0.50659E+08         0.00000E+00
    0.00000E+00         0.00000E+00        -0.64121E+08
 
   -0.61896E+08        -0.79380E+06         0.00000E+00
   -0.79380E+06        -0.50695E+08         0.00000E+00
    0.00000E+00         0.00000E+00        -0.64150E+08
 
   -0.62055E+08        -0.75735E+06         0.00000E+00
   -0.75735E+06        -0.50729E+08         0.00000E+00
    0.00000E+00         0.00000E+00        -0.64178E+08
 
   -0.62206E+08        -0.71942E+06         0.00000E+00
   -0.71942E+06        -0.50763E+08         0.00000E+00
    0.00000E+00         0.00000E+00        -0.64205E+08
 
   -0.62350E+08        -0.68078E+06         0.00000E+00
   -0.68078E+06        -0.50795E+08         0.00000E+00
    0.00000E+00         0.00000E+00        -0.64230E+08
 
   -0.62486E+08        -0.64197E+06         0.00000E+00
   -0.64197E+06        -0.50826E+08         0.00000E+00
    0.00000E+00         0.00000E+00        -0.64253E+08
 
   -0.62615E+08        -0.60339E+06         0.00000E+00
   -0.60339E+06        -0.50856E+08         0.00000E+00
    0.00000E+00         0.00000E+00        -0.64273E+08
 
   -0.62736E+08        -0.56547E+06         0.00000E+00
   -0.56547E+06        -0.50884E+08         0.00000E+00
    0.00000E+00         0.00000E+00        -0.64290E+08
 
   -0.62848E+08        -0.52839E+06         0.00000E+00
   -0.52839E+06        -0.50910E+08         0.00000E+00
    0.00000E+00         0.00000E+00        -0.64304E+08
 
   -0.62952E+08        -0.49223E+06         0.00000E+00
   -0.49223E+06        -0.50934E+08         0.00000E+00
    0.00000E+00         0.00000E+00        -0.64316E+08
 
   -0.63049E+08        -0.45710E+06         0.00000E+00
   -0.45710E+06        -0.50956E+08         0.00000E+00
    0.00000E+00         0.00000E+00        -0.64325E+08
 
   -0.63137E+08        -0.42282E+06         0.00000E+00
   -0.42282E+06        -0.50976E+08         0.00000E+00
    0.00000E+00         0.00000E+00        -0.64332E+08
 
   -0.63218E+08        -0.38924E+06         0.00000E+00
   -0.38924E+06        -0.50995E+08         0.00000E+00
    0.00000E+00         0.00000E+00        -0.64338E+08
 
   -0.63292E+08        -0.35625E+06         0.00000E+00
   -0.35625E+06        -0.51011E+08         0.00000E+00
    0.00000E+00         0.00000E+00        -0.64341E+08
 
   -0.63359E+08        -0.32361E+06         0.00000E+00
   -0.32361E+06        -0.51026E+08         0.00000E+00
    0.00000E+00         0.00000E+00        -0.64342E+08
 
   -0.63421E+08        -0.29108E+06         0.00000E+00
   -0.29108E+06        -0.51039E+08         0.00000E+00
    0.00000E+00         0.00000E+00        -0.64342E+08
 
   -0.63476E+08        -0.25846E+06         0.00000E+00
   -0.25846E+06        -0.51051E+08         0.00000E+00
    0.00000E+00         0.00000E+00        -0.64338E+08
 
   -0.63527E+08        -0.22533E+06         0.00000E+00
   -0.22533E+06        -0.51060E+08         0.00000E+00
    0.00000E+00         0.00000E+00        -0.64332E+08
 
   -0.63573E+08        -0.19147E+06         0.00000E+00
   -0.19147E+06        -0.51068E+08         0.00000E+00
    0.00000E+00         0.00000E+00        -0.64323E+08
 
   -0.63615E+08        -0.15658E+06         0.00000E+00
   -0.15658E+06        -0.51073E+08         0.00000E+00
    0.00000E+00         0.00000E+00        -0.64310E+08
 
   -0.63653E+08        -0.12019E+06         0.00000E+00
   -0.12019E+06        -0.51077E+08         0.00000E+00
    0.00000E+00         0.00000E+00        -0.64294E+08
 
   -0.63687E+08        -0.81807E+05         0.00000E+00
   -0.81807E+05        -0.51078E+08         0.00000E+00
    0.00000E+00         0.00000E+00        -0.64272E+08
 
   -0.63718E+08        -0.41163E+05         0.00000E+00
   -0.41163E+05        -0.51077E+08         0.00000E+00
    0.00000E+00         0.00000E+00        -0.64245E+08
 
   -0.63745E+08         0.20218E+04         0.00000E+00
    0.20218E+04        -0.51074E+08         0.00000E+00
    0.00000E+00         0.00000E+00        -0.64212E+08
 
   -0.63767E+08         0.48257E+05         0.00000E+00
    0.48257E+05        -0.51068E+08         0.00000E+00
    0.00000E+00         0.00000E+00        -0.64173E+08
 
   -0.63784E+08         0.98233E+05         0.00000E+00
    0.98233E+05        -0.51059E+08         0.00000E+00
    0.00000E+00         0.00000E+00        -0.64127E+08
 
   -0.63795E+08         0.15223E+06         0.00000E+00
    0.15223E+06        -0.51047E+08         0.00000E+00
    0.00000E+00         0.00000E+00        -0.64074E+08
 
   -0.63798E+08         0.21061E+06         0.00000E+00
    0.21061E+06        -0.51030E+08         0.00000E+00
    0.00000E+00         0.00000E+00        -0.64012E+08
 
   -0.63792E+08         0.27357E+06         0.00000E+00
    0.27357E+06        -0.51010E+08         0.00000E+00
    0.00000E+00         0.00000E+00        -0.63944E+08
 
   -0.63772E+08         0.34028E+06         0.00000E+00
    0.34028E+06        -0.50985E+08         0.00000E+00
    0.00000E+00         0.00000E+00        -0.63866E+08
 
   -0.63734E+08         0.41217E+06         0.00000E+00
    0.41217E+06        -0.50953E+08         0.00000E+00
    0.00000E+00         0.00000E+00        -0.63783E+08
 
   -0.63676E+08         0.49043E+06         0.00000E+00
    0.49043E+06        -0.50917E+08         0.00000E+00
    0.00000E+00         0.00000E+00        -0.63696E+08
 
   -0.63603E+08         0.57241E+06         0.00000E+00
    0.57241E+06        -0.50884E+08         0.00000E+00
    0.00000E+00         0.00000E+00        -0.63609E+08
 
   -0.58183E+08        -0.15315E+06         0.00000E+00
   -0.15315E+06        -0.50009E+08         0.00000E+00
    0.00000E+00         0.00000E+00        -0.64064E+08
 
   -0.58517E+08        -0.34451E+06         0.00000E+00
   -0.34451E+06        -0.50017E+08         0.00000E+00
    0.00000E+00         0.00000E+00        -0.64081E+08
 
   -0.58821E+08        -0.49925E+06         0.00000E+00
   -0.49925E+06        -0.50043E+08         0.00000E+00
    0.00000E+00         0.00000E+00        -0.64112E+08
 
   -0.59089E+08        -0.62654E+06         0.00000E+00
   -0.62654E+06        -0.50076E+08         0.00000E+00
    0.00000E+00         0.00000E+00        -0.64141E+08
 
   -0.59329E+08        -0.73128E+06         0.00000E+00
   -0.73128E+06        -0.50112E+08         0.00000E+00
    0.00000E+00         0.00000E+00        -0.64170E+08
 
   -0.59545E+08        -0.81928E+06         0.00000E+00
   -0.81928E+06        -0.50146E+08         0.00000E+00
    0.00000E+00         0.00000E+00        -0.64193E+08
 
   -0.59744E+08        -0.89174E+06         0.00000E+00
   -0.89174E+06        -0.50178E+08         0.00000E+00
    0.00000E+00         0.00000E+00        -0.64211E+08
 
   -0.59931E+08        -0.94989E+06         0.00000E+00
   -0.94989E+06        -0.50206E+08         0.00000E+00
    0.00000E+00         0.00000E+00        -0.64223E+08
 
   -0.60110E+08        -0.99497E+06         0.00000E+00
   -0.99497E+06        -0.50231E+08         0.00000E+00
    0.00000E+00         0.00000E+00        -0.64231E+08
 
   -0.60284E+08        -0.10281E+07         0.00000E+00
   -0.10281E+07        -0.50254E+08         0.00000E+00
    0.00000E+00         0.00000E+00        -0.64236E+08
 
   -0.60453E+08        -0.10499E+07         0.00000E+00
   -0.10499E+07        -0.50276E+08         0.00000E+00
    0.00000E+00         0.00000E+00        -0.64240E+08
 
   -0.60619E+08        -0.10614E+07         0.00000E+00
   -0.10614E+07        -0.50296E+08         0.00000E+00
    0.00000E+00         0.00000E+00        -0.64244E+08
 
   -0.60782E+08        -0.10634E+07         0.00000E+00
   -0.10634E+07        -0.50315E+08         0.00000E+00
    0.00000E+00         0.00000E+00        -0.64247E+08
 
   -0.60944E+08        -0.10568E+07         0.00000E+00
   -0.10568E+07        -0.50333E+08         0.00000E+00
    0.00000E+00         0.00000E+00        -0.64250E+08
 
   -0.61103E+08        -0.10425E+07         0.00000E+00
   -0.10425E+07        -0.50351E+08         0.00000E+00
    0.00000E+00         0.00000E+00        -0.64254E+08
 
   -0.61261E+08        -0.10216E+07         0.00000E+00
   -0.10216E+07        -0.50370E+08         0.00000E+00
    0.00000E+00         0.00000E+00        -0.64258E+08
 
   -0.61415E+08        -0.99464E+06         0.00000E+00
   -0.99464E+06        -0.50388E+08         0.00000E+00
    0.00000E+00         0.00000E+00        -0.64264E+08
 
   -0.61568E+08        -0.96270E+06         0.00000E+00
   -0.96270E+06        -0.50407E+08         0.00000E+00
    0.00000E+00         0.00000E+00        -0.64268E+08
 
   -0.61717E+08        -0.92655E+06         0.00000E+00
   -0.92655E+06        -0.50425E+08         0.00000E+00
    0.00000E+00         0.00000E+00        -0.64272E+08
 
   -0.61864E+08        -0.88703E+06         0.00000E+00
   -0.88703E+06        -0.50443E+08         0.00000E+00
    0.00000E+00         0.00000E+00        -0.64275E+08
 
   -0.62007E+08        -0.84497E+06         0.00000E+00
   -0.84497E+06        -0.50460E+08         0.00000E+00
    0.00000E+00         0.00000E+00        -0.64275E+08
 
   -0.62146E+08        -0.80106E+06         0.00000E+00
   -0.80106E+06        -0.50477E+08         0.00000E+00
    0.00000E+00         0.00000E+00        -0.64273E+08
 
   -0.62280E+08        -0.75603E+06         0.00000E+00
   -0.75603E+06        -0.50493E+08         0.00000E+00
    0.00000E+00         0.00000E+00        -0.64268E+08
 
   -0.62408E+08        -0.71040E+06         0.00000E+00
   -0.71040E+06        -0.50508E+08         0.00000E+00
    0.00000E+00         0.00000E+00        -0.64259E+08
 
   -0.62531E+08        -0.66458E+06         0.00000E+00
   -0.66458E+06        -0.50522E+08         0.00000E+00
    0.00000E+00         0.00000E+00        -0.64247E+08
 
   -0.62647E+08        -0.61919E+06         0.00000E+00
   -0.61919E+06        -0.50535E+08         0.00000E+00
    0.00000E+00         0.00000E+00        -0.64231E+08
 
   -0.62755E+08        -0.57464E+06         0.00000E+00
   -0.57464E+06        -0.50546E+08         0.00000E+00
    0.00000E+00         0.00000E+00        -0.64212E+08
 
   -0.62856E+08        -0.53096E+06         0.00000E+00
   -0.53096E+06        -0.50555E+08         0.00000E+00
    0.00000E+00         0.00000E+00        -0.64190E+08
 
   -0.62948E+08        -0.48832E+06         0.00000E+00
   -0.48832E+06        -0.50563E+08         0.00000E+00
    0.00000E+00         0.00000E+00        -0.64165E+08
 
   -0.63032E+08        -0.44668E+06         0.00000E+00
   -0.44668E+06        -0.50569E+08         0.00000E+00
    0.00000E+00         0.00000E+00        -0.64139E+08
 
   -0.63108E+08        -0.40577E+06         0.00000E+00
   -0.40577E+06        -0.50574E+08         0.00000E+00
    0.00000E+00         0.00000E+00        -0.64110E+08
 
   -0.63176E+08        -0.36520E+06         0.00000E+00
   -0.36520E+06        -0.50578E+08         0.00000E+00
    0.00000E+00         0.00000E+00        -0.64081E+08
 
   -0.63237E+08        -0.32462E+06         0.00000E+00
   -0.32462E+06        -0.50579E+08         0.00000E+00
    0.00000E+00         0.00000E+00        -0.64050E+08
 
   -0.63291E+08        -0.28365E+06         0.00000E+00
   -0.28365E+06        -0.50580E+08         0.00000E+00
    0.00000E+00         0.00000E+00        -0.64018E+08
 
   -0.63337E+08        -0.24204E+06         0.00000E+00
   -0.24204E+06        -0.50579E+08         0.00000E+00
    0.00000E+00         0.00000E+00        -0.63985E+08
 
   -0.63378E+08        -0.19925E+06         0.00000E+00
   -0.19925E+06        -0.50576E+08         0.00000E+00
    0.00000E+00         0.00000E+00        -0.63951E+08
 
   -0.63412E+08        -0.15487E+06         0.00000E+00
   -0.15487E+06        -0.50572E+08         0.00000E+00
    0.00000E+00         0.00000E+00        -0.63914E+08
 
   -0.63440E+08        -0.10860E+06         0.00000E+00
   -0.10860E+06        -0.50565E+08         0.00000E+00
    0.00000E+00         0.00000E+00        -0.63875E+08
 
   -0.63461E+08        -0.60197E+05         0.00000E+00
   -0.60197E+05        -0.50557E+08         0.00000E+00
    0.00000E+00         0.00000E+00        -0.63834E+08
 
   -0.63476E+08        -0.87277E+04         0.00000E+00
   -0.87277E+04        -0.50547E+08         0.00000E+00
    0.00000E+00         0.00000E+00        -0.63791E+08
 
   -0.63486E+08         0.46763E+05         0.00000E+00
    0.46763E+05        -0.50535E+08         0.00000E+00
    0.00000E+00         0.00000E+00        -0.63744E+08
 
   -0.63489E+08         0.10616E+06         0.00000E+00
    0.10616E+06        -0.50521E+08         0.00000E+00
    0.00000E+00         0.00000E+00        -0.63693E+08
 
   -0.63485E+08         0.16956E+06         0.00000E+00
    0.16956E+06        -0.50505E+08         0.00000E+00
    0.00000E+00         0.00000E+00        -0.63639E+08
 
   -0.63474E+08         0.23788E+06         0.00000E+00
    0.23788E+06        -0.50487E+08         0.00000E+00
    0.00000E+00         0.00000E+00        -0.63584E+08
 
   -0.63454E+08         0.31142E+06         0.00000E+00
    0.31142E+06        -0.50467E+08         0.00000E+00
    0.00000E+00         0.00000E+00        -0.63524E+08
 
   -0.63426E+08         0.39000E+06         0.00000E+00
    0.39000E+06        -0.50444E+08         0.00000E+00
    0.00000E+00         0.00000E+00        -0.63461E+08
 
   -0.63390E+08         0.47375E+06         0.00000E+00
    0.47375E+06        -0.50421E+08         0.00000E+00
    0.00000E+00         0.00000E+00        -0.63395E+08
 
   -0.63341E+08         0.55784E+06         0.00000E+00
    0.55784E+06        -0.50394E+08         0.00000E+00
    0.00000E+00         0.00000E+00        -0.63329E+08
 
   -0.63276E+08         0.63872E+06         0.00000E+00
    0.63872E+06        -0.50365E+08         0.00000E+00
    0.00000E+00         0.00000E+00        -0.63263E+08
 
   -0.63194E+08         0.71890E+06         0.00000E+00
    0.71890E+06        -0.50335E+08         0.00000E+00
    0.00000E+00         0.00000E+00        -0.63190E+08
 
   -0.59375E+08        -0.17655E+06         0.00000E+00
   -0.17655E+06        -0.50010E+08         0.00000E+00
    0.00000E+00         0.00000E+00        -0.64644E+08
 
   -0.59492E+08        -0.41438E+06         0.00000E+00
   -0.41438E+06        -0.50026E+08         0.00000E+00
    0.00000E+00         0.00000E+00        -0.64643E+08
 
   -0.59603E+08        -0.59760E+06         0.00000E+00
   -0.59760E+06        -0.50038E+08         0.00000E+00
    0.00000E+00         0.00000E+00        -0.64624E+08
 
   -0.59714E+08        -0.73761E+06         0.00000E+00
   -0.73761E+06        -0.50047E+08         0.00000E+00
    0.00000E+00         0.00000E+00        -0.64599E+08
 
   -0.59827E+08        -0.84525E+06         0.00000E+00
   -0.84525E+06        -0.50056E+08         0.00000E+00
    0.00000E+00         0.00000E+00        -0.64574E+08
 
   -0.59943E+08        -0.92723E+06         0.00000E+00
   -0.92723E+06        -0.50063E+08         0.00000E+00
    0.00000E+00         0.00000E+00        -0.64549E+08
 
   -0.60060E+08        -0.99062E+06         0.00000E+00
   -0.99062E+06        -0.50069E+08         0.00000E+00
    0.00000E+00         0.00000E+00        -0.64526E+08
 
   -0.60176E+08        -0.10395E+07         0.00000E+00
   -0.10395E+07        -0.50076E+08         0.00000E+00
    0.00000E+00         0.00000E+00        -0.64505E+08
 
   -0.60293E+08        -0.10760E+07         0.00000E+00
   -0.10760E+07        -0.50082E+08         0.00000E+00
    0.00000E+00         0.00000E+00        -0.64486E+08
 
   -0.60410E+08        -0.11015E+07         0.00000E+00
   -0.11015E+07        -0.50087E+08         0.00000E+00
    0.00000E+00         0.00000E+00        -0.64468E+08
 
   -0.60529E+08        -0.11174E+07         0.00000E+00
   -0.11174E+07        -0.50092E+08         0.00000E+00
    0.00000E+00         0.00000E+00        -0.64451E+08
 
   -0.60648E+08        -0.11245E+07         0.00000E+00
   -0.11245E+07        -0.50096E+08         0.00000E+00
    0.00000E+00         0.00000E+00        -0.64434E+08
 
   -0.60769E+08        -0.11235E+07         0.00000E+00
   -0.11235E+07        -0.50100E+08         0.00000E+00
    0.00000E+00         0.00000E+00        -0.64419E+08
 
   -0.60892E+08        -0.11154E+07         0.00000E+00
   -0.11154E+07        -0.50105E+08         0.00000E+00
    0.00000E+00         0.00000E+00        -0.64405E+08
 
   -0.61017E+08        -0.11006E+07         0.00000E+00
   -0.11006E+07        -0.50109E+08         0.00000E+00
    0.00000E+00         0.00000E+00        -0.64391E+08
 
   -0.61143E+08        -0.10795E+07         0.00000E+00
   -0.10795E+07        -0.50113E+08         0.00000E+00
    0.00000E+00         0.00000E+00        -0.64378E+08
 
   -0.61270E+08        -0.10526E+07         0.00000E+00
   -0.10526E+07        -0.50118E+08         0.00000E+00
    0.00000E+00         0.00000E+00        -0.64365E+08
 
   -0.61399E+08        -0.10204E+07         0.00000E+00
   -0.10204E+07        -0.50123E+08         0.00000E+00
    0.00000E+00         0.00000E+00        -0.64351E+08
 
   -0.61529E+08        -0.98370E+06         0.00000E+00
   -0.98370E+06        -0.50127E+08         0.00000E+00
    0.00000E+00         0.00000E+00        -0.64337E+08
 
   -0.61659E+08        -0.94323E+06         0.00000E+00
   -0.94323E+06        -0.50132E+08         0.00000E+00
    0.00000E+00         0.00000E+00        -0.64320E+08
 
   -0.61788E+08        -0.89942E+06         0.00000E+00
   -0.89942E+06        -0.50137E+08         0.00000E+00
    0.00000E+00         0.00000E+00        -0.64302E+08
 
   -0.61917E+08        -0.85278E+06         0.00000E+00
   -0.85278E+06        -0.50142E+08         0.00000E+00
    0.00000E+00         0.00000E+00        -0.64281E+08
 
   -0.62045E+08        -0.80382E+06         0.00000E+00
   -0.80382E+06        -0.50146E+08         0.00000E+00
    0.00000E+00         0.00000E+00        -0.64256E+08
 
   -0.62169E+08        -0.75331E+06         0.00000E+00
   -0.75331E+06        -0.50150E+08         0.00000E+00
    0.00000E+00         0.00000E+00        -0.64228E+08
 
   -0.62290E+08        -0.70187E+06         0.00000E+00
   -0.70187E+06        -0.50153E+08         0.00000E+00
    0.00000E+00         0.00000E+00        -0.64195E+08
 
   -0.62407E+08        -0.64991E+06         0.00000E+00
   -0.64991E+06        -0.50154E+08         0.00000E+00
    0.00000E+00         0.00000E+00        -0.64157E+08
 
   -0.62518E+08        -0.59769E+06         0.00000E+00
   -0.59769E+06        -0.50155E+08         0.00000E+00
    0.00000E+00         0.00000E+00        -0.64114E+08
 
   -0.62622E+08        -0.54617E+06         0.00000E+00
   -0.54617E+06        -0.50154E+08         0.00000E+00
    0.00000E+00         0.00000E+00        -0.64067E+08
 
   -0.62719E+08        -0.49552E+06         0.00000E+00
   -0.49552E+06        -0.50151E+08         0.00000E+00
    0.00000E+00         0.00000E+00        -0.64015E+08
 
   -0.62807E+08        -0.44579E+06         0.00000E+00
   -0.44579E+06        -0.50147E+08         0.00000E+00
    0.00000E+00         0.00000E+00        -0.63960E+08
 
   -0.62886E+08        -0.39694E+06         0.00000E+00
   -0.39694E+06        -0.50141E+08         0.00000E+00
    0.00000E+00         0.00000E+00        -0.63902E+08
 
   -0.62955E+08        -0.34891E+06         0.00000E+00
   -0.34891E+06        -0.50133E+08         0.00000E+00
    0.00000E+00         0.00000E+00        -0.63842E+08
 
   -0.63015E+08        -0.30130E+06         0.00000E+00
   -0.30130E+06        -0.50123E+08         0.00000E+00
    0.00000E+00         0.00000E+00        -0.63780E+08
 
   -0.63065E+08        -0.25345E+06         0.00000E+00
   -0.25345E+06        -0.50113E+08         0.00000E+00
    0.00000E+00         0.00000E+00        -0.63718E+08
 
   -0.63106E+08        -0.20458E+06         0.00000E+00
   -0.20458E+06        -0.50100E+08         0.00000E+00
    0.00000E+00         0.00000E+00        -0.63657E+08
 
   -0.63138E+08        -0.15435E+06         0.00000E+00
   -0.15435E+06        -0.50087E+08         0.00000E+00
    0.00000E+00         0.00000E+00        -0.63596E+08
 
   -0.63162E+08        -0.10218E+06         0.00000E+00
   -0.10218E+06        -0.50072E+08         0.00000E+00
    0.00000E+00         0.00000E+00        -0.63535E+08
 
   -0.63178E+08        -0.47545E+05         0.00000E+00
   -0.47545E+05        -0.50056E+08         0.00000E+00
    0.00000E+00         0.00000E+00        -0.63475E+08
 
   -0.63186E+08         0.10144E+05         0.00000E+00
    0.10144E+05        -0.50039E+08         0.00000E+00
    0.00000E+00         0.00000E+00        -0.63414E+08
 
   -0.63186E+08         0.70580E+05         0.00000E+00
    0.70580E+05        -0.50020E+08         0.00000E+00
    0.00000E+00         0.00000E+00        -0.63352E+08
 
   -0.63178E+08         0.13377E+06         0.00000E+00
    0.13377E+06        -0.49999E+08         0.00000E+00
    0.00000E+00         0.00000E+00        -0.63291E+08
 
   -0.63161E+08         0.20079E+06         0.00000E+00
    0.20079E+06        -0.49977E+08         0.00000E+00
    0.00000E+00         0.00000E+00        -0.63231E+08
 
   -0.63135E+08         0.27138E+06         0.00000E+00
    0.27138E+06        -0.49954E+08         0.00000E+00
    0.00000E+00         0.00000E+00        -0.63170E+08
 
   -0.63101E+08         0.34532E+06         0.00000E+00
    0.34532E+06        -0.49930E+08         0.00000E+00
    0.00000E+00         0.00000E+00        -0.63110E+08
 
   -0.63061E+08         0.42314E+06         0.00000E+00
    0.42314E+06        -0.49905E+08         0.00000E+00
    0.00000E+00         0.00000E+00        -0.63050E+08
 
   -0.63015E+08         0.50350E+06         0.00000E+00
    0.50350E+06        -0.49881E+08         0.00000E+00
    0.00000E+00         0.00000E+00        -0.62992E+08
 
   -0.62964E+08         0.58673E+06         0.00000E+00
    0.58673E+06        -0.49857E+08         0.00000E+00
    0.00000E+00         0.00000E+00        -0.62934E+08
 
   -0.62912E+08         0.67399E+06         0.00000E+00
    0.67399E+06        -0.49835E+08         0.00000E+00
    0.00000E+00         0.00000E+00        -0.62878E+08
 
   -0.62853E+08         0.76645E+06         0.00000E+00
    0.76645E+06        -0.49814E+08         0.00000E+00
    0.00000E+00         0.00000E+00        -0.62824E+08
 
   -0.62776E+08         0.85655E+06         0.00000E+00
    0.85655E+06        -0.49790E+08         0.00000E+00
    0.00000E+00         0.00000E+00        -0.62764E+08
 
   -0.60686E+08        -0.23090E+06         0.00000E+00
   -0.23090E+06        -0.50009E+08         0.00000E+00
    0.00000E+00         0.00000E+00        -0.65078E+08
 
   -0.60518E+08        -0.42102E+06         0.00000E+00
   -0.42102E+06        -0.49997E+08         0.00000E+00
    0.00000E+00         0.00000E+00        -0.65057E+08
 
   -0.60411E+08        -0.57720E+06         0.00000E+00
   -0.57720E+06        -0.49977E+08         0.00000E+00
    0.00000E+00         0.00000E+00        -0.65004E+08
 
   -0.60351E+08        -0.70677E+06         0.00000E+00
   -0.70677E+06        -0.49956E+08         0.00000E+00
    0.00000E+00         0.00000E+00        -0.64941E+08
 
   -0.60329E+08        -0.81322E+06         0.00000E+00
   -0.81322E+06        -0.49936E+08         0.00000E+00
    0.00000E+00         0.00000E+00        -0.64876E+08
 
   -0.60334E+08        -0.89957E+06         0.00000E+00
   -0.89957E+06        -0.49919E+08         0.00000E+00
    0.00000E+00         0.00000E+00        -0.64815E+08
 
   -0.60361E+08        -0.96731E+06         0.00000E+00
   -0.96731E+06        -0.49904E+08         0.00000E+00
    0.00000E+00         0.00000E+00        -0.64759E+08
 
   -0.60404E+08        -0.10189E+07         0.00000E+00
   -0.10189E+07        -0.49891E+08         0.00000E+00
    0.00000E+00         0.00000E+00        -0.64708E+08
 
   -0.60458E+08        -0.10572E+07         0.00000E+00
   -0.10572E+07        -0.49877E+08         0.00000E+00
    0.00000E+00         0.00000E+00        -0.64658E+08
 
   -0.60522E+08        -0.10841E+07         0.00000E+00
   -0.10841E+07        -0.49864E+08         0.00000E+00
    0.00000E+00         0.00000E+00        -0.64612E+08
 
   -0.60594E+08        -0.11013E+07         0.00000E+00
   -0.11013E+07        -0.49853E+08         0.00000E+00
    0.00000E+00         0.00000E+00        -0.64571E+08
 
   -0.60672E+08        -0.11108E+07         0.00000E+00
   -0.11108E+07        -0.49842E+08         0.00000E+00
    0.00000E+00         0.00000E+00        -0.64532E+08
 
   -0.60755E+08        -0.11134E+07         0.00000E+00
   -0.11134E+07        -0.49833E+08         0.00000E+00
    0.00000E+00         0.00000E+00        -0.64496E+08
 
   -0.60842E+08        -0.11078E+07         0.00000E+00
   -0.11078E+07        -0.49826E+08         0.00000E+00
    0.00000E+00         0.00000E+00        -0.64465E+08
 
   -0.60933E+08        -0.10944E+07         0.00000E+00
   -0.10944E+07        -0.49819E+08         0.00000E+00
    0.00000E+00         0.00000E+00        -0.64435E+08
 
   -0.61029E+08        -0.10744E+07         0.00000E+00
   -0.10744E+07        -0.49812E+08         0.00000E+00
    0.00000E+00         0.00000E+00        -0.64406E+08
 
   -0.61129E+08        -0.10490E+07         0.00000E+00
   -0.10490E+07        -0.49805E+08         0.00000E+00
    0.00000E+00         0.00000E+00        -0.64378E+08
 
   -0.61233E+08        -0.10187E+07         0.00000E+00
   -0.10187E+07        -0.49799E+08         0.00000E+00
    0.00000E+00         0.00000E+00        -0.64349E+08
 
   -0.61340E+08        -0.98399E+06         0.00000E+00
   -0.98399E+06        -0.49794E+08         0.00000E+00
    0.00000E+00         0.00000E+00        -0.64321E+08
 
   -0.61451E+08        -0.94461E+06         0.00000E+00
   -0.94461E+06        -0.49790E+08         0.00000E+00
    0.00000E+00         0.00000E+00        -0.64292E+08
 
   -0.61563E+08        -0.90096E+06         0.00000E+00
   -0.90096E+06        -0.49786E+08         0.00000E+00
    0.00000E+00         0.00000E+00        -0.64262E+08
 
   -0.61677E+08        -0.85353E+06         0.00000E+00
   -0.85353E+06        -0.49782E+08         0.00000E+00
    0.00000E+00         0.00000E+00        -0.64230E+08
 
   -0.61791E+08        -0.80269E+06         0.00000E+00
   -0.80269E+06        -0.49778E+08         0.00000E+00
    0.00000E+00         0.00000E+00        -0.64194E+08
 
   -0.61906E+08        -0.74859E+06         0.00000E+00
   -0.74859E+06        -0.49773E+08         0.00000E+00
    0.00000E+00         0.00000E+00        -0.64154E+08
 
   -0.62021E+08        -0.69222E+06         0.00000E+00
   -0.69222E+06        -0.49768E+08         0.00000E+00
    0.00000E+00         0.00000E+00        -0.64110E+08
 
   -0.62134E+08        -0.63442E+06         0.00000E+00
   -0.63442E+06        -0.49763E+08         0.00000E+00
    0.00000E+00         0.00000E+00        -0.64060E+08
 
   -0.62244E+08        -0.57566E+06         0.00000E+00
   -0.57566E+06        -0.49756E+08         0.00000E+00
    0.00000E+00         0.00000E+00        -0.64003E+08
 
   -0.62350E+08        -0.51604E+06         0.00000E+00
   -0.51604E+06        -0.49747E+08         0.00000E+00
    0.00000E+00         0.00000E+00        -0.63940E+08
 
   -0.62449E+08        -0.45610E+06         0.00000E+00
   -0.45610E+06        -0.49737E+08         0.00000E+00
    0.00000E+00         0.00000E+00        -0.63870E+08
 
   -0.62540E+08        -0.39664E+06         0.00000E+00
   -0.39664E+06        -0.49725E+08         0.00000E+00
    0.00000E+00         0.00000E+00        -0.63795E+08
 
   -0.62623E+08        -0.33834E+06         0.00000E+00
   -0.33834E+06        -0.49710E+08         0.00000E+00
    0.00000E+00         0.00000E+00        -0.63714E+08
 
   -0.62695E+08        -0.28104E+06         0.00000E+00
   -0.28104E+06        -0.49694E+08         0.00000E+00
    0.00000E+00         0.00000E+00        -0.63628E+08
 
   -0.62756E+08        -0.22462E+06         0.00000E+00
   -0.22462E+06        -0.49675E+08         0.00000E+00
    0.00000E+00         0.00000E+00        -0.63540E+08
 
   -0.62804E+08        -0.16889E+06         0.00000E+00
   -0.16889E+06        -0.49655E+08         0.00000E+00
    0.00000E+00         0.00000E+00        -0.63451E+08
 
   -0.62841E+08        -0.11352E+06         0.00000E+00
   -0.11352E+06        -0.49633E+08         0.00000E+00
    0.00000E+00         0.00000E+00        -0.63361E+08
 
   -0.62866E+08        -0.57324E+05         0.00000E+00
   -0.57324E+05        -0.49609E+08         0.00000E+00
    0.00000E+00         0.00000E+00        -0.63273E+08
 
   -0.62879E+08         0.13574E+03         0.00000E+00
    0.13574E+03        -0.49584E+08         0.00000E+00
    0.00000E+00         0.00000E+00        -0.63187E+08
 
   -0.62882E+08         0.59754E+05         0.00000E+00
    0.59754E+05        -0.49558E+08         0.00000E+00
    0.00000E+00         0.00000E+00        -0.63104E+08
 
   -0.62877E+08         0.12179E+06         0.00000E+00
    0.12179E+06        -0.49532E+08         0.00000E+00
    0.00000E+00         0.00000E+00        -0.63025E+08
 
   -0.62862E+08         0.18700E+06         0.00000E+00
    0.18700E+06        -0.49506E+08         0.00000E+00
    0.00000E+00         0.00000E+00        -0.62949E+08
 
   -0.62838E+08         0.25529E+06         0.00000E+00
    0.25529E+06        -0.49479E+08         0.00000E+00
    0.00000E+00         0.00000E+00        -0.62876E+08
 
   -0.62807E+08         0.32553E+06         0.00000E+00
    0.32553E+06        -0.49451E+08         0.00000E+00
    0.00000E+00         0.00000E+00        -0.62805E+08
 
   -0.62768E+08         0.39846E+06         0.00000E+00
    0.39846E+06        -0.49423E+08         0.00000E+00
    0.00000E+00         0.00000E+00        -0.62737E+08
 
   -0.62723E+08         0.47301E+06         0.00000E+00
    0.47301E+06        -0.49396E+08         0.00000E+00
    0.00000E+00         0.00000E+00        -0.62672E+08
 
   -0.62671E+08         0.54869E+06         0.00000E+00
    0.54869E+06        -0.49369E+08         0.00000E+00
    0.00000E+00         0.00000E+00        -0.62610E+08
 
   -0.62611E+08         0.62701E+06         0.00000E+00
    0.62701E+06        -0.49342E+08         0.00000E+00
    0.00000E+00         0.00000E+00        -0.62552E+08
 
   -0.62546E+08         0.70696E+06         0.00000E+00
    0.70696E+06        -0.49315E+08         0.00000E+00
    0.00000E+00         0.00000E+00        -0.62496E+08
 
   -0.62476E+08         0.78983E+06         0.00000E+00
    0.78983E+06        -0.49289E+08         0.00000E+00
    0.00000E+00         0.00000E+00        -0.62441E+08
 
   -0.62407E+08         0.87221E+06         0.00000E+00
    0.87221E+06        -0.49265E+08         0.00000E+00
    0.00000E+00         0.00000E+00        -0.62387E+08
 
   -0.62340E+08         0.95714E+06         0.00000E+00
    0.95714E+06        -0.49245E+08         0.00000E+00
    0.00000E+00         0.00000E+00        -0.62333E+08
 
   -0.61718E+08        -0.42040E+05         0.00000E+00
   -0.42040E+05        -0.49980E+08         0.00000E+00
    0.00000E+00         0.00000E+00        -0.64890E+08
 
   -0.61407E+08        -0.22191E+06         0.00000E+00
   -0.22191E+06        -0.49932E+08         0.00000E+00
    0.00000E+00         0.00000E+00        -0.64883E+08
 
   -0.61170E+08        -0.38645E+06         0.00000E+00
   -0.38645E+06        -0.49878E+08         0.00000E+00
    0.00000E+00         0.00000E+00        -0.64858E+08
 
   -0.60992E+08        -0.53099E+06         0.00000E+00
   -0.53099E+06        -0.49820E+08         0.00000E+00
    0.00000E+00         0.00000E+00        -0.64828E+08
 
   -0.60862E+08        -0.65517E+06         0.00000E+00
   -0.65517E+06        -0.49762E+08         0.00000E+00
    0.00000E+00         0.00000E+00        -0.64797E+08
 
   -0.60769E+08        -0.75960E+06         0.00000E+00
   -0.75960E+06        -0.49705E+08         0.00000E+00
    0.00000E+00         0.00000E+00        -0.64767E+08
 
   -0.60708E+08        -0.84559E+06         0.00000E+00
   -0.84559E+06        -0.49652E+08         0.00000E+00
    0.00000E+00         0.00000E+00        -0.64739E+08
 
   -0.60675E+08        -0.91422E+06         0.00000E+00
   -0.91422E+06        -0.49605E+08         0.00000E+00
    0.00000E+00         0.00000E+00        -0.64711E+08
 
   -0.60658E+08        -0.96560E+06         0.00000E+00
   -0.96560E+06        -0.49582E+08         0.00000E+00
    0.00000E+00         0.00000E+00        -0.64653E+08
 
   -0.60661E+08        -0.10037E+07         0.00000E+00
   -0.10037E+07        -0.49563E+08         0.00000E+00
    0.00000E+00         0.00000E+00        -0.64600E+08
 
   -0.60680E+08        -0.10294E+07         0.00000E+00
   -0.10294E+07        -0.49546E+08         0.00000E+00
    0.00000E+00         0.00000E+00        -0.64554E+08
 
   -0.60713E+08        -0.10428E+07         0.00000E+00
   -0.10428E+07        -0.49532E+08         0.00000E+00
    0.00000E+00         0.00000E+00        -0.64512E+08
 
   -0.60757E+08        -0.10459E+07         0.00000E+00
   -0.10459E+07        -0.49514E+08         0.00000E+00
    0.00000E+00         0.00000E+00        -0.64467E+08
 
   -0.60807E+08        -0.10431E+07         0.00000E+00
   -0.10431E+07        -0.49493E+08         0.00000E+00
    0.00000E+00         0.00000E+00        -0.64414E+08
 
   -0.60866E+08        -0.10354E+07         0.00000E+00
   -0.10354E+07        -0.49476E+08         0.00000E+00
    0.00000E+00         0.00000E+00        -0.64367E+08
 
   -0.60931E+08        -0.10222E+07         0.00000E+00
   -0.10222E+07        -0.49461E+08         0.00000E+00
    0.00000E+00         0.00000E+00        -0.64326E+08
 
   -0.61003E+08        -0.10028E+07         0.00000E+00
   -0.10028E+07        -0.49448E+08         0.00000E+00
    0.00000E+00         0.00000E+00        -0.64289E+08
 
   -0.61080E+08        -0.97720E+06         0.00000E+00
   -0.97720E+06        -0.49438E+08         0.00000E+00
    0.00000E+00         0.00000E+00        -0.64254E+08
 
   -0.61162E+08        -0.94530E+06         0.00000E+00
   -0.94530E+06        -0.49428E+08         0.00000E+00
    0.00000E+00         0.00000E+00        -0.64222E+08
 
   -0.61249E+08        -0.90772E+06         0.00000E+00
   -0.90772E+06        -0.49417E+08         0.00000E+00
    0.00000E+00         0.00000E+00        -0.64186E+08
 
   -0.61338E+08        -0.86487E+06         0.00000E+00
   -0.86487E+06        -0.49406E+08         0.00000E+00
    0.00000E+00         0.00000E+00        -0.64148E+08
 
   -0.61432E+08        -0.81728E+06         0.00000E+00
   -0.81728E+06        -0.49396E+08         0.00000E+00
    0.00000E+00         0.00000E+00        -0.64109E+08
 
   -0.61529E+08        -0.76604E+06         0.00000E+00
   -0.76604E+06        -0.49386E+08         0.00000E+00
    0.00000E+00         0.00000E+00        -0.64067E+08
 
   -0.61628E+08        -0.71201E+06         0.00000E+00
   -0.71201E+06        -0.49376E+08         0.00000E+00
    0.00000E+00         0.00000E+00        -0.64022E+08
 
   -0.61728E+08        -0.65357E+06         0.00000E+00
   -0.65357E+06        -0.49366E+08         0.00000E+00
    0.00000E+00         0.00000E+00        -0.63976E+08
 
   -0.61829E+08        -0.59011E+06         0.00000E+00
   -0.59011E+06        -0.49356E+08         0.00000E+00
    0.00000E+00         0.00000E+00        -0.63922E+08
 
   -0.61931E+08        -0.52359E+06         0.00000E+00
   -0.52359E+06        -0.49344E+08         0.00000E+00
    0.00000E+00         0.00000E+00        -0.63862E+08
 
   -0.62031E+08        -0.45540E+06         0.00000E+00
   -0.45540E+06        -0.49331E+08         0.00000E+00
    0.00000E+00         0.00000E+00        -0.63794E+08
 
   -0.62129E+08        -0.38681E+06         0.00000E+00
   -0.38681E+06        -0.49317E+08         0.00000E+00
    0.00000E+00         0.00000E+00        -0.63718E+08
 
   -0.62222E+08        -0.31795E+06         0.00000E+00
   -0.31795E+06        -0.49301E+08         0.00000E+00
    0.00000E+00         0.00000E+00        -0.63634E+08
 
   -0.62308E+08        -0.24837E+06         0.00000E+00
   -0.24837E+06        -0.49283E+08         0.00000E+00
    0.00000E+00         0.00000E+00        -0.63543E+08
 
   -0.62384E+08        -0.17877E+06         0.00000E+00
   -0.17877E+06        -0.49262E+08         0.00000E+00
    0.00000E+00         0.00000E+00        -0.63445E+08
 
   -0.62450E+08        -0.11028E+06         0.00000E+00
   -0.11028E+06        -0.49239E+08         0.00000E+00
    0.00000E+00         0.00000E+00        -0.63341E+08
 
   -0.62503E+08        -0.43749E+05         0.00000E+00
   -0.43749E+05        -0.49214E+08         0.00000E+00
    0.00000E+00         0.00000E+00        -0.63232E+08
 
   -0.62542E+08         0.21211E+05         0.00000E+00
    0.21211E+05        -0.49185E+08         0.00000E+00
    0.00000E+00         0.00000E+00        -0.63121E+08
 
   -0.62565E+08         0.84987E+05         0.00000E+00
    0.84987E+05        -0.49155E+08         0.00000E+00
    0.00000E+00         0.00000E+00        -0.63010E+08
 
   -0.62575E+08         0.14820E+06         0.00000E+00
    0.14820E+06        -0.49122E+08         0.00000E+00
    0.00000E+00         0.00000E+00        -0.62900E+08
 
   -0.62571E+08         0.21050E+06         0.00000E+00
    0.21050E+06        -0.49088E+08         0.00000E+00
    0.00000E+00         0.00000E+00        -0.62793E+08
 
   -0.62555E+08         0.27320E+06         0.00000E+00
    0.27320E+06        -0.49053E+08         0.00000E+00
    0.00000E+00         0.00000E+00        -0.62692E+08
 
   -0.62528E+08         0.33702E+06         0.00000E+00
    0.33702E+06        -0.49019E+08         0.00000E+00
    0.00000E+00         0.00000E+00        -0.62597E+08
 
   -0.62494E+08         0.40296E+06         0.00000E+00
    0.40296E+06        -0.48985E+08         0.00000E+00
    0.00000E+00         0.00000E+00        -0.62509E+08
 
   -0.62453E+08         0.47123E+06         0.00000E+00
    0.47123E+06        -0.48953E+08         0.00000E+00
    0.00000E+00         0.00000E+00        -0.62428E+08
 
   -0.62405E+08         0.54175E+06         0.00000E+00
    0.54175E+06        -0.48922E+08         0.00000E+00
    0.00000E+00         0.00000E+00        -0.62352E+08
 
   -0.62351E+08         0.61484E+06         0.00000E+00
    0.61484E+06        -0.48892E+08         0.00000E+00
    0.00000E+00         0.00000E+00        -0.62281E+08
 
   -0.62291E+08         0.68945E+06         0.00000E+00
    0.68945E+06        -0.48863E+08         0.00000E+00
    0.00000E+00         0.00000E+00        -0.62214E+08
 
   -0.62225E+08         0.76373E+06         0.00000E+00
    0.76373E+06        -0.48833E+08         0.00000E+00
    0.00000E+00         0.00000E+00        -0.62150E+08
 
   -0.62155E+08         0.83872E+06         0.00000E+00
    0.83872E+06        -0.48805E+08         0.00000E+00
    0.00000E+00         0.00000E+00        -0.62089E+08
 
   -0.62081E+08         0.91350E+06         0.00000E+00
    0.91350E+06        -0.48777E+08         0.00000E+00
    0.00000E+00         0.00000E+00        -0.62031E+08
 
   -0.62006E+08         0.98982E+06         0.00000E+00
    0.98982E+06        -0.48752E+08         0.00000E+00
    0.00000E+00         0.00000E+00        -0.61976E+08
 
   -0.61929E+08         0.10674E+07         0.00000E+00
    0.10674E+07        -0.48727E+08         0.00000E+00
    0.00000E+00         0.00000E+00        -0.61920E+08
 
   -0.62207E+08        -0.95282E+04         0.00000E+00
   -0.95282E+04        -0.50003E+08         0.00000E+00
    0.00000E+00         0.00000E+00        -0.64189E+08
 
   -0.61963E+08        -0.72184E+05         0.00000E+00
   -0.72184E+05        -0.50000E+08         0.00000E+00
    0.00000E+00         0.00000E+00        -0.64189E+08
 
   -0.61740E+08        -0.15141E+06         0.00000E+00
   -0.15141E+06        -0.49983E+08         0.00000E+00
    0.00000E+00         0.00000E+00        -0.64188E+08
 
   -0.61543E+08        -0.23977E+06         0.00000E+00
   -0.23977E+06        -0.49952E+08         0.00000E+00
    0.00000E+00         0.00000E+00        -0.64188E+08
 
   -0.61374E+08        -0.33118E+06         0.00000E+00
   -0.33118E+06        -0.49908E+08         0.00000E+00
    0.00000E+00         0.00000E+00        -0.64187E+08
 
   -0.61232E+08        -0.42149E+06         0.00000E+00
   -0.42149E+06        -0.49856E+08         0.00000E+00
    0.00000E+00         0.00000E+00        -0.64185E+08
 
   -0.61116E+08        -0.50802E+06         0.00000E+00
   -0.50802E+06        -0.49797E+08         0.00000E+00
    0.00000E+00         0.00000E+00        -0.64184E+08
 
   -0.61022E+08        -0.58908E+06         0.00000E+00
   -0.58908E+06        -0.49733E+08         0.00000E+00
    0.00000E+00         0.00000E+00        -0.64182E+08
 
   -0.60950E+08        -0.66412E+06         0.00000E+00
   -0.66412E+06        -0.49644E+08         0.00000E+00
    0.00000E+00         0.00000E+00        -0.64181E+08
 
   -0.60897E+08        -0.72922E+06         0.00000E+00
   -0.72922E+06        -0.49558E+08         0.00000E+00
    0.00000E+00         0.00000E+00        -0.64179E+08
 
   -0.60863E+08        -0.78491E+06         0.00000E+00
   -0.78491E+06        -0.49475E+08         0.00000E+00
    0.00000E+00         0.00000E+00        -0.64177E+08
 
   -0.60844E+08        -0.83214E+06         0.00000E+00
   -0.83214E+06        -0.49398E+08         0.00000E+00
    0.00000E+00         0.00000E+00        -0.64175E+08
 
   -0.60837E+08        -0.87016E+06         0.00000E+00
   -0.87016E+06        -0.49330E+08         0.00000E+00
    0.00000E+00         0.00000E+00        -0.64160E+08
 
   -0.60839E+08        -0.89582E+06         0.00000E+00
   -0.89582E+06        -0.49269E+08         0.00000E+00
    0.00000E+00         0.00000E+00        -0.64129E+08
 
   -0.60856E+08        -0.90893E+06         0.00000E+00
   -0.90893E+06        -0.49214E+08         0.00000E+00
    0.00000E+00         0.00000E+00        -0.64103E+08
 
   -0.60882E+08        -0.91167E+06         0.00000E+00
   -0.91167E+06        -0.49163E+08         0.00000E+00
    0.00000E+00         0.00000E+00        -0.64080E+08
 
   -0.60918E+08        -0.90540E+06         0.00000E+00
   -0.90540E+06        -0.49115E+08         0.00000E+00
    0.00000E+00         0.00000E+00        -0.64060E+08
 
   -0.60962E+08        -0.89093E+06         0.00000E+00
   -0.89093E+06        -0.49072E+08         0.00000E+00
    0.00000E+00         0.00000E+00        -0.64042E+08
 
   -0.61013E+08        -0.86898E+06         0.00000E+00
   -0.86898E+06        -0.49033E+08         0.00000E+00
    0.00000E+00         0.00000E+00        -0.64026E+08
 
   -0.61067E+08        -0.83917E+06         0.00000E+00
   -0.83917E+06        -0.49012E+08         0.00000E+00
    0.00000E+00         0.00000E+00        -0.63990E+08
 
   -0.61126E+08        -0.80271E+06         0.00000E+00
   -0.80271E+06        -0.48997E+08         0.00000E+00
    0.00000E+00         0.00000E+00        -0.63950E+08
 
   -0.61192E+08        -0.75974E+06         0.00000E+00
   -0.75974E+06        -0.48984E+08         0.00000E+00
    0.00000E+00         0.00000E+00        -0.63912E+08
 
   -0.61265E+08        -0.70948E+06         0.00000E+00
   -0.70948E+06        -0.48973E+08         0.00000E+00
    0.00000E+00         0.00000E+00        -0.63876E+08
 
   -0.61342E+08        -0.65193E+06         0.00000E+00
   -0.65193E+06        -0.48961E+08         0.00000E+00
    0.00000E+00         0.00000E+00        -0.63836E+08
 
   -0.61419E+08        -0.59046E+06         0.00000E+00
   -0.59046E+06        -0.48943E+08         0.00000E+00
    0.00000E+00         0.00000E+00        -0.63781E+08
 
   -0.61501E+08        -0.52662E+06         0.00000E+00
   -0.52662E+06        -0.48928E+08         0.00000E+00
    0.00000E+00         0.00000E+00        -0.63726E+08
 
   -0.61587E+08        -0.45898E+06         0.00000E+00
   -0.45898E+06        -0.48915E+08         0.00000E+00
    0.00000E+00         0.00000E+00        -0.63670E+08
 
   -0.61676E+08        -0.38705E+06         0.00000E+00
   -0.38705E+06        -0.48903E+08         0.00000E+00
    0.00000E+00         0.00000E+00        -0.63611E+08
 
   -0.61766E+08        -0.31085E+06         0.00000E+00
   -0.31085E+06        -0.48891E+08         0.00000E+00
    0.00000E+00         0.00000E+00        -0.63547E+08
 
   -0.61852E+08        -0.23090E+06         0.00000E+00
   -0.23090E+06        -0.48874E+08         0.00000E+00
    0.00000E+00         0.00000E+00        -0.63469E+08
 
   -0.61935E+08        -0.14906E+06         0.00000E+00
   -0.14906E+06        -0.48857E+08         0.00000E+00
    0.00000E+00         0.00000E+00        -0.63382E+08
 
   -0.62012E+08        -0.68140E+05         0.00000E+00
   -0.68140E+05        -0.48836E+08         0.00000E+00
    0.00000E+00         0.00000E+00        -0.63286E+08
 
   -0.62083E+08         0.12772E+05         0.00000E+00
    0.12772E+05        -0.48815E+08         0.00000E+00
    0.00000E+00         0.00000E+00        -0.63184E+08
 
   -0.62143E+08         0.95090E+05         0.00000E+00
    0.95090E+05        -0.48790E+08         0.00000E+00
    0.00000E+00         0.00000E+00        -0.63072E+08
 
   -0.62190E+08         0.17562E+06         0.00000E+00
    0.17562E+06        -0.48761E+08         0.00000E+00
    0.00000E+00         0.00000E+00        -0.62951E+08
 
   -0.62224E+08         0.25170E+06         0.00000E+00
    0.25170E+06        -0.48730E+08         0.00000E+00
    0.00000E+00         0.00000E+00        -0.62824E+08
 
   -0.62244E+08         0.32350E+06         0.00000E+00
    0.32350E+06        -0.48695E+08         0.00000E+00
    0.00000E+00         0.00000E+00        -0.62696E+08
 
   -0.62247E+08         0.39286E+06         0.00000E+00
    0.39286E+06        -0.48658E+08         0.00000E+00
    0.00000E+00         0.00000E+00        -0.62569E+08
 
   -0.62234E+08         0.45912E+06         0.00000E+00
    0.45912E+06        -0.48619E+08         0.00000E+00
    0.00000E+00         0.00000E+00        -0.62445E+08
 
   -0.62208E+08         0.52210E+06         0.00000E+00
    0.52210E+06        -0.48579E+08         0.00000E+00
    0.00000E+00         0.00000E+00        -0.62327E+08
 
   -0.62168E+08         0.58352E+06         0.00000E+00
    0.58352E+06        -0.48539E+08         0.00000E+00
    0.00000E+00         0.00000E+00        -0.62218E+08
 
   -0.62118E+08         0.64619E+06         0.00000E+00
    0.64619E+06        -0.48499E+08         0.00000E+00
    0.00000E+00         0.00000E+00        -0.62115E+08
 
   -0.62061E+08         0.70909E+06         0.00000E+00
    0.70909E+06        -0.48460E+08         0.00000E+00
    0.00000E+00         0.00000E+00        -0.62021E+08
 
   -0.61997E+08         0.77329E+06         0.00000E+00
    0.77329E+06        -0.48423E+08         0.00000E+00
    0.00000E+00         0.00000E+00        -0.61936E+08
 
   -0.61931E+08         0.83993E+06         0.00000E+00
    0.83993E+06        -0.48389E+08         0.00000E+00
    0.00000E+00         0.00000E+00        -0.61858E+08
 
   -0.61863E+08         0.90961E+06         0.00000E+00
    0.90961E+06        -0.48359E+08         0.00000E+00
    0.00000E+00         0.00000E+00        -0.61788E+08
 
   -0.61791E+08         0.98054E+06         0.00000E+00
    0.98054E+06        -0.48329E+08         0.00000E+00
    0.00000E+00         0.00000E+00        -0.61721E+08
 
   -0.61715E+08         0.10529E+07         0.00000E+00
    0.10529E+07        -0.48301E+08         0.00000E+00
    0.00000E+00         0.00000E+00        -0.61657E+08
 
   -0.61633E+08         0.11261E+07         0.00000E+00
    0.11261E+07        -0.48271E+08         0.00000E+00
    0.00000E+00         0.00000E+00        -0.61592E+08
 
   -0.61544E+08         0.11999E+07         0.00000E+00
    0.11999E+07        -0.48241E+08         0.00000E+00
    0.00000E+00         0.00000E+00        -0.61528E+08
 
   -0.62409E+08        -0.75550E+04         0.00000E+00
   -0.75550E+04        -0.49999E+08         0.00000E+00
    0.00000E+00         0.00000E+00        -0.63508E+08
 
   -0.62214E+08        -0.37761E+05         0.00000E+00
   -0.37761E+05        -0.49995E+08         0.00000E+00
    0.00000E+00         0.00000E+00        -0.63508E+08
 
   -0.62031E+08        -0.72850E+05         0.00000E+00
   -0.72850E+05        -0.49986E+08         0.00000E+00
    0.00000E+00         0.00000E+00        -0.63508E+08
 
   -0.61861E+08        -0.11294E+06         0.00000E+00
   -0.11294E+06        -0.49972E+08         0.00000E+00
    0.00000E+00         0.00000E+00        -0.63507E+08
 
   -0.61704E+08        -0.15706E+06         0.00000E+00
   -0.15706E+06        -0.49950E+08         0.00000E+00
    0.00000E+00         0.00000E+00        -0.63506E+08
 
   -0.61562E+08        -0.20362E+06         0.00000E+00
   -0.20362E+06        -0.49920E+08         0.00000E+00
    0.00000E+00         0.00000E+00        -0.63505E+08
 
   -0.61436E+08        -0.25081E+06         0.00000E+00
   -0.25081E+06        -0.49882E+08         0.00000E+00
    0.00000E+00         0.00000E+00        -0.63503E+08
 
   -0.61325E+08        -0.29700E+06         0.00000E+00
   -0.29700E+06        -0.49837E+08         0.00000E+00
    0.00000E+00         0.00000E+00        -0.63502E+08
 
   -0.61229E+08        -0.34144E+06         0.00000E+00
   -0.34144E+06        -0.49791E+08         0.00000E+00
    0.00000E+00         0.00000E+00        -0.63500E+08
 
   -0.61148E+08        -0.38424E+06         0.00000E+00
   -0.38424E+06        -0.49737E+08         0.00000E+00
    0.00000E+00         0.00000E+00        -0.63498E+08
 
   -0.61081E+08        -0.42365E+06         0.00000E+00
   -0.42365E+06        -0.49677E+08         0.00000E+00
    0.00000E+00         0.00000E+00        -0.63496E+08
 
   -0.61027E+08        -0.45804E+06         0.00000E+00
   -0.45804E+06        -0.49611E+08         0.00000E+00
    0.00000E+00         0.00000E+00        -0.63494E+08
 
   -0.60984E+08        -0.48700E+06         0.00000E+00
   -0.48700E+06        -0.49542E+08         0.00000E+00
    0.00000E+00         0.00000E+00        -0.63492E+08
 
   -0.60952E+08        -0.51202E+06         0.00000E+00
   -0.51202E+06        -0.49472E+08         0.00000E+00
    0.00000E+00         0.00000E+00        -0.63490E+08
 
   -0.60930E+08        -0.53347E+06         0.00000E+00
   -0.53347E+06        -0.49399E+08         0.00000E+00
    0.00000E+00         0.00000E+00        -0.63487E+08
 
   -0.60920E+08        -0.55006E+06         0.00000E+00
   -0.55006E+06        -0.49325E+08         0.00000E+00
    0.00000E+00         0.00000E+00        -0.63484E+08
 
   -0.60919E+08        -0.56135E+06         0.00000E+00
   -0.56135E+06        -0.49250E+08         0.00000E+00
    0.00000E+00         0.00000E+00        -0.63482E+08
 
   -0.60927E+08        -0.56732E+06         0.00000E+00
   -0.56732E+06        -0.49177E+08         0.00000E+00
    0.00000E+00         0.00000E+00        -0.63479E+08
 
   -0.60942E+08        -0.56809E+06         0.00000E+00
   -0.56809E+06        -0.49104E+08         0.00000E+00
    0.00000E+00         0.00000E+00        -0.63476E+08
 
   -0.60964E+08        -0.56431E+06         0.00000E+00
   -0.56431E+06        -0.49019E+08         0.00000E+00
    0.00000E+00         0.00000E+00        -0.63473E+08
 
   -0.60993E+08        -0.55443E+06         0.00000E+00
   -0.55443E+06        -0.48934E+08         0.00000E+00
    0.00000E+00         0.00000E+00        -0.63470E+08
 
   -0.61028E+08        -0.53858E+06         0.00000E+00
   -0.53858E+06        -0.48853E+08         0.00000E+00
    0.00000E+00         0.00000E+00        -0.63467E+08
 
   -0.61069E+08        -0.51769E+06         0.00000E+00
   -0.51769E+06        -0.48778E+08         0.00000E+00
    0.00000E+00         0.00000E+00        -0.63463E+08
 
   -0.61115E+08        -0.49182E+06         0.00000E+00
   -0.49182E+06        -0.48709E+08         0.00000E+00
    0.00000E+00         0.00000E+00        -0.63454E+08
 
   -0.61158E+08        -0.45745E+06         0.00000E+00
   -0.45745E+06        -0.48649E+08         0.00000E+00
    0.00000E+00         0.00000E+00        -0.63423E+08
 
   -0.61208E+08        -0.41275E+06         0.00000E+00
   -0.41275E+06        -0.48593E+08         0.00000E+00
    0.00000E+00         0.00000E+00        -0.63397E+08
 
   -0.61265E+08        -0.35929E+06         0.00000E+00
   -0.35929E+06        -0.48541E+08         0.00000E+00
    0.00000E+00         0.00000E+00        -0.63372E+08
 
   -0.61326E+08        -0.29772E+06         0.00000E+00
   -0.29772E+06        -0.48494E+08         0.00000E+00
    0.00000E+00         0.00000E+00        -0.63348E+08
 
   -0.61393E+08        -0.22822E+06         0.00000E+00
   -0.22822E+06        -0.48452E+08         0.00000E+00
    0.00000E+00         0.00000E+00        -0.63321E+08
 
   -0.61450E+08        -0.15128E+06         0.00000E+00
   -0.15128E+06        -0.48437E+08         0.00000E+00
    0.00000E+00         0.00000E+00        -0.63261E+08
 
   -0.61515E+08        -0.67336E+05         0.00000E+00
   -0.67336E+05        -0.48424E+08         0.00000E+00
    0.00000E+00         0.00000E+00        -0.63199E+08
 
   -0.61585E+08         0.24974E+05         0.00000E+00
    0.24974E+05        -0.48414E+08         0.00000E+00
    0.00000E+00         0.00000E+00        -0.63134E+08
 
   -0.61646E+08         0.12185E+06         0.00000E+00
    0.12185E+06        -0.48393E+08         0.00000E+00
    0.00000E+00         0.00000E+00        -0.63042E+08
 
   -0.61707E+08         0.21781E+06         0.00000E+00
    0.21781E+06        -0.48372E+08         0.00000E+00
    0.00000E+00         0.00000E+00        -0.62940E+08
 
   -0.61768E+08         0.31282E+06         0.00000E+00
    0.31282E+06        -0.48353E+08         0.00000E+00
    0.00000E+00         0.00000E+00        -0.62833E+08
 
   -0.61821E+08         0.40662E+06         0.00000E+00
    0.40662E+06        -0.48330E+08         0.00000E+00
    0.00000E+00         0.00000E+00        -0.62717E+08
 
   -0.61859E+08         0.49752E+06         0.00000E+00
    0.49752E+06        -0.48302E+08         0.00000E+00
    0.00000E+00         0.00000E+00        -0.62586E+08
 
   -0.61883E+08         0.58097E+06         0.00000E+00
    0.58097E+06        -0.48269E+08         0.00000E+00
    0.00000E+00         0.00000E+00        -0.62448E+08
 
   -0.61892E+08         0.65755E+06         0.00000E+00
    0.65755E+06        -0.48233E+08         0.00000E+00
    0.00000E+00         0.00000E+00        -0.62310E+08
 
   -0.61882E+08         0.73045E+06         0.00000E+00
    0.73045E+06        -0.48193E+08         0.00000E+00
    0.00000E+00         0.00000E+00        -0.62170E+08
 
   -0.61853E+08         0.79649E+06         0.00000E+00
    0.79649E+06        -0.48149E+08         0.00000E+00
    0.00000E+00         0.00000E+00        -0.62030E+08
 
   -0.61811E+08         0.85567E+06         0.00000E+00
    0.85567E+06        -0.48103E+08         0.00000E+00
    0.00000E+00         0.00000E+00        -0.61898E+08
 
   -0.61755E+08         0.91312E+06         0.00000E+00
    0.91312E+06        -0.48057E+08         0.00000E+00
    0.00000E+00         0.00000E+00        -0.61776E+08
 
   -0.61689E+08         0.96942E+06         0.00000E+00
    0.96942E+06        -0.48012E+08         0.00000E+00
    0.00000E+00         0.00000E+00        -0.61663E+08
 
   -0.61614E+08         0.10245E+07         0.00000E+00
    0.10245E+07        -0.47968E+08         0.00000E+00
    0.00000E+00         0.00000E+00        -0.61562E+08
 
   -0.61532E+08         0.10825E+07         0.00000E+00
    0.10825E+07        -0.47926E+08         0.00000E+00
    0.00000E+00         0.00000E+00        -0.61471E+08
 
   -0.61446E+08         0.11441E+07         0.00000E+00
    0.11441E+07        -0.47887E+08         0.00000E+00
    0.00000E+00         0.00000E+00        -0.61386E+08
 
   -0.61359E+08         0.12073E+07         0.00000E+00
    0.12073E+07        -0.47851E+08         0.00000E+00
    0.00000E+00         0.00000E+00        -0.61309E+08
 
   -0.61271E+08         0.12748E+07         0.00000E+00
    0.12748E+07        -0.47819E+08         0.00000E+00
    0.00000E+00         0.00000E+00        -0.61237E+08
 
   -0.61183E+08         0.13447E+07         0.00000E+00
    0.13447E+07        -0.47789E+08         0.00000E+00
    0.00000E+00         0.00000E+00        -0.61170E+08
 
   -0.62492E+08         0.14373E+03         0.00000E+00
    0.14373E+03        -0.49999E+08         0.00000E+00
    0.00000E+00         0.00000E+00        -0.62848E+08
 
   -0.62317E+08        -0.75638E+04         0.00000E+00
   -0.75638E+04        -0.49996E+08         0.00000E+00
    0.00000E+00         0.00000E+00        -0.62848E+08
 
   -0.62152E+08        -0.18067E+05         0.00000E+00
   -0.18067E+05        -0.49987E+08         0.00000E+00
    0.00000E+00         0.00000E+00        -0.62847E+08
 
   -0.61997E+08        -0.30873E+05         0.00000E+00
   -0.30873E+05        -0.49975E+08         0.00000E+00
    0.00000E+00         0.00000E+00        -0.62846E+08
 
   -0.61852E+08        -0.45624E+05         0.00000E+00
   -0.45624E+05        -0.49957E+08         0.00000E+00
    0.00000E+00         0.00000E+00        -0.62846E+08
 
   -0.61717E+08        -0.61959E+05         0.00000E+00
   -0.61959E+05        -0.49935E+08         0.00000E+00
    0.00000E+00         0.00000E+00        -0.62844E+08
 
   -0.61593E+08        -0.79466E+05         0.00000E+00
   -0.79466E+05        -0.49908E+08         0.00000E+00
    0.00000E+00         0.00000E+00        -0.62843E+08
 
   -0.61481E+08        -0.97689E+05         0.00000E+00
   -0.97689E+05        -0.49876E+08         0.00000E+00
    0.00000E+00         0.00000E+00        -0.62842E+08
 
   -0.61379E+08        -0.11579E+06         0.00000E+00
   -0.11579E+06        -0.49838E+08         0.00000E+00
    0.00000E+00         0.00000E+00        -0.62840E+08
 
   -0.61288E+08        -0.13282E+06         0.00000E+00
   -0.13282E+06        -0.49795E+08         0.00000E+00
    0.00000E+00         0.00000E+00        -0.62838E+08
 
   -0.61208E+08        -0.14856E+06         0.00000E+00
   -0.14856E+06        -0.49748E+08         0.00000E+00
    0.00000E+00         0.00000E+00        -0.62837E+08
 
   -0.61139E+08        -0.16284E+06         0.00000E+00
   -0.16284E+06        -0.49698E+08         0.00000E+00
    0.00000E+00         0.00000E+00        -0.62835E+08
 
   -0.61080E+08        -0.17536E+06         0.00000E+00
   -0.17536E+06        -0.49643E+08         0.00000E+00
    0.00000E+00         0.00000E+00        -0.62832E+08
 
   -0.61030E+08        -0.18539E+06         0.00000E+00
   -0.18539E+06        -0.49585E+08         0.00000E+00
    0.00000E+00         0.00000E+00        -0.62830E+08
 
   -0.60990E+08        -0.19247E+06         0.00000E+00
   -0.19247E+06        -0.49523E+08         0.00000E+00
    0.00000E+00         0.00000E+00        -0.62828E+08
 
   -0.60959E+08        -0.19653E+06         0.00000E+00
   -0.19653E+06        -0.49458E+08         0.00000E+00
    0.00000E+00         0.00000E+00        -0.62825E+08
 
   -0.60937E+08        -0.19718E+06         0.00000E+00
   -0.19718E+06        -0.49390E+08         0.00000E+00
    0.00000E+00         0.00000E+00        -0.62823E+08
 
   -0.60922E+08        -0.19397E+06         0.00000E+00
   -0.19397E+06        -0.49318E+08         0.00000E+00
    0.00000E+00         0.00000E+00        -0.62820E+08
 
   -0.60915E+08        -0.18653E+06         0.00000E+00
   -0.18653E+06        -0.49244E+08         0.00000E+00
    0.00000E+00         0.00000E+00        -0.62817E+08
 
   -0.60913E+08        -0.17497E+06         0.00000E+00
   -0.17497E+06        -0.49171E+08         0.00000E+00
    0.00000E+00         0.00000E+00        -0.62815E+08
 
   -0.60918E+08        -0.16006E+06         0.00000E+00
   -0.16006E+06        -0.49096E+08         0.00000E+00
    0.00000E+00         0.00000E+00        -0.62812E+08
 
   -0.60928E+08        -0.14135E+06         0.00000E+00
   -0.14135E+06        -0.49019E+08         0.00000E+00
    0.00000E+00         0.00000E+00        -0.62809E+08
 
   -0.60942E+08        -0.11797E+06         0.00000E+00
   -0.11797E+06        -0.48939E+08         0.00000E+00
    0.00000E+00         0.00000E+00        -0.62805E+08
 
   -0.60960E+08        -0.89515E+05         0.00000E+00
   -0.89515E+05        -0.48857E+08         0.00000E+00
    0.00000E+00         0.00000E+00        -0.62802E+08
 
   -0.60980E+08        -0.58170E+05         0.00000E+00
   -0.58170E+05        -0.48778E+08         0.00000E+00
    0.00000E+00         0.00000E+00        -0.62799E+08
 
   -0.61002E+08        -0.25503E+05         0.00000E+00
   -0.25503E+05        -0.48698E+08         0.00000E+00
    0.00000E+00         0.00000E+00        -0.62795E+08
 
   -0.61029E+08         0.96450E+04         0.00000E+00
    0.96450E+04        -0.48618E+08         0.00000E+00
    0.00000E+00         0.00000E+00        -0.62792E+08
 
   -0.61059E+08         0.47602E+05         0.00000E+00
    0.47602E+05        -0.48540E+08         0.00000E+00
    0.00000E+00         0.00000E+00        -0.62788E+08
 
   -0.61091E+08         0.88361E+05         0.00000E+00
    0.88361E+05        -0.48462E+08         0.00000E+00
    0.00000E+00         0.00000E+00        -0.62785E+08
 
   -0.61126E+08         0.13234E+06         0.00000E+00
    0.13234E+06        -0.48363E+08         0.00000E+00
    0.00000E+00         0.00000E+00        -0.62781E+08
 
   -0.61165E+08         0.18026E+06         0.00000E+00
    0.18026E+06        -0.48269E+08         0.00000E+00
    0.00000E+00         0.00000E+00        -0.62777E+08
 
   -0.61211E+08         0.23090E+06         0.00000E+00
    0.23090E+06        -0.48182E+08         0.00000E+00
    0.00000E+00         0.00000E+00        -0.62773E+08
 
   -0.61244E+08         0.28835E+06         0.00000E+00
    0.28835E+06        -0.48106E+08         0.00000E+00
    0.00000E+00         0.00000E+00        -0.62736E+08
 
   -0.61283E+08         0.35784E+06         0.00000E+00
    0.35784E+06        -0.48037E+08         0.00000E+00
    0.00000E+00         0.00000E+00        -0.62696E+08
 
   -0.61331E+08         0.43857E+06         0.00000E+00
    0.43857E+06        -0.47974E+08         0.00000E+00
    0.00000E+00         0.00000E+00        -0.62657E+08
 
   -0.61377E+08         0.52812E+06         0.00000E+00
    0.52812E+06        -0.47930E+08         0.00000E+00
    0.00000E+00         0.00000E+00        -0.62598E+08
 
   -0.61411E+08         0.62368E+06         0.00000E+00
    0.62368E+06        -0.47914E+08         0.00000E+00
    0.00000E+00         0.00000E+00        -0.62505E+08
 
   -0.61453E+08         0.72635E+06         0.00000E+00
    0.72635E+06        -0.47902E+08         0.00000E+00
    0.00000E+00         0.00000E+00        -0.62408E+08
 
   -0.61477E+08         0.83127E+06         0.00000E+00
    0.83127E+06        -0.47877E+08         0.00000E+00
    0.00000E+00         0.00000E+00        -0.62276E+08
 
   -0.61497E+08         0.92848E+06         0.00000E+00
    0.92848E+06        -0.47848E+08         0.00000E+00
    0.00000E+00         0.00000E+00        -0.62131E+08
 
   -0.61509E+08         0.10159E+07         0.00000E+00
    0.10159E+07        -0.47817E+08         0.00000E+00
    0.00000E+00         0.00000E+00        -0.61983E+08
 
   -0.61496E+08         0.10935E+07         0.00000E+00
    0.10935E+07        -0.47774E+08         0.00000E+00
    0.00000E+00         0.00000E+00        -0.61821E+08
 
   -0.61462E+08         0.11568E+07         0.00000E+00
    0.11568E+07        -0.47725E+08         0.00000E+00
    0.00000E+00         0.00000E+00        -0.61660E+08
 
   -0.61412E+08         0.12097E+07         0.00000E+00
    0.12097E+07        -0.47674E+08         0.00000E+00
    0.00000E+00         0.00000E+00        -0.61511E+08
 
   -0.61339E+08         0.12599E+07         0.00000E+00
    0.12599E+07        -0.47619E+08         0.00000E+00
    0.00000E+00         0.00000E+00        -0.61369E+08
 
   -0.61255E+08         0.13052E+07         0.00000E+00
    0.13052E+07        -0.47564E+08         0.00000E+00
    0.00000E+00         0.00000E+00        -0.61240E+08
 
   -0.61164E+08         0.13504E+07         0.00000E+00
    0.13504E+07        -0.47513E+08         0.00000E+00
    0.00000E+00         0.00000E+00        -0.61127E+08
 
   -0.61067E+08         0.14015E+07         0.00000E+00
    0.14015E+07        -0.47467E+08         0.00000E+00
    0.00000E+00         0.00000E+00        -0.61029E+08
 
   -0.60970E+08         0.14532E+07         0.00000E+00
    0.14532E+07        -0.47424E+08         0.00000E+00
    0.00000E+00         0.00000E+00        -0.60942E+08
 
   -0.60869E+08         0.15076E+07         0.00000E+00
    0.15076E+07        -0.47384E+08         0.00000E+00
    0.00000E+00         0.00000E+00        -0.60858E+08
 
   -0.62474E+08         0.86430E+04         0.00000E+00
    0.86430E+04        -0.49999E+08         0.00000E+00
    0.00000E+00         0.00000E+00        -0.62208E+08
 
   -0.62311E+08         0.20823E+05         0.00000E+00
    0.20823E+05        -0.49995E+08         0.00000E+00
    0.00000E+00         0.00000E+00        -0.62208E+08
 
   -0.62156E+08         0.31200E+05         0.00000E+00
    0.31200E+05        -0.49988E+08         0.00000E+00
    0.00000E+00         0.00000E+00        -0.62207E+08
 
   -0.62010E+08         0.39884E+05         0.00000E+00
    0.39884E+05        -0.49976E+08         0.00000E+00
    0.00000E+00         0.00000E+00        -0.62207E+08
 
   -0.61873E+08         0.47096E+05         0.00000E+00
    0.47096E+05        -0.49961E+08         0.00000E+00
    0.00000E+00         0.00000E+00        -0.62206E+08
 
   -0.61744E+08         0.53107E+05         0.00000E+00
    0.53107E+05        -0.49941E+08         0.00000E+00
    0.00000E+00         0.00000E+00        -0.62205E+08
 
   -0.61624E+08         0.58228E+05         0.00000E+00
    0.58228E+05        -0.49918E+08         0.00000E+00
    0.00000E+00         0.00000E+00        -0.62204E+08
 
   -0.61513E+08         0.62814E+05         0.00000E+00
    0.62814E+05        -0.49890E+08         0.00000E+00
    0.00000E+00         0.00000E+00        -0.62203E+08
 
   -0.61410E+08         0.67116E+05         0.00000E+00
    0.67116E+05        -0.49859E+08         0.00000E+00
    0.00000E+00         0.00000E+00        -0.62201E+08
 
   -0.61317E+08         0.71365E+05         0.00000E+00
    0.71365E+05        -0.49823E+08         0.00000E+00
    0.00000E+00         0.00000E+00        -0.62200E+08
 
   -0.61232E+08         0.75989E+05         0.00000E+00
    0.75989E+05        -0.49783E+08         0.00000E+00
    0.00000E+00         0.00000E+00        -0.62198E+08
 
   -0.61156E+08         0.81398E+05         0.00000E+00
    0.81398E+05        -0.49740E+08         0.00000E+00
    0.00000E+00         0.00000E+00        -0.62196E+08
 
   -0.61088E+08         0.87956E+05         0.00000E+00
    0.87956E+05        -0.49693E+08         0.00000E+00
    0.00000E+00         0.00000E+00        -0.62194E+08
 
   -0.61028E+08         0.95908E+05         0.00000E+00
    0.95908E+05        -0.49642E+08         0.00000E+00
    0.00000E+00         0.00000E+00        -0.62192E+08
 
   -0.60976E+08         0.10555E+06         0.00000E+00
    0.10555E+06        -0.49588E+08         0.00000E+00
    0.00000E+00         0.00000E+00        -0.62190E+08
 
   -0.60932E+08         0.11720E+06         0.00000E+00
    0.11720E+06        -0.49530E+08         0.00000E+00
    0.00000E+00         0.00000E+00        -0.62188E+08
 
   -0.60895E+08         0.13109E+06         0.00000E+00
    0.13109E+06        -0.49470E+08         0.00000E+00
    0.00000E+00         0.00000E+00        -0.62185E+08
 
   -0.60864E+08         0.14734E+06         0.00000E+00
    0.14734E+06        -0.49407E+08         0.00000E+00
    0.00000E+00         0.00000E+00        -0.62183E+08
 
   -0.60840E+08         0.16605E+06         0.00000E+00
    0.16605E+06        -0.49342E+08         0.00000E+00
    0.00000E+00         0.00000E+00        -0.62180E+08
 
   -0.60823E+08         0.18747E+06         0.00000E+00
    0.18747E+06        -0.49273E+08         0.00000E+00
    0.00000E+00         0.00000E+00        -0.62178E+08
 
   -0.60810E+08         0.21201E+06         0.00000E+00
    0.21201E+06        -0.49203E+08         0.00000E+00
    0.00000E+00         0.00000E+00        -0.62175E+08
 
   -0.60803E+08         0.23960E+06         0.00000E+00
    0.23960E+06        -0.49130E+08         0.00000E+00
    0.00000E+00         0.00000E+00        -0.62172E+08
 
   -0.60800E+08         0.26996E+06         0.00000E+00
    0.26996E+06        -0.49056E+08         0.00000E+00
    0.00000E+00         0.00000E+00        -0.62169E+08
 
   -0.60801E+08         0.30281E+06         0.00000E+00
    0.30281E+06        -0.48981E+08         0.00000E+00
    0.00000E+00         0.00000E+00        -0.62166E+08
 
   -0.60807E+08         0.33851E+06         0.00000E+00
    0.33851E+06        -0.48903E+08         0.00000E+00
    0.00000E+00         0.00000E+00        -0.62163E+08
 
   -0.60816E+08         0.37734E+06         0.00000E+00
    0.37734E+06        -0.48825E+08         0.00000E+00
    0.00000E+00         0.00000E+00        -0.62160E+08
 
   -0.60829E+08         0.41906E+06         0.00000E+00
    0.41906E+06        -0.48744E+08         0.00000E+00
    0.00000E+00         0.00000E+00        -0.62157E+08
 
   -0.60844E+08         0.46387E+06         0.00000E+00
    0.46387E+06        -0.48661E+08         0.00000E+00
    0.00000E+00         0.00000E+00        -0.62154E+08
 
   -0.60861E+08         0.51205E+06         0.00000E+00
    0.51205E+06        -0.48577E+08         0.00000E+00
    0.00000E+00         0.00000E+00        -0.62150E+08
 
   -0.60879E+08         0.56282E+06         0.00000E+00
    0.56282E+06        -0.48496E+08         0.00000E+00
    0.00000E+00         0.00000E+00        -0.62147E+08
 
   -0.60898E+08         0.61570E+06         0.00000E+00
    0.61570E+06        -0.48413E+08         0.00000E+00
    0.00000E+00         0.00000E+00        -0.62144E+08
 
   -0.60917E+08         0.67229E+06         0.00000E+00
    0.67229E+06        -0.48327E+08         0.00000E+00
    0.00000E+00         0.00000E+00        -0.62140E+08
 
   -0.60933E+08         0.72961E+06         0.00000E+00
    0.72961E+06        -0.48246E+08         0.00000E+00
    0.00000E+00         0.00000E+00        -0.62136E+08
 
   -0.60950E+08         0.78395E+06         0.00000E+00
    0.78395E+06        -0.48164E+08         0.00000E+00
    0.00000E+00         0.00000E+00        -0.62133E+08
 
   -0.60968E+08         0.83615E+06         0.00000E+00
    0.83615E+06        -0.48083E+08         0.00000E+00
    0.00000E+00         0.00000E+00        -0.62129E+08
 
   -0.60990E+08         0.88821E+06         0.00000E+00
    0.88821E+06        -0.47989E+08         0.00000E+00
    0.00000E+00         0.00000E+00        -0.62125E+08
 
   -0.61016E+08         0.94194E+06         0.00000E+00
    0.94194E+06        -0.47873E+08         0.00000E+00
    0.00000E+00         0.00000E+00        -0.62122E+08
 
   -0.61054E+08         0.99551E+06         0.00000E+00
    0.99551E+06        -0.47764E+08         0.00000E+00
    0.00000E+00         0.00000E+00        -0.62118E+08
 
   -0.61076E+08         0.10539E+07         0.00000E+00
    0.10539E+07        -0.47666E+08         0.00000E+00
    0.00000E+00         0.00000E+00        -0.62073E+08
 
   -0.61101E+08         0.11256E+07         0.00000E+00
    0.11256E+07        -0.47578E+08         0.00000E+00
    0.00000E+00         0.00000E+00        -0.62016E+08
 
   -0.61137E+08         0.12101E+07         0.00000E+00
    0.12101E+07        -0.47499E+08         0.00000E+00
    0.00000E+00         0.00000E+00        -0.61956E+08
 
   -0.61138E+08         0.12967E+07         0.00000E+00
    0.12967E+07        -0.47476E+08         0.00000E+00
    0.00000E+00         0.00000E+00        -0.61831E+08
 
   -0.61144E+08         0.13884E+07         0.00000E+00
    0.13884E+07        -0.47458E+08         0.00000E+00
    0.00000E+00         0.00000E+00        -0.61704E+08
 
   -0.61117E+08         0.14778E+07         0.00000E+00
    0.14778E+07        -0.47416E+08         0.00000E+00
    0.00000E+00         0.00000E+00        -0.61531E+08
 
   -0.61084E+08         0.15484E+07         0.00000E+00
    0.15484E+07        -0.47369E+08         0.00000E+00
    0.00000E+00         0.00000E+00        -0.61353E+08
 
   -0.61027E+08         0.16013E+07         0.00000E+00
    0.16013E+07        -0.47309E+08         0.00000E+00
    0.00000E+00         0.00000E+00        -0.61173E+08
 
   -0.60940E+08         0.16378E+07         0.00000E+00
    0.16378E+07        -0.47239E+08         0.00000E+00
    0.00000E+00         0.00000E+00        -0.60998E+08
 
   -0.60839E+08         0.16618E+07         0.00000E+00
    0.16618E+07        -0.47169E+08         0.00000E+00
    0.00000E+00         0.00000E+00        -0.60847E+08
 
   -0.60722E+08         0.16913E+07         0.00000E+00
    0.16913E+07        -0.47101E+08         0.00000E+00
    0.00000E+00         0.00000E+00        -0.60713E+08
 
   -0.60606E+08         0.17335E+07         0.00000E+00
    0.17335E+07        -0.47045E+08         0.00000E+00
    0.00000E+00         0.00000E+00        -0.60599E+08
 
   -0.62363E+08         0.17696E+05         0.00000E+00
    0.17696E+05        -0.49999E+08         0.00000E+00
    0.00000E+00         0.00000E+00        -0.61589E+08
 
   -0.62208E+08         0.48116E+05         0.00000E+00
    0.48116E+05        -0.49996E+08         0.00000E+00
    0.00000E+00         0.00000E+00        -0.61589E+08
 
   -0.62062E+08         0.76882E+05         0.00000E+00
    0.76882E+05        -0.49988E+08         0.00000E+00
    0.00000E+00         0.00000E+00        -0.61589E+08
 
   -0.61923E+08         0.10415E+06         0.00000E+00
    0.10415E+06        -0.49978E+08         0.00000E+00
    0.00000E+00         0.00000E+00        -0.61588E+08
 
   -0.61792E+08         0.13010E+06         0.00000E+00
    0.13010E+06        -0.49964E+08         0.00000E+00
    0.00000E+00         0.00000E+00        -0.61587E+08
 
   -0.61668E+08         0.15492E+06         0.00000E+00
    0.15492E+06        -0.49947E+08         0.00000E+00
    0.00000E+00         0.00000E+00        -0.61587E+08
 
   -0.61552E+08         0.17882E+06         0.00000E+00
    0.17882E+06        -0.49926E+08         0.00000E+00
    0.00000E+00         0.00000E+00        -0.61586E+08
 
   -0.61443E+08         0.20201E+06         0.00000E+00
    0.20201E+06        -0.49901E+08         0.00000E+00
    0.00000E+00         0.00000E+00        -0.61584E+08
 
   -0.61342E+08         0.22476E+06         0.00000E+00
    0.22476E+06        -0.49874E+08         0.00000E+00
    0.00000E+00         0.00000E+00        -0.61583E+08
 
   -0.61248E+08         0.24733E+06         0.00000E+00
    0.24733E+06        -0.49842E+08         0.00000E+00
    0.00000E+00         0.00000E+00        -0.61582E+08
 
   -0.61161E+08         0.26995E+06         0.00000E+00
    0.26995E+06        -0.49808E+08         0.00000E+00
    0.00000E+00         0.00000E+00        -0.61580E+08
 
   -0.61082E+08         0.29287E+06         0.00000E+00
    0.29287E+06        -0.49770E+08         0.00000E+00
    0.00000E+00         0.00000E+00        -0.61579E+08
 
   -0.61009E+08         0.31634E+06         0.00000E+00
    0.31634E+06        -0.49729E+08         0.00000E+00
    0.00000E+00         0.00000E+00        -0.61577E+08
 
   -0.60943E+08         0.34060E+06         0.00000E+00
    0.34060E+06        -0.49686E+08         0.00000E+00
    0.00000E+00         0.00000E+00        -0.61575E+08
 
   -0.60884E+08         0.36588E+06         0.00000E+00
    0.36588E+06        -0.49639E+08         0.00000E+00
    0.00000E+00         0.00000E+00        -0.61573E+08
 
   -0.60831E+08         0.39239E+06         0.00000E+00
    0.39239E+06        -0.49589E+08         0.00000E+00
    0.00000E+00         0.00000E+00        -0.61571E+08
 
   -0.60784E+08         0.42034E+06         0.00000E+00
    0.42034E+06        -0.49536E+08         0.00000E+00
    0.00000E+00         0.00000E+00        -0.61569E+08
 
   -0.60744E+08         0.44993E+06         0.00000E+00
    0.44993E+06        -0.49481E+08         0.00000E+00
    0.00000E+00         0.00000E+00        -0.61567E+08
 
   -0.60709E+08         0.48135E+06         0.00000E+00
    0.48135E+06        -0.49423E+08         0.00000E+00
    0.00000E+00         0.00000E+00        -0.61565E+08
 
   -0.60679E+08         0.51472E+06         0.00000E+00
    0.51472E+06        -0.49363E+08         0.00000E+00
    0.00000E+00         0.00000E+00        -0.61562E+08
 
   -0.60654E+08         0.55006E+06         0.00000E+00
    0.55006E+06        -0.49301E+08         0.00000E+00
    0.00000E+00         0.00000E+00        -0.61560E+08
 
   -0.60634E+08         0.58751E+06         0.00000E+00
    0.58751E+06        -0.49236E+08         0.00000E+00
    0.00000E+00         0.00000E+00        -0.61557E+08
 
   -0.60618E+08         0.62722E+06         0.00000E+00
    0.62722E+06        -0.49170E+08         0.00000E+00
    0.00000E+00         0.00000E+00        -0.61555E+08
 
   -0.60607E+08         0.66933E+06         0.00000E+00
    0.66933E+06        -0.49101E+08         0.00000E+00
    0.00000E+00         0.00000E+00        -0.61552E+08
 
   -0.60600E+08         0.71381E+06         0.00000E+00
    0.71381E+06        -0.49031E+08         0.00000E+00
    0.00000E+00         0.00000E+00        -0.61550E+08
 
   -0.60596E+08         0.76063E+06         0.00000E+00
    0.76063E+06        -0.48959E+08         0.00000E+00
    0.00000E+00         0.00000E+00        -0.61547E+08
 
   -0.60595E+08         0.80987E+06         0.00000E+00
    0.80987E+06        -0.48885E+08         0.00000E+00
    0.00000E+00         0.00000E+00        -0.61544E+08
 
   -0.60597E+08         0.86137E+06         0.00000E+00
    0.86137E+06        -0.48810E+08         0.00000E+00
    0.00000E+00         0.00000E+00        -0.61541E+08
 
   -0.60601E+08         0.91492E+06         0.00000E+00
    0.91492E+06        -0.48734E+08         0.00000E+00
    0.00000E+00         0.00000E+00        -0.61538E+08
 
   -0.60608E+08         0.97072E+06         0.00000E+00
    0.97072E+06        -0.48656E+08         0.00000E+00
    0.00000E+00         0.00000E+00        -0.61535E+08
 
   -0.60617E+08         0.10288E+07         0.00000E+00
    0.10288E+07        -0.48576E+08         0.00000E+00
    0.00000E+00         0.00000E+00        -0.61532E+08
 
   -0.60628E+08         0.10882E+07         0.00000E+00
    0.10882E+07        -0.48496E+08         0.00000E+00
    0.00000E+00         0.00000E+00        -0.61529E+08
 
   -0.60640E+08         0.11491E+07         0.00000E+00
    0.11491E+07        -0.48414E+08         0.00000E+00
    0.00000E+00         0.00000E+00        -0.61526E+08
 
   -0.60654E+08         0.12123E+07         0.00000E+00
    0.12123E+07        -0.48330E+08         0.00000E+00
    0.00000E+00         0.00000E+00        -0.61523E+08
 
   -0.60670E+08         0.12777E+07         0.00000E+00
    0.12777E+07        -0.48243E+08         0.00000E+00
    0.00000E+00         0.00000E+00        -0.61519E+08
 
   -0.60685E+08         0.13447E+07         0.00000E+00
    0.13447E+07        -0.48157E+08         0.00000E+00
    0.00000E+00         0.00000E+00        -0.61516E+08
 
   -0.60700E+08         0.14122E+07         0.00000E+00
    0.14122E+07        -0.48074E+08         0.00000E+00
    0.00000E+00         0.00000E+00        -0.61513E+08
 
   -0.60713E+08         0.14815E+07         0.00000E+00
    0.14815E+07        -0.47986E+08         0.00000E+00
    0.00000E+00         0.00000E+00        -0.61510E+08
 
   -0.60723E+08         0.15484E+07         0.00000E+00
    0.15484E+07        -0.47904E+08         0.00000E+00
    0.00000E+00         0.00000E+00        -0.61506E+08
 
   -0.60733E+08         0.16069E+07         0.00000E+00
    0.16069E+07        -0.47822E+08         0.00000E+00
    0.00000E+00         0.00000E+00        -0.61503E+08
 
   -0.60749E+08         0.16578E+07         0.00000E+00
    0.16578E+07        -0.47735E+08         0.00000E+00
    0.00000E+00         0.00000E+00        -0.61499E+08
 
   -0.60774E+08         0.17100E+07         0.00000E+00
    0.17100E+07        -0.47593E+08         0.00000E+00
    0.00000E+00         0.00000E+00        -0.61496E+08
 
   -0.60818E+08         0.17570E+07         0.00000E+00
    0.17570E+07        -0.47455E+08         0.00000E+00
    0.00000E+00         0.00000E+00        -0.61493E+08
 
   -0.60830E+08         0.18063E+07         0.00000E+00
    0.18063E+07        -0.47329E+08         0.00000E+00
    0.00000E+00         0.00000E+00        -0.61427E+08
 
   -0.60848E+08         0.18706E+07         0.00000E+00
    0.18706E+07        -0.47211E+08         0.00000E+00
    0.00000E+00         0.00000E+00        -0.61354E+08
 
   -0.60831E+08         0.19366E+07         0.00000E+00
    0.19366E+07        -0.47143E+08         0.00000E+00
    0.00000E+00         0.00000E+00        -0.61228E+08
 
   -0.60790E+08         0.19984E+07         0.00000E+00
    0.19984E+07        -0.47106E+08         0.00000E+00
    0.00000E+00         0.00000E+00        -0.61075E+08
 
   -0.60700E+08         0.20547E+07         0.00000E+00
    0.20547E+07        -0.47036E+08         0.00000E+00
    0.00000E+00         0.00000E+00        -0.60870E+08
 
   -0.60592E+08         0.20811E+07         0.00000E+00
    0.20811E+07        -0.46950E+08         0.00000E+00
    0.00000E+00         0.00000E+00        -0.60664E+08
 
   -0.60448E+08         0.20758E+07         0.00000E+00
    0.20758E+07        -0.46842E+08         0.00000E+00
    0.00000E+00         0.00000E+00        -0.60464E+08
 
   -0.62164E+08         0.26321E+05         0.00000E+00
    0.26321E+05        -0.49999E+08         0.00000E+00
    0.00000E+00         0.00000E+00        -0.60992E+08
 
   -0.62019E+08         0.73263E+05         0.00000E+00
    0.73263E+05        -0.49996E+08         0.00000E+00
    0.00000E+00         0.00000E+00        -0.60992E+08
 
   -0.61880E+08         0.11838E+06         0.00000E+00
    0.11838E+06        -0.49990E+08         0.00000E+00
    0.00000E+00         0.00000E+00        -0.60991E+08
 
   -0.61749E+08         0.16185E+06         0.00000E+00
    0.16185E+06        -0.49980E+08         0.00000E+00
    0.00000E+00         0.00000E+00        -0.60991E+08
 
   -0.61624E+08         0.20387E+06         0.00000E+00
    0.20387E+06        -0.49968E+08         0.00000E+00
    0.00000E+00         0.00000E+00        -0.60990E+08
 
   -0.61505E+08         0.24465E+06         0.00000E+00
    0.24465E+06        -0.49953E+08         0.00000E+00
    0.00000E+00         0.00000E+00        -0.60990E+08
 
   -0.61394E+08         0.28438E+06         0.00000E+00
    0.28438E+06        -0.49935E+08         0.00000E+00
    0.00000E+00         0.00000E+00        -0.60989E+08
 
   -0.61288E+08         0.32328E+06         0.00000E+00
    0.32328E+06        -0.49914E+08         0.00000E+00
    0.00000E+00         0.00000E+00        -0.60988E+08
 
   -0.61189E+08         0.36154E+06         0.00000E+00
    0.36154E+06        -0.49890E+08         0.00000E+00
    0.00000E+00         0.00000E+00        -0.60987E+08
 
   -0.61096E+08         0.39938E+06         0.00000E+00
    0.39938E+06        -0.49864E+08         0.00000E+00
    0.00000E+00         0.00000E+00        -0.60986E+08
 
   -0.61009E+08         0.43701E+06         0.00000E+00
    0.43701E+06        -0.49834E+08         0.00000E+00
    0.00000E+00         0.00000E+00        -0.60984E+08
 
   -0.60928E+08         0.47463E+06         0.00000E+00
    0.47463E+06        -0.49802E+08         0.00000E+00
    0.00000E+00         0.00000E+00        -0.60983E+08
 
   -0.60853E+08         0.51245E+06         0.00000E+00
    0.51245E+06        -0.49768E+08         0.00000E+00
    0.00000E+00         0.00000E+00        -0.60981E+08
 
   -0.60784E+08         0.55066E+06         0.00000E+00
    0.55066E+06        -0.49730E+08         0.00000E+00
    0.00000E+00         0.00000E+00        -0.60980E+08
 
   -0.60720E+08         0.58946E+06         0.00000E+00
    0.58946E+06        -0.49691E+08         0.00000E+00
    0.00000E+00         0.00000E+00        -0.60978E+08
 
   -0.60662E+08         0.62904E+06         0.00000E+00
    0.62904E+06        -0.49648E+08         0.00000E+00
    0.00000E+00         0.00000E+00        -0.60977E+08
 
   -0.60609E+08         0.66957E+06         0.00000E+00
    0.66957E+06        -0.49604E+08         0.00000E+00
    0.00000E+00         0.00000E+00        -0.60975E+08
 
   -0.60561E+08         0.71121E+06         0.00000E+00
    0.71121E+06        -0.49557E+08         0.00000E+00
    0.00000E+00         0.00000E+00        -0.60973E+08
 
   -0.60518E+08         0.75410E+06         0.00000E+00
    0.75410E+06        -0.49508E+08         0.00000E+00
    0.00000E+00         0.00000E+00        -0.60971E+08
 
   -0.60480E+08         0.79839E+06         0.00000E+00
    0.79839E+06        -0.49457E+08         0.00000E+00
    0.00000E+00         0.00000E+00        -0.60969E+08
 
   -0.60446E+08         0.84422E+06         0.00000E+00
    0.84422E+06        -0.49404E+08         0.00000E+00
    0.00000E+00         0.00000E+00        -0.60967E+08
 
   -0.60416E+08         0.89171E+06         0.00000E+00
    0.89171E+06        -0.49349E+08         0.00000E+00
    0.00000E+00         0.00000E+00        -0.60965E+08
 
   -0.60391E+08         0.94095E+06         0.00000E+00
    0.94095E+06        -0.49293E+08         0.00000E+00
    0.00000E+00         0.00000E+00        -0.60962E+08
 
   -0.60369E+08         0.99199E+06         0.00000E+00
    0.99199E+06        -0.49234E+08         0.00000E+00
    0.00000E+00         0.00000E+00        -0.60960E+08
 
   -0.60351E+08         0.10449E+07         0.00000E+00
    0.10449E+07        -0.49174E+08         0.00000E+00
    0.00000E+00         0.00000E+00        -0.60958E+08
 
   -0.60336E+08         0.10998E+07         0.00000E+00
    0.10998E+07        -0.49112E+08         0.00000E+00
    0.00000E+00         0.00000E+00        -0.60955E+08
 
   -0.60324E+08         0.11566E+07         0.00000E+00
    0.11566E+07        -0.49049E+08         0.00000E+00
    0.00000E+00         0.00000E+00        -0.60953E+08
 
   -0.60316E+08         0.12154E+07         0.00000E+00
    0.12154E+07        -0.48985E+08         0.00000E+00
    0.00000E+00         0.00000E+00        -0.60950E+08
 
   -0.60310E+08         0.12763E+07         0.00000E+00
    0.12763E+07        -0.48919E+08         0.00000E+00
    0.00000E+00         0.00000E+00        -0.60948E+08
 
   -0.60307E+08         0.13391E+07         0.00000E+00
    0.13391E+07        -0.48852E+08         0.00000E+00
    0.00000E+00         0.00000E+00        -0.60945E+08
 
   -0.60306E+08         0.14037E+07         0.00000E+00
    0.14037E+07        -0.48783E+08         0.00000E+00
    0.00000E+00         0.00000E+00        -0.60943E+08
 
   -0.60308E+08         0.14704E+07         0.00000E+00
    0.14704E+07        -0.48713E+08         0.00000E+00
    0.00000E+00         0.00000E+00        -0.60940E+08
 
   -0.60312E+08         0.15391E+07         0.00000E+00
    0.15391E+07        -0.48642E+08         0.00000E+00
    0.00000E+00         0.00000E+00        -0.60937E+08
 
   -0.60317E+08         0.16093E+07         0.00000E+00
    0.16093E+07        -0.48569E+08         0.00000E+00
    0.00000E+00         0.00000E+00        -0.60935E+08
 
   -0.60324E+08         0.16811E+07         0.00000E+00
    0.16811E+07        -0.48496E+08         0.00000E+00
    0.00000E+00         0.00000E+00        -0.60932E+08
 
   -0.60334E+08         0.17543E+07         0.00000E+00
    0.17543E+07        -0.48421E+08         0.00000E+00
    0.00000E+00         0.00000E+00        -0.60929E+08
 
   -0.60345E+08         0.18290E+07         0.00000E+00
    0.18290E+07        -0.48343E+08         0.00000E+00
    0.00000E+00         0.00000E+00        -0.60927E+08
 
   -0.60358E+08         0.19044E+07         0.00000E+00
    0.19044E+07        -0.48265E+08         0.00000E+00
    0.00000E+00         0.00000E+00        -0.60924E+08
 
   -0.60373E+08         0.19810E+07         0.00000E+00
    0.19810E+07        -0.48183E+08         0.00000E+00
    0.00000E+00         0.00000E+00        -0.60921E+08
 
   -0.60391E+08         0.20600E+07         0.00000E+00
    0.20600E+07        -0.48097E+08         0.00000E+00
    0.00000E+00         0.00000E+00        -0.60918E+08
 
   -0.60409E+08         0.21418E+07         0.00000E+00
    0.21418E+07        -0.48008E+08         0.00000E+00
    0.00000E+00         0.00000E+00        -0.60916E+08
 
   -0.60427E+08         0.22232E+07         0.00000E+00
    0.22232E+07        -0.47928E+08         0.00000E+00
    0.00000E+00         0.00000E+00        -0.60913E+08
 
   -0.60443E+08         0.23063E+07         0.00000E+00
    0.23063E+07        -0.47841E+08         0.00000E+00
    0.00000E+00         0.00000E+00        -0.60911E+08
 
   -0.60457E+08         0.23821E+07         0.00000E+00
    0.23821E+07        -0.47762E+08         0.00000E+00
    0.00000E+00         0.00000E+00        -0.60908E+08
 
   -0.60477E+08         0.24425E+07         0.00000E+00
    0.24425E+07        -0.47678E+08         0.00000E+00
    0.00000E+00         0.00000E+00        -0.60906E+08
 
   -0.60512E+08         0.24989E+07         0.00000E+00
    0.24989E+07        -0.47538E+08         0.00000E+00
    0.00000E+00         0.00000E+00        -0.60903E+08
 
   -0.60575E+08         0.25484E+07         0.00000E+00
    0.25484E+07        -0.47364E+08         0.00000E+00
    0.00000E+00         0.00000E+00        -0.60901E+08
 
   -0.60590E+08         0.25931E+07         0.00000E+00
    0.25931E+07        -0.47198E+08         0.00000E+00
    0.00000E+00         0.00000E+00        -0.60822E+08
 
   -0.60594E+08         0.26497E+07         0.00000E+00
    0.26497E+07        -0.47036E+08         0.00000E+00
    0.00000E+00         0.00000E+00        -0.60729E+08
 
   -0.60517E+08         0.26918E+07         0.00000E+00
    0.26918E+07        -0.46944E+08         0.00000E+00
    0.00000E+00         0.00000E+00        -0.60559E+08
 
   -0.61887E+08         0.33830E+05         0.00000E+00
    0.33830E+05        -0.49999E+08         0.00000E+00
    0.00000E+00         0.00000E+00        -0.60416E+08
 
   -0.61752E+08         0.94928E+05         0.00000E+00
    0.94928E+05        -0.49997E+08         0.00000E+00
    0.00000E+00         0.00000E+00        -0.60416E+08
 
   -0.61623E+08         0.15395E+06         0.00000E+00
    0.15395E+06        -0.49991E+08         0.00000E+00
    0.00000E+00         0.00000E+00        -0.60416E+08
 
   -0.61500E+08         0.21111E+06         0.00000E+00
    0.21111E+06        -0.49984E+08         0.00000E+00
    0.00000E+00         0.00000E+00        -0.60415E+08
 
   -0.61382E+08         0.26663E+06         0.00000E+00
    0.26663E+06        -0.49974E+08         0.00000E+00
    0.00000E+00         0.00000E+00        -0.60415E+08
 
   -0.61270E+08         0.32071E+06         0.00000E+00
    0.32071E+06        -0.49961E+08         0.00000E+00
    0.00000E+00         0.00000E+00        -0.60414E+08
 
   -0.61164E+08         0.37356E+06         0.00000E+00
    0.37356E+06        -0.49946E+08         0.00000E+00
    0.00000E+00         0.00000E+00        -0.60413E+08
 
   -0.61062E+08         0.42537E+06         0.00000E+00
    0.42537E+06        -0.49929E+08         0.00000E+00
    0.00000E+00         0.00000E+00        -0.60413E+08
 
   -0.60966E+08         0.47635E+06         0.00000E+00
    0.47635E+06        -0.49910E+08         0.00000E+00
    0.00000E+00         0.00000E+00        -0.60412E+08
 
   -0.60876E+08         0.52669E+06         0.00000E+00
    0.52669E+06        -0.49888E+08         0.00000E+00
    0.00000E+00         0.00000E+00        -0.60411E+08
 
   -0.60790E+08         0.57657E+06         0.00000E+00
    0.57657E+06        -0.49864E+08         0.00000E+00
    0.00000E+00         0.00000E+00        -0.60410E+08
 
   -0.60709E+08         0.62619E+06         0.00000E+00
    0.62619E+06        -0.49838E+08         0.00000E+00
    0.00000E+00         0.00000E+00        -0.60409E+08
 
   -0.60634E+08         0.67572E+06         0.00000E+00
    0.67572E+06        -0.49809E+08         0.00000E+00
    0.00000E+00         0.00000E+00        -0.60407E+08
 
   -0.60563E+08         0.72533E+06         0.00000E+00
    0.72533E+06        -0.49779E+08         0.00000E+00
    0.00000E+00         0.00000E+00        -0.60406E+08
 
   -0.60496E+08         0.77520E+06         0.00000E+00
    0.77520E+06        -0.49747E+08         0.00000E+00
    0.00000E+00         0.00000E+00        -0.60405E+08
 
   -0.60435E+08         0.82549E+06         0.00000E+00
    0.82549E+06        -0.49712E+08         0.00000E+00
    0.00000E+00         0.00000E+00        -0.60403E+08
 
   -0.60378E+08         0.87635E+06         0.00000E+00
    0.87635E+06        -0.49676E+08         0.00000E+00
    0.00000E+00         0.00000E+00        -0.60402E+08
 
   -0.60325E+08         0.92793E+06         0.00000E+00
    0.92793E+06        -0.49638E+08         0.00000E+00
    0.00000E+00         0.00000E+00        -0.60400E+08
 
   -0.60276E+08         0.98038E+06         0.00000E+00
    0.98038E+06        -0.49599E+08         0.00000E+00
    0.00000E+00         0.00000E+00        -0.60399E+08
 
   -0.60232E+08         0.10338E+07         0.00000E+00
    0.10338E+07        -0.49558E+08         0.00000E+00
    0.00000E+00         0.00000E+00        -0.60397E+08
 
   -0.60191E+08         0.10884E+07         0.00000E+00
    0.10884E+07        -0.49515E+08         0.00000E+00
    0.00000E+00         0.00000E+00        -0.60395E+08
 
   -0.60154E+08         0.11441E+07         0.00000E+00
    0.11441E+07        -0.49470E+08         0.00000E+00
    0.00000E+00         0.00000E+00        -0.60393E+08
 
   -0.60120E+08         0.12012E+07         0.00000E+00
    0.12012E+07        -0.49425E+08         0.00000E+00
    0.00000E+00         0.00000E+00        -0.60391E+08
 
   -0.60090E+08         0.12597E+07         0.00000E+00
    0.12597E+07        -0.49378E+08         0.00000E+00
    0.00000E+00         0.00000E+00        -0.60389E+08
 
   -0.60064E+08         0.13197E+07         0.00000E+00
    0.13197E+07        -0.49329E+08         0.00000E+00
    0.00000E+00         0.00000E+00        -0.60388E+08
 
   -0.60040E+08         0.13813E+07         0.00000E+00
    0.13813E+07        -0.49280E+08         0.00000E+00
    0.00000E+00         0.00000E+00        -0.60386E+08
 
   -0.60020E+08         0.14445E+07         0.00000E+00
    0.14445E+07        -0.49229E+08         0.00000E+00
    0.00000E+00         0.00000E+00        -0.60384E+08
 
   -0.60002E+08         0.15094E+07         0.00000E+00
    0.15094E+07        -0.49178E+08         0.00000E+00
    0.00000E+00         0.00000E+00        -0.60382E+08
 
   -0.59987E+08         0.15760E+07         0.00000E+00
    0.15760E+07        -0.49125E+08         0.00000E+00
    0.00000E+00         0.00000E+00        -0.60379E+08
 
   -0.59974E+08         0.16444E+07         0.00000E+00
    0.16444E+07        -0.49072E+08         0.00000E+00
    0.00000E+00         0.00000E+00        -0.60377E+08
 
   -0.59964E+08         0.17146E+07         0.00000E+00
    0.17146E+07        -0.49017E+08         0.00000E+00
    0.00000E+00         0.00000E+00        -0.60375E+08
 
   -0.59957E+08         0.17865E+07         0.00000E+00
    0.17865E+07        -0.48962E+08         0.00000E+00
    0.00000E+00         0.00000E+00        -0.60373E+08
 
   -0.59952E+08         0.18602E+07         0.00000E+00
    0.18602E+07        -0.48907E+08         0.00000E+00
    0.00000E+00         0.00000E+00        -0.60371E+08
 
   -0.59949E+08         0.19358E+07         0.00000E+00
    0.19358E+07        -0.48850E+08         0.00000E+00
    0.00000E+00         0.00000E+00        -0.60369E+08
 
   -0.59948E+08         0.20132E+07         0.00000E+00
    0.20132E+07        -0.48793E+08         0.00000E+00
    0.00000E+00         0.00000E+00        -0.60367E+08
 
   -0.59949E+08         0.20924E+07         0.00000E+00
    0.20924E+07        -0.48735E+08         0.00000E+00
    0.00000E+00         0.00000E+00        -0.60365E+08
 
   -0.59952E+08         0.21734E+07         0.00000E+00
    0.21734E+07        -0.48676E+08         0.00000E+00
    0.00000E+00         0.00000E+00        -0.60362E+08
 
   -0.59957E+08         0.22564E+07         0.00000E+00
    0.22564E+07        -0.48617E+08         0.00000E+00
    0.00000E+00         0.00000E+00        -0.60360E+08
 
   -0.59965E+08         0.23412E+07         0.00000E+00
    0.23412E+07        -0.48557E+08         0.00000E+00
    0.00000E+00         0.00000E+00        -0.60358E+08
 
   -0.59974E+08         0.24277E+07         0.00000E+00
    0.24277E+07        -0.48497E+08         0.00000E+00
    0.00000E+00         0.00000E+00        -0.60356E+08
 
   -0.59986E+08         0.25153E+07         0.00000E+00
    0.25153E+07        -0.48437E+08         0.00000E+00
    0.00000E+00         0.00000E+00        -0.60354E+08
 
   -0.60000E+08         0.26050E+07         0.00000E+00
    0.26050E+07        -0.48373E+08         0.00000E+00
    0.00000E+00         0.00000E+00        -0.60353E+08
 
   -0.60019E+08         0.26960E+07         0.00000E+00
    0.26960E+07        -0.48310E+08         0.00000E+00
    0.00000E+00         0.00000E+00        -0.60351E+08
 
   -0.60041E+08         0.27900E+07         0.00000E+00
    0.27900E+07        -0.48243E+08         0.00000E+00
    0.00000E+00         0.00000E+00        -0.60349E+08
 
   -0.60067E+08         0.28897E+07         0.00000E+00
    0.28897E+07        -0.48174E+08         0.00000E+00
    0.00000E+00         0.00000E+00        -0.60348E+08
 
   -0.60094E+08         0.29922E+07         0.00000E+00
    0.29922E+07        -0.48113E+08         0.00000E+00
    0.00000E+00         0.00000E+00        -0.60346E+08
 
   -0.60121E+08         0.30989E+07         0.00000E+00
    0.30989E+07        -0.48055E+08         0.00000E+00
    0.00000E+00         0.00000E+00        -0.60345E+08
 
   -0.60150E+08         0.31966E+07         0.00000E+00
    0.31966E+07        -0.48011E+08         0.00000E+00
    0.00000E+00         0.00000E+00        -0.60344E+08
 
   -0.60199E+08         0.32727E+07         0.00000E+00
    0.32727E+07        -0.47964E+08         0.00000E+00
    0.00000E+00         0.00000E+00        -0.60343E+08
 
   -0.60287E+08         0.33498E+07         0.00000E+00
    0.33498E+07        -0.47833E+08         0.00000E+00
    0.00000E+00         0.00000E+00        -0.60343E+08
 
   -0.61546E+08         0.39774E+05         0.00000E+00
    0.39774E+05        -0.49999E+08         0.00000E+00
    0.00000E+00         0.00000E+00        -0.59862E+08
 
   -0.61423E+08         0.11221E+06         0.00000E+00
    0.11221E+06        -0.49997E+08         0.00000E+00
    0.00000E+00         0.00000E+00        -0.59861E+08
 
   -0.61304E+08         0.18238E+06         0.00000E+00
    0.18238E+06        -0.49993E+08         0.00000E+00
    0.00000E+00         0.00000E+00        -0.59861E+08
 
   -0.61190E+08         0.25052E+06         0.00000E+00
    0.25052E+06        -0.49988E+08         0.00000E+00
    0.00000E+00         0.00000E+00        -0.59861E+08
 
   -0.61081E+08         0.31685E+06         0.00000E+00
    0.31685E+06        -0.49980E+08         0.00000E+00
    0.00000E+00         0.00000E+00        -0.59861E+08
 
   -0.60976E+08         0.38157E+06         0.00000E+00
    0.38157E+06        -0.49970E+08         0.00000E+00
    0.00000E+00         0.00000E+00        -0.59860E+08
 
   -0.60875E+08         0.44487E+06         0.00000E+00
    0.44487E+06        -0.49959E+08         0.00000E+00
    0.00000E+00         0.00000E+00        -0.59860E+08
 
   -0.60779E+08         0.50697E+06         0.00000E+00
    0.50697E+06        -0.49945E+08         0.00000E+00
    0.00000E+00         0.00000E+00        -0.59859E+08
 
   -0.60687E+08         0.56804E+06         0.00000E+00
    0.56804E+06        -0.49930E+08         0.00000E+00
    0.00000E+00         0.00000E+00        -0.59858E+08
 
   -0.60600E+08         0.62825E+06         0.00000E+00
    0.62825E+06        -0.49913E+08         0.00000E+00
    0.00000E+00         0.00000E+00        -0.59857E+08
 
   -0.60516E+08         0.68780E+06         0.00000E+00
    0.68780E+06        -0.49895E+08         0.00000E+00
    0.00000E+00         0.00000E+00        -0.59857E+08
 
   -0.60437E+08         0.74684E+06         0.00000E+00
    0.74684E+06        -0.49874E+08         0.00000E+00
    0.00000E+00         0.00000E+00        -0.59856E+08
 
   -0.60362E+08         0.80554E+06         0.00000E+00
    0.80554E+06        -0.49853E+08         0.00000E+00
    0.00000E+00         0.00000E+00        -0.59855E+08
 
   -0.60291E+08         0.86405E+06         0.00000E+00
    0.86405E+06        -0.49829E+08         0.00000E+00
    0.00000E+00         0.00000E+00        -0.59854E+08
 
   -0.60224E+08         0.92253E+06         0.00000E+00
    0.92253E+06        -0.49804E+08         0.00000E+00
    0.00000E+00         0.00000E+00        -0.59853E+08
 
   -0.60161E+08         0.98112E+06         0.00000E+00
    0.98112E+06        -0.49778E+08         0.00000E+00
    0.00000E+00         0.00000E+00        -0.59851E+08
 
   -0.60101E+08         0.10400E+07         0.00000E+00
    0.10400E+07        -0.49750E+08         0.00000E+00
    0.00000E+00         0.00000E+00        -0.59850E+08
 
   -0.60046E+08         0.10992E+07         0.00000E+00
    0.10992E+07        -0.49721E+08         0.00000E+00
    0.00000E+00         0.00000E+00        -0.59849E+08
 
   -0.59993E+08         0.11589E+07         0.00000E+00
    0.11589E+07        -0.49690E+08         0.00000E+00
    0.00000E+00         0.00000E+00        -0.59848E+08
 
   -0.59944E+08         0.12192E+07         0.00000E+00
    0.12192E+07        -0.49659E+08         0.00000E+00
    0.00000E+00         0.00000E+00        -0.59846E+08
 
   -0.59899E+08         0.12803E+07         0.00000E+00
    0.12803E+07        -0.49626E+08         0.00000E+00
    0.00000E+00         0.00000E+00        -0.59845E+08
 
   -0.59856E+08         0.13422E+07         0.00000E+00
    0.13422E+07        -0.49592E+08         0.00000E+00
    0.00000E+00         0.00000E+00        -0.59843E+08
 
   -0.59817E+08         0.14051E+07         0.00000E+00
    0.14051E+07        -0.49557E+08         0.00000E+00
    0.00000E+00         0.00000E+00        -0.59842E+08
 
   -0.59781E+08         0.14689E+07         0.00000E+00
    0.14689E+07        -0.49522E+08         0.00000E+00
    0.00000E+00         0.00000E+00        -0.59840E+08
 
   -0.59748E+08         0.15339E+07         0.00000E+00
    0.15339E+07        -0.49485E+08         0.00000E+00
    0.00000E+00         0.00000E+00        -0.59839E+08
 
   -0.59717E+08         0.16000E+07         0.00000E+00
    0.16000E+07        -0.49448E+08         0.00000E+00
    0.00000E+00         0.00000E+00        -0.59837E+08
 
   -0.59689E+08         0.16673E+07         0.00000E+00
    0.16673E+07        -0.49410E+08         0.00000E+00
    0.00000E+00         0.00000E+00        -0.59836E+08
 
   -0.59664E+08         0.17359E+07         0.00000E+00
    0.17359E+07        -0.49372E+08         0.00000E+00
    0.00000E+00         0.00000E+00        -0.59834E+08
 
   -0.59641E+08         0.18059E+07         0.00000E+00
    0.18059E+07        -0.49333E+08         0.00000E+00
    0.00000E+00         0.00000E+00        -0.59833E+08
 
   -0.59621E+08         0.18772E+07         0.00000E+00
    0.18772E+07        -0.49294E+08         0.00000E+00
    0.00000E+00         0.00000E+00        -0.59831E+08
 
   -0.59603E+08         0.19500E+07         0.00000E+00
    0.19500E+07        -0.49254E+08         0.00000E+00
    0.00000E+00         0.00000E+00        -0.59829E+08
 
   -0.59587E+08         0.20241E+07         0.00000E+00
    0.20241E+07        -0.49214E+08         0.00000E+00
    0.00000E+00         0.00000E+00        -0.59828E+08
 
   -0.59574E+08         0.20998E+07         0.00000E+00
    0.20998E+07        -0.49174E+08         0.00000E+00
    0.00000E+00         0.00000E+00        -0.59826E+08
 
   -0.59563E+08         0.21768E+07         0.00000E+00
    0.21768E+07        -0.49134E+08         0.00000E+00
    0.00000E+00         0.00000E+00        -0.59824E+08
 
   -0.59554E+08         0.22554E+07         0.00000E+00
    0.22554E+07        -0.49094E+08         0.00000E+00
    0.00000E+00         0.00000E+00        -0.59823E+08
 
   -0.59547E+08         0.23354E+07         0.00000E+00
    0.23354E+07        -0.49055E+08         0.00000E+00
    0.00000E+00         0.00000E+00        -0.59821E+08
 
   -0.59542E+08         0.24169E+07         0.00000E+00
    0.24169E+07        -0.49015E+08         0.00000E+00
    0.00000E+00         0.00000E+00        -0.59820E+08
 
   -0.59539E+08         0.24997E+07         0.00000E+00
    0.24997E+07        -0.48976E+08         0.00000E+00
    0.00000E+00         0.00000E+00        -0.59818E+08
 
   -0.59539E+08         0.25839E+07         0.00000E+00
    0.25839E+07        -0.48937E+08         0.00000E+00
    0.00000E+00         0.00000E+00        -0.59817E+08
 
   -0.59540E+08         0.26695E+07         0.00000E+00
    0.26695E+07        -0.48899E+08         0.00000E+00
    0.00000E+00         0.00000E+00        -0.59816E+08
 
   -0.59545E+08         0.27565E+07         0.00000E+00
    0.27565E+07        -0.48862E+08         0.00000E+00
    0.00000E+00         0.00000E+00        -0.59814E+08
 
   -0.59552E+08         0.28446E+07         0.00000E+00
    0.28446E+07        -0.48826E+08         0.00000E+00
    0.00000E+00         0.00000E+00        -0.59813E+08
 
   -0.59562E+08         0.29340E+07         0.00000E+00
    0.29340E+07        -0.48791E+08         0.00000E+00
    0.00000E+00         0.00000E+00        -0.59812E+08
 
   -0.59575E+08         0.30243E+07         0.00000E+00
    0.30243E+07        -0.48757E+08         0.00000E+00
    0.00000E+00         0.00000E+00        -0.59811E+08
 
   -0.59592E+08         0.31144E+07         0.00000E+00
    0.31144E+07        -0.48726E+08         0.00000E+00
    0.00000E+00         0.00000E+00        -0.59810E+08
 
   -0.59614E+08         0.32047E+07         0.00000E+00
    0.32047E+07        -0.48695E+08         0.00000E+00
    0.00000E+00         0.00000E+00        -0.59809E+08
 
   -0.59644E+08         0.32944E+07         0.00000E+00
    0.32944E+07        -0.48665E+08         0.00000E+00
    0.00000E+00         0.00000E+00        -0.59809E+08
 
   -0.59683E+08         0.33863E+07         0.00000E+00
    0.33863E+07        -0.48633E+08         0.00000E+00
    0.00000E+00         0.00000E+00        -0.59808E+08
 
   -0.59729E+08         0.34850E+07         0.00000E+00
    0.34850E+07        -0.48601E+08         0.00000E+00
    0.00000E+00         0.00000E+00        -0.59808E+08
 
   -0.59780E+08         0.35855E+07         0.00000E+00
    0.35855E+07        -0.48588E+08         0.00000E+00
    0.00000E+00         0.00000E+00        -0.59808E+08
 
   -0.61156E+08         0.44019E+05         0.00000E+00
    0.44019E+05        -0.50000E+08         0.00000E+00
    0.00000E+00         0.00000E+00        -0.59328E+08
 
   -0.61045E+08         0.12484E+06         0.00000E+00
    0.12484E+06        -0.49998E+08         0.00000E+00
    0.00000E+00         0.00000E+00        -0.59328E+08
 
   -0.60937E+08         0.20333E+06         0.00000E+00
    0.20333E+06        -0.49995E+08         0.00000E+00
    0.00000E+00         0.00000E+00        -0.59328E+08
 
   -0.60833E+08         0.27972E+06         0.00000E+00
    0.27972E+06        -0.49991E+08         0.00000E+00
    0.00000E+00         0.00000E+00        -0.59328E+08
 
   -0.60732E+08         0.35420E+06         0.00000E+00
    0.35420E+06        -0.49986E+08         0.00000E+00
    0.00000E+00         0.00000E+00        -0.59328E+08
 
   -0.60635E+08         0.42697E+06         0.00000E+00
    0.42697E+06        -0.49979E+08         0.00000E+00
    0.00000E+00         0.00000E+00        -0.59327E+08
 
   -0.60541E+08         0.49821E+06         0.00000E+00
    0.49821E+06        -0.49971E+08         0.00000E+00
    0.00000E+00         0.00000E+00        -0.59327E+08
 
   -0.60451E+08         0.56811E+06         0.00000E+00
    0.56811E+06        -0.49961E+08         0.00000E+00
    0.00000E+00         0.00000E+00        -0.59326E+08
 
   -0.60364E+08         0.63682E+06         0.00000E+00
    0.63682E+06        -0.49950E+08         0.00000E+00
    0.00000E+00         0.00000E+00        -0.59326E+08
 
   -0.60281E+08         0.70452E+06         0.00000E+00
    0.70452E+06        -0.49938E+08         0.00000E+00
    0.00000E+00         0.00000E+00        -0.59325E+08
 
   -0.60201E+08         0.77137E+06         0.00000E+00
    0.77137E+06        -0.49924E+08         0.00000E+00
    0.00000E+00         0.00000E+00        -0.59325E+08
 
   -0.60125E+08         0.83750E+06         0.00000E+00
    0.83750E+06        -0.49910E+08         0.00000E+00
    0.00000E+00         0.00000E+00        -0.59324E+08
 
   -0.60052E+08         0.90308E+06         0.00000E+00
    0.90308E+06        -0.49894E+08         0.00000E+00
    0.00000E+00         0.00000E+00        -0.59323E+08
 
   -0.59982E+08         0.96823E+06         0.00000E+00
    0.96823E+06        -0.49877E+08         0.00000E+00
    0.00000E+00         0.00000E+00        -0.59322E+08
 
   -0.59915E+08         0.10331E+07         0.00000E+00
    0.10331E+07        -0.49859E+08         0.00000E+00
    0.00000E+00         0.00000E+00        -0.59322E+08
 
   -0.59852E+08         0.10978E+07         0.00000E+00
    0.10978E+07        -0.49839E+08         0.00000E+00
    0.00000E+00         0.00000E+00        -0.59321E+08
 
   -0.59792E+08         0.11625E+07         0.00000E+00
    0.11625E+07        -0.49819E+08         0.00000E+00
    0.00000E+00         0.00000E+00        -0.59320E+08
 
   -0.59734E+08         0.12272E+07         0.00000E+00
    0.12272E+07        -0.49798E+08         0.00000E+00
    0.00000E+00         0.00000E+00        -0.59319E+08
 
   -0.59680E+08         0.12921E+07         0.00000E+00
    0.12921E+07        -0.49776E+08         0.00000E+00
    0.00000E+00         0.00000E+00        -0.59318E+08
 
   -0.59629E+08         0.13573E+07         0.00000E+00
    0.13573E+07        -0.49753E+08         0.00000E+00
    0.00000E+00         0.00000E+00        -0.59317E+08
 
   -0.59580E+08         0.14229E+07         0.00000E+00
    0.14229E+07        -0.49730E+08         0.00000E+00
    0.00000E+00         0.00000E+00        -0.59316E+08
 
   -0.59534E+08         0.14889E+07         0.00000E+00
    0.14889E+07        -0.49705E+08         0.00000E+00
    0.00000E+00         0.00000E+00        -0.59315E+08
 
   -0.59491E+08         0.15555E+07         0.00000E+00
    0.15555E+07        -0.49680E+08         0.00000E+00
    0.00000E+00         0.00000E+00        -0.59314E+08
 
   -0.59451E+08         0.16228E+07         0.00000E+00
    0.16228E+07        -0.49655E+08         0.00000E+00
    0.00000E+00         0.00000E+00        -0.59312E+08
 
   -0.59413E+08         0.16907E+07         0.00000E+00
    0.16907E+07        -0.49629E+08         0.00000E+00
    0.00000E+00         0.00000E+00        -0.59311E+08
 
   -0.59377E+08         0.17594E+07         0.00000E+00
    0.17594E+07        -0.49603E+08         0.00000E+00
    0.00000E+00         0.00000E+00        -0.59310E+08
 
   -0.59344E+08         0.18289E+07         0.00000E+00
    0.18289E+07        -0.49576E+08         0.00000E+00
    0.00000E+00         0.00000E+00        -0.59309E+08
 
   -0.59314E+08         0.18992E+07         0.00000E+00
    0.18992E+07        -0.49549E+08         0.00000E+00
    0.00000E+00         0.00000E+00        -0.59308E+08
 
   -0.59285E+08         0.19705E+07         0.00000E+00
    0.19705E+07        -0.49522E+08         0.00000E+00
    0.00000E+00         0.00000E+00        -0.59307E+08
 
   -0.59259E+08         0.20427E+07         0.00000E+00
    0.20427E+07        -0.49495E+08         0.00000E+00
    0.00000E+00         0.00000E+00        -0.59305E+08
 
   -0.59235E+08         0.21158E+07         0.00000E+00
    0.21158E+07        -0.49468E+08         0.00000E+00
    0.00000E+00         0.00000E+00        -0.59304E+08
 
   -0.59214E+08         0.21900E+07         0.00000E+00
    0.21900E+07        -0.49440E+08         0.00000E+00
    0.00000E+00         0.00000E+00        -0.59303E+08
 
   -0.59194E+08         0.22651E+07         0.00000E+00
    0.22651E+07        -0.49414E+08         0.00000E+00
    0.00000E+00         0.00000E+00        -0.59302E+08
 
   -0.59177E+08         0.23412E+07         0.00000E+00
    0.23412E+07        -0.49387E+08         0.00000E+00
    0.00000E+00         0.00000E+00        -0.59301E+08
 
   -0.59161E+08         0.24183E+07         0.00000E+00
    0.24183E+07        -0.49360E+08         0.00000E+00
    0.00000E+00         0.00000E+00        -0.59300E+08
 
   -0.59148E+08         0.24964E+07         0.00000E+00
    0.24964E+07        -0.49334E+08         0.00000E+00
    0.00000E+00         0.00000E+00        -0.59299E+08
 
   -0.59138E+08         0.25755E+07         0.00000E+00
    0.25755E+07        -0.49309E+08         0.00000E+00
    0.00000E+00         0.00000E+00        -0.59298E+08
 
   -0.59129E+08         0.26555E+07         0.00000E+00
    0.26555E+07        -0.49284E+08         0.00000E+00
    0.00000E+00         0.00000E+00        -0.59297E+08
 
   -0.59123E+08         0.27365E+07         0.00000E+00
    0.27365E+07        -0.49260E+08         0.00000E+00
    0.00000E+00         0.00000E+00        -0.59296E+08
 
   -0.59119E+08         0.28183E+07         0.00000E+00
    0.28183E+07        -0.49236E+08         0.00000E+00
    0.00000E+00         0.00000E+00        -0.59295E+08
 
   -0.59118E+08         0.29010E+07         0.00000E+00
    0.29010E+07        -0.49213E+08         0.00000E+00
    0.00000E+00         0.00000E+00        -0.59294E+08
 
   -0.59120E+08         0.29846E+07         0.00000E+00
    0.29846E+07        -0.49191E+08         0.00000E+00
    0.00000E+00         0.00000E+00        -0.59293E+08
 
   -0.59126E+08         0.30691E+07         0.00000E+00
    0.30691E+07        -0.49169E+08         0.00000E+00
    0.00000E+00         0.00000E+00        -0.59293E+08
 
   -0.59134E+08         0.31544E+07         0.00000E+00
    0.31544E+07        -0.49148E+08         0.00000E+00
    0.00000E+00         0.00000E+00        -0.59292E+08
 
   -0.59147E+08         0.32410E+07         0.00000E+00
    0.32410E+07        -0.49127E+08         0.00000E+00
    0.00000E+00         0.00000E+00        -0.59292E+08
 
   -0.59164E+08         0.33291E+07         0.00000E+00
    0.33291E+07        -0.49107E+08         0.00000E+00
    0.00000E+00         0.00000E+00        -0.59291E+08
 
   -0.59185E+08         0.34192E+07         0.00000E+00
    0.34192E+07        -0.49086E+08         0.00000E+00
    0.00000E+00         0.00000E+00        -0.59291E+08
 
   -0.59210E+08         0.35116E+07         0.00000E+00
    0.35116E+07        -0.49067E+08         0.00000E+00
    0.00000E+00         0.00000E+00        -0.59291E+08
 
   -0.59239E+08         0.36056E+07         0.00000E+00
    0.36056E+07        -0.49047E+08         0.00000E+00
    0.00000E+00         0.00000E+00        -0.59290E+08
 
   -0.59273E+08         0.37037E+07         0.00000E+00
    0.37037E+07        -0.49024E+08         0.00000E+00
    0.00000E+00         0.00000E+00        -0.59290E+08
 
   -0.60731E+08         0.46676E+05         0.00000E+00
    0.46676E+05        -0.50000E+08         0.00000E+00
    0.00000E+00         0.00000E+00        -0.58816E+08
 
   -0.60631E+08         0.13311E+06         0.00000E+00
    0.13311E+06        -0.49999E+08         0.00000E+00
    0.00000E+00         0.00000E+00        -0.58816E+08
 
   -0.60534E+08         0.21728E+06         0.00000E+00
    0.21728E+06        -0.49997E+08         0.00000E+00
    0.00000E+00         0.00000E+00        -0.58816E+08
 
   -0.60440E+08         0.29938E+06         0.00000E+00
    0.29938E+06        -0.49995E+08         0.00000E+00
    0.00000E+00         0.00000E+00        -0.58816E+08
 
   -0.60349E+08         0.37957E+06         0.00000E+00
    0.37957E+06        -0.49991E+08         0.00000E+00
    0.00000E+00         0.00000E+00        -0.58816E+08
 
   -0.60260E+08         0.45803E+06         0.00000E+00
    0.45803E+06        -0.49987E+08         0.00000E+00
    0.00000E+00         0.00000E+00        -0.58816E+08
 
   -0.60173E+08         0.53492E+06         0.00000E+00
    0.53492E+06        -0.49981E+08         0.00000E+00
    0.00000E+00         0.00000E+00        -0.58815E+08
 
   -0.60090E+08         0.61039E+06         0.00000E+00
    0.61039E+06        -0.49975E+08         0.00000E+00
    0.00000E+00         0.00000E+00        -0.58815E+08
 
   -0.60009E+08         0.68460E+06         0.00000E+00
    0.68460E+06        -0.49968E+08         0.00000E+00
    0.00000E+00         0.00000E+00        -0.58815E+08
 
   -0.59931E+08         0.75767E+06         0.00000E+00
    0.75767E+06        -0.49960E+08         0.00000E+00
    0.00000E+00         0.00000E+00        -0.58814E+08
 
   -0.59855E+08         0.82976E+06         0.00000E+00
    0.82976E+06        -0.49951E+08         0.00000E+00
    0.00000E+00         0.00000E+00        -0.58814E+08
 
   -0.59782E+08         0.90100E+06         0.00000E+00
    0.90100E+06        -0.49941E+08         0.00000E+00
    0.00000E+00         0.00000E+00        -0.58813E+08
 
   -0.59712E+08         0.97150E+06         0.00000E+00
    0.97150E+06        -0.49930E+08         0.00000E+00
    0.00000E+00         0.00000E+00        -0.58813E+08
 
   -0.59645E+08         0.10414E+07         0.00000E+00
    0.10414E+07        -0.49919E+08         0.00000E+00
    0.00000E+00         0.00000E+00        -0.58812E+08
 
   -0.59580E+08         0.11108E+07         0.00000E+00
    0.11108E+07        -0.49907E+08         0.00000E+00
    0.00000E+00         0.00000E+00        -0.58811E+08
 
   -0.59518E+08         0.11798E+07         0.00000E+00
    0.11798E+07        -0.49894E+08         0.00000E+00
    0.00000E+00         0.00000E+00        -0.58811E+08
 
   -0.59458E+08         0.12485E+07         0.00000E+00
    0.12485E+07        -0.49880E+08         0.00000E+00
    0.00000E+00         0.00000E+00        -0.58810E+08
 
   -0.59401E+08         0.13171E+07         0.00000E+00
    0.13171E+07        -0.49866E+08         0.00000E+00
    0.00000E+00         0.00000E+00        -0.58810E+08
 
   -0.59346E+08         0.13855E+07         0.00000E+00
    0.13855E+07        -0.49851E+08         0.00000E+00
    0.00000E+00         0.00000E+00        -0.58809E+08
 
   -0.59293E+08         0.14540E+07         0.00000E+00
    0.14540E+07        -0.49835E+08         0.00000E+00
    0.00000E+00         0.00000E+00        -0.58808E+08
 
   -0.59244E+08         0.15225E+07         0.00000E+00
    0.15225E+07        -0.49820E+08         0.00000E+00
    0.00000E+00         0.00000E+00        -0.58807E+08
 
   -0.59196E+08         0.15912E+07         0.00000E+00
    0.15912E+07        -0.49803E+08         0.00000E+00
    0.00000E+00         0.00000E+00        -0.58807E+08
 
   -0.59151E+08         0.16602E+07         0.00000E+00
    0.16602E+07        -0.49786E+08         0.00000E+00
    0.00000E+00         0.00000E+00        -0.58806E+08
 
   -0.59108E+08         0.17294E+07         0.00000E+00
    0.17294E+07        -0.49769E+08         0.00000E+00
    0.00000E+00         0.00000E+00        -0.58805E+08
 
   -0.59067E+08         0.17990E+07         0.00000E+00
    0.17990E+07        -0.49752E+08         0.00000E+00
    0.00000E+00         0.00000E+00        -0.58804E+08
 
   -0.59029E+08         0.18690E+07         0.00000E+00
    0.18690E+07        -0.49734E+08         0.00000E+00
    0.00000E+00         0.00000E+00        -0.58803E+08
 
   -0.58992E+08         0.19395E+07         0.00000E+00
    0.19395E+07        -0.49717E+08         0.00000E+00
    0.00000E+00         0.00000E+00        -0.58803E+08
 
   -0.58958E+08         0.20104E+07         0.00000E+00
    0.20104E+07        -0.49699E+08         0.00000E+00
    0.00000E+00         0.00000E+00        -0.58802E+08
 
   -0.58926E+08         0.20820E+07         0.00000E+00
    0.20820E+07        -0.49681E+08         0.00000E+00
    0.00000E+00         0.00000E+00        -0.58801E+08
 
   -0.58896E+08         0.21541E+07         0.00000E+00
    0.21541E+07        -0.49663E+08         0.00000E+00
    0.00000E+00         0.00000E+00        -0.58800E+08
 
   -0.58868E+08         0.22268E+07         0.00000E+00
    0.22268E+07        -0.49645E+08         0.00000E+00
    0.00000E+00         0.00000E+00        -0.58800E+08
 
   -0.58843E+08         0.23002E+07         0.00000E+00
    0.23002E+07        -0.49628E+08         0.00000E+00
    0.00000E+00         0.00000E+00        -0.58799E+08
 
   -0.58819E+08         0.23742E+07         0.00000E+00
    0.23742E+07        -0.49610E+08         0.00000E+00
    0.00000E+00         0.00000E+00        -0.58798E+08
 
   -0.58797E+08         0.24489E+07         0.00000E+00
    0.24489E+07        -0.49593E+08         0.00000E+00
    0.00000E+00         0.00000E+00        -0.58797E+08
 
   -0.58778E+08         0.25243E+07         0.00000E+00
    0.25243E+07        -0.49576E+08         0.00000E+00
    0.00000E+00         0.00000E+00        -0.58797E+08
 
   -0.58761E+08         0.26005E+07         0.00000E+00
    0.26005E+07        -0.49559E+08         0.00000E+00
    0.00000E+00         0.00000E+00        -0.58796E+08
 
   -0.58745E+08         0.26774E+07         0.00000E+00
    0.26774E+07        -0.49543E+08         0.00000E+00
    0.00000E+00         0.00000E+00        -0.58795E+08
 
   -0.58733E+08         0.27550E+07         0.00000E+00
    0.27550E+07        -0.49527E+08         0.00000E+00
    0.00000E+00         0.00000E+00        -0.58795E+08
 
   -0.58722E+08         0.28335E+07         0.00000E+00
    0.28335E+07        -0.49511E+08         0.00000E+00
    0.00000E+00         0.00000E+00        -0.58794E+08
 
   -0.58714E+08         0.29128E+07         0.00000E+00
    0.29128E+07        -0.49496E+08         0.00000E+00
    0.00000E+00         0.00000E+00        -0.58794E+08
 
   -0.58708E+08         0.29931E+07         0.00000E+00
    0.29931E+07        -0.49481E+08         0.00000E+00
    0.00000E+00         0.00000E+00        -0.58793E+08
 
   -0.58705E+08         0.30744E+07         0.00000E+00
    0.30744E+07        -0.49467E+08         0.00000E+00
    0.00000E+00         0.00000E+00        -0.58793E+08
 
   -0.58705E+08         0.31568E+07         0.00000E+00
    0.31568E+07        -0.49453E+08         0.00000E+00
    0.00000E+00         0.00000E+00        -0.58792E+08
 
   -0.58707E+08         0.32405E+07         0.00000E+00
    0.32405E+07        -0.49439E+08         0.00000E+00
    0.00000E+00         0.00000E+00        -0.58792E+08
 
   -0.58713E+08         0.33256E+07         0.00000E+00
    0.33256E+07        -0.49425E+08         0.00000E+00
    0.00000E+00         0.00000E+00        -0.58792E+08
 
   -0.58721E+08         0.34124E+07         0.00000E+00
    0.34124E+07        -0.49412E+08         0.00000E+00
    0.00000E+00         0.00000E+00        -0.58792E+08
 
   -0.58732E+08         0.35009E+07         0.00000E+00
    0.35009E+07        -0.49399E+08         0.00000E+00
    0.00000E+00         0.00000E+00        -0.58791E+08
 
   -0.58746E+08         0.35915E+07         0.00000E+00
    0.35915E+07        -0.49386E+08         0.00000E+00
    0.00000E+00         0.00000E+00        -0.58791E+08
 
   -0.58762E+08         0.36845E+07         0.00000E+00
    0.36845E+07        -0.49374E+08         0.00000E+00
    0.00000E+00         0.00000E+00        -0.58791E+08
 
   -0.58781E+08         0.37796E+07         0.00000E+00
    0.37796E+07        -0.49364E+08         0.00000E+00
    0.00000E+00         0.00000E+00        -0.58791E+08
 
   -0.60284E+08         0.48006E+05         0.00000E+00
    0.48006E+05        -0.50000E+08         0.00000E+00
    0.00000E+00         0.00000E+00        -0.58325E+08
 
   -0.60196E+08         0.13769E+06         0.00000E+00
    0.13769E+06        -0.50000E+08         0.00000E+00
    0.00000E+00         0.00000E+00        -0.58325E+08
 
   -0.60109E+08         0.22526E+06         0.00000E+00
    0.22526E+06        -0.49999E+08         0.00000E+00
    0.00000E+00         0.00000E+00        -0.58325E+08
 
   -0.60025E+08         0.31088E+06         0.00000E+00
    0.31088E+06        -0.49997E+08         0.00000E+00
    0.00000E+00         0.00000E+00        -0.58325E+08
 
   -0.59942E+08         0.39469E+06         0.00000E+00
    0.39469E+06        -0.49995E+08         0.00000E+00
    0.00000E+00         0.00000E+00        -0.58324E+08
 
   -0.59862E+08         0.47681E+06         0.00000E+00
    0.47681E+06        -0.49993E+08         0.00000E+00
    0.00000E+00         0.00000E+00        -0.58324E+08
 
   -0.59783E+08         0.55739E+06         0.00000E+00
    0.55739E+06        -0.49990E+08         0.00000E+00
    0.00000E+00         0.00000E+00        -0.58324E+08
 
   -0.59706E+08         0.63656E+06         0.00000E+00
    0.63656E+06        -0.49987E+08         0.00000E+00
    0.00000E+00         0.00000E+00        -0.58324E+08
 
   -0.59631E+08         0.71442E+06         0.00000E+00
    0.71442E+06        -0.49982E+08         0.00000E+00
    0.00000E+00         0.00000E+00        -0.58324E+08
 
   -0.59558E+08         0.79112E+06         0.00000E+00
    0.79112E+06        -0.49978E+08         0.00000E+00
    0.00000E+00         0.00000E+00        -0.58323E+08
 
   -0.59488E+08         0.86675E+06         0.00000E+00
    0.86675E+06        -0.49972E+08         0.00000E+00
    0.00000E+00         0.00000E+00        -0.58323E+08
 
   -0.59419E+08         0.94144E+06         0.00000E+00
    0.94144E+06        -0.49967E+08         0.00000E+00
    0.00000E+00         0.00000E+00        -0.58323E+08
 
   -0.59353E+08         0.10153E+07         0.00000E+00
    0.10153E+07        -0.49960E+08         0.00000E+00
    0.00000E+00         0.00000E+00        -0.58322E+08
 
   -0.59288E+08         0.10884E+07         0.00000E+00
    0.10884E+07        -0.49953E+08         0.00000E+00
    0.00000E+00         0.00000E+00        -0.58322E+08
 
   -0.59226E+08         0.11609E+07         0.00000E+00
    0.11609E+07        -0.49946E+08         0.00000E+00
    0.00000E+00         0.00000E+00        -0.58322E+08
 
   -0.59166E+08         0.12328E+07         0.00000E+00
    0.12328E+07        -0.49938E+08         0.00000E+00
    0.00000E+00         0.00000E+00        -0.58321E+08
 
   -0.59108E+08         0.13042E+07         0.00000E+00
    0.13042E+07        -0.49930E+08         0.00000E+00
    0.00000E+00         0.00000E+00        -0.58321E+08
 
   -0.59052E+08         0.13753E+07         0.00000E+00
    0.13753E+07        -0.49921E+08         0.00000E+00
    0.00000E+00         0.00000E+00        -0.58320E+08
 
   -0.58998E+08         0.14461E+07         0.00000E+00
    0.14461E+07        -0.49912E+08         0.00000E+00
    0.00000E+00         0.00000E+00        -0.58320E+08
 
   -0.58946E+08         0.15167E+07         0.00000E+00
    0.15167E+07        -0.49902E+08         0.00000E+00
    0.00000E+00         0.00000E+00        -0.58320E+08
 
   -0.58896E+08         0.15872E+07         0.00000E+00
    0.15872E+07        -0.49893E+08         0.00000E+00
    0.00000E+00         0.00000E+00        -0.58319E+08
 
   -0.58848E+08         0.16576E+07         0.00000E+00
    0.16576E+07        -0.49883E+08         0.00000E+00
    0.00000E+00         0.00000E+00        -0.58319E+08
 
   -0.58802E+08         0.17279E+07         0.00000E+00
    0.17279E+07        -0.49872E+08         0.00000E+00
    0.00000E+00         0.00000E+00        -0.58318E+08
 
   -0.58758E+08         0.17984E+07         0.00000E+00
    0.17984E+07        -0.49862E+08         0.00000E+00
    0.00000E+00         0.00000E+00        -0.58318E+08
 
   -0.58716E+08         0.18689E+07         0.00000E+00
    0.18689E+07        -0.49851E+08         0.00000E+00
    0.00000E+00         0.00000E+00        -0.58317E+08
 
   -0.58676E+08         0.19396E+07         0.00000E+00
    0.19396E+07        -0.49840E+08         0.00000E+00
    0.00000E+00         0.00000E+00        -0.58317E+08
 
   -0.58638E+08         0.20105E+07         0.00000E+00
    0.20105E+07        -0.49829E+08         0.00000E+00
    0.00000E+00         0.00000E+00        -0.58316E+08
 
   -0.58602E+08         0.20817E+07         0.00000E+00
    0.20817E+07        -0.49818E+08         0.00000E+00
    0.00000E+00         0.00000E+00        -0.58316E+08
 
   -0.58567E+08         0.21532E+07         0.00000E+00
    0.21532E+07        -0.49807E+08         0.00000E+00
    0.00000E+00         0.00000E+00        -0.58315E+08
 
   -0.58535E+08         0.22251E+07         0.00000E+00
    0.22251E+07        -0.49796E+08         0.00000E+00
    0.00000E+00         0.00000E+00        -0.58315E+08
 
   -0.58505E+08         0.22973E+07         0.00000E+00
    0.22973E+07        -0.49785E+08         0.00000E+00
    0.00000E+00         0.00000E+00        -0.58314E+08
 
   -0.58476E+08         0.23700E+07         0.00000E+00
    0.23700E+07        -0.49775E+08         0.00000E+00
    0.00000E+00         0.00000E+00        -0.58314E+08
 
   -0.58449E+08         0.24431E+07         0.00000E+00
    0.24431E+07        -0.49764E+08         0.00000E+00
    0.00000E+00         0.00000E+00        -0.58313E+08
 
   -0.58425E+08         0.25168E+07         0.00000E+00
    0.25168E+07        -0.49754E+08         0.00000E+00
    0.00000E+00         0.00000E+00        -0.58313E+08
 
   -0.58402E+08         0.25910E+07         0.00000E+00
    0.25910E+07        -0.49743E+08         0.00000E+00
    0.00000E+00         0.00000E+00        -0.58313E+08
 
   -0.58381E+08         0.26658E+07         0.00000E+00
    0.26658E+07        -0.49733E+08         0.00000E+00
    0.00000E+00         0.00000E+00        -0.58312E+08
 
   -0.58362E+08         0.27413E+07         0.00000E+00
    0.27413E+07        -0.49723E+08         0.00000E+00
    0.00000E+00         0.00000E+00        -0.58312E+08
 
   -0.58346E+08         0.28175E+07         0.00000E+00
    0.28175E+07        -0.49714E+08         0.00000E+00
    0.00000E+00         0.00000E+00        -0.58312E+08
 
   -0.58331E+08         0.28945E+07         0.00000E+00
    0.28945E+07        -0.49704E+08         0.00000E+00
    0.00000E+00         0.00000E+00        -0.58311E+08
 
   -0.58318E+08         0.29724E+07         0.00000E+00
    0.29724E+07        -0.49695E+08         0.00000E+00
    0.00000E+00         0.00000E+00        -0.58311E+08
 
   -0.58308E+08         0.30511E+07         0.00000E+00
    0.30511E+07        -0.49686E+08         0.00000E+00
    0.00000E+00         0.00000E+00        -0.58311E+08
 
   -0.58299E+08         0.31309E+07         0.00000E+00
    0.31309E+07        -0.49678E+08         0.00000E+00
    0.00000E+00         0.00000E+00        -0.58311E+08
 
   -0.58293E+08         0.32118E+07         0.00000E+00
    0.32118E+07        -0.49669E+08         0.00000E+00
    0.00000E+00         0.00000E+00        -0.58311E+08
 
   -0.58289E+08         0.32940E+07         0.00000E+00
    0.32940E+07        -0.49661E+08         0.00000E+00
    0.00000E+00         0.00000E+00        -0.58310E+08
 
   -0.58287E+08         0.33775E+07         0.00000E+00
    0.33775E+07        -0.49653E+08         0.00000E+00
    0.00000E+00         0.00000E+00        -0.58310E+08
 
   -0.58286E+08         0.34625E+07         0.00000E+00
    0.34625E+07        -0.49646E+08         0.00000E+00
    0.00000E+00         0.00000E+00        -0.58310E+08
 
   -0.58288E+08         0.35491E+07         0.00000E+00
    0.35491E+07        -0.49639E+08         0.00000E+00
    0.00000E+00         0.00000E+00        -0.58310E+08
 
   -0.58292E+08         0.36374E+07         0.00000E+00
    0.36374E+07        -0.49633E+08         0.00000E+00
    0.00000E+00         0.00000E+00        -0.58310E+08
 
   -0.58298E+08         0.37275E+07         0.00000E+00
    0.37275E+07        -0.49627E+08         0.00000E+00
    0.00000E+00         0.00000E+00        -0.58310E+08
 
   -0.58306E+08         0.38197E+07         0.00000E+00
    0.38197E+07        -0.49621E+08         0.00000E+00
    0.00000E+00         0.00000E+00        -0.58310E+08
 
   -0.59826E+08         0.48327E+05         0.00000E+00
    0.48327E+05        -0.50000E+08         0.00000E+00
    0.00000E+00         0.00000E+00        -0.57853E+08
 
   -0.59748E+08         0.13938E+06         0.00000E+00
    0.13938E+06        -0.50000E+08         0.00000E+00
    0.00000E+00         0.00000E+00        -0.57853E+08
 
   -0.59672E+08         0.22855E+06         0.00000E+00
    0.22855E+06        -0.50000E+08         0.00000E+00
    0.00000E+00         0.00000E+00        -0.57853E+08
 
   -0.59596E+08         0.31594E+06         0.00000E+00
    0.31594E+06        -0.49999E+08         0.00000E+00
    0.00000E+00         0.00000E+00        -0.57853E+08
 
   -0.59522E+08         0.40165E+06         0.00000E+00
    0.40165E+06        -0.49999E+08         0.00000E+00
    0.00000E+00         0.00000E+00        -0.57853E+08
 
   -0.59449E+08         0.48580E+06         0.00000E+00
    0.48580E+06        -0.49998E+08         0.00000E+00
    0.00000E+00         0.00000E+00        -0.57853E+08
 
   -0.59378E+08         0.56849E+06         0.00000E+00
    0.56849E+06        -0.49997E+08         0.00000E+00
    0.00000E+00         0.00000E+00        -0.57853E+08
 
   -0.59307E+08         0.64981E+06         0.00000E+00
    0.64981E+06        -0.49995E+08         0.00000E+00
    0.00000E+00         0.00000E+00        -0.57853E+08
 
   -0.59239E+08         0.72988E+06         0.00000E+00
    0.72988E+06        -0.49994E+08         0.00000E+00
    0.00000E+00         0.00000E+00        -0.57853E+08
 
   -0.59172E+08         0.80877E+06         0.00000E+00
    0.80877E+06        -0.49992E+08         0.00000E+00
    0.00000E+00         0.00000E+00        -0.57853E+08
 
   -0.59106E+08         0.88660E+06         0.00000E+00
    0.88660E+06        -0.49989E+08         0.00000E+00
    0.00000E+00         0.00000E+00        -0.57852E+08
 
   -0.59042E+08         0.96344E+06         0.00000E+00
    0.96344E+06        -0.49986E+08         0.00000E+00
    0.00000E+00         0.00000E+00        -0.57852E+08
 
   -0.58980E+08         0.10394E+07         0.00000E+00
    0.10394E+07        -0.49983E+08         0.00000E+00
    0.00000E+00         0.00000E+00        -0.57852E+08
 
   -0.58919E+08         0.11145E+07         0.00000E+00
    0.11145E+07        -0.49980E+08         0.00000E+00
    0.00000E+00         0.00000E+00        -0.57852E+08
 
   -0.58860E+08         0.11890E+07         0.00000E+00
    0.11890E+07        -0.49977E+08         0.00000E+00
    0.00000E+00         0.00000E+00        -0.57852E+08
 
   -0.58802E+08         0.12627E+07         0.00000E+00
    0.12627E+07        -0.49973E+08         0.00000E+00
    0.00000E+00         0.00000E+00        -0.57852E+08
 
   -0.58747E+08         0.13360E+07         0.00000E+00
    0.13360E+07        -0.49968E+08         0.00000E+00
    0.00000E+00         0.00000E+00        -0.57851E+08
 
   -0.58693E+08         0.14087E+07         0.00000E+00
    0.14087E+07        -0.49964E+08         0.00000E+00
    0.00000E+00         0.00000E+00        -0.57851E+08
 
   -0.58640E+08         0.14810E+07         0.00000E+00
    0.14810E+07        -0.49959E+08         0.00000E+00
    0.00000E+00         0.00000E+00        -0.57851E+08
 
   -0.58589E+08         0.15529E+07         0.00000E+00
    0.15529E+07        -0.49954E+08         0.00000E+00
    0.00000E+00         0.00000E+00        -0.57851E+08
 
   -0.58540E+08         0.16246E+07         0.00000E+00
    0.16246E+07        -0.49949E+08         0.00000E+00
    0.00000E+00         0.00000E+00        -0.57850E+08
 
   -0.58493E+08         0.16960E+07         0.00000E+00
    0.16960E+07        -0.49944E+08         0.00000E+00
    0.00000E+00         0.00000E+00        -0.57850E+08
 
   -0.58448E+08         0.17673E+07         0.00000E+00
    0.17673E+07        -0.49938E+08         0.00000E+00
    0.00000E+00         0.00000E+00        -0.57850E+08
 
   -0.58404E+08         0.18384E+07         0.00000E+00
    0.18384E+07        -0.49933E+08         0.00000E+00
    0.00000E+00         0.00000E+00        -0.57850E+08
 
   -0.58361E+08         0.19095E+07         0.00000E+00
    0.19095E+07        -0.49927E+08         0.00000E+00
    0.00000E+00         0.00000E+00        -0.57849E+08
 
   -0.58321E+08         0.19806E+07         0.00000E+00
    0.19806E+07        -0.49921E+08         0.00000E+00
    0.00000E+00         0.00000E+00        -0.57849E+08
 
   -0.58282E+08         0.20518E+07         0.00000E+00
    0.20518E+07        -0.49916E+08         0.00000E+00
    0.00000E+00         0.00000E+00        -0.57849E+08
 
   -0.58245E+08         0.21231E+07         0.00000E+00
    0.21231E+07        -0.49910E+08         0.00000E+00
    0.00000E+00         0.00000E+00        -0.57849E+08
 
   -0.58209E+08         0.21945E+07         0.00000E+00
    0.21945E+07        -0.49904E+08         0.00000E+00
    0.00000E+00         0.00000E+00        -0.57849E+08
 
   -0.58175E+08         0.22661E+07         0.00000E+00
    0.22661E+07        -0.49898E+08         0.00000E+00
    0.00000E+00         0.00000E+00        -0.57848E+08
 
   -0.58143E+08         0.23380E+07         0.00000E+00
    0.23380E+07        -0.49893E+08         0.00000E+00
    0.00000E+00         0.00000E+00        -0.57848E+08
 
   -0.58113E+08         0.24102E+07         0.00000E+00
    0.24102E+07        -0.49887E+08         0.00000E+00
    0.00000E+00         0.00000E+00        -0.57848E+08
 
   -0.58084E+08         0.24827E+07         0.00000E+00
    0.24827E+07        -0.49881E+08         0.00000E+00
    0.00000E+00         0.00000E+00        -0.57848E+08
 
   -0.58057E+08         0.25557E+07         0.00000E+00
    0.25557E+07        -0.49876E+08         0.00000E+00
    0.00000E+00         0.00000E+00        -0.57848E+08
 
   -0.58031E+08         0.26291E+07         0.00000E+00
    0.26291E+07        -0.49871E+08         0.00000E+00
    0.00000E+00         0.00000E+00        -0.57847E+08
 
   -0.58008E+08         0.27030E+07         0.00000E+00
    0.27030E+07        -0.49865E+08         0.00000E+00
    0.00000E+00         0.00000E+00        -0.57847E+08
 
   -0.57986E+08         0.27775E+07         0.00000E+00
    0.27775E+07        -0.49861E+08         0.00000E+00
    0.00000E+00         0.00000E+00        -0.57847E+08
 
   -0.57965E+08         0.28526E+07         0.00000E+00
    0.28526E+07        -0.49856E+08         0.00000E+00
    0.00000E+00         0.00000E+00        -0.57847E+08
 
   -0.57947E+08         0.29285E+07         0.00000E+00
    0.29285E+07        -0.49851E+08         0.00000E+00
    0.00000E+00         0.00000E+00        -0.57847E+08
 
   -0.57930E+08         0.30051E+07         0.00000E+00
    0.30051E+07        -0.49847E+08         0.00000E+00
    0.00000E+00         0.00000E+00        -0.57847E+08
 
   -0.57914E+08         0.30826E+07         0.00000E+00
    0.30826E+07        -0.49843E+08         0.00000E+00
    0.00000E+00         0.00000E+00        -0.57847E+08
 
   -0.57901E+08         0.31610E+07         0.00000E+00
    0.31610E+07        -0.49839E+08         0.00000E+00
    0.00000E+00         0.00000E+00        -0.57847E+08
 
   -0.57889E+08         0.32404E+07         0.00000E+00
    0.32404E+07        -0.49835E+08         0.00000E+00
    0.00000E+00         0.00000E+00        -0.57847E+08
 
   -0.57878E+08         0.33209E+07         0.00000E+00
    0.33209E+07        -0.49832E+08         0.00000E+00
    0.00000E+00         0.00000E+00        -0.57847E+08
 
   -0.57870E+08         0.34026E+07         0.00000E+00
    0.34026E+07        -0.49829E+08         0.00000E+00
    0.00000E+00         0.00000E+00        -0.57847E+08
 
   -0.57862E+08         0.34856E+07         0.00000E+00
    0.34856E+07        -0.49827E+08         0.00000E+00
    0.00000E+00         0.00000E+00        -0.57847E+08
 
   -0.57857E+08         0.35700E+07         0.00000E+00
    0.35700E+07        -0.49825E+08         0.00000E+00
    0.00000E+00         0.00000E+00        -0.57847E+08
 
   -0.57852E+08         0.36558E+07         0.00000E+00
    0.36558E+07        -0.49823E+08         0.00000E+00
    0.00000E+00         0.00000E+00        -0.57847E+08
 
   -0.57849E+08         0.37432E+07         0.00000E+00
    0.37432E+07        -0.49822E+08         0.00000E+00
    0.00000E+00         0.00000E+00        -0.57847E+08
 
   -0.57847E+08         0.38322E+07         0.00000E+00
    0.38322E+07        -0.49822E+08         0.00000E+00
    0.00000E+00         0.00000E+00        -0.57847E+08
 
   -0.59365E+08         0.47940E+05         0.00000E+00
    0.47940E+05        -0.50000E+08         0.00000E+00
    0.00000E+00         0.00000E+00        -0.57401E+08
 
   -0.59297E+08         0.13900E+06         0.00000E+00
    0.13900E+06        -0.50000E+08         0.00000E+00
    0.00000E+00         0.00000E+00        -0.57401E+08
 
   -0.59229E+08         0.22840E+06         0.00000E+00
    0.22840E+06        -0.50000E+08         0.00000E+00
    0.00000E+00         0.00000E+00        -0.57401E+08
 
   -0.59162E+08         0.31622E+06         0.00000E+00
    0.31622E+06        -0.50001E+08         0.00000E+00
    0.00000E+00         0.00000E+00        -0.57401E+08
 
   -0.59095E+08         0.40255E+06         0.00000E+00
    0.40255E+06        -0.50001E+08         0.00000E+00
    0.00000E+00         0.00000E+00        -0.57401E+08
 
   -0.59030E+08         0.48746E+06         0.00000E+00
    0.48746E+06        -0.50001E+08         0.00000E+00
    0.00000E+00         0.00000E+00        -0.57401E+08
 
   -0.58965E+08         0.57103E+06         0.00000E+00
    0.57103E+06        -0.50002E+08         0.00000E+00
    0.00000E+00         0.00000E+00        -0.57401E+08
 
   -0.58901E+08         0.65333E+06         0.00000E+00
    0.65333E+06        -0.50002E+08         0.00000E+00
    0.00000E+00         0.00000E+00        -0.57401E+08
 
   -0.58838E+08         0.73444E+06         0.00000E+00
    0.73444E+06        -0.50002E+08         0.00000E+00
    0.00000E+00         0.00000E+00        -0.57401E+08
 
   -0.58777E+08         0.81444E+06         0.00000E+00
    0.81444E+06        -0.50002E+08         0.00000E+00
    0.00000E+00         0.00000E+00        -0.57401E+08
 
   -0.58716E+08         0.89341E+06         0.00000E+00
    0.89341E+06        -0.50001E+08         0.00000E+00
    0.00000E+00         0.00000E+00        -0.57401E+08
 
   -0.58657E+08         0.97140E+06         0.00000E+00
    0.97140E+06        -0.50001E+08         0.00000E+00
    0.00000E+00         0.00000E+00        -0.57401E+08
 
   -0.58599E+08         0.10485E+07         0.00000E+00
    0.10485E+07        -0.50000E+08         0.00000E+00
    0.00000E+00         0.00000E+00        -0.57401E+08
 
   -0.58542E+08         0.11248E+07         0.00000E+00
    0.11248E+07        -0.50000E+08         0.00000E+00
    0.00000E+00         0.00000E+00        -0.57401E+08
 
   -0.58486E+08         0.12003E+07         0.00000E+00
    0.12003E+07        -0.49999E+08         0.00000E+00
    0.00000E+00         0.00000E+00        -0.57401E+08
 
   -0.58432E+08         0.12752E+07         0.00000E+00
    0.12752E+07        -0.49998E+08         0.00000E+00
    0.00000E+00         0.00000E+00        -0.57401E+08
 
   -0.58379E+08         0.13494E+07         0.00000E+00
    0.13494E+07        -0.49997E+08         0.00000E+00
    0.00000E+00         0.00000E+00        -0.57401E+08
 
   -0.58327E+08         0.14230E+07         0.00000E+00
    0.14230E+07        -0.49996E+08         0.00000E+00
    0.00000E+00         0.00000E+00        -0.57401E+08
 
   -0.58277E+08         0.14962E+07         0.00000E+00
    0.14962E+07        -0.49994E+08         0.00000E+00
    0.00000E+00         0.00000E+00        -0.57401E+08
 
   -0.58228E+08         0.15689E+07         0.00000E+00
    0.15689E+07        -0.49993E+08         0.00000E+00
    0.00000E+00         0.00000E+00        -0.57401E+08
 
   -0.58181E+08         0.16413E+07         0.00000E+00
    0.16413E+07        -0.49991E+08         0.00000E+00
    0.00000E+00         0.00000E+00        -0.57401E+08
 
   -0.58135E+08         0.17133E+07         0.00000E+00
    0.17133E+07        -0.49989E+08         0.00000E+00
    0.00000E+00         0.00000E+00        -0.57401E+08
 
   -0.58090E+08         0.17851E+07         0.00000E+00
    0.17851E+07        -0.49988E+08         0.00000E+00
    0.00000E+00         0.00000E+00        -0.57401E+08
 
   -0.58047E+08         0.18567E+07         0.00000E+00
    0.18567E+07        -0.49986E+08         0.00000E+00
    0.00000E+00         0.00000E+00        -0.57401E+08
 
   -0.58005E+08         0.19281E+07         0.00000E+00
    0.19281E+07        -0.49984E+08         0.00000E+00
    0.00000E+00         0.00000E+00        -0.57401E+08
 
   -0.57965E+08         0.19994E+07         0.00000E+00
    0.19994E+07        -0.49982E+08         0.00000E+00
    0.00000E+00         0.00000E+00        -0.57401E+08
 
   -0.57926E+08         0.20706E+07         0.00000E+00
    0.20706E+07        -0.49980E+08         0.00000E+00
    0.00000E+00         0.00000E+00        -0.57401E+08
 
   -0.57888E+08         0.21419E+07         0.00000E+00
    0.21419E+07        -0.49978E+08         0.00000E+00
    0.00000E+00         0.00000E+00        -0.57400E+08
 
   -0.57852E+08         0.22132E+07         0.00000E+00
    0.22132E+07        -0.49976E+08         0.00000E+00
    0.00000E+00         0.00000E+00        -0.57400E+08
 
   -0.57817E+08         0.22846E+07         0.00000E+00
    0.22846E+07        -0.49974E+08         0.00000E+00
    0.00000E+00         0.00000E+00        -0.57400E+08
 
   -0.57784E+08         0.23562E+07         0.00000E+00
    0.23562E+07        -0.49973E+08         0.00000E+00
    0.00000E+00         0.00000E+00        -0.57400E+08
 
   -0.57752E+08         0.24279E+07         0.00000E+00
    0.24279E+07        -0.49971E+08         0.00000E+00
    0.00000E+00         0.00000E+00        -0.57400E+08
 
   -0.57721E+08         0.25000E+07         0.00000E+00
    0.25000E+07        -0.49969E+08         0.00000E+00
    0.00000E+00         0.00000E+00        -0.57400E+08
 
   -0.57692E+08         0.25723E+07         0.00000E+00
    0.25723E+07        -0.49968E+08         0.00000E+00
    0.00000E+00         0.00000E+00        -0.57400E+08
 
   -0.57665E+08         0.26450E+07         0.00000E+00
    0.26450E+07        -0.49966E+08         0.00000E+00
    0.00000E+00         0.00000E+00        -0.57400E+08
 
   -0.57638E+08         0.27182E+07         0.00000E+00
    0.27182E+07        -0.49965E+08         0.00000E+00
    0.00000E+00         0.00000E+00        -0.57401E+08
 
   -0.57613E+08         0.27918E+07         0.00000E+00
    0.27918E+07        -0.49964E+08         0.00000E+00
    0.00000E+00         0.00000E+00        -0.57401E+08
 
   -0.57590E+08         0.28660E+07         0.00000E+00
    0.28660E+07        -0.49963E+08         0.00000E+00
    0.00000E+00         0.00000E+00        -0.57401E+08
 
   -0.57568E+08         0.29407E+07         0.00000E+00
    0.29407E+07        -0.49963E+08         0.00000E+00
    0.00000E+00         0.00000E+00        -0.57401E+08
 
   -0.57547E+08         0.30162E+07         0.00000E+00
    0.30162E+07        -0.49962E+08         0.00000E+00
    0.00000E+00         0.00000E+00        -0.57401E+08
 
   -0.57528E+08         0.30924E+07         0.00000E+00
    0.30924E+07        -0.49962E+08         0.00000E+00
    0.00000E+00         0.00000E+00        -0.57401E+08
 
   -0.57510E+08         0.31693E+07         0.00000E+00
    0.31693E+07        -0.49962E+08         0.00000E+00
    0.00000E+00         0.00000E+00        -0.57401E+08
 
   -0.57493E+08         0.32472E+07         0.00000E+00
    0.32472E+07        -0.49962E+08         0.00000E+00
    0.00000E+00         0.00000E+00        -0.57401E+08
 
   -0.57477E+08         0.33259E+07         0.00000E+00
    0.33259E+07        -0.49963E+08         0.00000E+00
    0.00000E+00         0.00000E+00        -0.57401E+08
 
   -0.57463E+08         0.34057E+07         0.00000E+00
    0.34057E+07        -0.49964E+08         0.00000E+00
    0.00000E+00         0.00000E+00        -0.57401E+08
 
   -0.57449E+08         0.34866E+07         0.00000E+00
    0.34866E+07        -0.49966E+08         0.00000E+00
    0.00000E+00         0.00000E+00        -0.57401E+08
 
   -0.57437E+08         0.35686E+07         0.00000E+00
    0.35686E+07        -0.49968E+08         0.00000E+00
    0.00000E+00         0.00000E+00        -0.57401E+08
 
   -0.57426E+08         0.36518E+07         0.00000E+00
    0.36518E+07        -0.49970E+08         0.00000E+00
    0.00000E+00         0.00000E+00        -0.57401E+08
 
   -0.57415E+08         0.37363E+07         0.00000E+00
    0.37363E+07        -0.49973E+08         0.00000E+00
    0.00000E+00         0.00000E+00        -0.57401E+08
 
   -0.57406E+08         0.38222E+07         0.00000E+00
    0.38222E+07        -0.49977E+08         0.00000E+00
    0.00000E+00         0.00000E+00        -0.57401E+08
 
   -0.58908E+08         0.47098E+05         0.00000E+00
    0.47098E+05        -0.50000E+08         0.00000E+00
    0.00000E+00         0.00000E+00        -0.56968E+08
 
   -0.58848E+08         0.13721E+06         0.00000E+00
    0.13721E+06        -0.50000E+08         0.00000E+00
    0.00000E+00         0.00000E+00        -0.56968E+08
 
   -0.58787E+08         0.22589E+06         0.00000E+00
    0.22589E+06        -0.50001E+08         0.00000E+00
    0.00000E+00         0.00000E+00        -0.56968E+08
 
   -0.58727E+08         0.31321E+06         0.00000E+00
    0.31321E+06        -0.50002E+08         0.00000E+00
    0.00000E+00         0.00000E+00        -0.56968E+08
 
   -0.58667E+08         0.39921E+06         0.00000E+00
    0.39921E+06        -0.50003E+08         0.00000E+00
    0.00000E+00         0.00000E+00        -0.56968E+08
 
   -0.58608E+08         0.48395E+06         0.00000E+00
    0.48395E+06        -0.50004E+08         0.00000E+00
    0.00000E+00         0.00000E+00        -0.56968E+08
 
   -0.58550E+08         0.56748E+06         0.00000E+00
    0.56748E+06        -0.50005E+08         0.00000E+00
    0.00000E+00         0.00000E+00        -0.56968E+08
 
   -0.58492E+08         0.64987E+06         0.00000E+00
    0.64987E+06        -0.50006E+08         0.00000E+00
    0.00000E+00         0.00000E+00        -0.56969E+08
 
   -0.58435E+08         0.73117E+06         0.00000E+00
    0.73117E+06        -0.50007E+08         0.00000E+00
    0.00000E+00         0.00000E+00        -0.56969E+08
 
   -0.58378E+08         0.81145E+06         0.00000E+00
    0.81145E+06        -0.50009E+08         0.00000E+00
    0.00000E+00         0.00000E+00        -0.56969E+08
 
   -0.58323E+08         0.89074E+06         0.00000E+00
    0.89074E+06        -0.50010E+08         0.00000E+00
    0.00000E+00         0.00000E+00        -0.56969E+08
 
   -0.58268E+08         0.96913E+06         0.00000E+00
    0.96913E+06        -0.50011E+08         0.00000E+00
    0.00000E+00         0.00000E+00        -0.56969E+08
 
   -0.58214E+08         0.10466E+07         0.00000E+00
    0.10466E+07        -0.50012E+08         0.00000E+00
    0.00000E+00         0.00000E+00        -0.56969E+08
 
   -0.58161E+08         0.11234E+07         0.00000E+00
    0.11234E+07        -0.50014E+08         0.00000E+00
    0.00000E+00         0.00000E+00        -0.56969E+08
 
   -0.58109E+08         0.11993E+07         0.00000E+00
    0.11993E+07        -0.50015E+08         0.00000E+00
    0.00000E+00         0.00000E+00        -0.56969E+08
 
   -0.58058E+08         0.12746E+07         0.00000E+00
    0.12746E+07        -0.50016E+08         0.00000E+00
    0.00000E+00         0.00000E+00        -0.56969E+08
 
   -0.58008E+08         0.13493E+07         0.00000E+00
    0.13493E+07        -0.50017E+08         0.00000E+00
    0.00000E+00         0.00000E+00        -0.56969E+08
 
   -0.57959E+08         0.14234E+07         0.00000E+00
    0.14234E+07        -0.50018E+08         0.00000E+00
    0.00000E+00         0.00000E+00        -0.56969E+08
 
   -0.57911E+08         0.14969E+07         0.00000E+00
    0.14969E+07        -0.50019E+08         0.00000E+00
    0.00000E+00         0.00000E+00        -0.56969E+08
 
   -0.57865E+08         0.15700E+07         0.00000E+00
    0.15700E+07        -0.50020E+08         0.00000E+00
    0.00000E+00         0.00000E+00        -0.56969E+08
 
   -0.57819E+08         0.16426E+07         0.00000E+00
    0.16426E+07        -0.50021E+08         0.00000E+00
    0.00000E+00         0.00000E+00        -0.56970E+08
 
   -0.57775E+08         0.17149E+07         0.00000E+00
    0.17149E+07        -0.50022E+08         0.00000E+00
    0.00000E+00         0.00000E+00        -0.56970E+08
 
   -0.57731E+08         0.17869E+07         0.00000E+00
    0.17869E+07        -0.50023E+08         0.00000E+00
    0.00000E+00         0.00000E+00        -0.56970E+08
 
   -0.57689E+08         0.18586E+07         0.00000E+00
    0.18586E+07        -0.50024E+08         0.00000E+00
    0.00000E+00         0.00000E+00        -0.56970E+08
 
   -0.57648E+08         0.19300E+07         0.00000E+00
    0.19300E+07        -0.50025E+08         0.00000E+00
    0.00000E+00         0.00000E+00        -0.56970E+08
 
   -0.57608E+08         0.20013E+07         0.00000E+00
    0.20013E+07        -0.50026E+08         0.00000E+00
    0.00000E+00         0.00000E+00        -0.56970E+08
 
   -0.57569E+08         0.20725E+07         0.00000E+00
    0.20725E+07        -0.50027E+08         0.00000E+00
    0.00000E+00         0.00000E+00        -0.56970E+08
 
   -0.57532E+08         0.21436E+07         0.00000E+00
    0.21436E+07        -0.50028E+08         0.00000E+00
    0.00000E+00         0.00000E+00        -0.56970E+08
 
   -0.57495E+08         0.22147E+07         0.00000E+00
    0.22147E+07        -0.50029E+08         0.00000E+00
    0.00000E+00         0.00000E+00        -0.56970E+08
 
   -0.57460E+08         0.22858E+07         0.00000E+00
    0.22858E+07        -0.50030E+08         0.00000E+00
    0.00000E+00         0.00000E+00        -0.56971E+08
 
   -0.57426E+08         0.23570E+07         0.00000E+00
    0.23570E+07        -0.50032E+08         0.00000E+00
    0.00000E+00         0.00000E+00        -0.56971E+08
 
   -0.57393E+08         0.24284E+07         0.00000E+00
    0.24284E+07        -0.50033E+08         0.00000E+00
    0.00000E+00         0.00000E+00        -0.56971E+08
 
   -0.57362E+08         0.24999E+07         0.00000E+00
    0.24999E+07        -0.50034E+08         0.00000E+00
    0.00000E+00         0.00000E+00        -0.56971E+08
 
   -0.57331E+08         0.25716E+07         0.00000E+00
    0.25716E+07        -0.50036E+08         0.00000E+00
    0.00000E+00         0.00000E+00        -0.56971E+08
 
   -0.57302E+08         0.26436E+07         0.00000E+00
    0.26436E+07        -0.50038E+08         0.00000E+00
    0.00000E+00         0.00000E+00        -0.56971E+08
 
   -0.57273E+08         0.27159E+07         0.00000E+00
    0.27159E+07        -0.50039E+08         0.00000E+00
    0.00000E+00         0.00000E+00        -0.56971E+08
 
   -0.57246E+08         0.27886E+07         0.00000E+00
    0.27886E+07        -0.50041E+08         0.00000E+00
    0.00000E+00         0.00000E+00        -0.56972E+08
 
   -0.57220E+08         0.28618E+07         0.00000E+00
    0.28618E+07        -0.50044E+08         0.00000E+00
    0.00000E+00         0.00000E+00        -0.56972E+08
 
   -0.57195E+08         0.29354E+07         0.00000E+00
    0.29354E+07        -0.50046E+08         0.00000E+00
    0.00000E+00         0.00000E+00        -0.56972E+08
 
   -0.57171E+08         0.30096E+07         0.00000E+00
    0.30096E+07        -0.50049E+08         0.00000E+00
    0.00000E+00         0.00000E+00        -0.56972E+08
 
   -0.57148E+08         0.30844E+07         0.00000E+00
    0.30844E+07        -0.50052E+08         0.00000E+00
    0.00000E+00         0.00000E+00        -0.56972E+08
 
   -0.57126E+08         0.31598E+07         0.00000E+00
    0.31598E+07        -0.50055E+08         0.00000E+00
    0.00000E+00         0.00000E+00        -0.56972E+08
 
   -0.57105E+08         0.32360E+07         0.00000E+00
    0.32360E+07        -0.50059E+08         0.00000E+00
    0.00000E+00         0.00000E+00        -0.56973E+08
 
   -0.57085E+08         0.33129E+07         0.00000E+00
    0.33129E+07        -0.50063E+08         0.00000E+00
    0.00000E+00         0.00000E+00        -0.56973E+08
 
   -0.57066E+08         0.33907E+07         0.00000E+00
    0.33907E+07        -0.50067E+08         0.00000E+00
    0.00000E+00         0.00000E+00        -0.56973E+08
 
   -0.57048E+08         0.34693E+07         0.00000E+00
    0.34693E+07        -0.50072E+08         0.00000E+00
    0.00000E+00         0.00000E+00        -0.56973E+08
 
   -0.57030E+08         0.35489E+07         0.00000E+00
    0.35489E+07        -0.50077E+08         0.00000E+00
    0.00000E+00         0.00000E+00        -0.56973E+08
 
   -0.57013E+08         0.36295E+07         0.00000E+00
    0.36295E+07        -0.50083E+08         0.00000E+00
    0.00000E+00         0.00000E+00        -0.56973E+08
 
   -0.56997E+08         0.37111E+07         0.00000E+00
    0.37111E+07        -0.50089E+08         0.00000E+00
    0.00000E+00         0.00000E+00        -0.56973E+08
 
   -0.56981E+08         0.37938E+07         0.00000E+00
    0.37938E+07        -0.50096E+08         0.00000E+00
    0.00000E+00         0.00000E+00        -0.56973E+08
 
   -0.58458E+08         0.45994E+05         0.00000E+00
    0.45994E+05        -0.50000E+08         0.00000E+00
    0.00000E+00         0.00000E+00        -0.56554E+08
 
   -0.58404E+08         0.13455E+06         0.00000E+00
    0.13455E+06        -0.50001E+08         0.00000E+00
    0.00000E+00         0.00000E+00        -0.56554E+08
 
   -0.58350E+08         0.22188E+06         0.00000E+00
    0.22188E+06        -0.50001E+08         0.00000E+00
    0.00000E+00         0.00000E+00        -0.56554E+08
 
   -0.58296E+08         0.30805E+06         0.00000E+00
    0.30805E+06        -0.50002E+08         0.00000E+00
    0.00000E+00         0.00000E+00        -0.56554E+08
 
   -0.58243E+08         0.39307E+06         0.00000E+00
    0.39307E+06        -0.50004E+08         0.00000E+00
    0.00000E+00         0.00000E+00        -0.56554E+08
 
   -0.58189E+08         0.47699E+06         0.00000E+00
    0.47699E+06        -0.50005E+08         0.00000E+00
    0.00000E+00         0.00000E+00        -0.56554E+08
 
   -0.58136E+08         0.55985E+06         0.00000E+00
    0.55985E+06        -0.50007E+08         0.00000E+00
    0.00000E+00         0.00000E+00        -0.56554E+08
 
   -0.58084E+08         0.64168E+06         0.00000E+00
    0.64168E+06        -0.50009E+08         0.00000E+00
    0.00000E+00         0.00000E+00        -0.56554E+08
 
   -0.58031E+08         0.72254E+06         0.00000E+00
    0.72254E+06        -0.50011E+08         0.00000E+00
    0.00000E+00         0.00000E+00        -0.56554E+08
 
   -0.57980E+08         0.80246E+06         0.00000E+00
    0.80246E+06        -0.50013E+08         0.00000E+00
    0.00000E+00         0.00000E+00        -0.56554E+08
 
   -0.57929E+08         0.88149E+06         0.00000E+00
    0.88149E+06        -0.50015E+08         0.00000E+00
    0.00000E+00         0.00000E+00        -0.56555E+08
 
   -0.57878E+08         0.95968E+06         0.00000E+00
    0.95968E+06        -0.50018E+08         0.00000E+00
    0.00000E+00         0.00000E+00        -0.56555E+08
 
   -0.57828E+08         0.10371E+07         0.00000E+00
    0.10371E+07        -0.50020E+08         0.00000E+00
    0.00000E+00         0.00000E+00        -0.56555E+08
 
   -0.57779E+08         0.11137E+07         0.00000E+00
    0.11137E+07        -0.50023E+08         0.00000E+00
    0.00000E+00         0.00000E+00        -0.56555E+08
 
   -0.57731E+08         0.11896E+07         0.00000E+00
    0.11896E+07        -0.50025E+08         0.00000E+00
    0.00000E+00         0.00000E+00        -0.56555E+08
 
   -0.57683E+08         0.12648E+07         0.00000E+00
    0.12648E+07        -0.50028E+08         0.00000E+00
    0.00000E+00         0.00000E+00        -0.56555E+08
 
   -0.57636E+08         0.13395E+07         0.00000E+00
    0.13395E+07        -0.50031E+08         0.00000E+00
    0.00000E+00         0.00000E+00        -0.56556E+08
 
   -0.57590E+08         0.14135E+07         0.00000E+00
    0.14135E+07        -0.50033E+08         0.00000E+00
    0.00000E+00         0.00000E+00        -0.56556E+08
 
   -0.57545E+08         0.14871E+07         0.00000E+00
    0.14871E+07        -0.50036E+08         0.00000E+00
    0.00000E+00         0.00000E+00        -0.56556E+08
 
   -0.57500E+08         0.15601E+07         0.00000E+00
    0.15601E+07        -0.50039E+08         0.00000E+00
    0.00000E+00         0.00000E+00        -0.56556E+08
 
   -0.57457E+08         0.16327E+07         0.00000E+00
    0.16327E+07        -0.50042E+08         0.00000E+00
    0.00000E+00         0.00000E+00        -0.56556E+08
 
   -0.57414E+08         0.17049E+07         0.00000E+00
    0.17049E+07        -0.50045E+08         0.00000E+00
    0.00000E+00         0.00000E+00        -0.56557E+08
 
   -0.57372E+08         0.17768E+07         0.00000E+00
    0.17768E+07        -0.50048E+08         0.00000E+00
    0.00000E+00         0.00000E+00        -0.56557E+08
 
   -0.57331E+08         0.18483E+07         0.00000E+00
    0.18483E+07        -0.50051E+08         0.00000E+00
    0.00000E+00         0.00000E+00        -0.56557E+08
 
   -0.57291E+08         0.19196E+07         0.00000E+00
    0.19196E+07        -0.50054E+08         0.00000E+00
    0.00000E+00         0.00000E+00        -0.56557E+08
 
   -0.57252E+08         0.19907E+07         0.00000E+00
    0.19907E+07        -0.50057E+08         0.00000E+00
    0.00000E+00         0.00000E+00        -0.56557E+08
 
   -0.57214E+08         0.20616E+07         0.00000E+00
    0.20616E+07        -0.50060E+08         0.00000E+00
    0.00000E+00         0.00000E+00        -0.56558E+08
 
   -0.57177E+08         0.21324E+07         0.00000E+00
    0.21324E+07        -0.50063E+08         0.00000E+00
    0.00000E+00         0.00000E+00        -0.56558E+08
 
   -0.57141E+08         0.22031E+07         0.00000E+00
    0.22031E+07        -0.50067E+08         0.00000E+00
    0.00000E+00         0.00000E+00        -0.56558E+08
 
   -0.57105E+08         0.22738E+07         0.00000E+00
    0.22738E+07        -0.50070E+08         0.00000E+00
    0.00000E+00         0.00000E+00        -0.56558E+08
 
   -0.57071E+08         0.23445E+07         0.00000E+00
    0.23445E+07        -0.50074E+08         0.00000E+00
    0.00000E+00         0.00000E+00        -0.56559E+08
 
   -0.57038E+08         0.24153E+07         0.00000E+00
    0.24153E+07        -0.50078E+08         0.00000E+00
    0.00000E+00         0.00000E+00        -0.56559E+08
 
   -0.57005E+08         0.24861E+07         0.00000E+00
    0.24861E+07        -0.50081E+08         0.00000E+00
    0.00000E+00         0.00000E+00        -0.56559E+08
 
   -0.56973E+08         0.25571E+07         0.00000E+00
    0.25571E+07        -0.50085E+08         0.00000E+00
    0.00000E+00         0.00000E+00        -0.56559E+08
 
   -0.56943E+08         0.26283E+07         0.00000E+00
    0.26283E+07        -0.50090E+08         0.00000E+00
    0.00000E+00         0.00000E+00        -0.56560E+08
 
   -0.56913E+08         0.26997E+07         0.00000E+00
    0.26997E+07        -0.50094E+08         0.00000E+00
    0.00000E+00         0.00000E+00        -0.56560E+08
 
   -0.56884E+08         0.27714E+07         0.00000E+00
    0.27714E+07        -0.50098E+08         0.00000E+00
    0.00000E+00         0.00000E+00        -0.56560E+08
 
   -0.56856E+08         0.28434E+07         0.00000E+00
    0.28434E+07        -0.50103E+08         0.00000E+00
    0.00000E+00         0.00000E+00        -0.56560E+08
 
   -0.56829E+08         0.29159E+07         0.00000E+00
    0.29159E+07        -0.50108E+08         0.00000E+00
    0.00000E+00         0.00000E+00        -0.56560E+08
 
   -0.56802E+08         0.29887E+07         0.00000E+00
    0.29887E+07        -0.50113E+08         0.00000E+00
    0.00000E+00         0.00000E+00        -0.56561E+08
 
   -0.56776E+08         0.30620E+07         0.00000E+00
    0.30620E+07        -0.50119E+08         0.00000E+00
    0.00000E+00         0.00000E+00        -0.56561E+08
 
   -0.56751E+08         0.31359E+07         0.00000E+00
    0.31359E+07        -0.50125E+08         0.00000E+00
    0.00000E+00         0.00000E+00        -0.56561E+08
 
   -0.56727E+08         0.32103E+07         0.00000E+00
    0.32103E+07        -0.50131E+08         0.00000E+00
    0.00000E+00         0.00000E+00        -0.56561E+08
 
   -0.56703E+08         0.32853E+07         0.00000E+00
    0.32853E+07        -0.50138E+08         0.00000E+00
    0.00000E+00         0.00000E+00        -0.56561E+08
 
   -0.56680E+08         0.33609E+07         0.00000E+00
    0.33609E+07        -0.50145E+08         0.00000E+00
    0.00000E+00         0.00000E+00        -0.56562E+08
 
   -0.56658E+08         0.34373E+07         0.00000E+00
    0.34373E+07        -0.50152E+08         0.00000E+00
    0.00000E+00         0.00000E+00        -0.56562E+08
 
   -0.56636E+08         0.35144E+07         0.00000E+00
    0.35144E+07        -0.50160E+08         0.00000E+00
    0.00000E+00         0.00000E+00        -0.56562E+08
 
   -0.56614E+08         0.35923E+07         0.00000E+00
    0.35923E+07        -0.50169E+08         0.00000E+00
    0.00000E+00         0.00000E+00        -0.56562E+08
 
   -0.56593E+08         0.36711E+07         0.00000E+00
    0.36711E+07        -0.50178E+08         0.00000E+00
    0.00000E+00         0.00000E+00        -0.56562E+08
 
   -0.56572E+08         0.37507E+07         0.00000E+00
    0.37507E+07        -0.50187E+08         0.00000E+00
    0.00000E+00         0.00000E+00        -0.56562E+08
 
   -0.58017E+08         0.44761E+05         0.00000E+00
    0.44761E+05        -0.50000E+08         0.00000E+00
    0.00000E+00         0.00000E+00        -0.56157E+08
 
   -0.57969E+08         0.13140E+06         0.00000E+00
    0.13140E+06        -0.50001E+08         0.00000E+00
    0.00000E+00         0.00000E+00        -0.56157E+08
 
   -0.57920E+08         0.21701E+06         0.00000E+00
    0.21701E+06        -0.50001E+08         0.00000E+00
    0.00000E+00         0.00000E+00        -0.56157E+08
 
   -0.57872E+08         0.30161E+06         0.00000E+00
    0.30161E+06        -0.50003E+08         0.00000E+00
    0.00000E+00         0.00000E+00        -0.56157E+08
 
   -0.57823E+08         0.38523E+06         0.00000E+00
    0.38523E+06        -0.50004E+08         0.00000E+00
    0.00000E+00         0.00000E+00        -0.56157E+08
 
   -0.57775E+08         0.46789E+06         0.00000E+00
    0.46789E+06        -0.50006E+08         0.00000E+00
    0.00000E+00         0.00000E+00        -0.56157E+08
 
   -0.57727E+08         0.54963E+06         0.00000E+00
    0.54963E+06        -0.50008E+08         0.00000E+00
    0.00000E+00         0.00000E+00        -0.56157E+08
 
   -0.57679E+08         0.63046E+06         0.00000E+00
    0.63046E+06        -0.50010E+08         0.00000E+00
    0.00000E+00         0.00000E+00        -0.56157E+08
 
   -0.57631E+08         0.71043E+06         0.00000E+00
    0.71043E+06        -0.50013E+08         0.00000E+00
    0.00000E+00         0.00000E+00        -0.56157E+08
 
   -0.57584E+08         0.78955E+06         0.00000E+00
    0.78955E+06        -0.50016E+08         0.00000E+00
    0.00000E+00         0.00000E+00        -0.56158E+08
 
   -0.57537E+08         0.86787E+06         0.00000E+00
    0.86787E+06        -0.50019E+08         0.00000E+00
    0.00000E+00         0.00000E+00        -0.56158E+08
 
   -0.57491E+08         0.94542E+06         0.00000E+00
    0.94542E+06        -0.50022E+08         0.00000E+00
    0.00000E+00         0.00000E+00        -0.56158E+08
 
   -0.57444E+08         0.10222E+07         0.00000E+00
    0.10222E+07        -0.50025E+08         0.00000E+00
    0.00000E+00         0.00000E+00        -0.56158E+08
 
   -0.57399E+08         0.10984E+07         0.00000E+00
    0.10984E+07        -0.50029E+08         0.00000E+00
    0.00000E+00         0.00000E+00        -0.56158E+08
 
   -0.57354E+08         0.11738E+07         0.00000E+00
    0.11738E+07        -0.50032E+08         0.00000E+00
    0.00000E+00         0.00000E+00        -0.56159E+08
 
   -0.57309E+08         0.12486E+07         0.00000E+00
    0.12486E+07        -0.50036E+08         0.00000E+00
    0.00000E+00         0.00000E+00        -0.56159E+08
 
   -0.57265E+08         0.13229E+07         0.00000E+00
    0.13229E+07        -0.50040E+08         0.00000E+00
    0.00000E+00         0.00000E+00        -0.56159E+08
 
   -0.57222E+08         0.13965E+07         0.00000E+00
    0.13965E+07        -0.50043E+08         0.00000E+00
    0.00000E+00         0.00000E+00        -0.56159E+08
 
   -0.57179E+08         0.14697E+07         0.00000E+00
    0.14697E+07        -0.50047E+08         0.00000E+00
    0.00000E+00         0.00000E+00        -0.56160E+08
 
   -0.57137E+08         0.15424E+07         0.00000E+00
    0.15424E+07        -0.50052E+08         0.00000E+00
    0.00000E+00         0.00000E+00        -0.56160E+08
 
   -0.57095E+08         0.16147E+07         0.00000E+00
    0.16147E+07        -0.50056E+08         0.00000E+00
    0.00000E+00         0.00000E+00        -0.56160E+08
 
   -0.57054E+08         0.16865E+07         0.00000E+00
    0.16865E+07        -0.50060E+08         0.00000E+00
    0.00000E+00         0.00000E+00        -0.56161E+08
 
   -0.57014E+08         0.17580E+07         0.00000E+00
    0.17580E+07        -0.50064E+08         0.00000E+00
    0.00000E+00         0.00000E+00        -0.56161E+08
 
   -0.56975E+08         0.18292E+07         0.00000E+00
    0.18292E+07        -0.50069E+08         0.00000E+00
    0.00000E+00         0.00000E+00        -0.56161E+08
 
   -0.56936E+08         0.19001E+07         0.00000E+00
    0.19001E+07        -0.50074E+08         0.00000E+00
    0.00000E+00         0.00000E+00        -0.56161E+08
 
   -0.56898E+08         0.19707E+07         0.00000E+00
    0.19707E+07        -0.50078E+08         0.00000E+00
    0.00000E+00         0.00000E+00        -0.56162E+08
 
   -0.56861E+08         0.20412E+07         0.00000E+00
    0.20412E+07        -0.50083E+08         0.00000E+00
    0.00000E+00         0.00000E+00        -0.56162E+08
 
   -0.56824E+08         0.21114E+07         0.00000E+00
    0.21114E+07        -0.50088E+08         0.00000E+00
    0.00000E+00         0.00000E+00        -0.56162E+08
 
   -0.56788E+08         0.21816E+07         0.00000E+00
    0.21816E+07        -0.50093E+08         0.00000E+00
    0.00000E+00         0.00000E+00        -0.56163E+08
 
   -0.56753E+08         0.22517E+07         0.00000E+00
    0.22517E+07        -0.50098E+08         0.00000E+00
    0.00000E+00         0.00000E+00        -0.56163E+08
 
   -0.56719E+08         0.23217E+07         0.00000E+00
    0.23217E+07        -0.50104E+08         0.00000E+00
    0.00000E+00         0.00000E+00        -0.56163E+08
 
   -0.56685E+08         0.23917E+07         0.00000E+00
    0.23917E+07        -0.50109E+08         0.00000E+00
    0.00000E+00         0.00000E+00        -0.56164E+08
 
   -0.56652E+08         0.24617E+07         0.00000E+00
    0.24617E+07        -0.50115E+08         0.00000E+00
    0.00000E+00         0.00000E+00        -0.56164E+08
 
   -0.56620E+08         0.25319E+07         0.00000E+00
    0.25319E+07        -0.50121E+08         0.00000E+00
    0.00000E+00         0.00000E+00        -0.56164E+08
 
   -0.56588E+08         0.26021E+07         0.00000E+00
    0.26021E+07        -0.50127E+08         0.00000E+00
    0.00000E+00         0.00000E+00        -0.56164E+08
 
   -0.56558E+08         0.26725E+07         0.00000E+00
    0.26725E+07        -0.50133E+08         0.00000E+00
    0.00000E+00         0.00000E+00        -0.56165E+08
 
   -0.56527E+08         0.27431E+07         0.00000E+00
    0.27431E+07        -0.50139E+08         0.00000E+00
    0.00000E+00         0.00000E+00        -0.56165E+08
 
   -0.56498E+08         0.28139E+07         0.00000E+00
    0.28139E+07        -0.50146E+08         0.00000E+00
    0.00000E+00         0.00000E+00        -0.56165E+08
 
   -0.56469E+08         0.28850E+07         0.00000E+00
    0.28850E+07        -0.50153E+08         0.00000E+00
    0.00000E+00         0.00000E+00        -0.56166E+08
 
   -0.56440E+08         0.29564E+07         0.00000E+00
    0.29564E+07        -0.50160E+08         0.00000E+00
    0.00000E+00         0.00000E+00        -0.56166E+08
 
   -0.56412E+08         0.30281E+07         0.00000E+00
    0.30281E+07        -0.50168E+08         0.00000E+00
    0.00000E+00         0.00000E+00        -0.56166E+08
 
   -0.56385E+08         0.31003E+07         0.00000E+00
    0.31003E+07        -0.50176E+08         0.00000E+00
    0.00000E+00         0.00000E+00        -0.56166E+08
 
   -0.56358E+08         0.31728E+07         0.00000E+00
    0.31728E+07        -0.50184E+08         0.00000E+00
    0.00000E+00         0.00000E+00        -0.56167E+08
 
   -0.56332E+08         0.32459E+07         0.00000E+00
    0.32459E+07        -0.50193E+08         0.00000E+00
    0.00000E+00         0.00000E+00        -0.56167E+08
 
   -0.56306E+08         0.33194E+07         0.00000E+00
    0.33194E+07        -0.50202E+08         0.00000E+00
    0.00000E+00         0.00000E+00        -0.56167E+08
 
   -0.56280E+08         0.33935E+07         0.00000E+00
    0.33935E+07        -0.50212E+08         0.00000E+00
    0.00000E+00         0.00000E+00        -0.56167E+08
 
   -0.56254E+08         0.34681E+07         0.00000E+00
    0.34681E+07        -0.50222E+08         0.00000E+00
    0.00000E+00         0.00000E+00        -0.56167E+08
 
   -0.56229E+08         0.35434E+07         0.00000E+00
    0.35434E+07        -0.50232E+08         0.00000E+00
    0.00000E+00         0.00000E+00        -0.56167E+08
 
   -0.56204E+08         0.36193E+07         0.00000E+00
    0.36193E+07        -0.50243E+08         0.00000E+00
    0.00000E+00         0.00000E+00        -0.56167E+08
 
   -0.56180E+08         0.36958E+07         0.00000E+00
    0.36958E+07        -0.50255E+08         0.00000E+00
    0.00000E+00         0.00000E+00        -0.56167E+08
 
   -0.57587E+08         0.43486E+05         0.00000E+00
    0.43486E+05        -0.50000E+08         0.00000E+00
    0.00000E+00         0.00000E+00        -0.55777E+08
 
   -0.57543E+08         0.12803E+06         0.00000E+00
    0.12803E+06        -0.50001E+08         0.00000E+00
    0.00000E+00         0.00000E+00        -0.55777E+08
 
   -0.57499E+08         0.21169E+06         0.00000E+00
    0.21169E+06        -0.50001E+08         0.00000E+00
    0.00000E+00         0.00000E+00        -0.55777E+08
 
   -0.57456E+08         0.29450E+06         0.00000E+00
    0.29450E+06        -0.50003E+08         0.00000E+00
    0.00000E+00         0.00000E+00        -0.55777E+08
 
   -0.57412E+08         0.37646E+06         0.00000E+00
    0.37646E+06        -0.50004E+08         0.00000E+00
    0.00000E+00         0.00000E+00        -0.55777E+08
 
   -0.57368E+08         0.45759E+06         0.00000E+00
    0.45759E+06        -0.50006E+08         0.00000E+00
    0.00000E+00         0.00000E+00        -0.55777E+08
 
   -0.57324E+08         0.53791E+06         0.00000E+00
    0.53791E+06        -0.50009E+08         0.00000E+00
    0.00000E+00         0.00000E+00        -0.55777E+08
 
   -0.57280E+08         0.61744E+06         0.00000E+00
    0.61744E+06        -0.50011E+08         0.00000E+00
    0.00000E+00         0.00000E+00        -0.55777E+08
 
   -0.57236E+08         0.69620E+06         0.00000E+00
    0.69620E+06        -0.50014E+08         0.00000E+00
    0.00000E+00         0.00000E+00        -0.55778E+08
 
   -0.57193E+08         0.77422E+06         0.00000E+00
    0.77422E+06        -0.50017E+08         0.00000E+00
    0.00000E+00         0.00000E+00        -0.55778E+08
 
   -0.57150E+08         0.85151E+06         0.00000E+00
    0.85151E+06        -0.50021E+08         0.00000E+00
    0.00000E+00         0.00000E+00        -0.55778E+08
 
   -0.57107E+08         0.92811E+06         0.00000E+00
    0.92811E+06        -0.50024E+08         0.00000E+00
    0.00000E+00         0.00000E+00        -0.55778E+08
 
   -0.57064E+08         0.10040E+07         0.00000E+00
    0.10040E+07        -0.50028E+08         0.00000E+00
    0.00000E+00         0.00000E+00        -0.55779E+08
 
   -0.57022E+08         0.10793E+07         0.00000E+00
    0.10793E+07        -0.50032E+08         0.00000E+00
    0.00000E+00         0.00000E+00        -0.55779E+08
 
   -0.56980E+08         0.11540E+07         0.00000E+00
    0.11540E+07        -0.50036E+08         0.00000E+00
    0.00000E+00         0.00000E+00        -0.55779E+08
 
   -0.56938E+08         0.12281E+07         0.00000E+00
    0.12281E+07        -0.50040E+08         0.00000E+00
    0.00000E+00         0.00000E+00        -0.55779E+08
 
   -0.56897E+08         0.13016E+07         0.00000E+00
    0.13016E+07        -0.50045E+08         0.00000E+00
    0.00000E+00         0.00000E+00        -0.55780E+08
 
   -0.56856E+08         0.13747E+07         0.00000E+00
    0.13747E+07        -0.50049E+08         0.00000E+00
    0.00000E+00         0.00000E+00        -0.55780E+08
 
   -0.56816E+08         0.14472E+07         0.00000E+00
    0.14472E+07        -0.50054E+08         0.00000E+00
    0.00000E+00         0.00000E+00        -0.55780E+08
 
   -0.56776E+08         0.15193E+07         0.00000E+00
    0.15193E+07        -0.50059E+08         0.00000E+00
    0.00000E+00         0.00000E+00        -0.55781E+08
 
   -0.56736E+08         0.15909E+07         0.00000E+00
    0.15909E+07        -0.50064E+08         0.00000E+00
    0.00000E+00         0.00000E+00        -0.55781E+08
 
   -0.56697E+08         0.16622E+07         0.00000E+00
    0.16622E+07        -0.50070E+08         0.00000E+00
    0.00000E+00         0.00000E+00        -0.55781E+08
 
   -0.56659E+08         0.17330E+07         0.00000E+00
    0.17330E+07        -0.50075E+08         0.00000E+00
    0.00000E+00         0.00000E+00        -0.55782E+08
 
   -0.56621E+08         0.18036E+07         0.00000E+00
    0.18036E+07        -0.50081E+08         0.00000E+00
    0.00000E+00         0.00000E+00        -0.55782E+08
 
   -0.56584E+08         0.18739E+07         0.00000E+00
    0.18739E+07        -0.50086E+08         0.00000E+00
    0.00000E+00         0.00000E+00        -0.55782E+08
 
   -0.56547E+08         0.19438E+07         0.00000E+00
    0.19438E+07        -0.50092E+08         0.00000E+00
    0.00000E+00         0.00000E+00        -0.55783E+08
 
   -0.56511E+08         0.20136E+07         0.00000E+00
    0.20136E+07        -0.50098E+08         0.00000E+00
    0.00000E+00         0.00000E+00        -0.55783E+08
 
   -0.56475E+08         0.20832E+07         0.00000E+00
    0.20832E+07        -0.50104E+08         0.00000E+00
    0.00000E+00         0.00000E+00        -0.55783E+08
 
   -0.56440E+08         0.21526E+07         0.00000E+00
    0.21526E+07        -0.50111E+08         0.00000E+00
    0.00000E+00         0.00000E+00        -0.55784E+08
 
   -0.56405E+08         0.22219E+07         0.00000E+00
    0.22219E+07        -0.50117E+08         0.00000E+00
    0.00000E+00         0.00000E+00        -0.55784E+08
 
   -0.56371E+08         0.22911E+07         0.00000E+00
    0.22911E+07        -0.50124E+08         0.00000E+00
    0.00000E+00         0.00000E+00        -0.55784E+08
 
   -0.56337E+08         0.23602E+07         0.00000E+00
    0.23602E+07        -0.50131E+08         0.00000E+00
    0.00000E+00         0.00000E+00        -0.55785E+08
 
   -0.56304E+08         0.24293E+07         0.00000E+00
    0.24293E+07        -0.50138E+08         0.00000E+00
    0.00000E+00         0.00000E+00        -0.55785E+08
 
   -0.56272E+08         0.24984E+07         0.00000E+00
    0.24984E+07        -0.50145E+08         0.00000E+00
    0.00000E+00         0.00000E+00        -0.55785E+08
 
   -0.56240E+08         0.25675E+07         0.00000E+00
    0.25675E+07        -0.50152E+08         0.00000E+00
    0.00000E+00         0.00000E+00        -0.55786E+08
 
   -0.56208E+08         0.26368E+07         0.00000E+00
    0.26368E+07        -0.50160E+08         0.00000E+00
    0.00000E+00         0.00000E+00        -0.55786E+08
 
   -0.56177E+08         0.27061E+07         0.00000E+00
    0.27061E+07        -0.50168E+08         0.00000E+00
    0.00000E+00         0.00000E+00        -0.55786E+08
 
   -0.56146E+08         0.27756E+07         0.00000E+00
    0.27756E+07        -0.50176E+08         0.00000E+00
    0.00000E+00         0.00000E+00        -0.55787E+08
 
   -0.56116E+08         0.28452E+07         0.00000E+00
    0.28452E+07        -0.50185E+08         0.00000E+00
    0.00000E+00         0.00000E+00        -0.55787E+08
 
   -0.56086E+08         0.29151E+07         0.00000E+00
    0.29151E+07        -0.50194E+08         0.00000E+00
    0.00000E+00         0.00000E+00        -0.55787E+08
 
   -0.56057E+08         0.29852E+07         0.00000E+00
    0.29852E+07        -0.50203E+08         0.00000E+00
    0.00000E+00         0.00000E+00        -0.55787E+08
 
   -0.56028E+08         0.30556E+07         0.00000E+00
    0.30556E+07        -0.50212E+08         0.00000E+00
    0.00000E+00         0.00000E+00        -0.55788E+08
 
   -0.55999E+08         0.31262E+07         0.00000E+00
    0.31262E+07        -0.50222E+08         0.00000E+00
    0.00000E+00         0.00000E+00        -0.55788E+08
 
   -0.55970E+08         0.31972E+07         0.00000E+00
    0.31972E+07        -0.50233E+08         0.00000E+00
    0.00000E+00         0.00000E+00        -0.55788E+08
 
   -0.55942E+08         0.32686E+07         0.00000E+00
    0.32686E+07        -0.50243E+08         0.00000E+00
    0.00000E+00         0.00000E+00        -0.55788E+08
 
   -0.55914E+08         0.33404E+07         0.00000E+00
    0.33404E+07        -0.50254E+08         0.00000E+00
    0.00000E+00         0.00000E+00        -0.55788E+08
 
   -0.55886E+08         0.34126E+07         0.00000E+00
    0.34126E+07        -0.50266E+08         0.00000E+00
    0.00000E+00         0.00000E+00        -0.55789E+08
 
   -0.55858E+08         0.34852E+07         0.00000E+00
    0.34852E+07        -0.50278E+08         0.00000E+00
    0.00000E+00         0.00000E+00        -0.55789E+08
 
   -0.55830E+08         0.35583E+07         0.00000E+00
    0.35583E+07        -0.50291E+08         0.00000E+00
    0.00000E+00         0.00000E+00        -0.55789E+08
 
   -0.55803E+08         0.36319E+07         0.00000E+00
    0.36319E+07        -0.50304E+08         0.00000E+00
    0.00000E+00         0.00000E+00        -0.55789E+08
 
   -0.57167E+08         0.42224E+05         0.00000E+00
    0.42224E+05        -0.50000E+08         0.00000E+00
    0.00000E+00         0.00000E+00        -0.55413E+08
 
   -0.57128E+08         0.12460E+06         0.00000E+00
    0.12460E+06        -0.50001E+08         0.00000E+00
    0.00000E+00         0.00000E+00        -0.55413E+08
 
   -0.57088E+08         0.20623E+06         0.00000E+00
    0.20623E+06        -0.50001E+08         0.00000E+00
    0.00000E+00         0.00000E+00        -0.55413E+08
 
   -0.57048E+08         0.28712E+06         0.00000E+00
    0.28712E+06        -0.50003E+08         0.00000E+00
    0.00000E+00         0.00000E+00        -0.55413E+08
 
   -0.57008E+08         0.36728E+06         0.00000E+00
    0.36728E+06        -0.50004E+08         0.00000E+00
    0.00000E+00         0.00000E+00        -0.55413E+08
 
   -0.56968E+08         0.44672E+06         0.00000E+00
    0.44672E+06        -0.50006E+08         0.00000E+00
    0.00000E+00         0.00000E+00        -0.55413E+08
 
   -0.56928E+08         0.52545E+06         0.00000E+00
    0.52545E+06        -0.50009E+08         0.00000E+00
    0.00000E+00         0.00000E+00        -0.55414E+08
 
   -0.56888E+08         0.60348E+06         0.00000E+00
    0.60348E+06        -0.50011E+08         0.00000E+00
    0.00000E+00         0.00000E+00        -0.55414E+08
 
   -0.56848E+08         0.68084E+06         0.00000E+00
    0.68084E+06        -0.50014E+08         0.00000E+00
    0.00000E+00         0.00000E+00        -0.55414E+08
 
   -0.56808E+08         0.75753E+06         0.00000E+00
    0.75753E+06        -0.50018E+08         0.00000E+00
    0.00000E+00         0.00000E+00        -0.55414E+08
 
   -0.56768E+08         0.83357E+06         0.00000E+00
    0.83357E+06        -0.50021E+08         0.00000E+00
    0.00000E+00         0.00000E+00        -0.55414E+08
 
   -0.56728E+08         0.90900E+06         0.00000E+00
    0.90900E+06        -0.50025E+08         0.00000E+00
    0.00000E+00         0.00000E+00        -0.55415E+08
 
   -0.56689E+08         0.98381E+06         0.00000E+00
    0.98381E+06        -0.50029E+08         0.00000E+00
    0.00000E+00         0.00000E+00        -0.55415E+08
 
   -0.56649E+08         0.10580E+07         0.00000E+00
    0.10580E+07        -0.50033E+08         0.00000E+00
    0.00000E+00         0.00000E+00        -0.55415E+08
 
   -0.56610E+08         0.11317E+07         0.00000E+00
    0.11317E+07        -0.50038E+08         0.00000E+00
    0.00000E+00         0.00000E+00        -0.55415E+08
 
   -0.56571E+08         0.12049E+07         0.00000E+00
    0.12049E+07        -0.50043E+08         0.00000E+00
    0.00000E+00         0.00000E+00        -0.55416E+08
 
   -0.56533E+08         0.12775E+07         0.00000E+00
    0.12775E+07        -0.50048E+08         0.00000E+00
    0.00000E+00         0.00000E+00        -0.55416E+08
 
   -0.56494E+08         0.13496E+07         0.00000E+00
    0.13496E+07        -0.50053E+08         0.00000E+00
    0.00000E+00         0.00000E+00        -0.55416E+08
 
   -0.56456E+08         0.14213E+07         0.00000E+00
    0.14213E+07        -0.50058E+08         0.00000E+00
    0.00000E+00         0.00000E+00        -0.55417E+08
 
   -0.56418E+08         0.14925E+07         0.00000E+00
    0.14925E+07        -0.50064E+08         0.00000E+00
    0.00000E+00         0.00000E+00        -0.55417E+08
 
   -0.56381E+08         0.15633E+07         0.00000E+00
    0.15633E+07        -0.50069E+08         0.00000E+00
    0.00000E+00         0.00000E+00        -0.55417E+08
 
   -0.56344E+08         0.16337E+07         0.00000E+00
    0.16337E+07        -0.50075E+08         0.00000E+00
    0.00000E+00         0.00000E+00        -0.55418E+08
 
   -0.56307E+08         0.17038E+07         0.00000E+00
    0.17038E+07        -0.50081E+08         0.00000E+00
    0.00000E+00         0.00000E+00        -0.55418E+08
 
   -0.56271E+08         0.17735E+07         0.00000E+00
    0.17735E+07        -0.50088E+08         0.00000E+00
    0.00000E+00         0.00000E+00        -0.55419E+08
 
   -0.56235E+08         0.18430E+07         0.00000E+00
    0.18430E+07        -0.50094E+08         0.00000E+00
    0.00000E+00         0.00000E+00        -0.55419E+08
 
   -0.56200E+08         0.19121E+07         0.00000E+00
    0.19121E+07        -0.50101E+08         0.00000E+00
    0.00000E+00         0.00000E+00        -0.55419E+08
 
   -0.56164E+08         0.19810E+07         0.00000E+00
    0.19810E+07        -0.50108E+08         0.00000E+00
    0.00000E+00         0.00000E+00        -0.55420E+08
 
   -0.56130E+08         0.20497E+07         0.00000E+00
    0.20497E+07        -0.50115E+08         0.00000E+00
    0.00000E+00         0.00000E+00        -0.55420E+08
 
   -0.56095E+08         0.21182E+07         0.00000E+00
    0.21182E+07        -0.50122E+08         0.00000E+00
    0.00000E+00         0.00000E+00        -0.55420E+08
 
   -0.56061E+08         0.21865E+07         0.00000E+00
    0.21865E+07        -0.50129E+08         0.00000E+00
    0.00000E+00         0.00000E+00        -0.55421E+08
 
   -0.56028E+08         0.22547E+07         0.00000E+00
    0.22547E+07        -0.50137E+08         0.00000E+00
    0.00000E+00         0.00000E+00        -0.55421E+08
 
   -0.55994E+08         0.23228E+07         0.00000E+00
    0.23228E+07        -0.50145E+08         0.00000E+00
    0.00000E+00         0.00000E+00        -0.55421E+08
 
   -0.55961E+08         0.23908E+07         0.00000E+00
    0.23908E+07        -0.50153E+08         0.00000E+00
    0.00000E+00         0.00000E+00        -0.55422E+08
 
   -0.55929E+08         0.24588E+07         0.00000E+00
    0.24588E+07        -0.50161E+08         0.00000E+00
    0.00000E+00         0.00000E+00        -0.55422E+08
 
   -0.55897E+08         0.25267E+07         0.00000E+00
    0.25267E+07        -0.50170E+08         0.00000E+00
    0.00000E+00         0.00000E+00        -0.55423E+08
 
   -0.55865E+08         0.25946E+07         0.00000E+00
    0.25946E+07        -0.50178E+08         0.00000E+00
    0.00000E+00         0.00000E+00        -0.55423E+08
 
   -0.55833E+08         0.26626E+07         0.00000E+00
    0.26626E+07        -0.50187E+08         0.00000E+00
    0.00000E+00         0.00000E+00        -0.55423E+08
 
   -0.55802E+08         0.27307E+07         0.00000E+00
    0.27307E+07        -0.50197E+08         0.00000E+00
    0.00000E+00         0.00000E+00        -0.55424E+08
 
   -0.55771E+08         0.27988E+07         0.00000E+00
    0.27988E+07        -0.50206E+08         0.00000E+00
    0.00000E+00         0.00000E+00        -0.55424E+08
 
   -0.55740E+08         0.28670E+07         0.00000E+00
    0.28670E+07        -0.50216E+08         0.00000E+00
    0.00000E+00         0.00000E+00        -0.55424E+08
 
   -0.55710E+08         0.29354E+07         0.00000E+00
    0.29354E+07        -0.50227E+08         0.00000E+00
    0.00000E+00         0.00000E+00        -0.55424E+08
 
   -0.55680E+08         0.30040E+07         0.00000E+00
    0.30040E+07        -0.50237E+08         0.00000E+00
    0.00000E+00         0.00000E+00        -0.55425E+08
 
   -0.55649E+08         0.30727E+07         0.00000E+00
    0.30727E+07        -0.50249E+08         0.00000E+00
    0.00000E+00         0.00000E+00        -0.55425E+08
 
   -0.55619E+08         0.31417E+07         0.00000E+00
    0.31417E+07        -0.50260E+08         0.00000E+00
    0.00000E+00         0.00000E+00        -0.55425E+08
 
   -0.55590E+08         0.32109E+07         0.00000E+00
    0.32109E+07        -0.50272E+08         0.00000E+00
    0.00000E+00         0.00000E+00        -0.55425E+08
 
   -0.55560E+08         0.32803E+07         0.00000E+00
    0.32803E+07        -0.50284E+08         0.00000E+00
    0.00000E+00         0.00000E+00        -0.55425E+08
 
   -0.55530E+08         0.33501E+07         0.00000E+00
    0.33501E+07        -0.50297E+08         0.00000E+00
    0.00000E+00         0.00000E+00        -0.55426E+08
 
   -0.55500E+08         0.34201E+07         0.00000E+00
    0.34201E+07        -0.50310E+08         0.00000E+00
    0.00000E+00         0.00000E+00        -0.55426E+08
 
   -0.55471E+08         0.34905E+07         0.00000E+00
    0.34905E+07        -0.50324E+08         0.00000E+00
    0.00000E+00         0.00000E+00        -0.55426E+08
 
   -0.55441E+08         0.35612E+07         0.00000E+00
    0.35612E+07        -0.50339E+08         0.00000E+00
    0.00000E+00         0.00000E+00        -0.55426E+08
 
   -0.56759E+08         0.41004E+05         0.00000E+00
    0.41004E+05        -0.50000E+08         0.00000E+00
    0.00000E+00         0.00000E+00        -0.55065E+08
 
   -0.56723E+08         0.12123E+06         0.00000E+00
    0.12123E+06        -0.50001E+08         0.00000E+00
    0.00000E+00         0.00000E+00        -0.55065E+08
 
   -0.56687E+08         0.20081E+06         0.00000E+00
    0.20081E+06        -0.50001E+08         0.00000E+00
    0.00000E+00         0.00000E+00        -0.55065E+08
 
   -0.56650E+08         0.27974E+06         0.00000E+00
    0.27974E+06        -0.50003E+08         0.00000E+00
    0.00000E+00         0.00000E+00        -0.55065E+08
 
   -0.56614E+08         0.35804E+06         0.00000E+00
    0.35804E+06        -0.50004E+08         0.00000E+00
    0.00000E+00         0.00000E+00        -0.55065E+08
 
   -0.56577E+08         0.43571E+06         0.00000E+00
    0.43571E+06        -0.50006E+08         0.00000E+00
    0.00000E+00         0.00000E+00        -0.55065E+08
 
   -0.56540E+08         0.51275E+06         0.00000E+00
    0.51275E+06        -0.50009E+08         0.00000E+00
    0.00000E+00         0.00000E+00        -0.55065E+08
 
   -0.56503E+08         0.58917E+06         0.00000E+00
    0.58917E+06        -0.50011E+08         0.00000E+00
    0.00000E+00         0.00000E+00        -0.55066E+08
 
   -0.56466E+08         0.66500E+06         0.00000E+00
    0.66500E+06        -0.50014E+08         0.00000E+00
    0.00000E+00         0.00000E+00        -0.55066E+08
 
   -0.56430E+08         0.74023E+06         0.00000E+00
    0.74023E+06        -0.50018E+08         0.00000E+00
    0.00000E+00         0.00000E+00        -0.55066E+08
 
   -0.56393E+08         0.81489E+06         0.00000E+00
    0.81489E+06        -0.50021E+08         0.00000E+00
    0.00000E+00         0.00000E+00        -0.55066E+08
 
   -0.56356E+08         0.88898E+06         0.00000E+00
    0.88898E+06        -0.50025E+08         0.00000E+00
    0.00000E+00         0.00000E+00        -0.55066E+08
 
   -0.56319E+08         0.96252E+06         0.00000E+00
    0.96252E+06        -0.50030E+08         0.00000E+00
    0.00000E+00         0.00000E+00        -0.55067E+08
 
   -0.56282E+08         0.10355E+07         0.00000E+00
    0.10355E+07        -0.50034E+08         0.00000E+00
    0.00000E+00         0.00000E+00        -0.55067E+08
 
   -0.56246E+08         0.11080E+07         0.00000E+00
    0.11080E+07        -0.50039E+08         0.00000E+00
    0.00000E+00         0.00000E+00        -0.55067E+08
 
   -0.56210E+08         0.11800E+07         0.00000E+00
    0.11800E+07        -0.50044E+08         0.00000E+00
    0.00000E+00         0.00000E+00        -0.55068E+08
 
   -0.56173E+08         0.12515E+07         0.00000E+00
    0.12515E+07        -0.50049E+08         0.00000E+00
    0.00000E+00         0.00000E+00        -0.55068E+08
 
   -0.56137E+08         0.13226E+07         0.00000E+00
    0.13226E+07        -0.50054E+08         0.00000E+00
    0.00000E+00         0.00000E+00        -0.55068E+08
 
   -0.56101E+08         0.13932E+07         0.00000E+00
    0.13932E+07        -0.50060E+08         0.00000E+00
    0.00000E+00         0.00000E+00        -0.55069E+08
 
   -0.56066E+08         0.14634E+07         0.00000E+00
    0.14634E+07        -0.50066E+08         0.00000E+00
    0.00000E+00         0.00000E+00        -0.55069E+08
 
   -0.56030E+08         0.15332E+07         0.00000E+00
    0.15332E+07        -0.50072E+08         0.00000E+00
    0.00000E+00         0.00000E+00        -0.55069E+08
 
   -0.55995E+08         0.16027E+07         0.00000E+00
    0.16027E+07        -0.50078E+08         0.00000E+00
    0.00000E+00         0.00000E+00        -0.55070E+08
 
   -0.55960E+08         0.16717E+07         0.00000E+00
    0.16717E+07        -0.50085E+08         0.00000E+00
    0.00000E+00         0.00000E+00        -0.55070E+08
 
   -0.55925E+08         0.17405E+07         0.00000E+00
    0.17405E+07        -0.50091E+08         0.00000E+00
    0.00000E+00         0.00000E+00        -0.55070E+08
 
   -0.55891E+08         0.18089E+07         0.00000E+00
    0.18089E+07        -0.50098E+08         0.00000E+00
    0.00000E+00         0.00000E+00        -0.55071E+08
 
   -0.55857E+08         0.18771E+07         0.00000E+00
    0.18771E+07        -0.50105E+08         0.00000E+00
    0.00000E+00         0.00000E+00        -0.55071E+08
 
   -0.55823E+08         0.19450E+07         0.00000E+00
    0.19450E+07        -0.50113E+08         0.00000E+00
    0.00000E+00         0.00000E+00        -0.55072E+08
 
   -0.55789E+08         0.20126E+07         0.00000E+00
    0.20126E+07        -0.50120E+08         0.00000E+00
    0.00000E+00         0.00000E+00        -0.55072E+08
 
   -0.55756E+08         0.20800E+07         0.00000E+00
    0.20800E+07        -0.50128E+08         0.00000E+00
    0.00000E+00         0.00000E+00        -0.55072E+08
 
   -0.55723E+08         0.21473E+07         0.00000E+00
    0.21473E+07        -0.50136E+08         0.00000E+00
    0.00000E+00         0.00000E+00        -0.55073E+08
 
   -0.55690E+08         0.22143E+07         0.00000E+00
    0.22143E+07        -0.50144E+08         0.00000E+00
    0.00000E+00         0.00000E+00        -0.55073E+08
 
   -0.55657E+08         0.22812E+07         0.00000E+00
    0.22812E+07        -0.50153E+08         0.00000E+00
    0.00000E+00         0.00000E+00        -0.55073E+08
 
   -0.55624E+08         0.23480E+07         0.00000E+00
    0.23480E+07        -0.50162E+08         0.00000E+00
    0.00000E+00         0.00000E+00        -0.55074E+08
 
   -0.55592E+08         0.24147E+07         0.00000E+00
    0.24147E+07        -0.50171E+08         0.00000E+00
    0.00000E+00         0.00000E+00        -0.55074E+08
 
   -0.55560E+08         0.24813E+07         0.00000E+00
    0.24813E+07        -0.50180E+08         0.00000E+00
    0.00000E+00         0.00000E+00        -0.55074E+08
 
   -0.55528E+08         0.25479E+07         0.00000E+00
    0.25479E+07        -0.50190E+08         0.00000E+00
    0.00000E+00         0.00000E+00        -0.55075E+08
 
   -0.55497E+08         0.26144E+07         0.00000E+00
    0.26144E+07        -0.50199E+08         0.00000E+00
    0.00000E+00         0.00000E+00        -0.55075E+08
 
   -0.55465E+08         0.26809E+07         0.00000E+00
    0.26809E+07        -0.50210E+08         0.00000E+00
    0.00000E+00         0.00000E+00        -0.55075E+08
 
   -0.55434E+08         0.27475E+07         0.00000E+00
    0.27475E+07        -0.50220E+08         0.00000E+00
    0.00000E+00         0.00000E+00        -0.55076E+08
 
   -0.55403E+08         0.28140E+07         0.00000E+00
    0.28140E+07        -0.50231E+08         0.00000E+00
    0.00000E+00         0.00000E+00        -0.55076E+08
 
   -0.55372E+08         0.28807E+07         0.00000E+00
    0.28807E+07        -0.50242E+08         0.00000E+00
    0.00000E+00         0.00000E+00        -0.55076E+08
 
   -0.55341E+08         0.29474E+07         0.00000E+00
    0.29474E+07        -0.50253E+08         0.00000E+00
    0.00000E+00         0.00000E+00        -0.55077E+08
 
   -0.55310E+08         0.30141E+07         0.00000E+00
    0.30141E+07        -0.50265E+08         0.00000E+00
    0.00000E+00         0.00000E+00        -0.55077E+08
 
   -0.55279E+08         0.30810E+07         0.00000E+00
    0.30810E+07        -0.50278E+08         0.00000E+00
    0.00000E+00         0.00000E+00        -0.55077E+08
 
   -0.55248E+08         0.31481E+07         0.00000E+00
    0.31481E+07        -0.50290E+08         0.00000E+00
    0.00000E+00         0.00000E+00        -0.55077E+08
 
   -0.55218E+08         0.32153E+07         0.00000E+00
    0.32153E+07        -0.50304E+08         0.00000E+00
    0.00000E+00         0.00000E+00        -0.55077E+08
 
   -0.55187E+08         0.32826E+07         0.00000E+00
    0.32826E+07        -0.50317E+08         0.00000E+00
    0.00000E+00         0.00000E+00        -0.55077E+08
 
   -0.55156E+08         0.33501E+07         0.00000E+00
    0.33501E+07        -0.50331E+08         0.00000E+00
    0.00000E+00         0.00000E+00        -0.55078E+08
 
   -0.55125E+08         0.34179E+07         0.00000E+00
    0.34179E+07        -0.50346E+08         0.00000E+00
    0.00000E+00         0.00000E+00        -0.55078E+08
 
   -0.55093E+08         0.34858E+07         0.00000E+00
    0.34858E+07        -0.50361E+08         0.00000E+00
    0.00000E+00         0.00000E+00        -0.55078E+08
 
   -0.56362E+08         0.39843E+05         0.00000E+00
    0.39843E+05        -0.50000E+08         0.00000E+00
    0.00000E+00         0.00000E+00        -0.54731E+08
 
   -0.56329E+08         0.11797E+06         0.00000E+00
    0.11797E+06        -0.50001E+08         0.00000E+00
    0.00000E+00         0.00000E+00        -0.54731E+08
 
   -0.56295E+08         0.19553E+06         0.00000E+00
    0.19553E+06        -0.50001E+08         0.00000E+00
    0.00000E+00         0.00000E+00        -0.54731E+08
 
   -0.56262E+08         0.27252E+06         0.00000E+00
    0.27252E+06        -0.50003E+08         0.00000E+00
    0.00000E+00         0.00000E+00        -0.54731E+08
 
   -0.56228E+08         0.34895E+06         0.00000E+00
    0.34895E+06        -0.50004E+08         0.00000E+00
    0.00000E+00         0.00000E+00        -0.54731E+08
 
   -0.56195E+08         0.42482E+06         0.00000E+00
    0.42482E+06        -0.50006E+08         0.00000E+00
    0.00000E+00         0.00000E+00        -0.54732E+08
 
   -0.56161E+08         0.50014E+06         0.00000E+00
    0.50014E+06        -0.50008E+08         0.00000E+00
    0.00000E+00         0.00000E+00        -0.54732E+08
 
   -0.56127E+08         0.57491E+06         0.00000E+00
    0.57491E+06        -0.50011E+08         0.00000E+00
    0.00000E+00         0.00000E+00        -0.54732E+08
 
   -0.56093E+08         0.64914E+06         0.00000E+00
    0.64914E+06        -0.50014E+08         0.00000E+00
    0.00000E+00         0.00000E+00        -0.54732E+08
 
   -0.56059E+08         0.72283E+06         0.00000E+00
    0.72283E+06        -0.50017E+08         0.00000E+00
    0.00000E+00         0.00000E+00        -0.54732E+08
 
   -0.56024E+08         0.79601E+06         0.00000E+00
    0.79601E+06        -0.50021E+08         0.00000E+00
    0.00000E+00         0.00000E+00        -0.54733E+08
 
   -0.55990E+08         0.86867E+06         0.00000E+00
    0.86867E+06        -0.50025E+08         0.00000E+00
    0.00000E+00         0.00000E+00        -0.54733E+08
 
   -0.55956E+08         0.94083E+06         0.00000E+00
    0.94083E+06        -0.50029E+08         0.00000E+00
    0.00000E+00         0.00000E+00        -0.54733E+08
 
   -0.55922E+08         0.10125E+07         0.00000E+00
    0.10125E+07        -0.50034E+08         0.00000E+00
    0.00000E+00         0.00000E+00        -0.54733E+08
 
   -0.55888E+08         0.10837E+07         0.00000E+00
    0.10837E+07        -0.50038E+08         0.00000E+00
    0.00000E+00         0.00000E+00        -0.54734E+08
 
   -0.55854E+08         0.11545E+07         0.00000E+00
    0.11545E+07        -0.50043E+08         0.00000E+00
    0.00000E+00         0.00000E+00        -0.54734E+08
 
   -0.55820E+08         0.12247E+07         0.00000E+00
    0.12247E+07        -0.50049E+08         0.00000E+00
    0.00000E+00         0.00000E+00        -0.54734E+08
 
   -0.55786E+08         0.12946E+07         0.00000E+00
    0.12946E+07        -0.50054E+08         0.00000E+00
    0.00000E+00         0.00000E+00        -0.54735E+08
 
   -0.55752E+08         0.13641E+07         0.00000E+00
    0.13641E+07        -0.50060E+08         0.00000E+00
    0.00000E+00         0.00000E+00        -0.54735E+08
 
   -0.55719E+08         0.14331E+07         0.00000E+00
    0.14331E+07        -0.50066E+08         0.00000E+00
    0.00000E+00         0.00000E+00        -0.54735E+08
 
   -0.55685E+08         0.15018E+07         0.00000E+00
    0.15018E+07        -0.50072E+08         0.00000E+00
    0.00000E+00         0.00000E+00        -0.54736E+08
 
   -0.55652E+08         0.15701E+07         0.00000E+00
    0.15701E+07        -0.50079E+08         0.00000E+00
    0.00000E+00         0.00000E+00        -0.54736E+08
 
   -0.55618E+08         0.16380E+07         0.00000E+00
    0.16380E+07        -0.50086E+08         0.00000E+00
    0.00000E+00         0.00000E+00        -0.54736E+08
 
   -0.55585E+08         0.17056E+07         0.00000E+00
    0.17056E+07        -0.50092E+08         0.00000E+00
    0.00000E+00         0.00000E+00        -0.54737E+08
 
   -0.55552E+08         0.17729E+07         0.00000E+00
    0.17729E+07        -0.50100E+08         0.00000E+00
    0.00000E+00         0.00000E+00        -0.54737E+08
 
   -0.55519E+08         0.18400E+07         0.00000E+00
    0.18400E+07        -0.50107E+08         0.00000E+00
    0.00000E+00         0.00000E+00        -0.54737E+08
 
   -0.55487E+08         0.19067E+07         0.00000E+00
    0.19067E+07        -0.50115E+08         0.00000E+00
    0.00000E+00         0.00000E+00        -0.54738E+08
 
   -0.55454E+08         0.19732E+07         0.00000E+00
    0.19732E+07        -0.50123E+08         0.00000E+00
    0.00000E+00         0.00000E+00        -0.54738E+08
 
   -0.55422E+08         0.20394E+07         0.00000E+00
    0.20394E+07        -0.50131E+08         0.00000E+00
    0.00000E+00         0.00000E+00        -0.54739E+08
 
   -0.55390E+08         0.21054E+07         0.00000E+00
    0.21054E+07        -0.50139E+08         0.00000E+00
    0.00000E+00         0.00000E+00        -0.54739E+08
 
   -0.55358E+08         0.21713E+07         0.00000E+00
    0.21713E+07        -0.50148E+08         0.00000E+00
    0.00000E+00         0.00000E+00        -0.54739E+08
 
   -0.55326E+08         0.22369E+07         0.00000E+00
    0.22369E+07        -0.50157E+08         0.00000E+00
    0.00000E+00         0.00000E+00        -0.54740E+08
 
   -0.55294E+08         0.23024E+07         0.00000E+00
    0.23024E+07        -0.50166E+08         0.00000E+00
    0.00000E+00         0.00000E+00        -0.54740E+08
 
   -0.55262E+08         0.23677E+07         0.00000E+00
    0.23677E+07        -0.50176E+08         0.00000E+00
    0.00000E+00         0.00000E+00        -0.54740E+08
 
   -0.55231E+08         0.24329E+07         0.00000E+00
    0.24329E+07        -0.50185E+08         0.00000E+00
    0.00000E+00         0.00000E+00        -0.54741E+08
 
   -0.55199E+08         0.24980E+07         0.00000E+00
    0.24980E+07        -0.50195E+08         0.00000E+00
    0.00000E+00         0.00000E+00        -0.54741E+08
 
   -0.55168E+08         0.25631E+07         0.00000E+00
    0.25631E+07        -0.50206E+08         0.00000E+00
    0.00000E+00         0.00000E+00        -0.54741E+08
 
   -0.55137E+08         0.26280E+07         0.00000E+00
    0.26280E+07        -0.50216E+08         0.00000E+00
    0.00000E+00         0.00000E+00        -0.54742E+08
 
   -0.55105E+08         0.26929E+07         0.00000E+00
    0.26929E+07        -0.50227E+08         0.00000E+00
    0.00000E+00         0.00000E+00        -0.54742E+08
 
   -0.55074E+08         0.27577E+07         0.00000E+00
    0.27577E+07        -0.50239E+08         0.00000E+00
    0.00000E+00         0.00000E+00        -0.54742E+08
 
   -0.55043E+08         0.28226E+07         0.00000E+00
    0.28226E+07        -0.50250E+08         0.00000E+00
    0.00000E+00         0.00000E+00        -0.54742E+08
 
   -0.55012E+08         0.28874E+07         0.00000E+00
    0.28874E+07        -0.50262E+08         0.00000E+00
    0.00000E+00         0.00000E+00        -0.54743E+08
 
   -0.54981E+08         0.29522E+07         0.00000E+00
    0.29522E+07        -0.50275E+08         0.00000E+00
    0.00000E+00         0.00000E+00        -0.54743E+08
 
   -0.54950E+08         0.30171E+07         0.00000E+00
    0.30171E+07        -0.50288E+08         0.00000E+00
    0.00000E+00         0.00000E+00        -0.54743E+08
 
   -0.54918E+08         0.30820E+07         0.00000E+00
    0.30820E+07        -0.50301E+08         0.00000E+00
    0.00000E+00         0.00000E+00        -0.54743E+08
 
   -0.54887E+08         0.31469E+07         0.00000E+00
    0.31469E+07        -0.50315E+08         0.00000E+00
    0.00000E+00         0.00000E+00        -0.54743E+08
 
   -0.54855E+08         0.32119E+07         0.00000E+00
    0.32119E+07        -0.50329E+08         0.00000E+00
    0.00000E+00         0.00000E+00        -0.54744E+08
 
   -0.54824E+08         0.32770E+07         0.00000E+00
    0.32770E+07        -0.50343E+08         0.00000E+00
    0.00000E+00         0.00000E+00        -0.54744E+08
 
   -0.54792E+08         0.33422E+07         0.00000E+00
    0.33422E+07        -0.50358E+08         0.00000E+00
    0.00000E+00         0.00000E+00        -0.54744E+08
 
   -0.54760E+08         0.34075E+07         0.00000E+00
    0.34075E+07        -0.50374E+08         0.00000E+00
    0.00000E+00         0.00000E+00        -0.54744E+08
 
   -0.55975E+08         0.38747E+05         0.00000E+00
    0.38747E+05        -0.50000E+08         0.00000E+00
    0.00000E+00         0.00000E+00        -0.54412E+08
 
   -0.55944E+08         0.11485E+06         0.00000E+00
    0.11485E+06        -0.50000E+08         0.00000E+00
    0.00000E+00         0.00000E+00        -0.54412E+08
 
   -0.55914E+08         0.19046E+06         0.00000E+00
    0.19046E+06        -0.50001E+08         0.00000E+00
    0.00000E+00         0.00000E+00        -0.54412E+08
 
   -0.55883E+08         0.26555E+06         0.00000E+00
    0.26555E+06        -0.50002E+08         0.00000E+00
    0.00000E+00         0.00000E+00        -0.54412E+08
 
   -0.55852E+08         0.34015E+06         0.00000E+00
    0.34015E+06        -0.50004E+08         0.00000E+00
    0.00000E+00         0.00000E+00        -0.54412E+08
 
   -0.55821E+08         0.41424E+06         0.00000E+00
    0.41424E+06        -0.50006E+08         0.00000E+00
    0.00000E+00         0.00000E+00        -0.54412E+08
 
   -0.55790E+08         0.48783E+06         0.00000E+00
    0.48783E+06        -0.50008E+08         0.00000E+00
    0.00000E+00         0.00000E+00        -0.54412E+08
 
   -0.55758E+08         0.56093E+06         0.00000E+00
    0.56093E+06        -0.50011E+08         0.00000E+00
    0.00000E+00         0.00000E+00        -0.54412E+08
 
   -0.55727E+08         0.63354E+06         0.00000E+00
    0.63354E+06        -0.50014E+08         0.00000E+00
    0.00000E+00         0.00000E+00        -0.54412E+08
 
   -0.55695E+08         0.70567E+06         0.00000E+00
    0.70567E+06        -0.50017E+08         0.00000E+00
    0.00000E+00         0.00000E+00        -0.54413E+08
 
   -0.55663E+08         0.77732E+06         0.00000E+00
    0.77732E+06        -0.50020E+08         0.00000E+00
    0.00000E+00         0.00000E+00        -0.54413E+08
 
   -0.55632E+08         0.84850E+06         0.00000E+00
    0.84850E+06        -0.50024E+08         0.00000E+00
    0.00000E+00         0.00000E+00        -0.54413E+08
 
   -0.55600E+08         0.91923E+06         0.00000E+00
    0.91923E+06        -0.50028E+08         0.00000E+00
    0.00000E+00         0.00000E+00        -0.54413E+08
 
   -0.55568E+08         0.98950E+06         0.00000E+00
    0.98950E+06        -0.50033E+08         0.00000E+00
    0.00000E+00         0.00000E+00        -0.54414E+08
 
   -0.55536E+08         0.10593E+07         0.00000E+00
    0.10593E+07        -0.50038E+08         0.00000E+00
    0.00000E+00         0.00000E+00        -0.54414E+08
 
   -0.55504E+08         0.11287E+07         0.00000E+00
    0.11287E+07        -0.50043E+08         0.00000E+00
    0.00000E+00         0.00000E+00        -0.54414E+08
 
   -0.55473E+08         0.11977E+07         0.00000E+00
    0.11977E+07        -0.50048E+08         0.00000E+00
    0.00000E+00         0.00000E+00        -0.54415E+08
 
   -0.55441E+08         0.12663E+07         0.00000E+00
    0.12663E+07        -0.50053E+08         0.00000E+00
    0.00000E+00         0.00000E+00        -0.54415E+08
 
   -0.55409E+08         0.13345E+07         0.00000E+00
    0.13345E+07        -0.50059E+08         0.00000E+00
    0.00000E+00         0.00000E+00        -0.54415E+08
 
   -0.55377E+08         0.14023E+07         0.00000E+00
    0.14023E+07        -0.50065E+08         0.00000E+00
    0.00000E+00         0.00000E+00        -0.54415E+08
 
   -0.55346E+08         0.14697E+07         0.00000E+00
    0.14697E+07        -0.50072E+08         0.00000E+00
    0.00000E+00         0.00000E+00        -0.54416E+08
 
   -0.55314E+08         0.15368E+07         0.00000E+00
    0.15368E+07        -0.50078E+08         0.00000E+00
    0.00000E+00         0.00000E+00        -0.54416E+08
 
   -0.55282E+08         0.16035E+07         0.00000E+00
    0.16035E+07        -0.50085E+08         0.00000E+00
    0.00000E+00         0.00000E+00        -0.54416E+08
 
   -0.55251E+08         0.16699E+07         0.00000E+00
    0.16699E+07        -0.50092E+08         0.00000E+00
    0.00000E+00         0.00000E+00        -0.54417E+08
 
   -0.55219E+08         0.17360E+07         0.00000E+00
    0.17360E+07        -0.50099E+08         0.00000E+00
    0.00000E+00         0.00000E+00        -0.54417E+08
 
   -0.55188E+08         0.18018E+07         0.00000E+00
    0.18018E+07        -0.50107E+08         0.00000E+00
    0.00000E+00         0.00000E+00        -0.54418E+08
 
   -0.55157E+08         0.18673E+07         0.00000E+00
    0.18673E+07        -0.50115E+08         0.00000E+00
    0.00000E+00         0.00000E+00        -0.54418E+08
 
   -0.55126E+08         0.19325E+07         0.00000E+00
    0.19325E+07        -0.50123E+08         0.00000E+00
    0.00000E+00         0.00000E+00        -0.54418E+08
 
   -0.55094E+08         0.19975E+07         0.00000E+00
    0.19975E+07        -0.50131E+08         0.00000E+00
    0.00000E+00         0.00000E+00        -0.54419E+08
 
   -0.55063E+08         0.20622E+07         0.00000E+00
    0.20622E+07        -0.50140E+08         0.00000E+00
    0.00000E+00         0.00000E+00        -0.54419E+08
 
   -0.55032E+08         0.21267E+07         0.00000E+00
    0.21267E+07        -0.50149E+08         0.00000E+00
    0.00000E+00         0.00000E+00        -0.54419E+08
 
   -0.55001E+08         0.21910E+07         0.00000E+00
    0.21910E+07        -0.50158E+08         0.00000E+00
    0.00000E+00         0.00000E+00        -0.54420E+08
 
   -0.54970E+08         0.22551E+07         0.00000E+00
    0.22551E+07        -0.50167E+08         0.00000E+00
    0.00000E+00         0.00000E+00        -0.54420E+08
 
   -0.54939E+08         0.23190E+07         0.00000E+00
    0.23190E+07        -0.50177E+08         0.00000E+00
    0.00000E+00         0.00000E+00        -0.54420E+08
 
   -0.54909E+08         0.23827E+07         0.00000E+00
    0.23827E+07        -0.50187E+08         0.00000E+00
    0.00000E+00         0.00000E+00        -0.54421E+08
 
   -0.54878E+08         0.24463E+07         0.00000E+00
    0.24463E+07        -0.50197E+08         0.00000E+00
    0.00000E+00         0.00000E+00        -0.54421E+08
 
   -0.54847E+08         0.25098E+07         0.00000E+00
    0.25098E+07        -0.50208E+08         0.00000E+00
    0.00000E+00         0.00000E+00        -0.54421E+08
 
   -0.54816E+08         0.25731E+07         0.00000E+00
    0.25731E+07        -0.50219E+08         0.00000E+00
    0.00000E+00         0.00000E+00        -0.54421E+08
 
   -0.54785E+08         0.26363E+07         0.00000E+00
    0.26363E+07        -0.50230E+08         0.00000E+00
    0.00000E+00         0.00000E+00        -0.54422E+08
 
   -0.54754E+08         0.26994E+07         0.00000E+00
    0.26994E+07        -0.50242E+08         0.00000E+00
    0.00000E+00         0.00000E+00        -0.54422E+08
 
   -0.54724E+08         0.27625E+07         0.00000E+00
    0.27625E+07        -0.50253E+08         0.00000E+00
    0.00000E+00         0.00000E+00        -0.54422E+08
 
   -0.54693E+08         0.28254E+07         0.00000E+00
    0.28254E+07        -0.50266E+08         0.00000E+00
    0.00000E+00         0.00000E+00        -0.54422E+08
 
   -0.54661E+08         0.28883E+07         0.00000E+00
    0.28883E+07        -0.50278E+08         0.00000E+00
    0.00000E+00         0.00000E+00        -0.54423E+08
 
   -0.54630E+08         0.29512E+07         0.00000E+00
    0.29512E+07        -0.50292E+08         0.00000E+00
    0.00000E+00         0.00000E+00        -0.54423E+08
 
   -0.54599E+08         0.30140E+07         0.00000E+00
    0.30140E+07        -0.50305E+08         0.00000E+00
    0.00000E+00         0.00000E+00        -0.54423E+08
 
   -0.54568E+08         0.30767E+07         0.00000E+00
    0.30767E+07        -0.50319E+08         0.00000E+00
    0.00000E+00         0.00000E+00        -0.54423E+08
 
   -0.54536E+08         0.31395E+07         0.00000E+00
    0.31395E+07        -0.50333E+08         0.00000E+00
    0.00000E+00         0.00000E+00        -0.54423E+08
 
   -0.54504E+08         0.32022E+07         0.00000E+00
    0.32022E+07        -0.50348E+08         0.00000E+00
    0.00000E+00         0.00000E+00        -0.54423E+08
 
   -0.54472E+08         0.32649E+07         0.00000E+00
    0.32649E+07        -0.50363E+08         0.00000E+00
    0.00000E+00         0.00000E+00        -0.54423E+08
 
   -0.54440E+08         0.33276E+07         0.00000E+00
    0.33276E+07        -0.50379E+08         0.00000E+00
    0.00000E+00         0.00000E+00        -0.54423E+08
 
   -0.55598E+08         0.37717E+05         0.00000E+00
    0.37717E+05        -0.50000E+08         0.00000E+00
    0.00000E+00         0.00000E+00        -0.54105E+08
 
   -0.55570E+08         0.11190E+06         0.00000E+00
    0.11190E+06        -0.50000E+08         0.00000E+00
    0.00000E+00         0.00000E+00        -0.54105E+08
 
   -0.55542E+08         0.18562E+06         0.00000E+00
    0.18562E+06        -0.50001E+08         0.00000E+00
    0.00000E+00         0.00000E+00        -0.54105E+08
 
   -0.55513E+08         0.25889E+06         0.00000E+00
    0.25889E+06        -0.50002E+08         0.00000E+00
    0.00000E+00         0.00000E+00        -0.54105E+08
 
   -0.55485E+08         0.33170E+06         0.00000E+00
    0.33170E+06        -0.50004E+08         0.00000E+00
    0.00000E+00         0.00000E+00        -0.54105E+08
 
   -0.55456E+08         0.40405E+06         0.00000E+00
    0.40405E+06        -0.50006E+08         0.00000E+00
    0.00000E+00         0.00000E+00        -0.54105E+08
 
   -0.55427E+08         0.47595E+06         0.00000E+00
    0.47595E+06        -0.50008E+08         0.00000E+00
    0.00000E+00         0.00000E+00        -0.54106E+08
 
   -0.55398E+08         0.54740E+06         0.00000E+00
    0.54740E+06        -0.50010E+08         0.00000E+00
    0.00000E+00         0.00000E+00        -0.54106E+08
 
   -0.55369E+08         0.61840E+06         0.00000E+00
    0.61840E+06        -0.50013E+08         0.00000E+00
    0.00000E+00         0.00000E+00        -0.54106E+08
 
   -0.55340E+08         0.68896E+06         0.00000E+00
    0.68896E+06        -0.50016E+08         0.00000E+00
    0.00000E+00         0.00000E+00        -0.54106E+08
 
   -0.55310E+08         0.75908E+06         0.00000E+00
    0.75908E+06        -0.50020E+08         0.00000E+00
    0.00000E+00         0.00000E+00        -0.54106E+08
 
   -0.55281E+08         0.82876E+06         0.00000E+00
    0.82876E+06        -0.50023E+08         0.00000E+00
    0.00000E+00         0.00000E+00        -0.54107E+08
 
   -0.55251E+08         0.89802E+06         0.00000E+00
    0.89802E+06        -0.50027E+08         0.00000E+00
    0.00000E+00         0.00000E+00        -0.54107E+08
 
   -0.55221E+08         0.96686E+06         0.00000E+00
    0.96686E+06        -0.50032E+08         0.00000E+00
    0.00000E+00         0.00000E+00        -0.54107E+08
 
   -0.55192E+08         0.10353E+07         0.00000E+00
    0.10353E+07        -0.50036E+08         0.00000E+00
    0.00000E+00         0.00000E+00        -0.54107E+08
 
   -0.55162E+08         0.11033E+07         0.00000E+00
    0.11033E+07        -0.50041E+08         0.00000E+00
    0.00000E+00         0.00000E+00        -0.54108E+08
 
   -0.55132E+08         0.11709E+07         0.00000E+00
    0.11709E+07        -0.50046E+08         0.00000E+00
    0.00000E+00         0.00000E+00        -0.54108E+08
 
   -0.55102E+08         0.12382E+07         0.00000E+00
    0.12382E+07        -0.50052E+08         0.00000E+00
    0.00000E+00         0.00000E+00        -0.54108E+08
 
   -0.55072E+08         0.13050E+07         0.00000E+00
    0.13050E+07        -0.50058E+08         0.00000E+00
    0.00000E+00         0.00000E+00        -0.54108E+08
 
   -0.55042E+08         0.13715E+07         0.00000E+00
    0.13715E+07        -0.50064E+08         0.00000E+00
    0.00000E+00         0.00000E+00        -0.54109E+08
 
   -0.55013E+08         0.14376E+07         0.00000E+00
    0.14376E+07        -0.50070E+08         0.00000E+00
    0.00000E+00         0.00000E+00        -0.54109E+08
 
   -0.54983E+08         0.15034E+07         0.00000E+00
    0.15034E+07        -0.50076E+08         0.00000E+00
    0.00000E+00         0.00000E+00        -0.54109E+08
 
   -0.54953E+08         0.15689E+07         0.00000E+00
    0.15689E+07        -0.50083E+08         0.00000E+00
    0.00000E+00         0.00000E+00        -0.54110E+08
 
   -0.54923E+08         0.16340E+07         0.00000E+00
    0.16340E+07        -0.50090E+08         0.00000E+00
    0.00000E+00         0.00000E+00        -0.54110E+08
 
   -0.54893E+08         0.16988E+07         0.00000E+00
    0.16988E+07        -0.50097E+08         0.00000E+00
    0.00000E+00         0.00000E+00        -0.54110E+08
 
   -0.54863E+08         0.17633E+07         0.00000E+00
    0.17633E+07        -0.50105E+08         0.00000E+00
    0.00000E+00         0.00000E+00        -0.54111E+08
 
   -0.54833E+08         0.18274E+07         0.00000E+00
    0.18274E+07        -0.50113E+08         0.00000E+00
    0.00000E+00         0.00000E+00        -0.54111E+08
 
   -0.54803E+08         0.18914E+07         0.00000E+00
    0.18914E+07        -0.50121E+08         0.00000E+00
    0.00000E+00         0.00000E+00        -0.54111E+08
 
   -0.54773E+08         0.19550E+07         0.00000E+00
    0.19550E+07        -0.50129E+08         0.00000E+00
    0.00000E+00         0.00000E+00        -0.54112E+08
 
   -0.54744E+08         0.20184E+07         0.00000E+00
    0.20184E+07        -0.50138E+08         0.00000E+00
    0.00000E+00         0.00000E+00        -0.54112E+08
 
   -0.54714E+08         0.20815E+07         0.00000E+00
    0.20815E+07        -0.50147E+08         0.00000E+00
    0.00000E+00         0.00000E+00        -0.54112E+08
 
   -0.54684E+08         0.21444E+07         0.00000E+00
    0.21444E+07        -0.50156E+08         0.00000E+00
    0.00000E+00         0.00000E+00        -0.54113E+08
 
   -0.54654E+08         0.22071E+07         0.00000E+00
    0.22071E+07        -0.50165E+08         0.00000E+00
    0.00000E+00         0.00000E+00        -0.54113E+08
 
   -0.54624E+08         0.22695E+07         0.00000E+00
    0.22695E+07        -0.50175E+08         0.00000E+00
    0.00000E+00         0.00000E+00        -0.54113E+08
 
   -0.54594E+08         0.23318E+07         0.00000E+00
    0.23318E+07        -0.50185E+08         0.00000E+00
    0.00000E+00         0.00000E+00        -0.54113E+08
 
   -0.54564E+08         0.23938E+07         0.00000E+00
    0.23938E+07        -0.50196E+08         0.00000E+00
    0.00000E+00         0.00000E+00        -0.54114E+08
 
   -0.54534E+08         0.24557E+07         0.00000E+00
    0.24557E+07        -0.50206E+08         0.00000E+00
    0.00000E+00         0.00000E+00        -0.54114E+08
 
   -0.54504E+08         0.25174E+07         0.00000E+00
    0.25174E+07        -0.50217E+08         0.00000E+00
    0.00000E+00         0.00000E+00        -0.54114E+08
 
   -0.54474E+08         0.25789E+07         0.00000E+00
    0.25789E+07        -0.50229E+08         0.00000E+00
    0.00000E+00         0.00000E+00        -0.54115E+08
 
   -0.54443E+08         0.26403E+07         0.00000E+00
    0.26403E+07        -0.50240E+08         0.00000E+00
    0.00000E+00         0.00000E+00        -0.54115E+08
 
   -0.54413E+08         0.27016E+07         0.00000E+00
    0.27016E+07        -0.50252E+08         0.00000E+00
    0.00000E+00         0.00000E+00        -0.54115E+08
 
   -0.54383E+08         0.27627E+07         0.00000E+00
    0.27627E+07        -0.50265E+08         0.00000E+00
    0.00000E+00         0.00000E+00        -0.54115E+08
 
   -0.54352E+08         0.28237E+07         0.00000E+00
    0.28237E+07        -0.50278E+08         0.00000E+00
    0.00000E+00         0.00000E+00        -0.54115E+08
 
   -0.54321E+08         0.28845E+07         0.00000E+00
    0.28845E+07        -0.50291E+08         0.00000E+00
    0.00000E+00         0.00000E+00        -0.54116E+08
 
   -0.54290E+08         0.29453E+07         0.00000E+00
    0.29453E+07        -0.50304E+08         0.00000E+00
    0.00000E+00         0.00000E+00        -0.54116E+08
 
   -0.54259E+08         0.30059E+07         0.00000E+00
    0.30059E+07        -0.50318E+08         0.00000E+00
    0.00000E+00         0.00000E+00        -0.54116E+08
 
   -0.54228E+08         0.30665E+07         0.00000E+00
    0.30665E+07        -0.50332E+08         0.00000E+00
    0.00000E+00         0.00000E+00        -0.54116E+08
 
   -0.54196E+08         0.31270E+07         0.00000E+00
    0.31270E+07        -0.50347E+08         0.00000E+00
    0.00000E+00         0.00000E+00        -0.54116E+08
 
   -0.54164E+08         0.31873E+07         0.00000E+00
    0.31873E+07        -0.50363E+08         0.00000E+00
    0.00000E+00         0.00000E+00        -0.54116E+08
 
   -0.54132E+08         0.32476E+07         0.00000E+00
    0.32476E+07        -0.50378E+08         0.00000E+00
    0.00000E+00         0.00000E+00        -0.54116E+08
 
   -0.55230E+08         0.36752E+05         0.00000E+00
    0.36752E+05        -0.50000E+08         0.00000E+00
    0.00000E+00         0.00000E+00        -0.53811E+08
 
   -0.55205E+08         0.10911E+06         0.00000E+00
    0.10911E+06        -0.50000E+08         0.00000E+00
    0.00000E+00         0.00000E+00        -0.53811E+08
 
   -0.55179E+08         0.18104E+06         0.00000E+00
    0.18104E+06        -0.50001E+08         0.00000E+00
    0.00000E+00         0.00000E+00        -0.53811E+08
 
   -0.55152E+08         0.25256E+06         0.00000E+00
    0.25256E+06        -0.50002E+08         0.00000E+00
    0.00000E+00         0.00000E+00        -0.53811E+08
 
   -0.55126E+08         0.32365E+06         0.00000E+00
    0.32365E+06        -0.50004E+08         0.00000E+00
    0.00000E+00         0.00000E+00        -0.53811E+08
 
   -0.55100E+08         0.39432E+06         0.00000E+00
    0.39432E+06        -0.50005E+08         0.00000E+00
    0.00000E+00         0.00000E+00        -0.53811E+08
 
   -0.55073E+08         0.46458E+06         0.00000E+00
    0.46458E+06        -0.50007E+08         0.00000E+00
    0.00000E+00         0.00000E+00        -0.53811E+08
 
   -0.55046E+08         0.53442E+06         0.00000E+00
    0.53442E+06        -0.50010E+08         0.00000E+00
    0.00000E+00         0.00000E+00        -0.53812E+08
 
   -0.55019E+08         0.60384E+06         0.00000E+00
    0.60384E+06        -0.50012E+08         0.00000E+00
    0.00000E+00         0.00000E+00        -0.53812E+08
 
   -0.54992E+08         0.67285E+06         0.00000E+00
    0.67285E+06        -0.50015E+08         0.00000E+00
    0.00000E+00         0.00000E+00        -0.53812E+08
 
   -0.54964E+08         0.74145E+06         0.00000E+00
    0.74145E+06        -0.50019E+08         0.00000E+00
    0.00000E+00         0.00000E+00        -0.53812E+08
 
   -0.54937E+08         0.80965E+06         0.00000E+00
    0.80965E+06        -0.50022E+08         0.00000E+00
    0.00000E+00         0.00000E+00        -0.53812E+08
 
   -0.54909E+08         0.87745E+06         0.00000E+00
    0.87745E+06        -0.50026E+08         0.00000E+00
    0.00000E+00         0.00000E+00        -0.53812E+08
 
   -0.54882E+08         0.94485E+06         0.00000E+00
    0.94485E+06        -0.50030E+08         0.00000E+00
    0.00000E+00         0.00000E+00        -0.53813E+08
 
   -0.54854E+08         0.10119E+07         0.00000E+00
    0.10119E+07        -0.50035E+08         0.00000E+00
    0.00000E+00         0.00000E+00        -0.53813E+08
 
   -0.54826E+08         0.10785E+07         0.00000E+00
    0.10785E+07        -0.50040E+08         0.00000E+00
    0.00000E+00         0.00000E+00        -0.53813E+08
 
   -0.54798E+08         0.11447E+07         0.00000E+00
    0.11447E+07        -0.50045E+08         0.00000E+00
    0.00000E+00         0.00000E+00        -0.53813E+08
 
   -0.54770E+08         0.12106E+07         0.00000E+00
    0.12106E+07        -0.50050E+08         0.00000E+00
    0.00000E+00         0.00000E+00        -0.53814E+08
 
   -0.54742E+08         0.12761E+07         0.00000E+00
    0.12761E+07        -0.50056E+08         0.00000E+00
    0.00000E+00         0.00000E+00        -0.53814E+08
 
   -0.54714E+08         0.13413E+07         0.00000E+00
    0.13413E+07        -0.50061E+08         0.00000E+00
    0.00000E+00         0.00000E+00        -0.53814E+08
 
   -0.54686E+08         0.14060E+07         0.00000E+00
    0.14060E+07        -0.50068E+08         0.00000E+00
    0.00000E+00         0.00000E+00        -0.53814E+08
 
   -0.54658E+08         0.14705E+07         0.00000E+00
    0.14705E+07        -0.50074E+08         0.00000E+00
    0.00000E+00         0.00000E+00        -0.53815E+08
 
   -0.54630E+08         0.15346E+07         0.00000E+00
    0.15346E+07        -0.50081E+08         0.00000E+00
    0.00000E+00         0.00000E+00        -0.53815E+08
 
   -0.54601E+08         0.15984E+07         0.00000E+00
    0.15984E+07        -0.50087E+08         0.00000E+00
    0.00000E+00         0.00000E+00        -0.53815E+08
 
   -0.54573E+08         0.16619E+07         0.00000E+00
    0.16619E+07        -0.50095E+08         0.00000E+00
    0.00000E+00         0.00000E+00        -0.53816E+08
 
   -0.54545E+08         0.17250E+07         0.00000E+00
    0.17250E+07        -0.50102E+08         0.00000E+00
    0.00000E+00         0.00000E+00        -0.53816E+08
 
   -0.54516E+08         0.17879E+07         0.00000E+00
    0.17879E+07        -0.50110E+08         0.00000E+00
    0.00000E+00         0.00000E+00        -0.53816E+08
 
   -0.54488E+08         0.18505E+07         0.00000E+00
    0.18505E+07        -0.50118E+08         0.00000E+00
    0.00000E+00         0.00000E+00        -0.53817E+08
 
   -0.54459E+08         0.19127E+07         0.00000E+00
    0.19127E+07        -0.50126E+08         0.00000E+00
    0.00000E+00         0.00000E+00        -0.53817E+08
 
   -0.54431E+08         0.19747E+07         0.00000E+00
    0.19747E+07        -0.50135E+08         0.00000E+00
    0.00000E+00         0.00000E+00        -0.53817E+08
 
   -0.54402E+08         0.20365E+07         0.00000E+00
    0.20365E+07        -0.50143E+08         0.00000E+00
    0.00000E+00         0.00000E+00        -0.53817E+08
 
   -0.54373E+08         0.20979E+07         0.00000E+00
    0.20979E+07        -0.50152E+08         0.00000E+00
    0.00000E+00         0.00000E+00        -0.53818E+08
 
   -0.54345E+08         0.21591E+07         0.00000E+00
    0.21591E+07        -0.50162E+08         0.00000E+00
    0.00000E+00         0.00000E+00        -0.53818E+08
 
   -0.54316E+08         0.22201E+07         0.00000E+00
    0.22201E+07        -0.50172E+08         0.00000E+00
    0.00000E+00         0.00000E+00        -0.53818E+08
 
   -0.54287E+08         0.22809E+07         0.00000E+00
    0.22809E+07        -0.50182E+08         0.00000E+00
    0.00000E+00         0.00000E+00        -0.53819E+08
 
   -0.54258E+08         0.23414E+07         0.00000E+00
    0.23414E+07        -0.50192E+08         0.00000E+00
    0.00000E+00         0.00000E+00        -0.53819E+08
 
   -0.54229E+08         0.24017E+07         0.00000E+00
    0.24017E+07        -0.50202E+08         0.00000E+00
    0.00000E+00         0.00000E+00        -0.53819E+08
 
   -0.54200E+08         0.24618E+07         0.00000E+00
    0.24618E+07        -0.50213E+08         0.00000E+00
    0.00000E+00         0.00000E+00        -0.53819E+08
 
   -0.54171E+08         0.25216E+07         0.00000E+00
    0.25216E+07        -0.50225E+08         0.00000E+00
    0.00000E+00         0.00000E+00        -0.53820E+08
 
   -0.54141E+08         0.25813E+07         0.00000E+00
    0.25813E+07        -0.50236E+08         0.00000E+00
    0.00000E+00         0.00000E+00        -0.53820E+08
 
   -0.54112E+08         0.26408E+07         0.00000E+00
    0.26408E+07        -0.50248E+08         0.00000E+00
    0.00000E+00         0.00000E+00        -0.53820E+08
 
   -0.54082E+08         0.27001E+07         0.00000E+00
    0.27001E+07        -0.50260E+08         0.00000E+00
    0.00000E+00         0.00000E+00        -0.53820E+08
 
   -0.54052E+08         0.27592E+07         0.00000E+00
    0.27592E+07        -0.50273E+08         0.00000E+00
    0.00000E+00         0.00000E+00        -0.53820E+08
 
   -0.54022E+08         0.28182E+07         0.00000E+00
    0.28182E+07        -0.50286E+08         0.00000E+00
    0.00000E+00         0.00000E+00        -0.53820E+08
 
   -0.53992E+08         0.28770E+07         0.00000E+00
    0.28770E+07        -0.50299E+08         0.00000E+00
    0.00000E+00         0.00000E+00        -0.53821E+08
 
   -0.53961E+08         0.29356E+07         0.00000E+00
    0.29356E+07        -0.50313E+08         0.00000E+00
    0.00000E+00         0.00000E+00        -0.53821E+08
 
   -0.53931E+08         0.29941E+07         0.00000E+00
    0.29941E+07        -0.50327E+08         0.00000E+00
    0.00000E+00         0.00000E+00        -0.53821E+08
 
   -0.53900E+08         0.30524E+07         0.00000E+00
    0.30524E+07        -0.50342E+08         0.00000E+00
    0.00000E+00         0.00000E+00        -0.53821E+08
 
   -0.53868E+08         0.31105E+07         0.00000E+00
    0.31105E+07        -0.50357E+08         0.00000E+00
    0.00000E+00         0.00000E+00        -0.53821E+08
 
   -0.53837E+08         0.31685E+07         0.00000E+00
    0.31685E+07        -0.50372E+08         0.00000E+00
    0.00000E+00         0.00000E+00        -0.53821E+08
 
   -0.54872E+08         0.35849E+05         0.00000E+00
    0.35849E+05        -0.50000E+08         0.00000E+00
    0.00000E+00         0.00000E+00        -0.53528E+08
 
   -0.54848E+08         0.10648E+06         0.00000E+00
    0.10648E+06        -0.50000E+08         0.00000E+00
    0.00000E+00         0.00000E+00        -0.53528E+08
 
   -0.54824E+08         0.17672E+06         0.00000E+00
    0.17672E+06        -0.50001E+08         0.00000E+00
    0.00000E+00         0.00000E+00        -0.53528E+08
 
   -0.54800E+08         0.24657E+06         0.00000E+00
    0.24657E+06        -0.50002E+08         0.00000E+00
    0.00000E+00         0.00000E+00        -0.53529E+08
 
   -0.54776E+08         0.31603E+06         0.00000E+00
    0.31603E+06        -0.50003E+08         0.00000E+00
    0.00000E+00         0.00000E+00        -0.53529E+08
 
   -0.54751E+08         0.38509E+06         0.00000E+00
    0.38509E+06        -0.50005E+08         0.00000E+00
    0.00000E+00         0.00000E+00        -0.53529E+08
 
   -0.54727E+08         0.45376E+06         0.00000E+00
    0.45376E+06        -0.50007E+08         0.00000E+00
    0.00000E+00         0.00000E+00        -0.53529E+08
 
   -0.54702E+08         0.52205E+06         0.00000E+00
    0.52205E+06        -0.50009E+08         0.00000E+00
    0.00000E+00         0.00000E+00        -0.53529E+08
 
   -0.54677E+08         0.58994E+06         0.00000E+00
    0.58994E+06        -0.50012E+08         0.00000E+00
    0.00000E+00         0.00000E+00        -0.53529E+08
 
   -0.54651E+08         0.65745E+06         0.00000E+00
    0.65745E+06        -0.50015E+08         0.00000E+00
    0.00000E+00         0.00000E+00        -0.53529E+08
 
   -0.54626E+08         0.72457E+06         0.00000E+00
    0.72457E+06        -0.50018E+08         0.00000E+00
    0.00000E+00         0.00000E+00        -0.53529E+08
 
   -0.54601E+08         0.79130E+06         0.00000E+00
    0.79130E+06        -0.50021E+08         0.00000E+00
    0.00000E+00         0.00000E+00        -0.53530E+08
 
   -0.54575E+08         0.85766E+06         0.00000E+00
    0.85766E+06        -0.50025E+08         0.00000E+00
    0.00000E+00         0.00000E+00        -0.53530E+08
 
   -0.54549E+08         0.92364E+06         0.00000E+00
    0.92364E+06        -0.50029E+08         0.00000E+00
    0.00000E+00         0.00000E+00        -0.53530E+08
 
   -0.54523E+08         0.98925E+06         0.00000E+00
    0.98925E+06        -0.50033E+08         0.00000E+00
    0.00000E+00         0.00000E+00        -0.53530E+08
 
   -0.54497E+08         0.10545E+07         0.00000E+00
    0.10545E+07        -0.50038E+08         0.00000E+00
    0.00000E+00         0.00000E+00        -0.53530E+08
 
   -0.54471E+08         0.11194E+07         0.00000E+00
    0.11194E+07        -0.50043E+08         0.00000E+00
    0.00000E+00         0.00000E+00        -0.53531E+08
 
   -0.54445E+08         0.11839E+07         0.00000E+00
    0.11839E+07        -0.50048E+08         0.00000E+00
    0.00000E+00         0.00000E+00        -0.53531E+08
 
   -0.54419E+08         0.12480E+07         0.00000E+00
    0.12480E+07        -0.50053E+08         0.00000E+00
    0.00000E+00         0.00000E+00        -0.53531E+08
 
   -0.54393E+08         0.13118E+07         0.00000E+00
    0.13118E+07        -0.50059E+08         0.00000E+00
    0.00000E+00         0.00000E+00        -0.53531E+08
 
   -0.54366E+08         0.13753E+07         0.00000E+00
    0.13753E+07        -0.50065E+08         0.00000E+00
    0.00000E+00         0.00000E+00        -0.53531E+08
 
   -0.54340E+08         0.14384E+07         0.00000E+00
    0.14384E+07        -0.50071E+08         0.00000E+00
    0.00000E+00         0.00000E+00        -0.53532E+08
 
   -0.54313E+08         0.15012E+07         0.00000E+00
    0.15012E+07        -0.50077E+08         0.00000E+00
    0.00000E+00         0.00000E+00        -0.53532E+08
 
   -0.54287E+08         0.15637E+07         0.00000E+00
    0.15637E+07        -0.50084E+08         0.00000E+00
    0.00000E+00         0.00000E+00        -0.53532E+08
 
   -0.54260E+08         0.16258E+07         0.00000E+00
    0.16258E+07        -0.50091E+08         0.00000E+00
    0.00000E+00         0.00000E+00        -0.53533E+08
 
   -0.54233E+08         0.16876E+07         0.00000E+00
    0.16876E+07        -0.50098E+08         0.00000E+00
    0.00000E+00         0.00000E+00        -0.53533E+08
 
   -0.54206E+08         0.17491E+07         0.00000E+00
    0.17491E+07        -0.50106E+08         0.00000E+00
    0.00000E+00         0.00000E+00        -0.53533E+08
 
   -0.54179E+08         0.18103E+07         0.00000E+00
    0.18103E+07        -0.50114E+08         0.00000E+00
    0.00000E+00         0.00000E+00        -0.53533E+08
 
   -0.54152E+08         0.18712E+07         0.00000E+00
    0.18712E+07        -0.50122E+08         0.00000E+00
    0.00000E+00         0.00000E+00        -0.53534E+08
 
   -0.54125E+08         0.19318E+07         0.00000E+00
    0.19318E+07        -0.50130E+08         0.00000E+00
    0.00000E+00         0.00000E+00        -0.53534E+08
 
   -0.54098E+08         0.19922E+07         0.00000E+00
    0.19922E+07        -0.50139E+08         0.00000E+00
    0.00000E+00         0.00000E+00        -0.53534E+08
 
   -0.54070E+08         0.20522E+07         0.00000E+00
    0.20522E+07        -0.50148E+08         0.00000E+00
    0.00000E+00         0.00000E+00        -0.53534E+08
 
   -0.54043E+08         0.21120E+07         0.00000E+00
    0.21120E+07        -0.50157E+08         0.00000E+00
    0.00000E+00         0.00000E+00        -0.53535E+08
 
   -0.54015E+08         0.21715E+07         0.00000E+00
    0.21715E+07        -0.50166E+08         0.00000E+00
    0.00000E+00         0.00000E+00        -0.53535E+08
 
   -0.53988E+08         0.22307E+07         0.00000E+00
    0.22307E+07        -0.50176E+08         0.00000E+00
    0.00000E+00         0.00000E+00        -0.53535E+08
 
   -0.53960E+08         0.22897E+07         0.00000E+00
    0.22897E+07        -0.50186E+08         0.00000E+00
    0.00000E+00         0.00000E+00        -0.53535E+08
 
   -0.53932E+08         0.23485E+07         0.00000E+00
    0.23485E+07        -0.50196E+08         0.00000E+00
    0.00000E+00         0.00000E+00        -0.53536E+08
 
   -0.53904E+08         0.24070E+07         0.00000E+00
    0.24070E+07        -0.50207E+08         0.00000E+00
    0.00000E+00         0.00000E+00        -0.53536E+08
 
   -0.53876E+08         0.24652E+07         0.00000E+00
    0.24652E+07        -0.50218E+08         0.00000E+00
    0.00000E+00         0.00000E+00        -0.53536E+08
 
   -0.53847E+08         0.25232E+07         0.00000E+00
    0.25232E+07        -0.50229E+08         0.00000E+00
    0.00000E+00         0.00000E+00        -0.53536E+08
 
   -0.53819E+08         0.25810E+07         0.00000E+00
    0.25810E+07        -0.50241E+08         0.00000E+00
    0.00000E+00         0.00000E+00        -0.53536E+08
 
   -0.53790E+08         0.26386E+07         0.00000E+00
    0.26386E+07        -0.50253E+08         0.00000E+00
    0.00000E+00         0.00000E+00        -0.53537E+08
 
   -0.53761E+08         0.26959E+07         0.00000E+00
    0.26959E+07        -0.50265E+08         0.00000E+00
    0.00000E+00         0.00000E+00        -0.53537E+08
 
   -0.53732E+08         0.27530E+07         0.00000E+00
    0.27530E+07        -0.50278E+08         0.00000E+00
    0.00000E+00         0.00000E+00        -0.53537E+08
 
   -0.53703E+08         0.28099E+07         0.00000E+00
    0.28099E+07        -0.50291E+08         0.00000E+00
    0.00000E+00         0.00000E+00        -0.53537E+08
 
   -0.53673E+08         0.28666E+07         0.00000E+00
    0.28666E+07        -0.50304E+08         0.00000E+00
    0.00000E+00         0.00000E+00        -0.53537E+08
 
   -0.53644E+08         0.29231E+07         0.00000E+00
    0.29231E+07        -0.50318E+08         0.00000E+00
    0.00000E+00         0.00000E+00        -0.53537E+08
 
   -0.53614E+08         0.29793E+07         0.00000E+00
    0.29793E+07        -0.50332E+08         0.00000E+00
    0.00000E+00         0.00000E+00        -0.53537E+08
 
   -0.53583E+08         0.30354E+07         0.00000E+00
    0.30354E+07        -0.50347E+08         0.00000E+00
    0.00000E+00         0.00000E+00        -0.53537E+08
 
   -0.53553E+08         0.30912E+07         0.00000E+00
    0.30912E+07        -0.50362E+08         0.00000E+00
    0.00000E+00         0.00000E+00        -0.53537E+08
 
   -0.54522E+08         0.35006E+05         0.00000E+00
    0.35006E+05        -0.50000E+08         0.00000E+00
    0.00000E+00         0.00000E+00        -0.53257E+08
 
   -0.54500E+08         0.10402E+06         0.00000E+00
    0.10402E+06        -0.50000E+08         0.00000E+00
    0.00000E+00         0.00000E+00        -0.53257E+08
 
   -0.54478E+08         0.17266E+06         0.00000E+00
    0.17266E+06        -0.50001E+08         0.00000E+00
    0.00000E+00         0.00000E+00        -0.53257E+08
 
   -0.54456E+08         0.24093E+06         0.00000E+00
    0.24093E+06        -0.50002E+08         0.00000E+00
    0.00000E+00         0.00000E+00        -0.53257E+08
 
   -0.54433E+08         0.30883E+06         0.00000E+00
    0.30883E+06        -0.50003E+08         0.00000E+00
    0.00000E+00         0.00000E+00        -0.53257E+08
 
   -0.54411E+08         0.37637E+06         0.00000E+00
    0.37637E+06        -0.50005E+08         0.00000E+00
    0.00000E+00         0.00000E+00        -0.53257E+08
 
   -0.54388E+08         0.44353E+06         0.00000E+00
    0.44353E+06        -0.50007E+08         0.00000E+00
    0.00000E+00         0.00000E+00        -0.53257E+08
 
   -0.54365E+08         0.51033E+06         0.00000E+00
    0.51033E+06        -0.50009E+08         0.00000E+00
    0.00000E+00         0.00000E+00        -0.53257E+08
 
   -0.54342E+08         0.57675E+06         0.00000E+00
    0.57675E+06        -0.50011E+08         0.00000E+00
    0.00000E+00         0.00000E+00        -0.53257E+08
 
   -0.54318E+08         0.64281E+06         0.00000E+00
    0.64281E+06        -0.50014E+08         0.00000E+00
    0.00000E+00         0.00000E+00        -0.53257E+08
 
   -0.54295E+08         0.70850E+06         0.00000E+00
    0.70850E+06        -0.50017E+08         0.00000E+00
    0.00000E+00         0.00000E+00        -0.53257E+08
 
   -0.54271E+08         0.77382E+06         0.00000E+00
    0.77382E+06        -0.50020E+08         0.00000E+00
    0.00000E+00         0.00000E+00        -0.53258E+08
 
   -0.54248E+08         0.83878E+06         0.00000E+00
    0.83878E+06        -0.50024E+08         0.00000E+00
    0.00000E+00         0.00000E+00        -0.53258E+08
 
   -0.54224E+08         0.90338E+06         0.00000E+00
    0.90338E+06        -0.50027E+08         0.00000E+00
    0.00000E+00         0.00000E+00        -0.53258E+08
 
   -0.54200E+08         0.96761E+06         0.00000E+00
    0.96761E+06        -0.50032E+08         0.00000E+00
    0.00000E+00         0.00000E+00        -0.53258E+08
 
   -0.54176E+08         0.10315E+07         0.00000E+00
    0.10315E+07        -0.50036E+08         0.00000E+00
    0.00000E+00         0.00000E+00        -0.53258E+08
 
   -0.54151E+08         0.10950E+07         0.00000E+00
    0.10950E+07        -0.50041E+08         0.00000E+00
    0.00000E+00         0.00000E+00        -0.53258E+08
 
   -0.54127E+08         0.11582E+07         0.00000E+00
    0.11582E+07        -0.50045E+08         0.00000E+00
    0.00000E+00         0.00000E+00        -0.53259E+08
 
   -0.54102E+08         0.12210E+07         0.00000E+00
    0.12210E+07        -0.50051E+08         0.00000E+00
    0.00000E+00         0.00000E+00        -0.53259E+08
 
   -0.54078E+08         0.12835E+07         0.00000E+00
    0.12835E+07        -0.50056E+08         0.00000E+00
    0.00000E+00         0.00000E+00        -0.53259E+08
 
   -0.54053E+08         0.13456E+07         0.00000E+00
    0.13456E+07        -0.50062E+08         0.00000E+00
    0.00000E+00         0.00000E+00        -0.53259E+08
 
   -0.54028E+08         0.14074E+07         0.00000E+00
    0.14074E+07        -0.50068E+08         0.00000E+00
    0.00000E+00         0.00000E+00        -0.53259E+08
 
   -0.54003E+08         0.14689E+07         0.00000E+00
    0.14689E+07        -0.50074E+08         0.00000E+00
    0.00000E+00         0.00000E+00        -0.53260E+08
 
   -0.53978E+08         0.15300E+07         0.00000E+00
    0.15300E+07        -0.50080E+08         0.00000E+00
    0.00000E+00         0.00000E+00        -0.53260E+08
 
   -0.53953E+08         0.15909E+07         0.00000E+00
    0.15909E+07        -0.50087E+08         0.00000E+00
    0.00000E+00         0.00000E+00        -0.53260E+08
 
   -0.53928E+08         0.16513E+07         0.00000E+00
    0.16513E+07        -0.50094E+08         0.00000E+00
    0.00000E+00         0.00000E+00        -0.53260E+08
 
   -0.53903E+08         0.17115E+07         0.00000E+00
    0.17115E+07        -0.50101E+08         0.00000E+00
    0.00000E+00         0.00000E+00        -0.53261E+08
 
   -0.53877E+08         0.17714E+07         0.00000E+00
    0.17714E+07        -0.50109E+08         0.00000E+00
    0.00000E+00         0.00000E+00        -0.53261E+08
 
   -0.53852E+08         0.18309E+07         0.00000E+00
    0.18309E+07        -0.50116E+08         0.00000E+00
    0.00000E+00         0.00000E+00        -0.53261E+08
 
   -0.53826E+08         0.18902E+07         0.00000E+00
    0.18902E+07        -0.50124E+08         0.00000E+00
    0.00000E+00         0.00000E+00        -0.53261E+08
 
   -0.53800E+08         0.19491E+07         0.00000E+00
    0.19491E+07        -0.50133E+08         0.00000E+00
    0.00000E+00         0.00000E+00        -0.53262E+08
 
   -0.53774E+08         0.20078E+07         0.00000E+00
    0.20078E+07        -0.50141E+08         0.00000E+00
    0.00000E+00         0.00000E+00        -0.53262E+08
 
   -0.53748E+08         0.20661E+07         0.00000E+00
    0.20661E+07        -0.50150E+08         0.00000E+00
    0.00000E+00         0.00000E+00        -0.53262E+08
 
   -0.53722E+08         0.21242E+07         0.00000E+00
    0.21242E+07        -0.50159E+08         0.00000E+00
    0.00000E+00         0.00000E+00        -0.53262E+08
 
   -0.53696E+08         0.21820E+07         0.00000E+00
    0.21820E+07        -0.50169E+08         0.00000E+00
    0.00000E+00         0.00000E+00        -0.53262E+08
 
   -0.53669E+08         0.22395E+07         0.00000E+00
    0.22395E+07        -0.50179E+08         0.00000E+00
    0.00000E+00         0.00000E+00        -0.53263E+08
 
   -0.53643E+08         0.22967E+07         0.00000E+00
    0.22967E+07        -0.50189E+08         0.00000E+00
    0.00000E+00         0.00000E+00        -0.53263E+08
 
   -0.53616E+08         0.23536E+07         0.00000E+00
    0.23536E+07        -0.50199E+08         0.00000E+00
    0.00000E+00         0.00000E+00        -0.53263E+08
 
   -0.53589E+08         0.24103E+07         0.00000E+00
    0.24103E+07        -0.50210E+08         0.00000E+00
    0.00000E+00         0.00000E+00        -0.53263E+08
 
   -0.53562E+08         0.24667E+07         0.00000E+00
    0.24667E+07        -0.50221E+08         0.00000E+00
    0.00000E+00         0.00000E+00        -0.53263E+08
 
   -0.53535E+08         0.25229E+07         0.00000E+00
    0.25229E+07        -0.50232E+08         0.00000E+00
    0.00000E+00         0.00000E+00        -0.53264E+08
 
   -0.53507E+08         0.25788E+07         0.00000E+00
    0.25788E+07        -0.50243E+08         0.00000E+00
    0.00000E+00         0.00000E+00        -0.53264E+08
 
   -0.53480E+08         0.26344E+07         0.00000E+00
    0.26344E+07        -0.50255E+08         0.00000E+00
    0.00000E+00         0.00000E+00        -0.53264E+08
 
   -0.53452E+08         0.26897E+07         0.00000E+00
    0.26897E+07        -0.50268E+08         0.00000E+00
    0.00000E+00         0.00000E+00        -0.53264E+08
 
   -0.53424E+08         0.27448E+07         0.00000E+00
    0.27448E+07        -0.50280E+08         0.00000E+00
    0.00000E+00         0.00000E+00        -0.53264E+08
 
   -0.53395E+08         0.27997E+07         0.00000E+00
    0.27997E+07        -0.50293E+08         0.00000E+00
    0.00000E+00         0.00000E+00        -0.53264E+08
 
   -0.53367E+08         0.28543E+07         0.00000E+00
    0.28543E+07        -0.50306E+08         0.00000E+00
    0.00000E+00         0.00000E+00        -0.53264E+08
 
   -0.53338E+08         0.29086E+07         0.00000E+00
    0.29086E+07        -0.50320E+08         0.00000E+00
    0.00000E+00         0.00000E+00        -0.53264E+08
 
   -0.53309E+08         0.29626E+07         0.00000E+00
    0.29626E+07        -0.50334E+08         0.00000E+00
    0.00000E+00         0.00000E+00        -0.53264E+08
 
   -0.53279E+08         0.30164E+07         0.00000E+00
    0.30164E+07        -0.50349E+08         0.00000E+00
    0.00000E+00         0.00000E+00        -0.53264E+08
 
   -0.54180E+08         0.34221E+05         0.00000E+00
    0.34221E+05        -0.50000E+08         0.00000E+00
    0.00000E+00         0.00000E+00        -0.52995E+08
 
   -0.54160E+08         0.10171E+06         0.00000E+00
    0.10171E+06        -0.50000E+08         0.00000E+00
    0.00000E+00         0.00000E+00        -0.52995E+08
 
   -0.54139E+08         0.16885E+06         0.00000E+00
    0.16885E+06        -0.50001E+08         0.00000E+00
    0.00000E+00         0.00000E+00        -0.52995E+08
 
   -0.54119E+08         0.23564E+06         0.00000E+00
    0.23564E+06        -0.50002E+08         0.00000E+00
    0.00000E+00         0.00000E+00        -0.52995E+08
 
   -0.54098E+08         0.30208E+06         0.00000E+00
    0.30208E+06        -0.50003E+08         0.00000E+00
    0.00000E+00         0.00000E+00        -0.52995E+08
 
   -0.54078E+08         0.36817E+06         0.00000E+00
    0.36817E+06        -0.50004E+08         0.00000E+00
    0.00000E+00         0.00000E+00        -0.52995E+08
 
   -0.54057E+08         0.43390E+06         0.00000E+00
    0.43390E+06        -0.50006E+08         0.00000E+00
    0.00000E+00         0.00000E+00        -0.52995E+08
 
   -0.54035E+08         0.49928E+06         0.00000E+00
    0.49928E+06        -0.50008E+08         0.00000E+00
    0.00000E+00         0.00000E+00        -0.52995E+08
 
   -0.54014E+08         0.56431E+06         0.00000E+00
    0.56431E+06        -0.50010E+08         0.00000E+00
    0.00000E+00         0.00000E+00        -0.52995E+08
 
   -0.53992E+08         0.62899E+06         0.00000E+00
    0.62899E+06        -0.50013E+08         0.00000E+00
    0.00000E+00         0.00000E+00        -0.52995E+08
 
   -0.53971E+08         0.69331E+06         0.00000E+00
    0.69331E+06        -0.50016E+08         0.00000E+00
    0.00000E+00         0.00000E+00        -0.52995E+08
 
   -0.53949E+08         0.75728E+06         0.00000E+00
    0.75728E+06        -0.50019E+08         0.00000E+00
    0.00000E+00         0.00000E+00        -0.52996E+08
 
   -0.53927E+08         0.82089E+06         0.00000E+00
    0.82089E+06        -0.50022E+08         0.00000E+00
    0.00000E+00         0.00000E+00        -0.52996E+08
 
   -0.53905E+08         0.88416E+06         0.00000E+00
    0.88416E+06        -0.50026E+08         0.00000E+00
    0.00000E+00         0.00000E+00        -0.52996E+08
 
   -0.53883E+08         0.94707E+06         0.00000E+00
    0.94707E+06        -0.50030E+08         0.00000E+00
    0.00000E+00         0.00000E+00        -0.52996E+08
 
   -0.53860E+08         0.10096E+07         0.00000E+00
    0.10096E+07        -0.50034E+08         0.00000E+00
    0.00000E+00         0.00000E+00        -0.52996E+08
 
   -0.53838E+08         0.10719E+07         0.00000E+00
    0.10719E+07        -0.50038E+08         0.00000E+00
    0.00000E+00         0.00000E+00        -0.52996E+08
 
   -0.53815E+08         0.11337E+07         0.00000E+00
    0.11337E+07        -0.50043E+08         0.00000E+00
    0.00000E+00         0.00000E+00        -0.52996E+08
 
   -0.53792E+08         0.11953E+07         0.00000E+00
    0.11953E+07        -0.50048E+08         0.00000E+00
    0.00000E+00         0.00000E+00        -0.52997E+08
 
   -0.53769E+08         0.12565E+07         0.00000E+00
    0.12565E+07        -0.50053E+08         0.00000E+00
    0.00000E+00         0.00000E+00        -0.52997E+08
 
   -0.53746E+08         0.13173E+07         0.00000E+00
    0.13173E+07        -0.50058E+08         0.00000E+00
    0.00000E+00         0.00000E+00        -0.52997E+08
 
   -0.53723E+08         0.13778E+07         0.00000E+00
    0.13778E+07        -0.50064E+08         0.00000E+00
    0.00000E+00         0.00000E+00        -0.52997E+08
 
   -0.53700E+08         0.14380E+07         0.00000E+00
    0.14380E+07        -0.50070E+08         0.00000E+00
    0.00000E+00         0.00000E+00        -0.52997E+08
 
   -0.53677E+08         0.14979E+07         0.00000E+00
    0.14979E+07        -0.50076E+08         0.00000E+00
    0.00000E+00         0.00000E+00        -0.52998E+08
 
   -0.53653E+08         0.15574E+07         0.00000E+00
    0.15574E+07        -0.50082E+08         0.00000E+00
    0.00000E+00         0.00000E+00        -0.52998E+08
 
   -0.53630E+08         0.16166E+07         0.00000E+00
    0.16166E+07        -0.50089E+08         0.00000E+00
    0.00000E+00         0.00000E+00        -0.52998E+08
 
   -0.53606E+08         0.16755E+07         0.00000E+00
    0.16755E+07        -0.50096E+08         0.00000E+00
    0.00000E+00         0.00000E+00        -0.52998E+08
 
   -0.53582E+08         0.17340E+07         0.00000E+00
    0.17340E+07        -0.50103E+08         0.00000E+00
    0.00000E+00         0.00000E+00        -0.52998E+08
 
   -0.53558E+08         0.17922E+07         0.00000E+00
    0.17922E+07        -0.50110E+08         0.00000E+00
    0.00000E+00         0.00000E+00        -0.52999E+08
 
   -0.53534E+08         0.18501E+07         0.00000E+00
    0.18501E+07        -0.50118E+08         0.00000E+00
    0.00000E+00         0.00000E+00        -0.52999E+08
 
   -0.53510E+08         0.19077E+07         0.00000E+00
    0.19077E+07        -0.50126E+08         0.00000E+00
    0.00000E+00         0.00000E+00        -0.52999E+08
 
   -0.53485E+08         0.19650E+07         0.00000E+00
    0.19650E+07        -0.50134E+08         0.00000E+00
    0.00000E+00         0.00000E+00        -0.52999E+08
 
   -0.53461E+08         0.20220E+07         0.00000E+00
    0.20220E+07        -0.50143E+08         0.00000E+00
    0.00000E+00         0.00000E+00        -0.52999E+08
 
   -0.53436E+08         0.20787E+07         0.00000E+00
    0.20787E+07        -0.50152E+08         0.00000E+00
    0.00000E+00         0.00000E+00        -0.53000E+08
 
   -0.53411E+08         0.21351E+07         0.00000E+00
    0.21351E+07        -0.50161E+08         0.00000E+00
    0.00000E+00         0.00000E+00        -0.53000E+08
 
   -0.53386E+08         0.21911E+07         0.00000E+00
    0.21911E+07        -0.50170E+08         0.00000E+00
    0.00000E+00         0.00000E+00        -0.53000E+08
 
   -0.53361E+08         0.22469E+07         0.00000E+00
    0.22469E+07        -0.50180E+08         0.00000E+00
    0.00000E+00         0.00000E+00        -0.53000E+08
 
   -0.53336E+08         0.23023E+07         0.00000E+00
    0.23023E+07        -0.50189E+08         0.00000E+00
    0.00000E+00         0.00000E+00        -0.53000E+08
 
   -0.53310E+08         0.23575E+07         0.00000E+00
    0.23575E+07        -0.50200E+08         0.00000E+00
    0.00000E+00         0.00000E+00        -0.53001E+08
 
   -0.53284E+08         0.24124E+07         0.00000E+00
    0.24124E+07        -0.50210E+08         0.00000E+00
    0.00000E+00         0.00000E+00        -0.53001E+08
 
   -0.53259E+08         0.24670E+07         0.00000E+00
    0.24670E+07        -0.50221E+08         0.00000E+00
    0.00000E+00         0.00000E+00        -0.53001E+08
 
   -0.53232E+08         0.25212E+07         0.00000E+00
    0.25212E+07        -0.50232E+08         0.00000E+00
    0.00000E+00         0.00000E+00        -0.53001E+08
 
   -0.53206E+08         0.25752E+07         0.00000E+00
    0.25752E+07        -0.50243E+08         0.00000E+00
    0.00000E+00         0.00000E+00        -0.53001E+08
 
   -0.53180E+08         0.26289E+07         0.00000E+00
    0.26289E+07        -0.50255E+08         0.00000E+00
    0.00000E+00         0.00000E+00        -0.53001E+08
 
   -0.53153E+08         0.26823E+07         0.00000E+00
    0.26823E+07        -0.50267E+08         0.00000E+00
    0.00000E+00         0.00000E+00        -0.53001E+08
 
   -0.53126E+08         0.27354E+07         0.00000E+00
    0.27354E+07        -0.50279E+08         0.00000E+00
    0.00000E+00         0.00000E+00        -0.53001E+08
 
   -0.53099E+08         0.27882E+07         0.00000E+00
    0.27882E+07        -0.50292E+08         0.00000E+00
    0.00000E+00         0.00000E+00        -0.53001E+08
 
   -0.53071E+08         0.28407E+07         0.00000E+00
    0.28407E+07        -0.50305E+08         0.00000E+00
    0.00000E+00         0.00000E+00        -0.53002E+08
 
   -0.53044E+08         0.28930E+07         0.00000E+00
    0.28930E+07        -0.50319E+08         0.00000E+00
    0.00000E+00         0.00000E+00        -0.53002E+08
 
   -0.53016E+08         0.29449E+07         0.00000E+00
    0.29449E+07        -0.50332E+08         0.00000E+00
    0.00000E+00         0.00000E+00        -0.53002E+08
 
   -0.53845E+08         0.33492E+05         0.00000E+00
    0.33492E+05        -0.50000E+08         0.00000E+00
    0.00000E+00         0.00000E+00        -0.52742E+08
 
   -0.53827E+08         0.99565E+05         0.00000E+00
    0.99565E+05        -0.50000E+08         0.00000E+00
    0.00000E+00         0.00000E+00        -0.52742E+08
 
   -0.53808E+08         0.16530E+06         0.00000E+00
    0.16530E+06        -0.50001E+08         0.00000E+00
    0.00000E+00         0.00000E+00        -0.52742E+08
 
   -0.53789E+08         0.23071E+06         0.00000E+00
    0.23071E+06        -0.50002E+08         0.00000E+00
    0.00000E+00         0.00000E+00        -0.52742E+08
 
   -0.53770E+08         0.29578E+06         0.00000E+00
    0.29578E+06        -0.50003E+08         0.00000E+00
    0.00000E+00         0.00000E+00        -0.52742E+08
 
   -0.53751E+08         0.36050E+06         0.00000E+00
    0.36050E+06        -0.50004E+08         0.00000E+00
    0.00000E+00         0.00000E+00        -0.52742E+08
 
   -0.53732E+08         0.42489E+06         0.00000E+00
    0.42489E+06        -0.50006E+08         0.00000E+00
    0.00000E+00         0.00000E+00        -0.52742E+08
 
   -0.53713E+08         0.48894E+06         0.00000E+00
    0.48894E+06        -0.50008E+08         0.00000E+00
    0.00000E+00         0.00000E+00        -0.52742E+08
 
   -0.53693E+08         0.55265E+06         0.00000E+00
    0.55265E+06        -0.50010E+08         0.00000E+00
    0.00000E+00         0.00000E+00        -0.52742E+08
 
   -0.53673E+08         0.61602E+06         0.00000E+00
    0.61602E+06        -0.50012E+08         0.00000E+00
    0.00000E+00         0.00000E+00        -0.52743E+08
 
   -0.53653E+08         0.67904E+06         0.00000E+00
    0.67904E+06        -0.50015E+08         0.00000E+00
    0.00000E+00         0.00000E+00        -0.52743E+08
 
   -0.53633E+08         0.74173E+06         0.00000E+00
    0.74173E+06        -0.50018E+08         0.00000E+00
    0.00000E+00         0.00000E+00        -0.52743E+08
 
   -0.53613E+08         0.80407E+06         0.00000E+00
    0.80407E+06        -0.50021E+08         0.00000E+00
    0.00000E+00         0.00000E+00        -0.52743E+08
 
   -0.53593E+08         0.86607E+06         0.00000E+00
    0.86607E+06        -0.50024E+08         0.00000E+00
    0.00000E+00         0.00000E+00        -0.52743E+08
 
   -0.53572E+08         0.92772E+06         0.00000E+00
    0.92772E+06        -0.50028E+08         0.00000E+00
    0.00000E+00         0.00000E+00        -0.52743E+08
 
   -0.53551E+08         0.98904E+06         0.00000E+00
    0.98904E+06        -0.50032E+08         0.00000E+00
    0.00000E+00         0.00000E+00        -0.52743E+08
 
   -0.53531E+08         0.10500E+07         0.00000E+00
    0.10500E+07        -0.50036E+08         0.00000E+00
    0.00000E+00         0.00000E+00        -0.52743E+08
 
   -0.53510E+08         0.11106E+07         0.00000E+00
    0.11106E+07        -0.50040E+08         0.00000E+00
    0.00000E+00         0.00000E+00        -0.52744E+08
 
   -0.53489E+08         0.11709E+07         0.00000E+00
    0.11709E+07        -0.50045E+08         0.00000E+00
    0.00000E+00         0.00000E+00        -0.52744E+08
 
   -0.53467E+08         0.12309E+07         0.00000E+00
    0.12309E+07        -0.50050E+08         0.00000E+00
    0.00000E+00         0.00000E+00        -0.52744E+08
 
   -0.53446E+08         0.12905E+07         0.00000E+00
    0.12905E+07        -0.50055E+08         0.00000E+00
    0.00000E+00         0.00000E+00        -0.52744E+08
 
   -0.53425E+08         0.13498E+07         0.00000E+00
    0.13498E+07        -0.50060E+08         0.00000E+00
    0.00000E+00         0.00000E+00        -0.52744E+08
 
   -0.53403E+08         0.14087E+07         0.00000E+00
    0.14087E+07        -0.50065E+08         0.00000E+00
    0.00000E+00         0.00000E+00        -0.52744E+08
 
   -0.53381E+08         0.14674E+07         0.00000E+00
    0.14674E+07        -0.50071E+08         0.00000E+00
    0.00000E+00         0.00000E+00        -0.52745E+08
 
   -0.53359E+08         0.15256E+07         0.00000E+00
    0.15256E+07        -0.50077E+08         0.00000E+00
    0.00000E+00         0.00000E+00        -0.52745E+08
 
   -0.53338E+08         0.15836E+07         0.00000E+00
    0.15836E+07        -0.50084E+08         0.00000E+00
    0.00000E+00         0.00000E+00        -0.52745E+08
 
   -0.53315E+08         0.16412E+07         0.00000E+00
    0.16412E+07        -0.50090E+08         0.00000E+00
    0.00000E+00         0.00000E+00        -0.52745E+08
 
   -0.53293E+08         0.16985E+07         0.00000E+00
    0.16985E+07        -0.50097E+08         0.00000E+00
    0.00000E+00         0.00000E+00        -0.52745E+08
 
   -0.53271E+08         0.17554E+07         0.00000E+00
    0.17554E+07        -0.50104E+08         0.00000E+00
    0.00000E+00         0.00000E+00        -0.52745E+08
 
   -0.53248E+08         0.18121E+07         0.00000E+00
    0.18121E+07        -0.50111E+08         0.00000E+00
    0.00000E+00         0.00000E+00        -0.52746E+08
 
   -0.53226E+08         0.18684E+07         0.00000E+00
    0.18684E+07        -0.50119E+08         0.00000E+00
    0.00000E+00         0.00000E+00        -0.52746E+08
 
   -0.53203E+08         0.19244E+07         0.00000E+00
    0.19244E+07        -0.50127E+08         0.00000E+00
    0.00000E+00         0.00000E+00        -0.52746E+08
 
   -0.53180E+08         0.19800E+07         0.00000E+00
    0.19800E+07        -0.50135E+08         0.00000E+00
    0.00000E+00         0.00000E+00        -0.52746E+08
 
   -0.53157E+08         0.20354E+07         0.00000E+00
    0.20354E+07        -0.50143E+08         0.00000E+00
    0.00000E+00         0.00000E+00        -0.52746E+08
 
   -0.53133E+08         0.20904E+07         0.00000E+00
    0.20904E+07        -0.50151E+08         0.00000E+00
    0.00000E+00         0.00000E+00        -0.52746E+08
 
   -0.53110E+08         0.21451E+07         0.00000E+00
    0.21451E+07        -0.50160E+08         0.00000E+00
    0.00000E+00         0.00000E+00        -0.52747E+08
 
   -0.53086E+08         0.21994E+07         0.00000E+00
    0.21994E+07        -0.50169E+08         0.00000E+00
    0.00000E+00         0.00000E+00        -0.52747E+08
 
   -0.53063E+08         0.22535E+07         0.00000E+00
    0.22535E+07        -0.50179E+08         0.00000E+00
    0.00000E+00         0.00000E+00        -0.52747E+08
 
   -0.53039E+08         0.23072E+07         0.00000E+00
    0.23072E+07        -0.50188E+08         0.00000E+00
    0.00000E+00         0.00000E+00        -0.52747E+08
 
   -0.53014E+08         0.23606E+07         0.00000E+00
    0.23606E+07        -0.50198E+08         0.00000E+00
    0.00000E+00         0.00000E+00        -0.52747E+08
 
   -0.52990E+08         0.24137E+07         0.00000E+00
    0.24137E+07        -0.50208E+08         0.00000E+00
    0.00000E+00         0.00000E+00        -0.52747E+08
 
   -0.52966E+08         0.24665E+07         0.00000E+00
    0.24665E+07        -0.50219E+08         0.00000E+00
    0.00000E+00         0.00000E+00        -0.52747E+08
 
   -0.52941E+08         0.25190E+07         0.00000E+00
    0.25190E+07        -0.50230E+08         0.00000E+00
    0.00000E+00         0.00000E+00        -0.52748E+08
 
   -0.52916E+08         0.25711E+07         0.00000E+00
    0.25711E+07        -0.50241E+08         0.00000E+00
    0.00000E+00         0.00000E+00        -0.52748E+08
 
   -0.52891E+08         0.26229E+07         0.00000E+00
    0.26229E+07        -0.50252E+08         0.00000E+00
    0.00000E+00         0.00000E+00        -0.52748E+08
 
   -0.52865E+08         0.26744E+07         0.00000E+00
    0.26744E+07        -0.50264E+08         0.00000E+00
    0.00000E+00         0.00000E+00        -0.52748E+08
 
   -0.52840E+08         0.27255E+07         0.00000E+00
    0.27255E+07        -0.50276E+08         0.00000E+00
    0.00000E+00         0.00000E+00        -0.52748E+08
 
   -0.52814E+08         0.27764E+07         0.00000E+00
    0.27764E+07        -0.50288E+08         0.00000E+00
    0.00000E+00         0.00000E+00        -0.52748E+08
 
   -0.52788E+08         0.28269E+07         0.00000E+00
    0.28269E+07        -0.50301E+08         0.00000E+00
    0.00000E+00         0.00000E+00        -0.52748E+08
 
   -0.52761E+08         0.28770E+07         0.00000E+00
    0.28770E+07        -0.50314E+08         0.00000E+00
    0.00000E+00         0.00000E+00        -0.52748E+08
 
   -0.53517E+08         0.32818E+05         0.00000E+00
    0.32818E+05        -0.50000E+08         0.00000E+00
    0.00000E+00         0.00000E+00        -0.52498E+08
 
   -0.53500E+08         0.97578E+05         0.00000E+00
    0.97578E+05        -0.50000E+08         0.00000E+00
    0.00000E+00         0.00000E+00        -0.52498E+08
 
   -0.53484E+08         0.16202E+06         0.00000E+00
    0.16202E+06        -0.50001E+08         0.00000E+00
    0.00000E+00         0.00000E+00        -0.52498E+08
 
   -0.53466E+08         0.22613E+06         0.00000E+00
    0.22613E+06        -0.50002E+08         0.00000E+00
    0.00000E+00         0.00000E+00        -0.52498E+08
 
   -0.53449E+08         0.28992E+06         0.00000E+00
    0.28992E+06        -0.50003E+08         0.00000E+00
    0.00000E+00         0.00000E+00        -0.52498E+08
 
   -0.53432E+08         0.35338E+06         0.00000E+00
    0.35338E+06        -0.50004E+08         0.00000E+00
    0.00000E+00         0.00000E+00        -0.52498E+08
 
   -0.53414E+08         0.41652E+06         0.00000E+00
    0.41652E+06        -0.50005E+08         0.00000E+00
    0.00000E+00         0.00000E+00        -0.52498E+08
 
   -0.53396E+08         0.47932E+06         0.00000E+00
    0.47932E+06        -0.50007E+08         0.00000E+00
    0.00000E+00         0.00000E+00        -0.52498E+08
 
   -0.53378E+08         0.54180E+06         0.00000E+00
    0.54180E+06        -0.50009E+08         0.00000E+00
    0.00000E+00         0.00000E+00        -0.52498E+08
 
   -0.53360E+08         0.60394E+06         0.00000E+00
    0.60394E+06        -0.50011E+08         0.00000E+00
    0.00000E+00         0.00000E+00        -0.52498E+08
 
   -0.53342E+08         0.66575E+06         0.00000E+00
    0.66575E+06        -0.50014E+08         0.00000E+00
    0.00000E+00         0.00000E+00        -0.52498E+08
 
   -0.53324E+08         0.72722E+06         0.00000E+00
    0.72722E+06        -0.50016E+08         0.00000E+00
    0.00000E+00         0.00000E+00        -0.52498E+08
 
   -0.53305E+08         0.78836E+06         0.00000E+00
    0.78836E+06        -0.50019E+08         0.00000E+00
    0.00000E+00         0.00000E+00        -0.52499E+08
 
   -0.53286E+08         0.84917E+06         0.00000E+00
    0.84917E+06        -0.50022E+08         0.00000E+00
    0.00000E+00         0.00000E+00        -0.52499E+08
 
   -0.53268E+08         0.90963E+06         0.00000E+00
    0.90963E+06        -0.50026E+08         0.00000E+00
    0.00000E+00         0.00000E+00        -0.52499E+08
 
   -0.53249E+08         0.96976E+06         0.00000E+00
    0.96976E+06        -0.50029E+08         0.00000E+00
    0.00000E+00         0.00000E+00        -0.52499E+08
 
   -0.53230E+08         0.10296E+07         0.00000E+00
    0.10296E+07        -0.50033E+08         0.00000E+00
    0.00000E+00         0.00000E+00        -0.52499E+08
 
   -0.53210E+08         0.10890E+07         0.00000E+00
    0.10890E+07        -0.50037E+08         0.00000E+00
    0.00000E+00         0.00000E+00        -0.52499E+08
 
   -0.53191E+08         0.11481E+07         0.00000E+00
    0.11481E+07        -0.50042E+08         0.00000E+00
    0.00000E+00         0.00000E+00        -0.52499E+08
 
   -0.53171E+08         0.12069E+07         0.00000E+00
    0.12069E+07        -0.50046E+08         0.00000E+00
    0.00000E+00         0.00000E+00        -0.52499E+08
 
   -0.53152E+08         0.12654E+07         0.00000E+00
    0.12654E+07        -0.50051E+08         0.00000E+00
    0.00000E+00         0.00000E+00        -0.52500E+08
 
   -0.53132E+08         0.13235E+07         0.00000E+00
    0.13235E+07        -0.50056E+08         0.00000E+00
    0.00000E+00         0.00000E+00        -0.52500E+08
 
   -0.53112E+08         0.13812E+07         0.00000E+00
    0.13812E+07        -0.50061E+08         0.00000E+00
    0.00000E+00         0.00000E+00        -0.52500E+08
 
   -0.53092E+08         0.14387E+07         0.00000E+00
    0.14387E+07        -0.50066E+08         0.00000E+00
    0.00000E+00         0.00000E+00        -0.52500E+08
 
   -0.53072E+08         0.14958E+07         0.00000E+00
    0.14958E+07        -0.50072E+08         0.00000E+00
    0.00000E+00         0.00000E+00        -0.52500E+08
 
   -0.53052E+08         0.15525E+07         0.00000E+00
    0.15525E+07        -0.50078E+08         0.00000E+00
    0.00000E+00         0.00000E+00        -0.52500E+08
 
   -0.53031E+08         0.16090E+07         0.00000E+00
    0.16090E+07        -0.50084E+08         0.00000E+00
    0.00000E+00         0.00000E+00        -0.52500E+08
 
   -0.53011E+08         0.16651E+07         0.00000E+00
    0.16651E+07        -0.50090E+08         0.00000E+00
    0.00000E+00         0.00000E+00        -0.52501E+08
 
   -0.52990E+08         0.17208E+07         0.00000E+00
    0.17208E+07        -0.50097E+08         0.00000E+00
    0.00000E+00         0.00000E+00        -0.52501E+08
 
   -0.52969E+08         0.17762E+07         0.00000E+00
    0.17762E+07        -0.50104E+08         0.00000E+00
    0.00000E+00         0.00000E+00        -0.52501E+08
 
   -0.52948E+08         0.18313E+07         0.00000E+00
    0.18313E+07        -0.50111E+08         0.00000E+00
    0.00000E+00         0.00000E+00        -0.52501E+08
 
   -0.52927E+08         0.18861E+07         0.00000E+00
    0.18861E+07        -0.50118E+08         0.00000E+00
    0.00000E+00         0.00000E+00        -0.52501E+08
 
   -0.52905E+08         0.19405E+07         0.00000E+00
    0.19405E+07        -0.50126E+08         0.00000E+00
    0.00000E+00         0.00000E+00        -0.52501E+08
 
   -0.52884E+08         0.19945E+07         0.00000E+00
    0.19945E+07        -0.50133E+08         0.00000E+00
    0.00000E+00         0.00000E+00        -0.52501E+08
 
   -0.52862E+08         0.20483E+07         0.00000E+00
    0.20483E+07        -0.50141E+08         0.00000E+00
    0.00000E+00         0.00000E+00        -0.52502E+08
 
   -0.52841E+08         0.21017E+07         0.00000E+00
    0.21017E+07        -0.50150E+08         0.00000E+00
    0.00000E+00         0.00000E+00        -0.52502E+08
 
   -0.52819E+08         0.21547E+07         0.00000E+00
    0.21547E+07        -0.50158E+08         0.00000E+00
    0.00000E+00         0.00000E+00        -0.52502E+08
 
   -0.52796E+08         0.22075E+07         0.00000E+00
    0.22075E+07        -0.50167E+08         0.00000E+00
    0.00000E+00         0.00000E+00        -0.52502E+08
 
   -0.52774E+08         0.22598E+07         0.00000E+00
    0.22598E+07        -0.50176E+08         0.00000E+00
    0.00000E+00         0.00000E+00        -0.52502E+08
 
   -0.52752E+08         0.23119E+07         0.00000E+00
    0.23119E+07        -0.50185E+08         0.00000E+00
    0.00000E+00         0.00000E+00        -0.52502E+08
 
   -0.52729E+08         0.23636E+07         0.00000E+00
    0.23636E+07        -0.50195E+08         0.00000E+00
    0.00000E+00         0.00000E+00        -0.52502E+08
 
   -0.52706E+08         0.24150E+07         0.00000E+00
    0.24150E+07        -0.50205E+08         0.00000E+00
    0.00000E+00         0.00000E+00        -0.52503E+08
 
   -0.52683E+08         0.24660E+07         0.00000E+00
    0.24660E+07        -0.50215E+08         0.00000E+00
    0.00000E+00         0.00000E+00        -0.52503E+08
 
   -0.52660E+08         0.25167E+07         0.00000E+00
    0.25167E+07        -0.50225E+08         0.00000E+00
    0.00000E+00         0.00000E+00        -0.52503E+08
 
   -0.52636E+08         0.25670E+07         0.00000E+00
    0.25670E+07        -0.50236E+08         0.00000E+00
    0.00000E+00         0.00000E+00        -0.52503E+08
 
   -0.52613E+08         0.26170E+07         0.00000E+00
    0.26170E+07        -0.50247E+08         0.00000E+00
    0.00000E+00         0.00000E+00        -0.52503E+08
 
   -0.52589E+08         0.26666E+07         0.00000E+00
    0.26666E+07        -0.50258E+08         0.00000E+00
    0.00000E+00         0.00000E+00        -0.52503E+08
 
   -0.52564E+08         0.27159E+07         0.00000E+00
    0.27159E+07        -0.50270E+08         0.00000E+00
    0.00000E+00         0.00000E+00        -0.52503E+08
 
   -0.52540E+08         0.27648E+07         0.00000E+00
    0.27648E+07        -0.50281E+08         0.00000E+00
    0.00000E+00         0.00000E+00        -0.52503E+08
 
   -0.52515E+08         0.28133E+07         0.00000E+00
    0.28133E+07        -0.50294E+08         0.00000E+00
    0.00000E+00         0.00000E+00        -0.52503E+08
 
   -0.53196E+08         0.32198E+05         0.00000E+00
    0.32198E+05        -0.50000E+08         0.00000E+00
    0.00000E+00         0.00000E+00        -0.52261E+08
 
   -0.53180E+08         0.95748E+05         0.00000E+00
    0.95748E+05        -0.50000E+08         0.00000E+00
    0.00000E+00         0.00000E+00        -0.52261E+08
 
   -0.53165E+08         0.15899E+06         0.00000E+00
    0.15899E+06        -0.50001E+08         0.00000E+00
    0.00000E+00         0.00000E+00        -0.52261E+08
 
   -0.53150E+08         0.22191E+06         0.00000E+00
    0.22191E+06        -0.50001E+08         0.00000E+00
    0.00000E+00         0.00000E+00        -0.52261E+08
 
   -0.53134E+08         0.28452E+06         0.00000E+00
    0.28452E+06        -0.50002E+08         0.00000E+00
    0.00000E+00         0.00000E+00        -0.52262E+08
 
   -0.53118E+08         0.34682E+06         0.00000E+00
    0.34682E+06        -0.50004E+08         0.00000E+00
    0.00000E+00         0.00000E+00        -0.52262E+08
 
   -0.53102E+08         0.40879E+06         0.00000E+00
    0.40879E+06        -0.50005E+08         0.00000E+00
    0.00000E+00         0.00000E+00        -0.52262E+08
 
   -0.53086E+08         0.47044E+06         0.00000E+00
    0.47044E+06        -0.50006E+08         0.00000E+00
    0.00000E+00         0.00000E+00        -0.52262E+08
 
   -0.53070E+08         0.53177E+06         0.00000E+00
    0.53177E+06        -0.50008E+08         0.00000E+00
    0.00000E+00         0.00000E+00        -0.52262E+08
 
   -0.53053E+08         0.59278E+06         0.00000E+00
    0.59278E+06        -0.50010E+08         0.00000E+00
    0.00000E+00         0.00000E+00        -0.52262E+08
 
   -0.53037E+08         0.65346E+06         0.00000E+00
    0.65346E+06        -0.50013E+08         0.00000E+00
    0.00000E+00         0.00000E+00        -0.52262E+08
 
   -0.53020E+08         0.71381E+06         0.00000E+00
    0.71381E+06        -0.50015E+08         0.00000E+00
    0.00000E+00         0.00000E+00        -0.52262E+08
 
   -0.53003E+08         0.77383E+06         0.00000E+00
    0.77383E+06        -0.50018E+08         0.00000E+00
    0.00000E+00         0.00000E+00        -0.52262E+08
 
   -0.52986E+08         0.83352E+06         0.00000E+00
    0.83352E+06        -0.50021E+08         0.00000E+00
    0.00000E+00         0.00000E+00        -0.52262E+08
 
   -0.52969E+08         0.89288E+06         0.00000E+00
    0.89288E+06        -0.50024E+08         0.00000E+00
    0.00000E+00         0.00000E+00        -0.52262E+08
 
   -0.52952E+08         0.95190E+06         0.00000E+00
    0.95190E+06        -0.50027E+08         0.00000E+00
    0.00000E+00         0.00000E+00        -0.52262E+08
 
   -0.52934E+08         0.10106E+07         0.00000E+00
    0.10106E+07        -0.50031E+08         0.00000E+00
    0.00000E+00         0.00000E+00        -0.52262E+08
 
   -0.52917E+08         0.10690E+07         0.00000E+00
    0.10690E+07        -0.50034E+08         0.00000E+00
    0.00000E+00         0.00000E+00        -0.52262E+08
 
   -0.52899E+08         0.11270E+07         0.00000E+00
    0.11270E+07        -0.50038E+08         0.00000E+00
    0.00000E+00         0.00000E+00        -0.52263E+08
 
   -0.52881E+08         0.11847E+07         0.00000E+00
    0.11847E+07        -0.50042E+08         0.00000E+00
    0.00000E+00         0.00000E+00        -0.52263E+08
 
   -0.52863E+08         0.12420E+07         0.00000E+00
    0.12420E+07        -0.50047E+08         0.00000E+00
    0.00000E+00         0.00000E+00        -0.52263E+08
 
   -0.52845E+08         0.12990E+07         0.00000E+00
    0.12990E+07        -0.50051E+08         0.00000E+00
    0.00000E+00         0.00000E+00        -0.52263E+08
 
   -0.52827E+08         0.13557E+07         0.00000E+00
    0.13557E+07        -0.50056E+08         0.00000E+00
    0.00000E+00         0.00000E+00        -0.52263E+08
 
   -0.52808E+08         0.14120E+07         0.00000E+00
    0.14120E+07        -0.50061E+08         0.00000E+00
    0.00000E+00         0.00000E+00        -0.52263E+08
 
   -0.52790E+08         0.14680E+07         0.00000E+00
    0.14680E+07        -0.50066E+08         0.00000E+00
    0.00000E+00         0.00000E+00        -0.52263E+08
 
   -0.52771E+08         0.15237E+07         0.00000E+00
    0.15237E+07        -0.50072E+08         0.00000E+00
    0.00000E+00         0.00000E+00        -0.52263E+08
 
   -0.52753E+08         0.15790E+07         0.00000E+00
    0.15790E+07        -0.50078E+08         0.00000E+00
    0.00000E+00         0.00000E+00        -0.52264E+08
 
   -0.52734E+08         0.16339E+07         0.00000E+00
    0.16339E+07        -0.50083E+08         0.00000E+00
    0.00000E+00         0.00000E+00        -0.52264E+08
 
   -0.52715E+08         0.16886E+07         0.00000E+00
    0.16886E+07        -0.50090E+08         0.00000E+00
    0.00000E+00         0.00000E+00        -0.52264E+08
 
   -0.52696E+08         0.17428E+07         0.00000E+00
    0.17428E+07        -0.50096E+08         0.00000E+00
    0.00000E+00         0.00000E+00        -0.52264E+08
 
   -0.52676E+08         0.17968E+07         0.00000E+00
    0.17968E+07        -0.50102E+08         0.00000E+00
    0.00000E+00         0.00000E+00        -0.52264E+08
 
   -0.52657E+08         0.18503E+07         0.00000E+00
    0.18503E+07        -0.50109E+08         0.00000E+00
    0.00000E+00         0.00000E+00        -0.52264E+08
 
   -0.52637E+08         0.19036E+07         0.00000E+00
    0.19036E+07        -0.50116E+08         0.00000E+00
    0.00000E+00         0.00000E+00        -0.52264E+08
 
   -0.52617E+08         0.19565E+07         0.00000E+00
    0.19565E+07        -0.50123E+08         0.00000E+00
    0.00000E+00         0.00000E+00        -0.52264E+08
 
   -0.52597E+08         0.20090E+07         0.00000E+00
    0.20090E+07        -0.50131E+08         0.00000E+00
    0.00000E+00         0.00000E+00        -0.52265E+08
 
   -0.52577E+08         0.20612E+07         0.00000E+00
    0.20612E+07        -0.50138E+08         0.00000E+00
    0.00000E+00         0.00000E+00        -0.52265E+08
 
   -0.52557E+08         0.21131E+07         0.00000E+00
    0.21131E+07        -0.50146E+08         0.00000E+00
    0.00000E+00         0.00000E+00        -0.52265E+08
 
   -0.52537E+08         0.21645E+07         0.00000E+00
    0.21645E+07        -0.50154E+08         0.00000E+00
    0.00000E+00         0.00000E+00        -0.52265E+08
 
   -0.52516E+08         0.22157E+07         0.00000E+00
    0.22157E+07        -0.50163E+08         0.00000E+00
    0.00000E+00         0.00000E+00        -0.52265E+08
 
   -0.52495E+08         0.22665E+07         0.00000E+00
    0.22665E+07        -0.50171E+08         0.00000E+00
    0.00000E+00         0.00000E+00        -0.52265E+08
 
   -0.52475E+08         0.23169E+07         0.00000E+00
    0.23169E+07        -0.50180E+08         0.00000E+00
    0.00000E+00         0.00000E+00        -0.52265E+08
 
   -0.52453E+08         0.23669E+07         0.00000E+00
    0.23669E+07        -0.50189E+08         0.00000E+00
    0.00000E+00         0.00000E+00        -0.52265E+08
 
   -0.52432E+08         0.24166E+07         0.00000E+00
    0.24166E+07        -0.50199E+08         0.00000E+00
    0.00000E+00         0.00000E+00        -0.52265E+08
 
   -0.52411E+08         0.24660E+07         0.00000E+00
    0.24660E+07        -0.50208E+08         0.00000E+00
    0.00000E+00         0.00000E+00        -0.52266E+08
 
   -0.52389E+08         0.25149E+07         0.00000E+00
    0.25149E+07        -0.50218E+08         0.00000E+00
    0.00000E+00         0.00000E+00        -0.52266E+08
 
   -0.52367E+08         0.25635E+07         0.00000E+00
    0.25635E+07        -0.50228E+08         0.00000E+00
    0.00000E+00         0.00000E+00        -0.52266E+08
 
   -0.52345E+08         0.26117E+07         0.00000E+00
    0.26117E+07        -0.50239E+08         0.00000E+00
    0.00000E+00         0.00000E+00        -0.52266E+08
 
   -0.52323E+08         0.26596E+07         0.00000E+00
    0.26596E+07        -0.50249E+08         0.00000E+00
    0.00000E+00         0.00000E+00        -0.52266E+08
 
   -0.52300E+08         0.27070E+07         0.00000E+00
    0.27070E+07        -0.50260E+08         0.00000E+00
    0.00000E+00         0.00000E+00        -0.52266E+08
 
   -0.52277E+08         0.27541E+07         0.00000E+00
    0.27541E+07        -0.50272E+08         0.00000E+00
    0.00000E+00         0.00000E+00        -0.52266E+08
 
   -0.52880E+08         0.31633E+05         0.00000E+00
    0.31633E+05        -0.50000E+08         0.00000E+00
    0.00000E+00         0.00000E+00        -0.52032E+08
 
   -0.52866E+08         0.94079E+05         0.00000E+00
    0.94079E+05        -0.50000E+08         0.00000E+00
    0.00000E+00         0.00000E+00        -0.52032E+08
 
   -0.52852E+08         0.15622E+06         0.00000E+00
    0.15622E+06        -0.50001E+08         0.00000E+00
    0.00000E+00         0.00000E+00        -0.52032E+08
 
   -0.52839E+08         0.21806E+06         0.00000E+00
    0.21806E+06        -0.50001E+08         0.00000E+00
    0.00000E+00         0.00000E+00        -0.52032E+08
 
   -0.52824E+08         0.27959E+06         0.00000E+00
    0.27959E+06        -0.50002E+08         0.00000E+00
    0.00000E+00         0.00000E+00        -0.52032E+08
 
   -0.52810E+08         0.34082E+06         0.00000E+00
    0.34082E+06        -0.50003E+08         0.00000E+00
    0.00000E+00         0.00000E+00        -0.52032E+08
 
   -0.52796E+08         0.40173E+06         0.00000E+00
    0.40173E+06        -0.50004E+08         0.00000E+00
    0.00000E+00         0.00000E+00        -0.52032E+08
 
   -0.52781E+08         0.46232E+06         0.00000E+00
    0.46232E+06        -0.50006E+08         0.00000E+00
    0.00000E+00         0.00000E+00        -0.52032E+08
 
   -0.52767E+08         0.52260E+06         0.00000E+00
    0.52260E+06        -0.50008E+08         0.00000E+00
    0.00000E+00         0.00000E+00        -0.52032E+08
 
   -0.52752E+08         0.58256E+06         0.00000E+00
    0.58256E+06        -0.50009E+08         0.00000E+00
    0.00000E+00         0.00000E+00        -0.52032E+08
 
   -0.52737E+08         0.64220E+06         0.00000E+00
    0.64220E+06        -0.50011E+08         0.00000E+00
    0.00000E+00         0.00000E+00        -0.52032E+08
 
   -0.52722E+08         0.70152E+06         0.00000E+00
    0.70152E+06        -0.50014E+08         0.00000E+00
    0.00000E+00         0.00000E+00        -0.52032E+08
 
   -0.52706E+08         0.76051E+06         0.00000E+00
    0.76051E+06        -0.50016E+08         0.00000E+00
    0.00000E+00         0.00000E+00        -0.52032E+08
 
   -0.52691E+08         0.81918E+06         0.00000E+00
    0.81918E+06        -0.50019E+08         0.00000E+00
    0.00000E+00         0.00000E+00        -0.52032E+08
 
   -0.52676E+08         0.87752E+06         0.00000E+00
    0.87752E+06        -0.50022E+08         0.00000E+00
    0.00000E+00         0.00000E+00        -0.52033E+08
 
   -0.52660E+08         0.93552E+06         0.00000E+00
    0.93552E+06        -0.50025E+08         0.00000E+00
    0.00000E+00         0.00000E+00        -0.52033E+08
 
   -0.52644E+08         0.99320E+06         0.00000E+00
    0.99320E+06        -0.50028E+08         0.00000E+00
    0.00000E+00         0.00000E+00        -0.52033E+08
 
   -0.52628E+08         0.10505E+07         0.00000E+00
    0.10505E+07        -0.50031E+08         0.00000E+00
    0.00000E+00         0.00000E+00        -0.52033E+08
 
   -0.52612E+08         0.11075E+07         0.00000E+00
    0.11075E+07        -0.50035E+08         0.00000E+00
    0.00000E+00         0.00000E+00        -0.52033E+08
 
   -0.52596E+08         0.11642E+07         0.00000E+00
    0.11642E+07        -0.50039E+08         0.00000E+00
    0.00000E+00         0.00000E+00        -0.52033E+08
 
   -0.52580E+08         0.12205E+07         0.00000E+00
    0.12205E+07        -0.50043E+08         0.00000E+00
    0.00000E+00         0.00000E+00        -0.52033E+08
 
   -0.52563E+08         0.12765E+07         0.00000E+00
    0.12765E+07        -0.50047E+08         0.00000E+00
    0.00000E+00         0.00000E+00        -0.52033E+08
 
   -0.52547E+08         0.13322E+07         0.00000E+00
    0.13322E+07        -0.50051E+08         0.00000E+00
    0.00000E+00         0.00000E+00        -0.52033E+08
 
   -0.52530E+08         0.13875E+07         0.00000E+00
    0.13875E+07        -0.50056E+08         0.00000E+00
    0.00000E+00         0.00000E+00        -0.52033E+08
 
   -0.52513E+08         0.14425E+07         0.00000E+00
    0.14425E+07        -0.50061E+08         0.00000E+00
    0.00000E+00         0.00000E+00        -0.52034E+08
 
   -0.52497E+08         0.14971E+07         0.00000E+00
    0.14971E+07        -0.50066E+08         0.00000E+00
    0.00000E+00         0.00000E+00        -0.52034E+08
 
   -0.52480E+08         0.15514E+07         0.00000E+00
    0.15514E+07        -0.50071E+08         0.00000E+00
    0.00000E+00         0.00000E+00        -0.52034E+08
 
   -0.52462E+08         0.16053E+07         0.00000E+00
    0.16053E+07        -0.50076E+08         0.00000E+00
    0.00000E+00         0.00000E+00        -0.52034E+08
 
   -0.52445E+08         0.16589E+07         0.00000E+00
    0.16589E+07        -0.50082E+08         0.00000E+00
    0.00000E+00         0.00000E+00        -0.52034E+08
 
   -0.52428E+08         0.17121E+07         0.00000E+00
    0.17121E+07        -0.50087E+08         0.00000E+00
    0.00000E+00         0.00000E+00        -0.52034E+08
 
   -0.52410E+08         0.17649E+07         0.00000E+00
    0.17649E+07        -0.50093E+08         0.00000E+00
    0.00000E+00         0.00000E+00        -0.52034E+08
 
   -0.52392E+08         0.18175E+07         0.00000E+00
    0.18175E+07        -0.50100E+08         0.00000E+00
    0.00000E+00         0.00000E+00        -0.52034E+08
 
   -0.52375E+08         0.18696E+07         0.00000E+00
    0.18696E+07        -0.50106E+08         0.00000E+00
    0.00000E+00         0.00000E+00        -0.52034E+08
 
   -0.52357E+08         0.19214E+07         0.00000E+00
    0.19214E+07        -0.50113E+08         0.00000E+00
    0.00000E+00         0.00000E+00        -0.52035E+08
 
   -0.52338E+08         0.19729E+07         0.00000E+00
    0.19729E+07        -0.50119E+08         0.00000E+00
    0.00000E+00         0.00000E+00        -0.52035E+08
 
   -0.52320E+08         0.20239E+07         0.00000E+00
    0.20239E+07        -0.50126E+08         0.00000E+00
    0.00000E+00         0.00000E+00        -0.52035E+08
 
   -0.52302E+08         0.20747E+07         0.00000E+00
    0.20747E+07        -0.50134E+08         0.00000E+00
    0.00000E+00         0.00000E+00        -0.52035E+08
 
   -0.52283E+08         0.21250E+07         0.00000E+00
    0.21250E+07        -0.50141E+08         0.00000E+00
    0.00000E+00         0.00000E+00        -0.52035E+08
 
   -0.52264E+08         0.21750E+07         0.00000E+00
    0.21750E+07        -0.50149E+08         0.00000E+00
    0.00000E+00         0.00000E+00        -0.52035E+08
 
   -0.52245E+08         0.22246E+07         0.00000E+00
    0.22246E+07        -0.50157E+08         0.00000E+00
    0.00000E+00         0.00000E+00        -0.52035E+08
 
   -0.52226E+08         0.22738E+07         0.00000E+00
    0.22738E+07        -0.50165E+08         0.00000E+00
    0.00000E+00         0.00000E+00        -0.52035E+08
 
   -0.52207E+08         0.23227E+07         0.00000E+00
    0.23227E+07        -0.50173E+08         0.00000E+00
    0.00000E+00         0.00000E+00        -0.52035E+08
 
   -0.52188E+08         0.23712E+07         0.00000E+00
    0.23712E+07        -0.50182E+08         0.00000E+00
    0.00000E+00         0.00000E+00        -0.52035E+08
 
   -0.52168E+08         0.24193E+07         0.00000E+00
    0.24193E+07        -0.50190E+08         0.00000E+00
    0.00000E+00         0.00000E+00        -0.52036E+08
 
   -0.52148E+08         0.24670E+07         0.00000E+00
    0.24670E+07        -0.50199E+08         0.00000E+00
    0.00000E+00         0.00000E+00        -0.52036E+08
 
   -0.52128E+08         0.25143E+07         0.00000E+00
    0.25143E+07        -0.50209E+08         0.00000E+00
    0.00000E+00         0.00000E+00        -0.52036E+08
 
   -0.52108E+08         0.25613E+07         0.00000E+00
    0.25613E+07        -0.50218E+08         0.00000E+00
    0.00000E+00         0.00000E+00        -0.52036E+08
 
   -0.52088E+08         0.26078E+07         0.00000E+00
    0.26078E+07        -0.50228E+08         0.00000E+00
    0.00000E+00         0.00000E+00        -0.52036E+08
 
   -0.52067E+08         0.26540E+07         0.00000E+00
    0.26540E+07        -0.50238E+08         0.00000E+00
    0.00000E+00         0.00000E+00        -0.52036E+08
 
   -0.52046E+08         0.26997E+07         0.00000E+00
    0.26997E+07        -0.50248E+08         0.00000E+00
    0.00000E+00         0.00000E+00        -0.52036E+08
 
   -0.52569E+08         0.31123E+05         0.00000E+00
    0.31123E+05        -0.50000E+08         0.00000E+00
    0.00000E+00         0.00000E+00        -0.51809E+08
 
   -0.52557E+08         0.92572E+05         0.00000E+00
    0.92572E+05        -0.50000E+08         0.00000E+00
    0.00000E+00         0.00000E+00        -0.51809E+08
 
   -0.52545E+08         0.15373E+06         0.00000E+00
    0.15373E+06        -0.50001E+08         0.00000E+00
    0.00000E+00         0.00000E+00        -0.51809E+08
 
   -0.52533E+08         0.21458E+06         0.00000E+00
    0.21458E+06        -0.50001E+08         0.00000E+00
    0.00000E+00         0.00000E+00        -0.51809E+08
 
   -0.52520E+08         0.27514E+06         0.00000E+00
    0.27514E+06        -0.50002E+08         0.00000E+00
    0.00000E+00         0.00000E+00        -0.51809E+08
 
   -0.52507E+08         0.33540E+06         0.00000E+00
    0.33540E+06        -0.50003E+08         0.00000E+00
    0.00000E+00         0.00000E+00        -0.51809E+08
 
   -0.52494E+08         0.39534E+06         0.00000E+00
    0.39534E+06        -0.50004E+08         0.00000E+00
    0.00000E+00         0.00000E+00        -0.51809E+08
 
   -0.52481E+08         0.45498E+06         0.00000E+00
    0.45498E+06        -0.50005E+08         0.00000E+00
    0.00000E+00         0.00000E+00        -0.51809E+08
 
   -0.52468E+08         0.51431E+06         0.00000E+00
    0.51431E+06        -0.50007E+08         0.00000E+00
    0.00000E+00         0.00000E+00        -0.51809E+08
 
   -0.52455E+08         0.57333E+06         0.00000E+00
    0.57333E+06        -0.50008E+08         0.00000E+00
    0.00000E+00         0.00000E+00        -0.51809E+08
 
   -0.52442E+08         0.63203E+06         0.00000E+00
    0.63203E+06        -0.50010E+08         0.00000E+00
    0.00000E+00         0.00000E+00        -0.51809E+08
 
   -0.52428E+08         0.69041E+06         0.00000E+00
    0.69041E+06        -0.50012E+08         0.00000E+00
    0.00000E+00         0.00000E+00        -0.51809E+08
 
   -0.52415E+08         0.74846E+06         0.00000E+00
    0.74846E+06        -0.50014E+08         0.00000E+00
    0.00000E+00         0.00000E+00        -0.51809E+08
 
   -0.52401E+08         0.80620E+06         0.00000E+00
    0.80620E+06        -0.50017E+08         0.00000E+00
    0.00000E+00         0.00000E+00        -0.51809E+08
 
   -0.52387E+08         0.86361E+06         0.00000E+00
    0.86361E+06        -0.50019E+08         0.00000E+00
    0.00000E+00         0.00000E+00        -0.51809E+08
 
   -0.52373E+08         0.92069E+06         0.00000E+00
    0.92069E+06        -0.50022E+08         0.00000E+00
    0.00000E+00         0.00000E+00        -0.51809E+08
 
   -0.52359E+08         0.97743E+06         0.00000E+00
    0.97743E+06        -0.50025E+08         0.00000E+00
    0.00000E+00         0.00000E+00        -0.51809E+08
 
   -0.52345E+08         0.10339E+07         0.00000E+00
    0.10339E+07        -0.50028E+08         0.00000E+00
    0.00000E+00         0.00000E+00        -0.51810E+08
 
   -0.52330E+08         0.10899E+07         0.00000E+00
    0.10899E+07        -0.50031E+08         0.00000E+00
    0.00000E+00         0.00000E+00        -0.51810E+08
 
   -0.52316E+08         0.11457E+07         0.00000E+00
    0.11457E+07        -0.50035E+08         0.00000E+00
    0.00000E+00         0.00000E+00        -0.51810E+08
 
   -0.52301E+08         0.12011E+07         0.00000E+00
    0.12011E+07        -0.50038E+08         0.00000E+00
    0.00000E+00         0.00000E+00        -0.51810E+08
 
   -0.52287E+08         0.12561E+07         0.00000E+00
    0.12561E+07        -0.50042E+08         0.00000E+00
    0.00000E+00         0.00000E+00        -0.51810E+08
 
   -0.52272E+08         0.13109E+07         0.00000E+00
    0.13109E+07        -0.50046E+08         0.00000E+00
    0.00000E+00         0.00000E+00        -0.51810E+08
 
   -0.52257E+08         0.13652E+07         0.00000E+00
    0.13652E+07        -0.50050E+08         0.00000E+00
    0.00000E+00         0.00000E+00        -0.51810E+08
 
   -0.52242E+08         0.14193E+07         0.00000E+00
    0.14193E+07        -0.50054E+08         0.00000E+00
    0.00000E+00         0.00000E+00        -0.51810E+08
 
   -0.52227E+08         0.14729E+07         0.00000E+00
    0.14729E+07        -0.50059E+08         0.00000E+00
    0.00000E+00         0.00000E+00        -0.51810E+08
 
   -0.52211E+08         0.15263E+07         0.00000E+00
    0.15263E+07        -0.50064E+08         0.00000E+00
    0.00000E+00         0.00000E+00        -0.51810E+08
 
   -0.52196E+08         0.15792E+07         0.00000E+00
    0.15792E+07        -0.50068E+08         0.00000E+00
    0.00000E+00         0.00000E+00        -0.51810E+08
 
   -0.52180E+08         0.16319E+07         0.00000E+00
    0.16319E+07        -0.50074E+08         0.00000E+00
    0.00000E+00         0.00000E+00        -0.51811E+08
 
   -0.52165E+08         0.16841E+07         0.00000E+00
    0.16841E+07        -0.50079E+08         0.00000E+00
    0.00000E+00         0.00000E+00        -0.51811E+08
 
   -0.52149E+08         0.17360E+07         0.00000E+00
    0.17360E+07        -0.50084E+08         0.00000E+00
    0.00000E+00         0.00000E+00        -0.51811E+08
 
   -0.52133E+08         0.17876E+07         0.00000E+00
    0.17876E+07        -0.50090E+08         0.00000E+00
    0.00000E+00         0.00000E+00        -0.51811E+08
 
   -0.52117E+08         0.18387E+07         0.00000E+00
    0.18387E+07        -0.50095E+08         0.00000E+00
    0.00000E+00         0.00000E+00        -0.51811E+08
 
   -0.52101E+08         0.18895E+07         0.00000E+00
    0.18895E+07        -0.50101E+08         0.00000E+00
    0.00000E+00         0.00000E+00        -0.51811E+08
 
   -0.52085E+08         0.19400E+07         0.00000E+00
    0.19400E+07        -0.50108E+08         0.00000E+00
    0.00000E+00         0.00000E+00        -0.51811E+08
 
   -0.52068E+08         0.19901E+07         0.00000E+00
    0.19901E+07        -0.50114E+08         0.00000E+00
    0.00000E+00         0.00000E+00        -0.51811E+08
 
   -0.52052E+08         0.20397E+07         0.00000E+00
    0.20397E+07        -0.50120E+08         0.00000E+00
    0.00000E+00         0.00000E+00        -0.51811E+08
 
   -0.52035E+08         0.20891E+07         0.00000E+00
    0.20891E+07        -0.50127E+08         0.00000E+00
    0.00000E+00         0.00000E+00        -0.51811E+08
 
   -0.52018E+08         0.21380E+07         0.00000E+00
    0.21380E+07        -0.50134E+08         0.00000E+00
    0.00000E+00         0.00000E+00        -0.51812E+08
 
   -0.52001E+08         0.21865E+07         0.00000E+00
    0.21865E+07        -0.50141E+08         0.00000E+00
    0.00000E+00         0.00000E+00        -0.51812E+08
 
   -0.51984E+08         0.22347E+07         0.00000E+00
    0.22347E+07        -0.50148E+08         0.00000E+00
    0.00000E+00         0.00000E+00        -0.51812E+08
 
   -0.51966E+08         0.22825E+07         0.00000E+00
    0.22825E+07        -0.50156E+08         0.00000E+00
    0.00000E+00         0.00000E+00        -0.51812E+08
 
   -0.51949E+08         0.23299E+07         0.00000E+00
    0.23299E+07        -0.50164E+08         0.00000E+00
    0.00000E+00         0.00000E+00        -0.51812E+08
 
   -0.51931E+08         0.23769E+07         0.00000E+00
    0.23769E+07        -0.50172E+08         0.00000E+00
    0.00000E+00         0.00000E+00        -0.51812E+08
 
   -0.51913E+08         0.24235E+07         0.00000E+00
    0.24235E+07        -0.50180E+08         0.00000E+00
    0.00000E+00         0.00000E+00        -0.51812E+08
 
   -0.51895E+08         0.24697E+07         0.00000E+00
    0.24697E+07        -0.50188E+08         0.00000E+00
    0.00000E+00         0.00000E+00        -0.51812E+08
 
   -0.51877E+08         0.25155E+07         0.00000E+00
    0.25155E+07        -0.50197E+08         0.00000E+00
    0.00000E+00         0.00000E+00        -0.51812E+08
 
   -0.51859E+08         0.25608E+07         0.00000E+00
    0.25608E+07        -0.50206E+08         0.00000E+00
    0.00000E+00         0.00000E+00        -0.51812E+08
 
   -0.51840E+08         0.26058E+07         0.00000E+00
    0.26058E+07        -0.50215E+08         0.00000E+00
    0.00000E+00         0.00000E+00        -0.51812E+08
 
   -0.51822E+08         0.26503E+07         0.00000E+00
    0.26503E+07        -0.50224E+08         0.00000E+00
    0.00000E+00         0.00000E+00        -0.51812E+08
 
   -0.52264E+08         0.30669E+05         0.00000E+00
    0.30669E+05        -0.50000E+08         0.00000E+00
    0.00000E+00         0.00000E+00        -0.51591E+08
 
   -0.52253E+08         0.91230E+05         0.00000E+00
    0.91230E+05        -0.50000E+08         0.00000E+00
    0.00000E+00         0.00000E+00        -0.51591E+08
 
   -0.52242E+08         0.15150E+06         0.00000E+00
    0.15150E+06        -0.50001E+08         0.00000E+00
    0.00000E+00         0.00000E+00        -0.51591E+08
 
   -0.52231E+08         0.21149E+06         0.00000E+00
    0.21149E+06        -0.50001E+08         0.00000E+00
    0.00000E+00         0.00000E+00        -0.51591E+08
 
   -0.52220E+08         0.27118E+06         0.00000E+00
    0.27118E+06        -0.50002E+08         0.00000E+00
    0.00000E+00         0.00000E+00        -0.51591E+08
 
   -0.52209E+08         0.33057E+06         0.00000E+00
    0.33057E+06        -0.50003E+08         0.00000E+00
    0.00000E+00         0.00000E+00        -0.51591E+08
 
   -0.52198E+08         0.38966E+06         0.00000E+00
    0.38966E+06        -0.50004E+08         0.00000E+00
    0.00000E+00         0.00000E+00        -0.51591E+08
 
   -0.52186E+08         0.44845E+06         0.00000E+00
    0.44845E+06        -0.50005E+08         0.00000E+00
    0.00000E+00         0.00000E+00        -0.51591E+08
 
   -0.52175E+08         0.50693E+06         0.00000E+00
    0.50693E+06        -0.50006E+08         0.00000E+00
    0.00000E+00         0.00000E+00        -0.51591E+08
 
   -0.52163E+08         0.56510E+06         0.00000E+00
    0.56510E+06        -0.50007E+08         0.00000E+00
    0.00000E+00         0.00000E+00        -0.51591E+08
 
   -0.52151E+08         0.62295E+06         0.00000E+00
    0.62295E+06        -0.50009E+08         0.00000E+00
    0.00000E+00         0.00000E+00        -0.51592E+08
 
   -0.52139E+08         0.68050E+06         0.00000E+00
    0.68050E+06        -0.50011E+08         0.00000E+00
    0.00000E+00         0.00000E+00        -0.51592E+08
 
   -0.52127E+08         0.73772E+06         0.00000E+00
    0.73772E+06        -0.50013E+08         0.00000E+00
    0.00000E+00         0.00000E+00        -0.51592E+08
 
   -0.52115E+08         0.79462E+06         0.00000E+00
    0.79462E+06        -0.50015E+08         0.00000E+00
    0.00000E+00         0.00000E+00        -0.51592E+08
 
   -0.52103E+08         0.85120E+06         0.00000E+00
    0.85120E+06        -0.50017E+08         0.00000E+00
    0.00000E+00         0.00000E+00        -0.51592E+08
 
   -0.52091E+08         0.90745E+06         0.00000E+00
    0.90745E+06        -0.50020E+08         0.00000E+00
    0.00000E+00         0.00000E+00        -0.51592E+08
 
   -0.52078E+08         0.96337E+06         0.00000E+00
    0.96337E+06        -0.50022E+08         0.00000E+00
    0.00000E+00         0.00000E+00        -0.51592E+08
 
   -0.52066E+08         0.10190E+07         0.00000E+00
    0.10190E+07        -0.50025E+08         0.00000E+00
    0.00000E+00         0.00000E+00        -0.51592E+08
 
   -0.52053E+08         0.10742E+07         0.00000E+00
    0.10742E+07        -0.50028E+08         0.00000E+00
    0.00000E+00         0.00000E+00        -0.51592E+08
 
   -0.52040E+08         0.11291E+07         0.00000E+00
    0.11291E+07        -0.50031E+08         0.00000E+00
    0.00000E+00         0.00000E+00        -0.51592E+08
 
   -0.52027E+08         0.11837E+07         0.00000E+00
    0.11837E+07        -0.50034E+08         0.00000E+00
    0.00000E+00         0.00000E+00        -0.51592E+08
 
   -0.52014E+08         0.12379E+07         0.00000E+00
    0.12379E+07        -0.50037E+08         0.00000E+00
    0.00000E+00         0.00000E+00        -0.51592E+08
 
   -0.52001E+08         0.12918E+07         0.00000E+00
    0.12918E+07        -0.50041E+08         0.00000E+00
    0.00000E+00         0.00000E+00        -0.51592E+08
 
   -0.51988E+08         0.13454E+07         0.00000E+00
    0.13454E+07        -0.50044E+08         0.00000E+00
    0.00000E+00         0.00000E+00        -0.51592E+08
 
   -0.51975E+08         0.13985E+07         0.00000E+00
    0.13985E+07        -0.50048E+08         0.00000E+00
    0.00000E+00         0.00000E+00        -0.51592E+08
 
   -0.51961E+08         0.14514E+07         0.00000E+00
    0.14514E+07        -0.50052E+08         0.00000E+00
    0.00000E+00         0.00000E+00        -0.51593E+08
 
   -0.51948E+08         0.15039E+07         0.00000E+00
    0.15039E+07        -0.50056E+08         0.00000E+00
    0.00000E+00         0.00000E+00        -0.51593E+08
 
   -0.51934E+08         0.15560E+07         0.00000E+00
    0.15560E+07        -0.50061E+08         0.00000E+00
    0.00000E+00         0.00000E+00        -0.51593E+08
 
   -0.51920E+08         0.16077E+07         0.00000E+00
    0.16077E+07        -0.50065E+08         0.00000E+00
    0.00000E+00         0.00000E+00        -0.51593E+08
 
   -0.51907E+08         0.16591E+07         0.00000E+00
    0.16591E+07        -0.50070E+08         0.00000E+00
    0.00000E+00         0.00000E+00        -0.51593E+08
 
   -0.51893E+08         0.17102E+07         0.00000E+00
    0.17102E+07        -0.50074E+08         0.00000E+00
    0.00000E+00         0.00000E+00        -0.51593E+08
 
   -0.51879E+08         0.17608E+07         0.00000E+00
    0.17608E+07        -0.50079E+08         0.00000E+00
    0.00000E+00         0.00000E+00        -0.51593E+08
 
   -0.51864E+08         0.18111E+07         0.00000E+00
    0.18111E+07        -0.50084E+08         0.00000E+00
    0.00000E+00         0.00000E+00        -0.51593E+08
 
   -0.51850E+08         0.18610E+07         0.00000E+00
    0.18610E+07        -0.50090E+08         0.00000E+00
    0.00000E+00         0.00000E+00        -0.51593E+08
 
   -0.51836E+08         0.19106E+07         0.00000E+00
    0.19106E+07        -0.50095E+08         0.00000E+00
    0.00000E+00         0.00000E+00        -0.51593E+08
 
   -0.51821E+08         0.19597E+07         0.00000E+00
    0.19597E+07        -0.50101E+08         0.00000E+00
    0.00000E+00         0.00000E+00        -0.51593E+08
 
   -0.51806E+08         0.20085E+07         0.00000E+00
    0.20085E+07        -0.50107E+08         0.00000E+00
    0.00000E+00         0.00000E+00        -0.51594E+08
 
   -0.51792E+08         0.20569E+07         0.00000E+00
    0.20569E+07        -0.50113E+08         0.00000E+00
    0.00000E+00         0.00000E+00        -0.51594E+08
 
   -0.51777E+08         0.21049E+07         0.00000E+00
    0.21049E+07        -0.50119E+08         0.00000E+00
    0.00000E+00         0.00000E+00        -0.51594E+08
 
   -0.51762E+08         0.21525E+07         0.00000E+00
    0.21525E+07        -0.50125E+08         0.00000E+00
    0.00000E+00         0.00000E+00        -0.51594E+08
 
   -0.51746E+08         0.21997E+07         0.00000E+00
    0.21997E+07        -0.50132E+08         0.00000E+00
    0.00000E+00         0.00000E+00        -0.51594E+08
 
   -0.51731E+08         0.22465E+07         0.00000E+00
    0.22465E+07        -0.50138E+08         0.00000E+00
    0.00000E+00         0.00000E+00        -0.51594E+08
 
   -0.51715E+08         0.22929E+07         0.00000E+00
    0.22929E+07        -0.50145E+08         0.00000E+00
    0.00000E+00         0.00000E+00        -0.51594E+08
 
   -0.51700E+08         0.23389E+07         0.00000E+00
    0.23389E+07        -0.50152E+08         0.00000E+00
    0.00000E+00         0.00000E+00        -0.51594E+08
 
   -0.51684E+08         0.23845E+07         0.00000E+00
    0.23845E+07        -0.50159E+08         0.00000E+00
    0.00000E+00         0.00000E+00        -0.51594E+08
 
   -0.51668E+08         0.24297E+07         0.00000E+00
    0.24297E+07        -0.50167E+08         0.00000E+00
    0.00000E+00         0.00000E+00        -0.51594E+08
 
   -0.51652E+08         0.24745E+07         0.00000E+00
    0.24745E+07        -0.50174E+08         0.00000E+00
    0.00000E+00         0.00000E+00        -0.51594E+08
 
   -0.51636E+08         0.25188E+07         0.00000E+00
    0.25188E+07        -0.50182E+08         0.00000E+00
    0.00000E+00         0.00000E+00        -0.51594E+08
 
   -0.51619E+08         0.25627E+07         0.00000E+00
    0.25627E+07        -0.50190E+08         0.00000E+00
    0.00000E+00         0.00000E+00        -0.51594E+08
 
   -0.51603E+08         0.26062E+07         0.00000E+00
    0.26062E+07        -0.50198E+08         0.00000E+00
    0.00000E+00         0.00000E+00        -0.51594E+08
 
   -0.51962E+08         0.30272E+05         0.00000E+00
    0.30272E+05        -0.50000E+08         0.00000E+00
    0.00000E+00         0.00000E+00        -0.51379E+08
 
   -0.51953E+08         0.90058E+05         0.00000E+00
    0.90058E+05        -0.50000E+08         0.00000E+00
    0.00000E+00         0.00000E+00        -0.51379E+08
 
   -0.51943E+08         0.14956E+06         0.00000E+00
    0.14956E+06        -0.50000E+08         0.00000E+00
    0.00000E+00         0.00000E+00        -0.51379E+08
 
   -0.51934E+08         0.20878E+06         0.00000E+00
    0.20878E+06        -0.50001E+08         0.00000E+00
    0.00000E+00         0.00000E+00        -0.51379E+08
 
   -0.51924E+08         0.26771E+06         0.00000E+00
    0.26771E+06        -0.50001E+08         0.00000E+00
    0.00000E+00         0.00000E+00        -0.51379E+08
 
   -0.51915E+08         0.32635E+06         0.00000E+00
    0.32635E+06        -0.50002E+08         0.00000E+00
    0.00000E+00         0.00000E+00        -0.51379E+08
 
   -0.51905E+08         0.38469E+06         0.00000E+00
    0.38469E+06        -0.50003E+08         0.00000E+00
    0.00000E+00         0.00000E+00        -0.51379E+08
 
   -0.51895E+08         0.44273E+06         0.00000E+00
    0.44273E+06        -0.50004E+08         0.00000E+00
    0.00000E+00         0.00000E+00        -0.51379E+08
 
   -0.51885E+08         0.50047E+06         0.00000E+00
    0.50047E+06        -0.50005E+08         0.00000E+00
    0.00000E+00         0.00000E+00        -0.51379E+08
 
   -0.51875E+08         0.55790E+06         0.00000E+00
    0.55790E+06        -0.50006E+08         0.00000E+00
    0.00000E+00         0.00000E+00        -0.51379E+08
 
   -0.51864E+08         0.61502E+06         0.00000E+00
    0.61502E+06        -0.50008E+08         0.00000E+00
    0.00000E+00         0.00000E+00        -0.51379E+08
 
   -0.51854E+08         0.67183E+06         0.00000E+00
    0.67183E+06        -0.50009E+08         0.00000E+00
    0.00000E+00         0.00000E+00        -0.51379E+08
 
   -0.51844E+08         0.72832E+06         0.00000E+00
    0.72832E+06        -0.50011E+08         0.00000E+00
    0.00000E+00         0.00000E+00        -0.51379E+08
 
   -0.51833E+08         0.78449E+06         0.00000E+00
    0.78449E+06        -0.50013E+08         0.00000E+00
    0.00000E+00         0.00000E+00        -0.51379E+08
 
   -0.51823E+08         0.84034E+06         0.00000E+00
    0.84034E+06        -0.50015E+08         0.00000E+00
    0.00000E+00         0.00000E+00        -0.51379E+08
 
   -0.51812E+08         0.89586E+06         0.00000E+00
    0.89586E+06        -0.50017E+08         0.00000E+00
    0.00000E+00         0.00000E+00        -0.51379E+08
 
   -0.51801E+08         0.95106E+06         0.00000E+00
    0.95106E+06        -0.50019E+08         0.00000E+00
    0.00000E+00         0.00000E+00        -0.51379E+08
 
   -0.51790E+08         0.10059E+07         0.00000E+00
    0.10059E+07        -0.50021E+08         0.00000E+00
    0.00000E+00         0.00000E+00        -0.51379E+08
 
   -0.51779E+08         0.10604E+07         0.00000E+00
    0.10604E+07        -0.50024E+08         0.00000E+00
    0.00000E+00         0.00000E+00        -0.51379E+08
 
   -0.51768E+08         0.11146E+07         0.00000E+00
    0.11146E+07        -0.50027E+08         0.00000E+00
    0.00000E+00         0.00000E+00        -0.51379E+08
 
   -0.51757E+08         0.11685E+07         0.00000E+00
    0.11685E+07        -0.50029E+08         0.00000E+00
    0.00000E+00         0.00000E+00        -0.51379E+08
 
   -0.51746E+08         0.12220E+07         0.00000E+00
    0.12220E+07        -0.50032E+08         0.00000E+00
    0.00000E+00         0.00000E+00        -0.51379E+08
 
   -0.51734E+08         0.12751E+07         0.00000E+00
    0.12751E+07        -0.50035E+08         0.00000E+00
    0.00000E+00         0.00000E+00        -0.51380E+08
 
   -0.51723E+08         0.13279E+07         0.00000E+00
    0.13279E+07        -0.50038E+08         0.00000E+00
    0.00000E+00         0.00000E+00        -0.51380E+08
 
   -0.51712E+08         0.13804E+07         0.00000E+00
    0.13804E+07        -0.50042E+08         0.00000E+00
    0.00000E+00         0.00000E+00        -0.51380E+08
 
   -0.51700E+08         0.14325E+07         0.00000E+00
    0.14325E+07        -0.50045E+08         0.00000E+00
    0.00000E+00         0.00000E+00        -0.51380E+08
 
   -0.51688E+08         0.14842E+07         0.00000E+00
    0.14842E+07        -0.50049E+08         0.00000E+00
    0.00000E+00         0.00000E+00        -0.51380E+08
 
   -0.51676E+08         0.15356E+07         0.00000E+00
    0.15356E+07        -0.50052E+08         0.00000E+00
    0.00000E+00         0.00000E+00        -0.51380E+08
 
   -0.51664E+08         0.15866E+07         0.00000E+00
    0.15866E+07        -0.50056E+08         0.00000E+00
    0.00000E+00         0.00000E+00        -0.51380E+08
 
   -0.51652E+08         0.16372E+07         0.00000E+00
    0.16372E+07        -0.50060E+08         0.00000E+00
    0.00000E+00         0.00000E+00        -0.51380E+08
 
   -0.51640E+08         0.16875E+07         0.00000E+00
    0.16875E+07        -0.50064E+08         0.00000E+00
    0.00000E+00         0.00000E+00        -0.51380E+08
 
   -0.51628E+08         0.17374E+07         0.00000E+00
    0.17374E+07        -0.50069E+08         0.00000E+00
    0.00000E+00         0.00000E+00        -0.51380E+08
 
   -0.51616E+08         0.17869E+07         0.00000E+00
    0.17869E+07        -0.50073E+08         0.00000E+00
    0.00000E+00         0.00000E+00        -0.51380E+08
 
   -0.51603E+08         0.18360E+07         0.00000E+00
    0.18360E+07        -0.50078E+08         0.00000E+00
    0.00000E+00         0.00000E+00        -0.51380E+08
 
   -0.51591E+08         0.18847E+07         0.00000E+00
    0.18847E+07        -0.50082E+08         0.00000E+00
    0.00000E+00         0.00000E+00        -0.51381E+08
 
   -0.51578E+08         0.19331E+07         0.00000E+00
    0.19331E+07        -0.50087E+08         0.00000E+00
    0.00000E+00         0.00000E+00        -0.51381E+08
 
   -0.51566E+08         0.19811E+07         0.00000E+00
    0.19811E+07        -0.50092E+08         0.00000E+00
    0.00000E+00         0.00000E+00        -0.51381E+08
 
   -0.51553E+08         0.20286E+07         0.00000E+00
    0.20286E+07        -0.50098E+08         0.00000E+00
    0.00000E+00         0.00000E+00        -0.51381E+08
 
   -0.51540E+08         0.20758E+07         0.00000E+00
    0.20758E+07        -0.50103E+08         0.00000E+00
    0.00000E+00         0.00000E+00        -0.51381E+08
 
   -0.51527E+08         0.21226E+07         0.00000E+00
    0.21226E+07        -0.50108E+08         0.00000E+00
    0.00000E+00         0.00000E+00        -0.51381E+08
 
   -0.51513E+08         0.21689E+07         0.00000E+00
    0.21689E+07        -0.50114E+08         0.00000E+00
    0.00000E+00         0.00000E+00        -0.51381E+08
 
   -0.51500E+08         0.22149E+07         0.00000E+00
    0.22149E+07        -0.50120E+08         0.00000E+00
    0.00000E+00         0.00000E+00        -0.51381E+08
 
   -0.51487E+08         0.22605E+07         0.00000E+00
    0.22605E+07        -0.50126E+08         0.00000E+00
    0.00000E+00         0.00000E+00        -0.51381E+08
 
   -0.51473E+08         0.23056E+07         0.00000E+00
    0.23056E+07        -0.50132E+08         0.00000E+00
    0.00000E+00         0.00000E+00        -0.51381E+08
 
   -0.51459E+08         0.23503E+07         0.00000E+00
    0.23503E+07        -0.50138E+08         0.00000E+00
    0.00000E+00         0.00000E+00        -0.51381E+08
 
   -0.51445E+08         0.23946E+07         0.00000E+00
    0.23946E+07        -0.50145E+08         0.00000E+00
    0.00000E+00         0.00000E+00        -0.51381E+08
 
   -0.51431E+08         0.24385E+07         0.00000E+00
    0.24385E+07        -0.50151E+08         0.00000E+00
    0.00000E+00         0.00000E+00        -0.51381E+08
 
   -0.51417E+08         0.24819E+07         0.00000E+00
    0.24819E+07        -0.50158E+08         0.00000E+00
    0.00000E+00         0.00000E+00        -0.51381E+08
 
   -0.51403E+08         0.25249E+07         0.00000E+00
    0.25249E+07        -0.50165E+08         0.00000E+00
    0.00000E+00         0.00000E+00        -0.51381E+08
 
   -0.51389E+08         0.25674E+07         0.00000E+00
    0.25674E+07        -0.50172E+08         0.00000E+00
    0.00000E+00         0.00000E+00        -0.51381E+08
 
   -0.51664E+08         0.29934E+05         0.00000E+00
    0.29934E+05        -0.50000E+08         0.00000E+00
    0.00000E+00         0.00000E+00        -0.51170E+08
 
   -0.51656E+08         0.89058E+05         0.00000E+00
    0.89058E+05        -0.50000E+08         0.00000E+00
    0.00000E+00         0.00000E+00        -0.51170E+08
 
   -0.51648E+08         0.14791E+06         0.00000E+00
    0.14791E+06        -0.50000E+08         0.00000E+00
    0.00000E+00         0.00000E+00        -0.51170E+08
 
   -0.51640E+08         0.20647E+06         0.00000E+00
    0.20647E+06        -0.50001E+08         0.00000E+00
    0.00000E+00         0.00000E+00        -0.51170E+08
 
   -0.51632E+08         0.26476E+06         0.00000E+00
    0.26476E+06        -0.50001E+08         0.00000E+00
    0.00000E+00         0.00000E+00        -0.51170E+08
 
   -0.51624E+08         0.32275E+06         0.00000E+00
    0.32275E+06        -0.50002E+08         0.00000E+00
    0.00000E+00         0.00000E+00        -0.51170E+08
 
   -0.51615E+08         0.38045E+06         0.00000E+00
    0.38045E+06        -0.50003E+08         0.00000E+00
    0.00000E+00         0.00000E+00        -0.51170E+08
 
   -0.51607E+08         0.43786E+06         0.00000E+00
    0.43786E+06        -0.50003E+08         0.00000E+00
    0.00000E+00         0.00000E+00        -0.51170E+08
 
   -0.51598E+08         0.49497E+06         0.00000E+00
    0.49497E+06        -0.50004E+08         0.00000E+00
    0.00000E+00         0.00000E+00        -0.51170E+08
 
   -0.51590E+08         0.55177E+06         0.00000E+00
    0.55177E+06        -0.50005E+08         0.00000E+00
    0.00000E+00         0.00000E+00        -0.51170E+08
 
   -0.51581E+08         0.60826E+06         0.00000E+00
    0.60826E+06        -0.50007E+08         0.00000E+00
    0.00000E+00         0.00000E+00        -0.51171E+08
 
   -0.51572E+08         0.66444E+06         0.00000E+00
    0.66444E+06        -0.50008E+08         0.00000E+00
    0.00000E+00         0.00000E+00        -0.51171E+08
 
   -0.51564E+08         0.72031E+06         0.00000E+00
    0.72031E+06        -0.50009E+08         0.00000E+00
    0.00000E+00         0.00000E+00        -0.51171E+08
 
   -0.51555E+08         0.77586E+06         0.00000E+00
    0.77586E+06        -0.50011E+08         0.00000E+00
    0.00000E+00         0.00000E+00        -0.51171E+08
 
   -0.51546E+08         0.83108E+06         0.00000E+00
    0.83108E+06        -0.50012E+08         0.00000E+00
    0.00000E+00         0.00000E+00        -0.51171E+08
 
   -0.51537E+08         0.88598E+06         0.00000E+00
    0.88598E+06        -0.50014E+08         0.00000E+00
    0.00000E+00         0.00000E+00        -0.51171E+08
 
   -0.51528E+08         0.94055E+06         0.00000E+00
    0.94055E+06        -0.50016E+08         0.00000E+00
    0.00000E+00         0.00000E+00        -0.51171E+08
 
   -0.51518E+08         0.99479E+06         0.00000E+00
    0.99479E+06        -0.50018E+08         0.00000E+00
    0.00000E+00         0.00000E+00        -0.51171E+08
 
   -0.51509E+08         0.10487E+07         0.00000E+00
    0.10487E+07        -0.50020E+08         0.00000E+00
    0.00000E+00         0.00000E+00        -0.51171E+08
 
   -0.51500E+08         0.11023E+07         0.00000E+00
    0.11023E+07        -0.50022E+08         0.00000E+00
    0.00000E+00         0.00000E+00        -0.51171E+08
 
   -0.51490E+08         0.11555E+07         0.00000E+00
    0.11555E+07        -0.50025E+08         0.00000E+00
    0.00000E+00         0.00000E+00        -0.51171E+08
 
   -0.51481E+08         0.12083E+07         0.00000E+00
    0.12083E+07        -0.50027E+08         0.00000E+00
    0.00000E+00         0.00000E+00        -0.51171E+08
 
   -0.51471E+08         0.12609E+07         0.00000E+00
    0.12609E+07        -0.50030E+08         0.00000E+00
    0.00000E+00         0.00000E+00        -0.51171E+08
 
   -0.51462E+08         0.13130E+07         0.00000E+00
    0.13130E+07        -0.50032E+08         0.00000E+00
    0.00000E+00         0.00000E+00        -0.51171E+08
 
   -0.51452E+08         0.13648E+07         0.00000E+00
    0.13648E+07        -0.50035E+08         0.00000E+00
    0.00000E+00         0.00000E+00        -0.51171E+08
 
   -0.51442E+08         0.14163E+07         0.00000E+00
    0.14163E+07        -0.50038E+08         0.00000E+00
    0.00000E+00         0.00000E+00        -0.51171E+08
 
   -0.51432E+08         0.14674E+07         0.00000E+00
    0.14674E+07        -0.50041E+08         0.00000E+00
    0.00000E+00         0.00000E+00        -0.51171E+08
 
   -0.51422E+08         0.15181E+07         0.00000E+00
    0.15181E+07        -0.50044E+08         0.00000E+00
    0.00000E+00         0.00000E+00        -0.51172E+08
 
   -0.51412E+08         0.15685E+07         0.00000E+00
    0.15685E+07        -0.50047E+08         0.00000E+00
    0.00000E+00         0.00000E+00        -0.51172E+08
 
   -0.51402E+08         0.16184E+07         0.00000E+00
    0.16184E+07        -0.50051E+08         0.00000E+00
    0.00000E+00         0.00000E+00        -0.51172E+08
 
   -0.51392E+08         0.16680E+07         0.00000E+00
    0.16680E+07        -0.50054E+08         0.00000E+00
    0.00000E+00         0.00000E+00        -0.51172E+08
 
   -0.51381E+08         0.17173E+07         0.00000E+00
    0.17173E+07        -0.50058E+08         0.00000E+00
    0.00000E+00         0.00000E+00        -0.51172E+08
 
   -0.51371E+08         0.17661E+07         0.00000E+00
    0.17661E+07        -0.50061E+08         0.00000E+00
    0.00000E+00         0.00000E+00        -0.51172E+08
 
   -0.51360E+08         0.18146E+07         0.00000E+00
    0.18146E+07        -0.50065E+08         0.00000E+00
    0.00000E+00         0.00000E+00        -0.51172E+08
 
   -0.51350E+08         0.18626E+07         0.00000E+00
    0.18626E+07        -0.50069E+08         0.00000E+00
    0.00000E+00         0.00000E+00        -0.51172E+08
 
   -0.51339E+08         0.19103E+07         0.00000E+00
    0.19103E+07        -0.50073E+08         0.00000E+00
    0.00000E+00         0.00000E+00        -0.51172E+08
 
   -0.51328E+08         0.19576E+07         0.00000E+00
    0.19576E+07        -0.50078E+08         0.00000E+00
    0.00000E+00         0.00000E+00        -0.51172E+08
 
   -0.51318E+08         0.20044E+07         0.00000E+00
    0.20044E+07        -0.50082E+08         0.00000E+00
    0.00000E+00         0.00000E+00        -0.51172E+08
 
   -0.51307E+08         0.20509E+07         0.00000E+00
    0.20509E+07        -0.50086E+08         0.00000E+00
    0.00000E+00         0.00000E+00        -0.51172E+08
 
   -0.51296E+08         0.20970E+07         0.00000E+00
    0.20970E+07        -0.50091E+08         0.00000E+00
    0.00000E+00         0.00000E+00        -0.51172E+08
 
   -0.51284E+08         0.21426E+07         0.00000E+00
    0.21426E+07        -0.50096E+08         0.00000E+00
    0.00000E+00         0.00000E+00        -0.51172E+08
 
   -0.51273E+08         0.21878E+07         0.00000E+00
    0.21878E+07        -0.50101E+08         0.00000E+00
    0.00000E+00         0.00000E+00        -0.51173E+08
 
   -0.51262E+08         0.22326E+07         0.00000E+00
    0.22326E+07        -0.50106E+08         0.00000E+00
    0.00000E+00         0.00000E+00        -0.51173E+08
 
   -0.51250E+08         0.22770E+07         0.00000E+00
    0.22770E+07        -0.50111E+08         0.00000E+00
    0.00000E+00         0.00000E+00        -0.51173E+08
 
   -0.51239E+08         0.23210E+07         0.00000E+00
    0.23210E+07        -0.50116E+08         0.00000E+00
    0.00000E+00         0.00000E+00        -0.51173E+08
 
   -0.51227E+08         0.23645E+07         0.00000E+00
    0.23645E+07        -0.50122E+08         0.00000E+00
    0.00000E+00         0.00000E+00        -0.51173E+08
 
   -0.51215E+08         0.24076E+07         0.00000E+00
    0.24076E+07        -0.50127E+08         0.00000E+00
    0.00000E+00         0.00000E+00        -0.51173E+08
 
   -0.51203E+08         0.24502E+07         0.00000E+00
    0.24502E+07        -0.50133E+08         0.00000E+00
    0.00000E+00         0.00000E+00        -0.51173E+08
 
   -0.51191E+08         0.24924E+07         0.00000E+00
    0.24924E+07        -0.50139E+08         0.00000E+00
    0.00000E+00         0.00000E+00        -0.51173E+08
 
   -0.51179E+08         0.25342E+07         0.00000E+00
    0.25342E+07        -0.50145E+08         0.00000E+00
    0.00000E+00         0.00000E+00        -0.51173E+08
 
   -0.51369E+08         0.29656E+05         0.00000E+00
    0.29656E+05        -0.50000E+08         0.00000E+00
    0.00000E+00         0.00000E+00        -0.50966E+08
 
   -0.51363E+08         0.88236E+05         0.00000E+00
    0.88236E+05        -0.50000E+08         0.00000E+00
    0.00000E+00         0.00000E+00        -0.50966E+08
 
   -0.51356E+08         0.14654E+06         0.00000E+00
    0.14654E+06        -0.50000E+08         0.00000E+00
    0.00000E+00         0.00000E+00        -0.50966E+08
 
   -0.51349E+08         0.20458E+06         0.00000E+00
    0.20458E+06        -0.50001E+08         0.00000E+00
    0.00000E+00         0.00000E+00        -0.50966E+08
 
   -0.51343E+08         0.26233E+06         0.00000E+00
    0.26233E+06        -0.50001E+08         0.00000E+00
    0.00000E+00         0.00000E+00        -0.50966E+08
 
   -0.51336E+08         0.31979E+06         0.00000E+00
    0.31979E+06        -0.50001E+08         0.00000E+00
    0.00000E+00         0.00000E+00        -0.50966E+08
 
   -0.51329E+08         0.37697E+06         0.00000E+00
    0.37697E+06        -0.50002E+08         0.00000E+00
    0.00000E+00         0.00000E+00        -0.50966E+08
 
   -0.51322E+08         0.43385E+06         0.00000E+00
    0.43385E+06        -0.50003E+08         0.00000E+00
    0.00000E+00         0.00000E+00        -0.50966E+08
 
   -0.51315E+08         0.49044E+06         0.00000E+00
    0.49044E+06        -0.50003E+08         0.00000E+00
    0.00000E+00         0.00000E+00        -0.50966E+08
 
   -0.51308E+08         0.54672E+06         0.00000E+00
    0.54672E+06        -0.50004E+08         0.00000E+00
    0.00000E+00         0.00000E+00        -0.50966E+08
 
   -0.51301E+08         0.60270E+06         0.00000E+00
    0.60270E+06        -0.50005E+08         0.00000E+00
    0.00000E+00         0.00000E+00        -0.50966E+08
 
   -0.51294E+08         0.65837E+06         0.00000E+00
    0.65837E+06        -0.50006E+08         0.00000E+00
    0.00000E+00         0.00000E+00        -0.50966E+08
 
   -0.51286E+08         0.71372E+06         0.00000E+00
    0.71372E+06        -0.50007E+08         0.00000E+00
    0.00000E+00         0.00000E+00        -0.50966E+08
 
   -0.51279E+08         0.76875E+06         0.00000E+00
    0.76875E+06        -0.50009E+08         0.00000E+00
    0.00000E+00         0.00000E+00        -0.50966E+08
 
   -0.51272E+08         0.82346E+06         0.00000E+00
    0.82346E+06        -0.50010E+08         0.00000E+00
    0.00000E+00         0.00000E+00        -0.50966E+08
 
   -0.51264E+08         0.87785E+06         0.00000E+00
    0.87785E+06        -0.50011E+08         0.00000E+00
    0.00000E+00         0.00000E+00        -0.50966E+08
 
   -0.51257E+08         0.93191E+06         0.00000E+00
    0.93191E+06        -0.50013E+08         0.00000E+00
    0.00000E+00         0.00000E+00        -0.50966E+08
 
   -0.51249E+08         0.98563E+06         0.00000E+00
    0.98563E+06        -0.50014E+08         0.00000E+00
    0.00000E+00         0.00000E+00        -0.50966E+08
 
   -0.51242E+08         0.10390E+07         0.00000E+00
    0.10390E+07        -0.50016E+08         0.00000E+00
    0.00000E+00         0.00000E+00        -0.50966E+08
 
   -0.51234E+08         0.10921E+07         0.00000E+00
    0.10921E+07        -0.50018E+08         0.00000E+00
    0.00000E+00         0.00000E+00        -0.50966E+08
 
   -0.51226E+08         0.11448E+07         0.00000E+00
    0.11448E+07        -0.50020E+08         0.00000E+00
    0.00000E+00         0.00000E+00        -0.50966E+08
 
   -0.51219E+08         0.11971E+07         0.00000E+00
    0.11971E+07        -0.50022E+08         0.00000E+00
    0.00000E+00         0.00000E+00        -0.50966E+08
 
   -0.51211E+08         0.12491E+07         0.00000E+00
    0.12491E+07        -0.50024E+08         0.00000E+00
    0.00000E+00         0.00000E+00        -0.50966E+08
 
   -0.51203E+08         0.13008E+07         0.00000E+00
    0.13008E+07        -0.50026E+08         0.00000E+00
    0.00000E+00         0.00000E+00        -0.50967E+08
 
   -0.51195E+08         0.13520E+07         0.00000E+00
    0.13520E+07        -0.50028E+08         0.00000E+00
    0.00000E+00         0.00000E+00        -0.50967E+08
 
   -0.51187E+08         0.14030E+07         0.00000E+00
    0.14030E+07        -0.50030E+08         0.00000E+00
    0.00000E+00         0.00000E+00        -0.50967E+08
 
   -0.51179E+08         0.14535E+07         0.00000E+00
    0.14535E+07        -0.50033E+08         0.00000E+00
    0.00000E+00         0.00000E+00        -0.50967E+08
 
   -0.51171E+08         0.15037E+07         0.00000E+00
    0.15037E+07        -0.50035E+08         0.00000E+00
    0.00000E+00         0.00000E+00        -0.50967E+08
 
   -0.51163E+08         0.15535E+07         0.00000E+00
    0.15535E+07        -0.50038E+08         0.00000E+00
    0.00000E+00         0.00000E+00        -0.50967E+08
 
   -0.51154E+08         0.16030E+07         0.00000E+00
    0.16030E+07        -0.50041E+08         0.00000E+00
    0.00000E+00         0.00000E+00        -0.50967E+08
 
   -0.51146E+08         0.16520E+07         0.00000E+00
    0.16520E+07        -0.50044E+08         0.00000E+00
    0.00000E+00         0.00000E+00        -0.50967E+08
 
   -0.51138E+08         0.17007E+07         0.00000E+00
    0.17007E+07        -0.50046E+08         0.00000E+00
    0.00000E+00         0.00000E+00        -0.50967E+08
 
   -0.51129E+08         0.17490E+07         0.00000E+00
    0.17490E+07        -0.50049E+08         0.00000E+00
    0.00000E+00         0.00000E+00        -0.50967E+08
 
   -0.51121E+08         0.17968E+07         0.00000E+00
    0.17968E+07        -0.50053E+08         0.00000E+00
    0.00000E+00         0.00000E+00        -0.50967E+08
 
   -0.51112E+08         0.18443E+07         0.00000E+00
    0.18443E+07        -0.50056E+08         0.00000E+00
    0.00000E+00         0.00000E+00        -0.50967E+08
 
   -0.51103E+08         0.18914E+07         0.00000E+00
    0.18914E+07        -0.50059E+08         0.00000E+00
    0.00000E+00         0.00000E+00        -0.50967E+08
 
   -0.51095E+08         0.19381E+07         0.00000E+00
    0.19381E+07        -0.50063E+08         0.00000E+00
    0.00000E+00         0.00000E+00        -0.50967E+08
 
   -0.51086E+08         0.19844E+07         0.00000E+00
    0.19844E+07        -0.50066E+08         0.00000E+00
    0.00000E+00         0.00000E+00        -0.50968E+08
 
   -0.51077E+08         0.20303E+07         0.00000E+00
    0.20303E+07        -0.50070E+08         0.00000E+00
    0.00000E+00         0.00000E+00        -0.50968E+08
 
   -0.51068E+08         0.20757E+07         0.00000E+00
    0.20757E+07        -0.50073E+08         0.00000E+00
    0.00000E+00         0.00000E+00        -0.50968E+08
 
   -0.51059E+08         0.21208E+07         0.00000E+00
    0.21208E+07        -0.50077E+08         0.00000E+00
    0.00000E+00         0.00000E+00        -0.50968E+08
 
   -0.51050E+08         0.21654E+07         0.00000E+00
    0.21654E+07        -0.50081E+08         0.00000E+00
    0.00000E+00         0.00000E+00        -0.50968E+08
 
   -0.51040E+08         0.22096E+07         0.00000E+00
    0.22096E+07        -0.50085E+08         0.00000E+00
    0.00000E+00         0.00000E+00        -0.50968E+08
 
   -0.51031E+08         0.22533E+07         0.00000E+00
    0.22533E+07        -0.50090E+08         0.00000E+00
    0.00000E+00         0.00000E+00        -0.50968E+08
 
   -0.51022E+08         0.22967E+07         0.00000E+00
    0.22967E+07        -0.50094E+08         0.00000E+00
    0.00000E+00         0.00000E+00        -0.50968E+08
 
   -0.51012E+08         0.23395E+07         0.00000E+00
    0.23395E+07        -0.50098E+08         0.00000E+00
    0.00000E+00         0.00000E+00        -0.50968E+08
 
   -0.51002E+08         0.23820E+07         0.00000E+00
    0.23820E+07        -0.50103E+08         0.00000E+00
    0.00000E+00         0.00000E+00        -0.50968E+08
 
   -0.50993E+08         0.24240E+07         0.00000E+00
    0.24240E+07        -0.50107E+08         0.00000E+00
    0.00000E+00         0.00000E+00        -0.50968E+08
 
   -0.50983E+08         0.24655E+07         0.00000E+00
    0.24655E+07        -0.50112E+08         0.00000E+00
    0.00000E+00         0.00000E+00        -0.50968E+08
 
   -0.50973E+08         0.25066E+07         0.00000E+00
    0.25066E+07        -0.50117E+08         0.00000E+00
    0.00000E+00         0.00000E+00        -0.50968E+08
 
   -0.51077E+08         0.29438E+05         0.00000E+00
    0.29438E+05        -0.50000E+08         0.00000E+00
    0.00000E+00         0.00000E+00        -0.50764E+08
 
   -0.51072E+08         0.87595E+05         0.00000E+00
    0.87595E+05        -0.50000E+08         0.00000E+00
    0.00000E+00         0.00000E+00        -0.50764E+08
 
   -0.51066E+08         0.14548E+06         0.00000E+00
    0.14548E+06        -0.50000E+08         0.00000E+00
    0.00000E+00         0.00000E+00        -0.50764E+08
 
   -0.51061E+08         0.20310E+06         0.00000E+00
    0.20310E+06        -0.50000E+08         0.00000E+00
    0.00000E+00         0.00000E+00        -0.50764E+08
 
   -0.51056E+08         0.26044E+06         0.00000E+00
    0.26044E+06        -0.50001E+08         0.00000E+00
    0.00000E+00         0.00000E+00        -0.50764E+08
 
   -0.51050E+08         0.31749E+06         0.00000E+00
    0.31749E+06        -0.50001E+08         0.00000E+00
    0.00000E+00         0.00000E+00        -0.50764E+08
 
   -0.51045E+08         0.37426E+06         0.00000E+00
    0.37426E+06        -0.50002E+08         0.00000E+00
    0.00000E+00         0.00000E+00        -0.50764E+08
 
   -0.51039E+08         0.43074E+06         0.00000E+00
    0.43074E+06        -0.50002E+08         0.00000E+00
    0.00000E+00         0.00000E+00        -0.50764E+08
 
   -0.51034E+08         0.48692E+06         0.00000E+00
    0.48692E+06        -0.50003E+08         0.00000E+00
    0.00000E+00         0.00000E+00        -0.50764E+08
 
   -0.51028E+08         0.54279E+06         0.00000E+00
    0.54279E+06        -0.50003E+08         0.00000E+00
    0.00000E+00         0.00000E+00        -0.50764E+08
 
   -0.51023E+08         0.59837E+06         0.00000E+00
    0.59837E+06        -0.50004E+08         0.00000E+00
    0.00000E+00         0.00000E+00        -0.50764E+08
 
   -0.51017E+08         0.65363E+06         0.00000E+00
    0.65363E+06        -0.50005E+08         0.00000E+00
    0.00000E+00         0.00000E+00        -0.50764E+08
 
   -0.51011E+08         0.70858E+06         0.00000E+00
    0.70858E+06        -0.50006E+08         0.00000E+00
    0.00000E+00         0.00000E+00        -0.50764E+08
 
   -0.51006E+08         0.76322E+06         0.00000E+00
    0.76322E+06        -0.50006E+08         0.00000E+00
    0.00000E+00         0.00000E+00        -0.50764E+08
 
   -0.51000E+08         0.81753E+06         0.00000E+00
    0.81753E+06        -0.50007E+08         0.00000E+00
    0.00000E+00         0.00000E+00        -0.50764E+08
 
   -0.50994E+08         0.87151E+06         0.00000E+00
    0.87151E+06        -0.50009E+08         0.00000E+00
    0.00000E+00         0.00000E+00        -0.50764E+08
 
   -0.50988E+08         0.92517E+06         0.00000E+00
    0.92517E+06        -0.50010E+08         0.00000E+00
    0.00000E+00         0.00000E+00        -0.50764E+08
 
   -0.50983E+08         0.97849E+06         0.00000E+00
    0.97849E+06        -0.50011E+08         0.00000E+00
    0.00000E+00         0.00000E+00        -0.50764E+08
 
   -0.50977E+08         0.10315E+07         0.00000E+00
    0.10315E+07        -0.50012E+08         0.00000E+00
    0.00000E+00         0.00000E+00        -0.50764E+08
 
   -0.50971E+08         0.10841E+07         0.00000E+00
    0.10841E+07        -0.50013E+08         0.00000E+00
    0.00000E+00         0.00000E+00        -0.50765E+08
 
   -0.50965E+08         0.11364E+07         0.00000E+00
    0.11364E+07        -0.50015E+08         0.00000E+00
    0.00000E+00         0.00000E+00        -0.50765E+08
 
   -0.50959E+08         0.11883E+07         0.00000E+00
    0.11883E+07        -0.50016E+08         0.00000E+00
    0.00000E+00         0.00000E+00        -0.50765E+08
 
   -0.50953E+08         0.12399E+07         0.00000E+00
    0.12399E+07        -0.50018E+08         0.00000E+00
    0.00000E+00         0.00000E+00        -0.50765E+08
 
   -0.50947E+08         0.12912E+07         0.00000E+00
    0.12912E+07        -0.50019E+08         0.00000E+00
    0.00000E+00         0.00000E+00        -0.50765E+08
 
   -0.50941E+08         0.13420E+07         0.00000E+00
    0.13420E+07        -0.50021E+08         0.00000E+00
    0.00000E+00         0.00000E+00        -0.50765E+08
 
   -0.50934E+08         0.13925E+07         0.00000E+00
    0.13925E+07        -0.50023E+08         0.00000E+00
    0.00000E+00         0.00000E+00        -0.50765E+08
 
   -0.50928E+08         0.14427E+07         0.00000E+00
    0.14427E+07        -0.50025E+08         0.00000E+00
    0.00000E+00         0.00000E+00        -0.50765E+08
 
   -0.50922E+08         0.14924E+07         0.00000E+00
    0.14924E+07        -0.50027E+08         0.00000E+00
    0.00000E+00         0.00000E+00        -0.50765E+08
 
   -0.50916E+08         0.15418E+07         0.00000E+00
    0.15418E+07        -0.50029E+08         0.00000E+00
    0.00000E+00         0.00000E+00        -0.50765E+08
 
   -0.50909E+08         0.15908E+07         0.00000E+00
    0.15908E+07        -0.50031E+08         0.00000E+00
    0.00000E+00         0.00000E+00        -0.50765E+08
 
   -0.50903E+08         0.16394E+07         0.00000E+00
    0.16394E+07        -0.50033E+08         0.00000E+00
    0.00000E+00         0.00000E+00        -0.50765E+08
 
   -0.50896E+08         0.16877E+07         0.00000E+00
    0.16877E+07        -0.50035E+08         0.00000E+00
    0.00000E+00         0.00000E+00        -0.50765E+08
 
   -0.50890E+08         0.17355E+07         0.00000E+00
    0.17355E+07        -0.50037E+08         0.00000E+00
    0.00000E+00         0.00000E+00        -0.50765E+08
 
   -0.50883E+08         0.17829E+07         0.00000E+00
    0.17829E+07        -0.50040E+08         0.00000E+00
    0.00000E+00         0.00000E+00        -0.50766E+08
 
   -0.50877E+08         0.18300E+07         0.00000E+00
    0.18300E+07        -0.50042E+08         0.00000E+00
    0.00000E+00         0.00000E+00        -0.50766E+08
 
   -0.50870E+08         0.18766E+07         0.00000E+00
    0.18766E+07        -0.50045E+08         0.00000E+00
    0.00000E+00         0.00000E+00        -0.50766E+08
 
   -0.50863E+08         0.19228E+07         0.00000E+00
    0.19228E+07        -0.50047E+08         0.00000E+00
    0.00000E+00         0.00000E+00        -0.50766E+08
 
   -0.50857E+08         0.19686E+07         0.00000E+00
    0.19686E+07        -0.50050E+08         0.00000E+00
    0.00000E+00         0.00000E+00        -0.50766E+08
 
   -0.50850E+08         0.20140E+07         0.00000E+00
    0.20140E+07        -0.50053E+08         0.00000E+00
    0.00000E+00         0.00000E+00        -0.50766E+08
 
   -0.50843E+08         0.20590E+07         0.00000E+00
    0.20590E+07        -0.50055E+08         0.00000E+00
    0.00000E+00         0.00000E+00        -0.50766E+08
 
   -0.50836E+08         0.21036E+07         0.00000E+00
    0.21036E+07        -0.50058E+08         0.00000E+00
    0.00000E+00         0.00000E+00        -0.50766E+08
 
   -0.50829E+08         0.21477E+07         0.00000E+00
    0.21477E+07        -0.50061E+08         0.00000E+00
    0.00000E+00         0.00000E+00        -0.50766E+08
 
   -0.50822E+08         0.21914E+07         0.00000E+00
    0.21914E+07        -0.50064E+08         0.00000E+00
    0.00000E+00         0.00000E+00        -0.50766E+08
 
   -0.50815E+08         0.22346E+07         0.00000E+00
    0.22346E+07        -0.50068E+08         0.00000E+00
    0.00000E+00         0.00000E+00        -0.50766E+08
 
   -0.50807E+08         0.22774E+07         0.00000E+00
    0.22774E+07        -0.50071E+08         0.00000E+00
    0.00000E+00         0.00000E+00        -0.50766E+08
 
   -0.50800E+08         0.23198E+07         0.00000E+00
    0.23198E+07        -0.50074E+08         0.00000E+00
    0.00000E+00         0.00000E+00        -0.50766E+08
 
   -0.50793E+08         0.23617E+07         0.00000E+00
    0.23617E+07        -0.50078E+08         0.00000E+00
    0.00000E+00         0.00000E+00        -0.50766E+08
 
   -0.50785E+08         0.24032E+07         0.00000E+00
    0.24032E+07        -0.50081E+08         0.00000E+00
    0.00000E+00         0.00000E+00        -0.50766E+08
 
   -0.50778E+08         0.24442E+07         0.00000E+00
    0.24442E+07        -0.50085E+08         0.00000E+00
    0.00000E+00         0.00000E+00        -0.50766E+08
 
   -0.50770E+08         0.24847E+07         0.00000E+00
    0.24847E+07        -0.50089E+08         0.00000E+00
    0.00000E+00         0.00000E+00        -0.50766E+08
 
   -0.50786E+08         0.29283E+05         0.00000E+00
    0.29283E+05        -0.50000E+08         0.00000E+00
    0.00000E+00         0.00000E+00        -0.50564E+08
 
   -0.50782E+08         0.87139E+05         0.00000E+00
    0.87139E+05        -0.50000E+08         0.00000E+00
    0.00000E+00         0.00000E+00        -0.50564E+08
 
   -0.50778E+08         0.14473E+06         0.00000E+00
    0.14473E+06        -0.50000E+08         0.00000E+00
    0.00000E+00         0.00000E+00        -0.50564E+08
 
   -0.50774E+08         0.20205E+06         0.00000E+00
    0.20205E+06        -0.50000E+08         0.00000E+00
    0.00000E+00         0.00000E+00        -0.50564E+08
 
   -0.50770E+08         0.25909E+06         0.00000E+00
    0.25909E+06        -0.50000E+08         0.00000E+00
    0.00000E+00         0.00000E+00        -0.50564E+08
 
   -0.50766E+08         0.31586E+06         0.00000E+00
    0.31586E+06        -0.50001E+08         0.00000E+00
    0.00000E+00         0.00000E+00        -0.50564E+08
 
   -0.50763E+08         0.37233E+06         0.00000E+00
    0.37233E+06        -0.50001E+08         0.00000E+00
    0.00000E+00         0.00000E+00        -0.50565E+08
 
   -0.50759E+08         0.42852E+06         0.00000E+00
    0.42852E+06        -0.50001E+08         0.00000E+00
    0.00000E+00         0.00000E+00        -0.50565E+08
 
   -0.50754E+08         0.48441E+06         0.00000E+00
    0.48441E+06        -0.50002E+08         0.00000E+00
    0.00000E+00         0.00000E+00        -0.50565E+08
 
   -0.50750E+08         0.54001E+06         0.00000E+00
    0.54001E+06        -0.50002E+08         0.00000E+00
    0.00000E+00         0.00000E+00        -0.50565E+08
 
   -0.50746E+08         0.59529E+06         0.00000E+00
    0.59529E+06        -0.50003E+08         0.00000E+00
    0.00000E+00         0.00000E+00        -0.50565E+08
 
   -0.50742E+08         0.65027E+06         0.00000E+00
    0.65027E+06        -0.50003E+08         0.00000E+00
    0.00000E+00         0.00000E+00        -0.50565E+08
 
   -0.50738E+08         0.70494E+06         0.00000E+00
    0.70494E+06        -0.50004E+08         0.00000E+00
    0.00000E+00         0.00000E+00        -0.50565E+08
 
   -0.50734E+08         0.75928E+06         0.00000E+00
    0.75928E+06        -0.50004E+08         0.00000E+00
    0.00000E+00         0.00000E+00        -0.50565E+08
 
   -0.50730E+08         0.81331E+06         0.00000E+00
    0.81331E+06        -0.50005E+08         0.00000E+00
    0.00000E+00         0.00000E+00        -0.50565E+08
 
   -0.50726E+08         0.86700E+06         0.00000E+00
    0.86700E+06        -0.50006E+08         0.00000E+00
    0.00000E+00         0.00000E+00        -0.50565E+08
 
   -0.50722E+08         0.92037E+06         0.00000E+00
    0.92037E+06        -0.50006E+08         0.00000E+00
    0.00000E+00         0.00000E+00        -0.50565E+08
 
   -0.50718E+08         0.97340E+06         0.00000E+00
    0.97340E+06        -0.50007E+08         0.00000E+00
    0.00000E+00         0.00000E+00        -0.50565E+08
 
   -0.50713E+08         0.10261E+07         0.00000E+00
    0.10261E+07        -0.50008E+08         0.00000E+00
    0.00000E+00         0.00000E+00        -0.50565E+08
 
   -0.50709E+08         0.10784E+07         0.00000E+00
    0.10784E+07        -0.50009E+08         0.00000E+00
    0.00000E+00         0.00000E+00        -0.50565E+08
 
   -0.50705E+08         0.11304E+07         0.00000E+00
    0.11304E+07        -0.50010E+08         0.00000E+00
    0.00000E+00         0.00000E+00        -0.50565E+08
 
   -0.50701E+08         0.11821E+07         0.00000E+00
    0.11821E+07        -0.50011E+08         0.00000E+00
    0.00000E+00         0.00000E+00        -0.50565E+08
 
   -0.50696E+08         0.12334E+07         0.00000E+00
    0.12334E+07        -0.50012E+08         0.00000E+00
    0.00000E+00         0.00000E+00        -0.50565E+08
 
   -0.50692E+08         0.12843E+07         0.00000E+00
    0.12843E+07        -0.50013E+08         0.00000E+00
    0.00000E+00         0.00000E+00        -0.50565E+08
 
   -0.50688E+08         0.13349E+07         0.00000E+00
    0.13349E+07        -0.50014E+08         0.00000E+00
    0.00000E+00         0.00000E+00        -0.50566E+08
 
   -0.50684E+08         0.13851E+07         0.00000E+00
    0.13851E+07        -0.50015E+08         0.00000E+00
    0.00000E+00         0.00000E+00        -0.50566E+08
 
   -0.50679E+08         0.14349E+07         0.00000E+00
    0.14349E+07        -0.50016E+08         0.00000E+00
    0.00000E+00         0.00000E+00        -0.50566E+08
 
   -0.50675E+08         0.14843E+07         0.00000E+00
    0.14843E+07        -0.50018E+08         0.00000E+00
    0.00000E+00         0.00000E+00        -0.50566E+08
 
   -0.50670E+08         0.15334E+07         0.00000E+00
    0.15334E+07        -0.50019E+08         0.00000E+00
    0.00000E+00         0.00000E+00        -0.50566E+08
 
   -0.50666E+08         0.15821E+07         0.00000E+00
    0.15821E+07        -0.50020E+08         0.00000E+00
    0.00000E+00         0.00000E+00        -0.50566E+08
 
   -0.50662E+08         0.16304E+07         0.00000E+00
    0.16304E+07        -0.50022E+08         0.00000E+00
    0.00000E+00         0.00000E+00        -0.50566E+08
 
   -0.50657E+08         0.16783E+07         0.00000E+00
    0.16783E+07        -0.50023E+08         0.00000E+00
    0.00000E+00         0.00000E+00        -0.50566E+08
 
   -0.50653E+08         0.17258E+07         0.00000E+00
    0.17258E+07        -0.50025E+08         0.00000E+00
    0.00000E+00         0.00000E+00        -0.50566E+08
 
   -0.50648E+08         0.17729E+07         0.00000E+00
    0.17729E+07        -0.50026E+08         0.00000E+00
    0.00000E+00         0.00000E+00        -0.50566E+08
 
   -0.50643E+08         0.18196E+07         0.00000E+00
    0.18196E+07        -0.50028E+08         0.00000E+00
    0.00000E+00         0.00000E+00        -0.50566E+08
 
   -0.50639E+08         0.18659E+07         0.00000E+00
    0.18659E+07        -0.50030E+08         0.00000E+00
    0.00000E+00         0.00000E+00        -0.50566E+08
 
   -0.50634E+08         0.19118E+07         0.00000E+00
    0.19118E+07        -0.50031E+08         0.00000E+00
    0.00000E+00         0.00000E+00        -0.50566E+08
 
   -0.50629E+08         0.19572E+07         0.00000E+00
    0.19572E+07        -0.50033E+08         0.00000E+00
    0.00000E+00         0.00000E+00        -0.50567E+08
 
   -0.50625E+08         0.20022E+07         0.00000E+00
    0.20022E+07        -0.50035E+08         0.00000E+00
    0.00000E+00         0.00000E+00        -0.50567E+08
 
   -0.50620E+08         0.20469E+07         0.00000E+00
    0.20469E+07        -0.50037E+08         0.00000E+00
    0.00000E+00         0.00000E+00        -0.50567E+08
 
   -0.50615E+08         0.20910E+07         0.00000E+00
    0.20910E+07        -0.50039E+08         0.00000E+00
    0.00000E+00         0.00000E+00        -0.50567E+08
 
   -0.50610E+08         0.21348E+07         0.00000E+00
    0.21348E+07        -0.50041E+08         0.00000E+00
    0.00000E+00         0.00000E+00        -0.50567E+08
 
   -0.50605E+08         0.21781E+07         0.00000E+00
    0.21781E+07        -0.50043E+08         0.00000E+00
    0.00000E+00         0.00000E+00        -0.50567E+08
 
   -0.50600E+08         0.22210E+07         0.00000E+00
    0.22210E+07        -0.50045E+08         0.00000E+00
    0.00000E+00         0.00000E+00        -0.50567E+08
 
   -0.50595E+08         0.22634E+07         0.00000E+00
    0.22634E+07        -0.50048E+08         0.00000E+00
    0.00000E+00         0.00000E+00        -0.50567E+08
 
   -0.50590E+08         0.23054E+07         0.00000E+00
    0.23054E+07        -0.50050E+08         0.00000E+00
    0.00000E+00         0.00000E+00        -0.50567E+08
 
   -0.50585E+08         0.23469E+07         0.00000E+00
    0.23469E+07        -0.50052E+08         0.00000E+00
    0.00000E+00         0.00000E+00        -0.50567E+08
 
   -0.50580E+08         0.23879E+07         0.00000E+00
    0.23879E+07        -0.50055E+08         0.00000E+00
    0.00000E+00         0.00000E+00        -0.50567E+08
 
   -0.50575E+08         0.24285E+07         0.00000E+00
    0.24285E+07        -0.50057E+08         0.00000E+00
    0.00000E+00         0.00000E+00        -0.50567E+08
 
   -0.50570E+08         0.24686E+07         0.00000E+00
    0.24686E+07        -0.50060E+08         0.00000E+00
    0.00000E+00         0.00000E+00        -0.50567E+08
 
   -0.50497E+08         0.29193E+05         0.00000E+00
    0.29193E+05        -0.50000E+08         0.00000E+00
    0.00000E+00         0.00000E+00        -0.50367E+08
 
   -0.50494E+08         0.86873E+05         0.00000E+00
    0.86873E+05        -0.50000E+08         0.00000E+00
    0.00000E+00         0.00000E+00        -0.50367E+08
 
   -0.50491E+08         0.14429E+06         0.00000E+00
    0.14429E+06        -0.50000E+08         0.00000E+00
    0.00000E+00         0.00000E+00        -0.50367E+08
 
   -0.50489E+08         0.20144E+06         0.00000E+00
    0.20144E+06        -0.50000E+08         0.00000E+00
    0.00000E+00         0.00000E+00        -0.50367E+08
 
   -0.50486E+08         0.25831E+06         0.00000E+00
    0.25831E+06        -0.50000E+08         0.00000E+00
    0.00000E+00         0.00000E+00        -0.50367E+08
 
   -0.50484E+08         0.31490E+06         0.00000E+00
    0.31490E+06        -0.50000E+08         0.00000E+00
    0.00000E+00         0.00000E+00        -0.50367E+08
 
   -0.50481E+08         0.37121E+06         0.00000E+00
    0.37121E+06        -0.50000E+08         0.00000E+00
    0.00000E+00         0.00000E+00        -0.50367E+08
 
   -0.50479E+08         0.42723E+06         0.00000E+00
    0.42723E+06        -0.50001E+08         0.00000E+00
    0.00000E+00         0.00000E+00        -0.50367E+08
 
   -0.50476E+08         0.48295E+06         0.00000E+00
    0.48295E+06        -0.50001E+08         0.00000E+00
    0.00000E+00         0.00000E+00        -0.50367E+08
 
   -0.50474E+08         0.53838E+06         0.00000E+00
    0.53838E+06        -0.50001E+08         0.00000E+00
    0.00000E+00         0.00000E+00        -0.50367E+08
 
   -0.50471E+08         0.59350E+06         0.00000E+00
    0.59350E+06        -0.50001E+08         0.00000E+00
    0.00000E+00         0.00000E+00        -0.50367E+08
 
   -0.50469E+08         0.64831E+06         0.00000E+00
    0.64831E+06        -0.50001E+08         0.00000E+00
    0.00000E+00         0.00000E+00        -0.50367E+08
 
   -0.50466E+08         0.70280E+06         0.00000E+00
    0.70280E+06        -0.50002E+08         0.00000E+00
    0.00000E+00         0.00000E+00        -0.50367E+08
 
   -0.50464E+08         0.75698E+06         0.00000E+00
    0.75698E+06        -0.50002E+08         0.00000E+00
    0.00000E+00         0.00000E+00        -0.50367E+08
 
   -0.50461E+08         0.81084E+06         0.00000E+00
    0.81084E+06        -0.50002E+08         0.00000E+00
    0.00000E+00         0.00000E+00        -0.50367E+08
 
   -0.50459E+08         0.86436E+06         0.00000E+00
    0.86436E+06        -0.50003E+08         0.00000E+00
    0.00000E+00         0.00000E+00        -0.50367E+08
 
   -0.50456E+08         0.91756E+06         0.00000E+00
    0.91756E+06        -0.50003E+08         0.00000E+00
    0.00000E+00         0.00000E+00        -0.50367E+08
 
   -0.50454E+08         0.97042E+06         0.00000E+00
    0.97042E+06        -0.50003E+08         0.00000E+00
    0.00000E+00         0.00000E+00        -0.50367E+08
 
   -0.50451E+08         0.10229E+07         0.00000E+00
    0.10229E+07        -0.50004E+08         0.00000E+00
    0.00000E+00         0.00000E+00        -0.50368E+08
 
   -0.50449E+08         0.10751E+07         0.00000E+00
    0.10751E+07        -0.50004E+08         0.00000E+00
    0.00000E+00         0.00000E+00        -0.50368E+08
 
   -0.50446E+08         0.11269E+07         0.00000E+00
    0.11269E+07        -0.50005E+08         0.00000E+00
    0.00000E+00         0.00000E+00        -0.50368E+08
 
   -0.50444E+08         0.11784E+07         0.00000E+00
    0.11784E+07        -0.50005E+08         0.00000E+00
    0.00000E+00         0.00000E+00        -0.50368E+08
 
   -0.50441E+08         0.12295E+07         0.00000E+00
    0.12295E+07        -0.50006E+08         0.00000E+00
    0.00000E+00         0.00000E+00        -0.50368E+08
 
   -0.50439E+08         0.12802E+07         0.00000E+00
    0.12802E+07        -0.50006E+08         0.00000E+00
    0.00000E+00         0.00000E+00        -0.50368E+08
 
   -0.50436E+08         0.13306E+07         0.00000E+00
    0.13306E+07        -0.50007E+08         0.00000E+00
    0.00000E+00         0.00000E+00        -0.50368E+08
 
   -0.50434E+08         0.13806E+07         0.00000E+00
    0.13806E+07        -0.50007E+08         0.00000E+00
    0.00000E+00         0.00000E+00        -0.50368E+08
 
   -0.50432E+08         0.14303E+07         0.00000E+00
    0.14303E+07        -0.50008E+08         0.00000E+00
    0.00000E+00         0.00000E+00        -0.50368E+08
 
   -0.50429E+08         0.14795E+07         0.00000E+00
    0.14795E+07        -0.50008E+08         0.00000E+00
    0.00000E+00         0.00000E+00        -0.50368E+08
 
   -0.50427E+08         0.15284E+07         0.00000E+00
    0.15284E+07        -0.50009E+08         0.00000E+00
    0.00000E+00         0.00000E+00        -0.50368E+08
 
   -0.50424E+08         0.15768E+07         0.00000E+00
    0.15768E+07        -0.50010E+08         0.00000E+00
    0.00000E+00         0.00000E+00        -0.50368E+08
 
   -0.50422E+08         0.16249E+07         0.00000E+00
    0.16249E+07        -0.50010E+08         0.00000E+00
    0.00000E+00         0.00000E+00        -0.50368E+08
 
   -0.50419E+08         0.16726E+07         0.00000E+00
    0.16726E+07        -0.50011E+08         0.00000E+00
    0.00000E+00         0.00000E+00        -0.50369E+08
 
   -0.50417E+08         0.17199E+07         0.00000E+00
    0.17199E+07        -0.50012E+08         0.00000E+00
    0.00000E+00         0.00000E+00        -0.50369E+08
 
   -0.50414E+08         0.17668E+07         0.00000E+00
    0.17668E+07        -0.50013E+08         0.00000E+00
    0.00000E+00         0.00000E+00        -0.50369E+08
 
   -0.50412E+08         0.18133E+07         0.00000E+00
    0.18133E+07        -0.50014E+08         0.00000E+00
    0.00000E+00         0.00000E+00        -0.50369E+08
 
   -0.50409E+08         0.18593E+07         0.00000E+00
    0.18593E+07        -0.50015E+08         0.00000E+00
    0.00000E+00         0.00000E+00        -0.50369E+08
 
   -0.50406E+08         0.19050E+07         0.00000E+00
    0.19050E+07        -0.50015E+08         0.00000E+00
    0.00000E+00         0.00000E+00        -0.50369E+08
 
   -0.50404E+08         0.19502E+07         0.00000E+00
    0.19502E+07        -0.50016E+08         0.00000E+00
    0.00000E+00         0.00000E+00        -0.50369E+08
 
   -0.50401E+08         0.19950E+07         0.00000E+00
    0.19950E+07        -0.50017E+08         0.00000E+00
    0.00000E+00         0.00000E+00        -0.50369E+08
 
   -0.50399E+08         0.20394E+07         0.00000E+00
    0.20394E+07        -0.50018E+08         0.00000E+00
    0.00000E+00         0.00000E+00        -0.50369E+08
 
   -0.50396E+08         0.20833E+07         0.00000E+00
    0.20833E+07        -0.50019E+08         0.00000E+00
    0.00000E+00         0.00000E+00        -0.50369E+08
 
   -0.50393E+08         0.21268E+07         0.00000E+00
    0.21268E+07        -0.50020E+08         0.00000E+00
    0.00000E+00         0.00000E+00        -0.50369E+08
 
   -0.50391E+08         0.21698E+07         0.00000E+00
    0.21698E+07        -0.50022E+08         0.00000E+00
    0.00000E+00         0.00000E+00        -0.50369E+08
 
   -0.50388E+08         0.22125E+07         0.00000E+00
    0.22125E+07        -0.50023E+08         0.00000E+00
    0.00000E+00         0.00000E+00        -0.50369E+08
 
   -0.50385E+08         0.22546E+07         0.00000E+00
    0.22546E+07        -0.50024E+08         0.00000E+00
    0.00000E+00         0.00000E+00        -0.50369E+08
 
   -0.50382E+08         0.22963E+07         0.00000E+00
    0.22963E+07        -0.50025E+08         0.00000E+00
    0.00000E+00         0.00000E+00        -0.50369E+08
 
   -0.50380E+08         0.23375E+07         0.00000E+00
    0.23375E+07        -0.50027E+08         0.00000E+00
    0.00000E+00         0.00000E+00        -0.50369E+08
 
   -0.50377E+08         0.23783E+07         0.00000E+00
    0.23783E+07        -0.50028E+08         0.00000E+00
    0.00000E+00         0.00000E+00        -0.50370E+08
 
   -0.50374E+08         0.24186E+07         0.00000E+00
    0.24186E+07        -0.50029E+08         0.00000E+00
    0.00000E+00         0.00000E+00        -0.50370E+08
 
   -0.50371E+08         0.24584E+07         0.00000E+00
    0.24584E+07        -0.50031E+08         0.00000E+00
    0.00000E+00         0.00000E+00        -0.50370E+08
 
   -0.50208E+08         0.29167E+05         0.00000E+00
    0.29167E+05        -0.50000E+08         0.00000E+00
    0.00000E+00         0.00000E+00        -0.50170E+08
 
   -0.50206E+08         0.86798E+05         0.00000E+00
    0.86798E+05        -0.50000E+08         0.00000E+00
    0.00000E+00         0.00000E+00        -0.50170E+08
 
   -0.50205E+08         0.14417E+06         0.00000E+00
    0.14417E+06        -0.50000E+08         0.00000E+00
    0.00000E+00         0.00000E+00        -0.50170E+08
 
   -0.50204E+08         0.20127E+06         0.00000E+00
    0.20127E+06        -0.50000E+08         0.00000E+00
    0.00000E+00         0.00000E+00        -0.50170E+08
 
   -0.50203E+08         0.25809E+06         0.00000E+00
    0.25809E+06        -0.50000E+08         0.00000E+00
    0.00000E+00         0.00000E+00        -0.50170E+08
 
   -0.50202E+08         0.31464E+06         0.00000E+00
    0.31464E+06        -0.50000E+08         0.00000E+00
    0.00000E+00         0.00000E+00        -0.50170E+08
 
   -0.50201E+08         0.37090E+06         0.00000E+00
    0.37090E+06        -0.50000E+08         0.00000E+00
    0.00000E+00         0.00000E+00        -0.50170E+08
 
   -0.50200E+08         0.42688E+06         0.00000E+00
    0.42688E+06        -0.50000E+08         0.00000E+00
    0.00000E+00         0.00000E+00        -0.50170E+08
 
   -0.50198E+08         0.48256E+06         0.00000E+00
    0.48256E+06        -0.50000E+08         0.00000E+00
    0.00000E+00         0.00000E+00        -0.50170E+08
 
   -0.50197E+08         0.53793E+06         0.00000E+00
    0.53793E+06        -0.50000E+08         0.00000E+00
    0.00000E+00         0.00000E+00        -0.50170E+08
 
   -0.50196E+08         0.59301E+06         0.00000E+00
    0.59301E+06        -0.50000E+08         0.00000E+00
    0.00000E+00         0.00000E+00        -0.50170E+08
 
   -0.50196E+08         0.64777E+06         0.00000E+00
    0.64777E+06        -0.50000E+08         0.00000E+00
    0.00000E+00         0.00000E+00        -0.50171E+08
 
   -0.50195E+08         0.70222E+06         0.00000E+00
    0.70222E+06        -0.50000E+08         0.00000E+00
    0.00000E+00         0.00000E+00        -0.50171E+08
 
   -0.50194E+08         0.75634E+06         0.00000E+00
    0.75634E+06        -0.50000E+08         0.00000E+00
    0.00000E+00         0.00000E+00        -0.50171E+08
 
   -0.50193E+08         0.81015E+06         0.00000E+00
    0.81015E+06        -0.50000E+08         0.00000E+00
    0.00000E+00         0.00000E+00        -0.50171E+08
 
   -0.50192E+08         0.86362E+06         0.00000E+00
    0.86362E+06        -0.50000E+08         0.00000E+00
    0.00000E+00         0.00000E+00        -0.50171E+08
 
   -0.50191E+08         0.91676E+06         0.00000E+00
    0.91676E+06        -0.50000E+08         0.00000E+00
    0.00000E+00         0.00000E+00        -0.50171E+08
 
   -0.50190E+08         0.96956E+06         0.00000E+00
    0.96956E+06        -0.50000E+08         0.00000E+00
    0.00000E+00         0.00000E+00        -0.50171E+08
 
   -0.50190E+08         0.10220E+07         0.00000E+00
    0.10220E+07        -0.49999E+08         0.00000E+00
    0.00000E+00         0.00000E+00        -0.50171E+08
 
   -0.50189E+08         0.10741E+07         0.00000E+00
    0.10741E+07        -0.49999E+08         0.00000E+00
    0.00000E+00         0.00000E+00        -0.50171E+08
 
   -0.50188E+08         0.11259E+07         0.00000E+00
    0.11259E+07        -0.49999E+08         0.00000E+00
    0.00000E+00         0.00000E+00        -0.50171E+08
 
   -0.50188E+08         0.11773E+07         0.00000E+00
    0.11773E+07        -0.49999E+08         0.00000E+00
    0.00000E+00         0.00000E+00        -0.50171E+08
 
   -0.50187E+08         0.12283E+07         0.00000E+00
    0.12283E+07        -0.49999E+08         0.00000E+00
    0.00000E+00         0.00000E+00        -0.50171E+08
 
   -0.50186E+08         0.12790E+07         0.00000E+00
    0.12790E+07        -0.49999E+08         0.00000E+00
    0.00000E+00         0.00000E+00        -0.50171E+08
 
   -0.50186E+08         0.13293E+07         0.00000E+00
    0.13293E+07        -0.49999E+08         0.00000E+00
    0.00000E+00         0.00000E+00        -0.50172E+08
 
   -0.50185E+08         0.13792E+07         0.00000E+00
    0.13792E+07        -0.49999E+08         0.00000E+00
    0.00000E+00         0.00000E+00        -0.50172E+08
 
   -0.50185E+08         0.14288E+07         0.00000E+00
    0.14288E+07        -0.49999E+08         0.00000E+00
    0.00000E+00         0.00000E+00        -0.50172E+08
 
   -0.50184E+08         0.14780E+07         0.00000E+00
    0.14780E+07        -0.49999E+08         0.00000E+00
    0.00000E+00         0.00000E+00        -0.50172E+08
 
   -0.50183E+08         0.15267E+07         0.00000E+00
    0.15267E+07        -0.49999E+08         0.00000E+00
    0.00000E+00         0.00000E+00        -0.50172E+08
 
   -0.50183E+08         0.15751E+07         0.00000E+00
    0.15751E+07        -0.49999E+08         0.00000E+00
    0.00000E+00         0.00000E+00        -0.50172E+08
 
   -0.50182E+08         0.16231E+07         0.00000E+00
    0.16231E+07        -0.49999E+08         0.00000E+00
    0.00000E+00         0.00000E+00        -0.50172E+08
 
   -0.50182E+08         0.16707E+07         0.00000E+00
    0.16707E+07        -0.49999E+08         0.00000E+00
    0.00000E+00         0.00000E+00        -0.50172E+08
 
   -0.50181E+08         0.17179E+07         0.00000E+00
    0.17179E+07        -0.49999E+08         0.00000E+00
    0.00000E+00         0.00000E+00        -0.50172E+08
 
   -0.50181E+08         0.17647E+07         0.00000E+00
    0.17647E+07        -0.49999E+08         0.00000E+00
    0.00000E+00         0.00000E+00        -0.50172E+08
 
   -0.50180E+08         0.18111E+07         0.00000E+00
    0.18111E+07        -0.49999E+08         0.00000E+00
    0.00000E+00         0.00000E+00        -0.50172E+08
 
   -0.50180E+08         0.18570E+07         0.00000E+00
    0.18570E+07        -0.49999E+08         0.00000E+00
    0.00000E+00         0.00000E+00        -0.50173E+08
 
   -0.50180E+08         0.19026E+07         0.00000E+00
    0.19026E+07        -0.49999E+08         0.00000E+00
    0.00000E+00         0.00000E+00        -0.50173E+08
 
   -0.50179E+08         0.19477E+07         0.00000E+00
    0.19477E+07        -0.49999E+08         0.00000E+00
    0.00000E+00         0.00000E+00        -0.50173E+08
 
   -0.50179E+08         0.19923E+07         0.00000E+00
    0.19923E+07        -0.49999E+08         0.00000E+00
    0.00000E+00         0.00000E+00        -0.50173E+08
 
   -0.50178E+08         0.20366E+07         0.00000E+00
    0.20366E+07        -0.49999E+08         0.00000E+00
    0.00000E+00         0.00000E+00        -0.50173E+08
 
   -0.50178E+08         0.20804E+07         0.00000E+00
    0.20804E+07        -0.49999E+08         0.00000E+00
    0.00000E+00         0.00000E+00        -0.50173E+08
 
   -0.50177E+08         0.21238E+07         0.00000E+00
    0.21238E+07        -0.50000E+08         0.00000E+00
    0.00000E+00         0.00000E+00        -0.50173E+08
 
   -0.50177E+08         0.21667E+07         0.00000E+00
    0.21667E+07        -0.50000E+08         0.00000E+00
    0.00000E+00         0.00000E+00        -0.50173E+08
 
   -0.50176E+08         0.22091E+07         0.00000E+00
    0.22091E+07        -0.50000E+08         0.00000E+00
    0.00000E+00         0.00000E+00        -0.50173E+08
 
   -0.50176E+08         0.22511E+07         0.00000E+00
    0.22511E+07        -0.50000E+08         0.00000E+00
    0.00000E+00         0.00000E+00        -0.50173E+08
 
   -0.50175E+08         0.22927E+07         0.00000E+00
    0.22927E+07        -0.50000E+08         0.00000E+00
    0.00000E+00         0.00000E+00        -0.50173E+08
 
   -0.50175E+08         0.23338E+07         0.00000E+00
    0.23338E+07        -0.50000E+08         0.00000E+00
    0.00000E+00         0.00000E+00        -0.50173E+08
 
   -0.50174E+08         0.23744E+07         0.00000E+00
    0.23744E+07        -0.50001E+08         0.00000E+00
    0.00000E+00         0.00000E+00        -0.50173E+08
 
   -0.50174E+08         0.24145E+07         0.00000E+00
    0.24145E+07        -0.50001E+08         0.00000E+00
    0.00000E+00         0.00000E+00        -0.50173E+08
 
   -0.50173E+08         0.24542E+07         0.00000E+00
    0.24542E+07        -0.50001E+08         0.00000E+00
    0.00000E+00         0.00000E+00        -0.50173E+08
 
   -0.49919E+08         0.29207E+05         0.00000E+00
    0.29207E+05        -0.50000E+08         0.00000E+00
    0.00000E+00         0.00000E+00        -0.49974E+08
 
   -0.49919E+08         0.86920E+05         0.00000E+00
    0.86920E+05        -0.50000E+08         0.00000E+00
    0.00000E+00         0.00000E+00        -0.49974E+08
 
   -0.49919E+08         0.14437E+06         0.00000E+00
    0.14437E+06        -0.50000E+08         0.00000E+00
    0.00000E+00         0.00000E+00        -0.49974E+08
 
   -0.49919E+08         0.20155E+06         0.00000E+00
    0.20155E+06        -0.50000E+08         0.00000E+00
    0.00000E+00         0.00000E+00        -0.49974E+08
 
   -0.49919E+08         0.25846E+06         0.00000E+00
    0.25846E+06        -0.50000E+08         0.00000E+00
    0.00000E+00         0.00000E+00        -0.49974E+08
 
   -0.49920E+08         0.31508E+06         0.00000E+00
    0.31508E+06        -0.50000E+08         0.00000E+00
    0.00000E+00         0.00000E+00        -0.49974E+08
 
   -0.49920E+08         0.37143E+06         0.00000E+00
    0.37143E+06        -0.49999E+08         0.00000E+00
    0.00000E+00         0.00000E+00        -0.49974E+08
 
   -0.49920E+08         0.42748E+06         0.00000E+00
    0.42748E+06        -0.49999E+08         0.00000E+00
    0.00000E+00         0.00000E+00        -0.49974E+08
 
   -0.49921E+08         0.48323E+06         0.00000E+00
    0.48323E+06        -0.49999E+08         0.00000E+00
    0.00000E+00         0.00000E+00        -0.49974E+08
 
   -0.49921E+08         0.53869E+06         0.00000E+00
    0.53869E+06        -0.49999E+08         0.00000E+00
    0.00000E+00         0.00000E+00        -0.49974E+08
 
   -0.49922E+08         0.59384E+06         0.00000E+00
    0.59384E+06        -0.49998E+08         0.00000E+00
    0.00000E+00         0.00000E+00        -0.49974E+08
 
   -0.49922E+08         0.64867E+06         0.00000E+00
    0.64867E+06        -0.49998E+08         0.00000E+00
    0.00000E+00         0.00000E+00        -0.49975E+08
 
   -0.49923E+08         0.70319E+06         0.00000E+00
    0.70319E+06        -0.49998E+08         0.00000E+00
    0.00000E+00         0.00000E+00        -0.49975E+08
 
   -0.49924E+08         0.75739E+06         0.00000E+00
    0.75739E+06        -0.49997E+08         0.00000E+00
    0.00000E+00         0.00000E+00        -0.49975E+08
 
   -0.49925E+08         0.81126E+06         0.00000E+00
    0.81126E+06        -0.49997E+08         0.00000E+00
    0.00000E+00         0.00000E+00        -0.49975E+08
 
   -0.49925E+08         0.86480E+06         0.00000E+00
    0.86480E+06        -0.49997E+08         0.00000E+00
    0.00000E+00         0.00000E+00        -0.49975E+08
 
   -0.49926E+08         0.91801E+06         0.00000E+00
    0.91801E+06        -0.49996E+08         0.00000E+00
    0.00000E+00         0.00000E+00        -0.49975E+08
 
   -0.49927E+08         0.97087E+06         0.00000E+00
    0.97087E+06        -0.49996E+08         0.00000E+00
    0.00000E+00         0.00000E+00        -0.49975E+08
 
   -0.49928E+08         0.10234E+07         0.00000E+00
    0.10234E+07        -0.49995E+08         0.00000E+00
    0.00000E+00         0.00000E+00        -0.49975E+08
 
   -0.49929E+08         0.10756E+07         0.00000E+00
    0.10756E+07        -0.49995E+08         0.00000E+00
    0.00000E+00         0.00000E+00        -0.49975E+08
 
   -0.49930E+08         0.11274E+07         0.00000E+00
    0.11274E+07        -0.49994E+08         0.00000E+00
    0.00000E+00         0.00000E+00        -0.49975E+08
 
   -0.49931E+08         0.11788E+07         0.00000E+00
    0.11788E+07        -0.49994E+08         0.00000E+00
    0.00000E+00         0.00000E+00        -0.49975E+08
 
   -0.49933E+08         0.12299E+07         0.00000E+00
    0.12299E+07        -0.49993E+08         0.00000E+00
    0.00000E+00         0.00000E+00        -0.49975E+08
 
   -0.49934E+08         0.12806E+07         0.00000E+00
    0.12806E+07        -0.49992E+08         0.00000E+00
    0.00000E+00         0.00000E+00        -0.49976E+08
 
   -0.49935E+08         0.13310E+07         0.00000E+00
    0.13310E+07        -0.49992E+08         0.00000E+00
    0.00000E+00         0.00000E+00        -0.49976E+08
 
   -0.49936E+08         0.13810E+07         0.00000E+00
    0.13810E+07        -0.49991E+08         0.00000E+00
    0.00000E+00         0.00000E+00        -0.49976E+08
 
   -0.49938E+08         0.14306E+07         0.00000E+00
    0.14306E+07        -0.49990E+08         0.00000E+00
    0.00000E+00         0.00000E+00        -0.49976E+08
 
   -0.49939E+08         0.14798E+07         0.00000E+00
    0.14798E+07        -0.49990E+08         0.00000E+00
    0.00000E+00         0.00000E+00        -0.49976E+08
 
   -0.49940E+08         0.15286E+07         0.00000E+00
    0.15286E+07        -0.49989E+08         0.00000E+00
    0.00000E+00         0.00000E+00        -0.49976E+08
 
   -0.49942E+08         0.15770E+07         0.00000E+00
    0.15770E+07        -0.49988E+08         0.00000E+00
    0.00000E+00         0.00000E+00        -0.49976E+08
 
   -0.49943E+08         0.16250E+07         0.00000E+00
    0.16250E+07        -0.49988E+08         0.00000E+00
    0.00000E+00         0.00000E+00        -0.49976E+08
 
   -0.49945E+08         0.16727E+07         0.00000E+00
    0.16727E+07        -0.49987E+08         0.00000E+00
    0.00000E+00         0.00000E+00        -0.49976E+08
 
   -0.49946E+08         0.17199E+07         0.00000E+00
    0.17199E+07        -0.49986E+08         0.00000E+00
    0.00000E+00         0.00000E+00        -0.49976E+08
 
   -0.49948E+08         0.17667E+07         0.00000E+00
    0.17667E+07        -0.49985E+08         0.00000E+00
    0.00000E+00         0.00000E+00        -0.49977E+08
 
   -0.49950E+08         0.18130E+07         0.00000E+00
    0.18130E+07        -0.49984E+08         0.00000E+00
    0.00000E+00         0.00000E+00        -0.49977E+08
 
   -0.49951E+08         0.18590E+07         0.00000E+00
    0.18590E+07        -0.49984E+08         0.00000E+00
    0.00000E+00         0.00000E+00        -0.49977E+08
 
   -0.49953E+08         0.19046E+07         0.00000E+00
    0.19046E+07        -0.49983E+08         0.00000E+00
    0.00000E+00         0.00000E+00        -0.49977E+08
 
   -0.49955E+08         0.19497E+07         0.00000E+00
    0.19497E+07        -0.49982E+08         0.00000E+00
    0.00000E+00         0.00000E+00        -0.49977E+08
 
   -0.49956E+08         0.19943E+07         0.00000E+00
    0.19943E+07        -0.49981E+08         0.00000E+00
    0.00000E+00         0.00000E+00        -0.49977E+08
 
   -0.49958E+08         0.20386E+07         0.00000E+00
    0.20386E+07        -0.49980E+08         0.00000E+00
    0.00000E+00         0.00000E+00        -0.49977E+08
 
   -0.49960E+08         0.20824E+07         0.00000E+00
    0.20824E+07        -0.49979E+08         0.00000E+00
    0.00000E+00         0.00000E+00        -0.49977E+08
 
   -0.49962E+08         0.21257E+07         0.00000E+00
    0.21257E+07        -0.49978E+08         0.00000E+00
    0.00000E+00         0.00000E+00        -0.49977E+08
 
   -0.49963E+08         0.21686E+07         0.00000E+00
    0.21686E+07        -0.49977E+08         0.00000E+00
    0.00000E+00         0.00000E+00        -0.49977E+08
 
   -0.49965E+08         0.22111E+07         0.00000E+00
    0.22111E+07        -0.49977E+08         0.00000E+00
    0.00000E+00         0.00000E+00        -0.49977E+08
 
   -0.49967E+08         0.22531E+07         0.00000E+00
    0.22531E+07        -0.49976E+08         0.00000E+00
    0.00000E+00         0.00000E+00        -0.49977E+08
 
   -0.49969E+08         0.22946E+07         0.00000E+00
    0.22946E+07        -0.49975E+08         0.00000E+00
    0.00000E+00         0.00000E+00        -0.49977E+08
 
   -0.49971E+08         0.23356E+07         0.00000E+00
    0.23356E+07        -0.49974E+08         0.00000E+00
    0.00000E+00         0.00000E+00        -0.49977E+08
 
   -0.49973E+08         0.23762E+07         0.00000E+00
    0.23762E+07        -0.49973E+08         0.00000E+00
    0.00000E+00         0.00000E+00        -0.49977E+08
 
   -0.49975E+08         0.24163E+07         0.00000E+00
    0.24163E+07        -0.49972E+08         0.00000E+00
    0.00000E+00         0.00000E+00        -0.49977E+08
 
   -0.49976E+08         0.24559E+07         0.00000E+00
    0.24559E+07        -0.49971E+08         0.00000E+00
    0.00000E+00         0.00000E+00        -0.49977E+08
 
   -0.49629E+08         0.29314E+05         0.00000E+00
    0.29314E+05        -0.50000E+08         0.00000E+00
    0.00000E+00         0.00000E+00        -0.49778E+08
 
   -0.49630E+08         0.87239E+05         0.00000E+00
    0.87239E+05        -0.50000E+08         0.00000E+00
    0.00000E+00         0.00000E+00        -0.49778E+08
 
   -0.49632E+08         0.14490E+06         0.00000E+00
    0.14490E+06        -0.50000E+08         0.00000E+00
    0.00000E+00         0.00000E+00        -0.49778E+08
 
   -0.49633E+08         0.20229E+06         0.00000E+00
    0.20229E+06        -0.50000E+08         0.00000E+00
    0.00000E+00         0.00000E+00        -0.49778E+08
 
   -0.49635E+08         0.25941E+06         0.00000E+00
    0.25941E+06        -0.49999E+08         0.00000E+00
    0.00000E+00         0.00000E+00        -0.49778E+08
 
   -0.49637E+08         0.31624E+06         0.00000E+00
    0.31624E+06        -0.49999E+08         0.00000E+00
    0.00000E+00         0.00000E+00        -0.49778E+08
 
   -0.49638E+08         0.37279E+06         0.00000E+00
    0.37279E+06        -0.49999E+08         0.00000E+00
    0.00000E+00         0.00000E+00        -0.49778E+08
 
   -0.49640E+08         0.42904E+06         0.00000E+00
    0.42904E+06        -0.49998E+08         0.00000E+00
    0.00000E+00         0.00000E+00        -0.49778E+08
 
   -0.49642E+08         0.48500E+06         0.00000E+00
    0.48500E+06        -0.49998E+08         0.00000E+00
    0.00000E+00         0.00000E+00        -0.49778E+08
 
   -0.49644E+08         0.54066E+06         0.00000E+00
    0.54066E+06        -0.49998E+08         0.00000E+00
    0.00000E+00         0.00000E+00        -0.49778E+08
 
   -0.49646E+08         0.59600E+06         0.00000E+00
    0.59600E+06        -0.49997E+08         0.00000E+00
    0.00000E+00         0.00000E+00        -0.49778E+08
 
   -0.49649E+08         0.65104E+06         0.00000E+00
    0.65104E+06        -0.49996E+08         0.00000E+00
    0.00000E+00         0.00000E+00        -0.49778E+08
 
   -0.49651E+08         0.70575E+06         0.00000E+00
    0.70575E+06        -0.49996E+08         0.00000E+00
    0.00000E+00         0.00000E+00        -0.49779E+08
 
   -0.49653E+08         0.76014E+06         0.00000E+00
    0.76014E+06        -0.49995E+08         0.00000E+00
    0.00000E+00         0.00000E+00        -0.49779E+08
 
   -0.49656E+08         0.81420E+06         0.00000E+00
    0.81420E+06        -0.49994E+08         0.00000E+00
    0.00000E+00         0.00000E+00        -0.49779E+08
 
   -0.49658E+08         0.86793E+06         0.00000E+00
    0.86793E+06        -0.49993E+08         0.00000E+00
    0.00000E+00         0.00000E+00        -0.49779E+08
 
   -0.49661E+08         0.92132E+06         0.00000E+00
    0.92132E+06        -0.49993E+08         0.00000E+00
    0.00000E+00         0.00000E+00        -0.49779E+08
 
   -0.49663E+08         0.97437E+06         0.00000E+00
    0.97437E+06        -0.49992E+08         0.00000E+00
    0.00000E+00         0.00000E+00        -0.49779E+08
 
   -0.49666E+08         0.10271E+07         0.00000E+00
    0.10271E+07        -0.49991E+08         0.00000E+00
    0.00000E+00         0.00000E+00        -0.49779E+08
 
   -0.49669E+08         0.10794E+07         0.00000E+00
    0.10794E+07        -0.49990E+08         0.00000E+00
    0.00000E+00         0.00000E+00        -0.49779E+08
 
   -0.49672E+08         0.11314E+07         0.00000E+00
    0.11314E+07        -0.49989E+08         0.00000E+00
    0.00000E+00         0.00000E+00        -0.49779E+08
 
   -0.49675E+08         0.11830E+07         0.00000E+00
    0.11830E+07        -0.49988E+08         0.00000E+00
    0.00000E+00         0.00000E+00        -0.49779E+08
 
   -0.49678E+08         0.12343E+07         0.00000E+00
    0.12343E+07        -0.49987E+08         0.00000E+00
    0.00000E+00         0.00000E+00        -0.49779E+08
 
   -0.49681E+08         0.12852E+07         0.00000E+00
    0.12852E+07        -0.49985E+08         0.00000E+00
    0.00000E+00         0.00000E+00        -0.49780E+08
 
   -0.49684E+08         0.13357E+07         0.00000E+00
    0.13357E+07        -0.49984E+08         0.00000E+00
    0.00000E+00         0.00000E+00        -0.49780E+08
 
   -0.49687E+08         0.13858E+07         0.00000E+00
    0.13858E+07        -0.49983E+08         0.00000E+00
    0.00000E+00         0.00000E+00        -0.49780E+08
 
   -0.49690E+08         0.14356E+07         0.00000E+00
    0.14356E+07        -0.49982E+08         0.00000E+00
    0.00000E+00         0.00000E+00        -0.49780E+08
 
   -0.49694E+08         0.14850E+07         0.00000E+00
    0.14850E+07        -0.49980E+08         0.00000E+00
    0.00000E+00         0.00000E+00        -0.49780E+08
 
   -0.49697E+08         0.15339E+07         0.00000E+00
    0.15339E+07        -0.49979E+08         0.00000E+00
    0.00000E+00         0.00000E+00        -0.49780E+08
 
   -0.49700E+08         0.15825E+07         0.00000E+00
    0.15825E+07        -0.49977E+08         0.00000E+00
    0.00000E+00         0.00000E+00        -0.49780E+08
 
   -0.49704E+08         0.16307E+07         0.00000E+00
    0.16307E+07        -0.49976E+08         0.00000E+00
    0.00000E+00         0.00000E+00        -0.49780E+08
 
   -0.49707E+08         0.16784E+07         0.00000E+00
    0.16784E+07        -0.49974E+08         0.00000E+00
    0.00000E+00         0.00000E+00        -0.49780E+08
 
   -0.49711E+08         0.17258E+07         0.00000E+00
    0.17258E+07        -0.49973E+08         0.00000E+00
    0.00000E+00         0.00000E+00        -0.49781E+08
 
   -0.49715E+08         0.17727E+07         0.00000E+00
    0.17727E+07        -0.49971E+08         0.00000E+00
    0.00000E+00         0.00000E+00        -0.49781E+08
 
   -0.49718E+08         0.18192E+07         0.00000E+00
    0.18192E+07        -0.49970E+08         0.00000E+00
    0.00000E+00         0.00000E+00        -0.49781E+08
 
   -0.49722E+08         0.18653E+07         0.00000E+00
    0.18653E+07        -0.49968E+08         0.00000E+00
    0.00000E+00         0.00000E+00        -0.49781E+08
 
   -0.49726E+08         0.19110E+07         0.00000E+00
    0.19110E+07        -0.49966E+08         0.00000E+00
    0.00000E+00         0.00000E+00        -0.49781E+08
 
   -0.49730E+08         0.19562E+07         0.00000E+00
    0.19562E+07        -0.49964E+08         0.00000E+00
    0.00000E+00         0.00000E+00        -0.49781E+08
 
   -0.49734E+08         0.20010E+07         0.00000E+00
    0.20010E+07        -0.49963E+08         0.00000E+00
    0.00000E+00         0.00000E+00        -0.49781E+08
 
   -0.49738E+08         0.20454E+07         0.00000E+00
    0.20454E+07        -0.49961E+08         0.00000E+00
    0.00000E+00         0.00000E+00        -0.49781E+08
 
   -0.49742E+08         0.20893E+07         0.00000E+00
    0.20893E+07        -0.49959E+08         0.00000E+00
    0.00000E+00         0.00000E+00        -0.49781E+08
 
   -0.49746E+08         0.21328E+07         0.00000E+00
    0.21328E+07        -0.49957E+08         0.00000E+00
    0.00000E+00         0.00000E+00        -0.49781E+08
 
   -0.49750E+08         0.21758E+07         0.00000E+00
    0.21758E+07        -0.49955E+08         0.00000E+00
    0.00000E+00         0.00000E+00        -0.49781E+08
 
   -0.49754E+08         0.22183E+07         0.00000E+00
    0.22183E+07        -0.49953E+08         0.00000E+00
    0.00000E+00         0.00000E+00        -0.49781E+08
 
   -0.49758E+08         0.22604E+07         0.00000E+00
    0.22604E+07        -0.49951E+08         0.00000E+00
    0.00000E+00         0.00000E+00        -0.49781E+08
 
   -0.49762E+08         0.23020E+07         0.00000E+00
    0.23020E+07        -0.49949E+08         0.00000E+00
    0.00000E+00         0.00000E+00        -0.49782E+08
 
   -0.49767E+08         0.23431E+07         0.00000E+00
    0.23431E+07        -0.49947E+08         0.00000E+00
    0.00000E+00         0.00000E+00        -0.49782E+08
 
   -0.49771E+08         0.23838E+07         0.00000E+00
    0.23838E+07        -0.49945E+08         0.00000E+00
    0.00000E+00         0.00000E+00        -0.49782E+08
 
   -0.49775E+08         0.24240E+07         0.00000E+00
    0.24240E+07        -0.49943E+08         0.00000E+00
    0.00000E+00         0.00000E+00        -0.49782E+08
 
   -0.49779E+08         0.24637E+07         0.00000E+00
    0.24637E+07        -0.49941E+08         0.00000E+00
    0.00000E+00         0.00000E+00        -0.49782E+08
 
   -0.49338E+08         0.29489E+05         0.00000E+00
    0.29489E+05        -0.50000E+08         0.00000E+00
    0.00000E+00         0.00000E+00        -0.49581E+08
 
   -0.49341E+08         0.87759E+05         0.00000E+00
    0.87759E+05        -0.50000E+08         0.00000E+00
    0.00000E+00         0.00000E+00        -0.49581E+08
 
   -0.49343E+08         0.14576E+06         0.00000E+00
    0.14576E+06        -0.50000E+08         0.00000E+00
    0.00000E+00         0.00000E+00        -0.49581E+08
 
   -0.49346E+08         0.20349E+06         0.00000E+00
    0.20349E+06        -0.49999E+08         0.00000E+00
    0.00000E+00         0.00000E+00        -0.49581E+08
 
   -0.49349E+08         0.26095E+06         0.00000E+00
    0.26095E+06        -0.49999E+08         0.00000E+00
    0.00000E+00         0.00000E+00        -0.49581E+08
 
   -0.49352E+08         0.31812E+06         0.00000E+00
    0.31812E+06        -0.49999E+08         0.00000E+00
    0.00000E+00         0.00000E+00        -0.49581E+08
 
   -0.49356E+08         0.37500E+06         0.00000E+00
    0.37500E+06        -0.49998E+08         0.00000E+00
    0.00000E+00         0.00000E+00        -0.49581E+08
 
   -0.49359E+08         0.43159E+06         0.00000E+00
    0.43159E+06        -0.49998E+08         0.00000E+00
    0.00000E+00         0.00000E+00        -0.49581E+08
 
   -0.49362E+08         0.48787E+06         0.00000E+00
    0.48787E+06        -0.49997E+08         0.00000E+00
    0.00000E+00         0.00000E+00        -0.49581E+08
 
   -0.49366E+08         0.54385E+06         0.00000E+00
    0.54385E+06        -0.49996E+08         0.00000E+00
    0.00000E+00         0.00000E+00        -0.49581E+08
 
   -0.49370E+08         0.59952E+06         0.00000E+00
    0.59952E+06        -0.49996E+08         0.00000E+00
    0.00000E+00         0.00000E+00        -0.49582E+08
 
   -0.49373E+08         0.65488E+06         0.00000E+00
    0.65488E+06        -0.49995E+08         0.00000E+00
    0.00000E+00         0.00000E+00        -0.49582E+08
 
   -0.49377E+08         0.70991E+06         0.00000E+00
    0.70991E+06        -0.49994E+08         0.00000E+00
    0.00000E+00         0.00000E+00        -0.49582E+08
 
   -0.49381E+08         0.76462E+06         0.00000E+00
    0.76462E+06        -0.49993E+08         0.00000E+00
    0.00000E+00         0.00000E+00        -0.49582E+08
 
   -0.49385E+08         0.81899E+06         0.00000E+00
    0.81899E+06        -0.49992E+08         0.00000E+00
    0.00000E+00         0.00000E+00        -0.49582E+08
 
   -0.49389E+08         0.87303E+06         0.00000E+00
    0.87303E+06        -0.49990E+08         0.00000E+00
    0.00000E+00         0.00000E+00        -0.49582E+08
 
   -0.49394E+08         0.92673E+06         0.00000E+00
    0.92673E+06        -0.49989E+08         0.00000E+00
    0.00000E+00         0.00000E+00        -0.49582E+08
 
   -0.49398E+08         0.98008E+06         0.00000E+00
    0.98008E+06        -0.49988E+08         0.00000E+00
    0.00000E+00         0.00000E+00        -0.49582E+08
 
   -0.49403E+08         0.10331E+07         0.00000E+00
    0.10331E+07        -0.49986E+08         0.00000E+00
    0.00000E+00         0.00000E+00        -0.49582E+08
 
   -0.49407E+08         0.10857E+07         0.00000E+00
    0.10857E+07        -0.49985E+08         0.00000E+00
    0.00000E+00         0.00000E+00        -0.49582E+08
 
   -0.49412E+08         0.11380E+07         0.00000E+00
    0.11380E+07        -0.49983E+08         0.00000E+00
    0.00000E+00         0.00000E+00        -0.49583E+08
 
   -0.49417E+08         0.11899E+07         0.00000E+00
    0.11899E+07        -0.49982E+08         0.00000E+00
    0.00000E+00         0.00000E+00        -0.49583E+08
 
   -0.49422E+08         0.12415E+07         0.00000E+00
    0.12415E+07        -0.49980E+08         0.00000E+00
    0.00000E+00         0.00000E+00        -0.49583E+08
 
   -0.49426E+08         0.12927E+07         0.00000E+00
    0.12927E+07        -0.49978E+08         0.00000E+00
    0.00000E+00         0.00000E+00        -0.49583E+08
 
   -0.49431E+08         0.13435E+07         0.00000E+00
    0.13435E+07        -0.49976E+08         0.00000E+00
    0.00000E+00         0.00000E+00        -0.49583E+08
 
   -0.49437E+08         0.13939E+07         0.00000E+00
    0.13939E+07        -0.49975E+08         0.00000E+00
    0.00000E+00         0.00000E+00        -0.49583E+08
 
   -0.49442E+08         0.14439E+07         0.00000E+00
    0.14439E+07        -0.49973E+08         0.00000E+00
    0.00000E+00         0.00000E+00        -0.49583E+08
 
   -0.49447E+08         0.14936E+07         0.00000E+00
    0.14936E+07        -0.49971E+08         0.00000E+00
    0.00000E+00         0.00000E+00        -0.49583E+08
 
   -0.49452E+08         0.15428E+07         0.00000E+00
    0.15428E+07        -0.49969E+08         0.00000E+00
    0.00000E+00         0.00000E+00        -0.49583E+08
 
   -0.49458E+08         0.15916E+07         0.00000E+00
    0.15916E+07        -0.49966E+08         0.00000E+00
    0.00000E+00         0.00000E+00        -0.49584E+08
 
   -0.49463E+08         0.16401E+07         0.00000E+00
    0.16401E+07        -0.49964E+08         0.00000E+00
    0.00000E+00         0.00000E+00        -0.49584E+08
 
   -0.49469E+08         0.16881E+07         0.00000E+00
    0.16881E+07        -0.49962E+08         0.00000E+00
    0.00000E+00         0.00000E+00        -0.49584E+08
 
   -0.49475E+08         0.17357E+07         0.00000E+00
    0.17357E+07        -0.49959E+08         0.00000E+00
    0.00000E+00         0.00000E+00        -0.49584E+08
 
   -0.49480E+08         0.17829E+07         0.00000E+00
    0.17829E+07        -0.49957E+08         0.00000E+00
    0.00000E+00         0.00000E+00        -0.49584E+08
 
   -0.49486E+08         0.18297E+07         0.00000E+00
    0.18297E+07        -0.49955E+08         0.00000E+00
    0.00000E+00         0.00000E+00        -0.49584E+08
 
   -0.49492E+08         0.18760E+07         0.00000E+00
    0.18760E+07        -0.49952E+08         0.00000E+00
    0.00000E+00         0.00000E+00        -0.49584E+08
 
   -0.49498E+08         0.19219E+07         0.00000E+00
    0.19219E+07        -0.49949E+08         0.00000E+00
    0.00000E+00         0.00000E+00        -0.49584E+08
 
   -0.49504E+08         0.19674E+07         0.00000E+00
    0.19674E+07        -0.49947E+08         0.00000E+00
    0.00000E+00         0.00000E+00        -0.49584E+08
 
   -0.49510E+08         0.20125E+07         0.00000E+00
    0.20125E+07        -0.49944E+08         0.00000E+00
    0.00000E+00         0.00000E+00        -0.49585E+08
 
   -0.49517E+08         0.20571E+07         0.00000E+00
    0.20571E+07        -0.49941E+08         0.00000E+00
    0.00000E+00         0.00000E+00        -0.49585E+08
 
   -0.49523E+08         0.21012E+07         0.00000E+00
    0.21012E+07        -0.49938E+08         0.00000E+00
    0.00000E+00         0.00000E+00        -0.49585E+08
 
   -0.49529E+08         0.21449E+07         0.00000E+00
    0.21449E+07        -0.49935E+08         0.00000E+00
    0.00000E+00         0.00000E+00        -0.49585E+08
 
   -0.49535E+08         0.21881E+07         0.00000E+00
    0.21881E+07        -0.49932E+08         0.00000E+00
    0.00000E+00         0.00000E+00        -0.49585E+08
 
   -0.49542E+08         0.22309E+07         0.00000E+00
    0.22309E+07        -0.49929E+08         0.00000E+00
    0.00000E+00         0.00000E+00        -0.49585E+08
 
   -0.49548E+08         0.22732E+07         0.00000E+00
    0.22732E+07        -0.49926E+08         0.00000E+00
    0.00000E+00         0.00000E+00        -0.49585E+08
 
   -0.49555E+08         0.23150E+07         0.00000E+00
    0.23150E+07        -0.49923E+08         0.00000E+00
    0.00000E+00         0.00000E+00        -0.49585E+08
 
   -0.49562E+08         0.23564E+07         0.00000E+00
    0.23564E+07        -0.49920E+08         0.00000E+00
    0.00000E+00         0.00000E+00        -0.49585E+08
 
   -0.49568E+08         0.23973E+07         0.00000E+00
    0.23973E+07        -0.49917E+08         0.00000E+00
    0.00000E+00         0.00000E+00        -0.49585E+08
 
   -0.49575E+08         0.24377E+07         0.00000E+00
    0.24377E+07        -0.49913E+08         0.00000E+00
    0.00000E+00         0.00000E+00        -0.49585E+08
 
   -0.49582E+08         0.24776E+07         0.00000E+00
    0.24776E+07        -0.49910E+08         0.00000E+00
    0.00000E+00         0.00000E+00        -0.49585E+08
 
   -0.49045E+08         0.29733E+05         0.00000E+00
    0.29733E+05        -0.50000E+08         0.00000E+00
    0.00000E+00         0.00000E+00        -0.49383E+08
 
   -0.49049E+08         0.88481E+05         0.00000E+00
    0.88481E+05        -0.50000E+08         0.00000E+00
    0.00000E+00         0.00000E+00        -0.49383E+08
 
   -0.49053E+08         0.14696E+06         0.00000E+00
    0.14696E+06        -0.50000E+08         0.00000E+00
    0.00000E+00         0.00000E+00        -0.49383E+08
 
   -0.49057E+08         0.20516E+06         0.00000E+00
    0.20516E+06        -0.49999E+08         0.00000E+00
    0.00000E+00         0.00000E+00        -0.49383E+08
 
   -0.49062E+08         0.26309E+06         0.00000E+00
    0.26309E+06        -0.49999E+08         0.00000E+00
    0.00000E+00         0.00000E+00        -0.49383E+08
 
   -0.49066E+08         0.32072E+06         0.00000E+00
    0.32072E+06        -0.49998E+08         0.00000E+00
    0.00000E+00         0.00000E+00        -0.49383E+08
 
   -0.49071E+08         0.37806E+06         0.00000E+00
    0.37806E+06        -0.49998E+08         0.00000E+00
    0.00000E+00         0.00000E+00        -0.49383E+08
 
   -0.49076E+08         0.43511E+06         0.00000E+00
    0.43511E+06        -0.49997E+08         0.00000E+00
    0.00000E+00         0.00000E+00        -0.49383E+08
 
   -0.49081E+08         0.49185E+06         0.00000E+00
    0.49185E+06        -0.49996E+08         0.00000E+00
    0.00000E+00         0.00000E+00        -0.49383E+08
 
   -0.49086E+08         0.54829E+06         0.00000E+00
    0.54829E+06        -0.49995E+08         0.00000E+00
    0.00000E+00         0.00000E+00        -0.49383E+08
 
   -0.49091E+08         0.60440E+06         0.00000E+00
    0.60440E+06        -0.49994E+08         0.00000E+00
    0.00000E+00         0.00000E+00        -0.49383E+08
 
   -0.49096E+08         0.66020E+06         0.00000E+00
    0.66020E+06        -0.49993E+08         0.00000E+00
    0.00000E+00         0.00000E+00        -0.49383E+08
 
   -0.49102E+08         0.71568E+06         0.00000E+00
    0.71568E+06        -0.49992E+08         0.00000E+00
    0.00000E+00         0.00000E+00        -0.49384E+08
 
   -0.49107E+08         0.77083E+06         0.00000E+00
    0.77083E+06        -0.49990E+08         0.00000E+00
    0.00000E+00         0.00000E+00        -0.49384E+08
 
   -0.49113E+08         0.82564E+06         0.00000E+00
    0.82564E+06        -0.49989E+08         0.00000E+00
    0.00000E+00         0.00000E+00        -0.49384E+08
 
   -0.49119E+08         0.88011E+06         0.00000E+00
    0.88011E+06        -0.49987E+08         0.00000E+00
    0.00000E+00         0.00000E+00        -0.49384E+08
 
   -0.49125E+08         0.93424E+06         0.00000E+00
    0.93424E+06        -0.49986E+08         0.00000E+00
    0.00000E+00         0.00000E+00        -0.49384E+08
 
   -0.49131E+08         0.98802E+06         0.00000E+00
    0.98802E+06        -0.49984E+08         0.00000E+00
    0.00000E+00         0.00000E+00        -0.49384E+08
 
   -0.49138E+08         0.10414E+07         0.00000E+00
    0.10414E+07        -0.49982E+08         0.00000E+00
    0.00000E+00         0.00000E+00        -0.49384E+08
 
   -0.49144E+08         0.10945E+07         0.00000E+00
    0.10945E+07        -0.49980E+08         0.00000E+00
    0.00000E+00         0.00000E+00        -0.49384E+08
 
   -0.49150E+08         0.11472E+07         0.00000E+00
    0.11472E+07        -0.49978E+08         0.00000E+00
    0.00000E+00         0.00000E+00        -0.49384E+08
 
   -0.49157E+08         0.11996E+07         0.00000E+00
    0.11996E+07        -0.49976E+08         0.00000E+00
    0.00000E+00         0.00000E+00        -0.49385E+08
 
   -0.49164E+08         0.12515E+07         0.00000E+00
    0.12515E+07        -0.49974E+08         0.00000E+00
    0.00000E+00         0.00000E+00        -0.49385E+08
 
   -0.49171E+08         0.13031E+07         0.00000E+00
    0.13031E+07        -0.49971E+08         0.00000E+00
    0.00000E+00         0.00000E+00        -0.49385E+08
 
   -0.49177E+08         0.13543E+07         0.00000E+00
    0.13543E+07        -0.49969E+08         0.00000E+00
    0.00000E+00         0.00000E+00        -0.49385E+08
 
   -0.49185E+08         0.14051E+07         0.00000E+00
    0.14051E+07        -0.49966E+08         0.00000E+00
    0.00000E+00         0.00000E+00        -0.49385E+08
 
   -0.49192E+08         0.14556E+07         0.00000E+00
    0.14556E+07        -0.49964E+08         0.00000E+00
    0.00000E+00         0.00000E+00        -0.49385E+08
 
   -0.49199E+08         0.15056E+07         0.00000E+00
    0.15056E+07        -0.49961E+08         0.00000E+00
    0.00000E+00         0.00000E+00        -0.49385E+08
 
   -0.49206E+08         0.15552E+07         0.00000E+00
    0.15552E+07        -0.49958E+08         0.00000E+00
    0.00000E+00         0.00000E+00        -0.49386E+08
 
   -0.49214E+08         0.16045E+07         0.00000E+00
    0.16045E+07        -0.49955E+08         0.00000E+00
    0.00000E+00         0.00000E+00        -0.49386E+08
 
   -0.49221E+08         0.16533E+07         0.00000E+00
    0.16533E+07        -0.49952E+08         0.00000E+00
    0.00000E+00         0.00000E+00        -0.49386E+08
 
   -0.49229E+08         0.17017E+07         0.00000E+00
    0.17017E+07        -0.49949E+08         0.00000E+00
    0.00000E+00         0.00000E+00        -0.49386E+08
 
   -0.49237E+08         0.17497E+07         0.00000E+00
    0.17497E+07        -0.49946E+08         0.00000E+00
    0.00000E+00         0.00000E+00        -0.49386E+08
 
   -0.49245E+08         0.17973E+07         0.00000E+00
    0.17973E+07        -0.49943E+08         0.00000E+00
    0.00000E+00         0.00000E+00        -0.49386E+08
 
   -0.49253E+08         0.18444E+07         0.00000E+00
    0.18444E+07        -0.49939E+08         0.00000E+00
    0.00000E+00         0.00000E+00        -0.49386E+08
 
   -0.49261E+08         0.18911E+07         0.00000E+00
    0.18911E+07        -0.49936E+08         0.00000E+00
    0.00000E+00         0.00000E+00        -0.49386E+08
 
   -0.49269E+08         0.19374E+07         0.00000E+00
    0.19374E+07        -0.49933E+08         0.00000E+00
    0.00000E+00         0.00000E+00        -0.49386E+08
 
   -0.49277E+08         0.19833E+07         0.00000E+00
    0.19833E+07        -0.49929E+08         0.00000E+00
    0.00000E+00         0.00000E+00        -0.49387E+08
 
   -0.49285E+08         0.20287E+07         0.00000E+00
    0.20287E+07        -0.49925E+08         0.00000E+00
    0.00000E+00         0.00000E+00        -0.49387E+08
 
   -0.49294E+08         0.20736E+07         0.00000E+00
    0.20736E+07        -0.49922E+08         0.00000E+00
    0.00000E+00         0.00000E+00        -0.49387E+08
 
   -0.49302E+08         0.21181E+07         0.00000E+00
    0.21181E+07        -0.49918E+08         0.00000E+00
    0.00000E+00         0.00000E+00        -0.49387E+08
 
   -0.49311E+08         0.21622E+07         0.00000E+00
    0.21622E+07        -0.49914E+08         0.00000E+00
    0.00000E+00         0.00000E+00        -0.49387E+08
 
   -0.49320E+08         0.22057E+07         0.00000E+00
    0.22057E+07        -0.49910E+08         0.00000E+00
    0.00000E+00         0.00000E+00        -0.49387E+08
 
   -0.49328E+08         0.22489E+07         0.00000E+00
    0.22489E+07        -0.49906E+08         0.00000E+00
    0.00000E+00         0.00000E+00        -0.49387E+08
 
   -0.49337E+08         0.22915E+07         0.00000E+00
    0.22915E+07        -0.49901E+08         0.00000E+00
    0.00000E+00         0.00000E+00        -0.49387E+08
 
   -0.49346E+08         0.23337E+07         0.00000E+00
    0.23337E+07        -0.49897E+08         0.00000E+00
    0.00000E+00         0.00000E+00        -0.49387E+08
 
   -0.49355E+08         0.23754E+07         0.00000E+00
    0.23754E+07        -0.49893E+08         0.00000E+00
    0.00000E+00         0.00000E+00        -0.49387E+08
 
   -0.49364E+08         0.24166E+07         0.00000E+00
    0.24166E+07        -0.49888E+08         0.00000E+00
    0.00000E+00         0.00000E+00        -0.49387E+08
 
   -0.49373E+08         0.24573E+07         0.00000E+00
    0.24573E+07        -0.49884E+08         0.00000E+00
    0.00000E+00         0.00000E+00        -0.49387E+08
 
   -0.49383E+08         0.24976E+07         0.00000E+00
    0.24976E+07        -0.49879E+08         0.00000E+00
    0.00000E+00         0.00000E+00        -0.49387E+08
 
   -0.48749E+08         0.30046E+05         0.00000E+00
    0.30046E+05        -0.50000E+08         0.00000E+00
    0.00000E+00         0.00000E+00        -0.49183E+08
 
   -0.48754E+08         0.89406E+05         0.00000E+00
    0.89406E+05        -0.50000E+08         0.00000E+00
    0.00000E+00         0.00000E+00        -0.49183E+08
 
   -0.48760E+08         0.14849E+06         0.00000E+00
    0.14849E+06        -0.50000E+08         0.00000E+00
    0.00000E+00         0.00000E+00        -0.49183E+08
 
   -0.48765E+08         0.20730E+06         0.00000E+00
    0.20730E+06        -0.49999E+08         0.00000E+00
    0.00000E+00         0.00000E+00        -0.49183E+08
 
   -0.48771E+08         0.26582E+06         0.00000E+00
    0.26582E+06        -0.49999E+08         0.00000E+00
    0.00000E+00         0.00000E+00        -0.49183E+08
 
   -0.48777E+08         0.32405E+06         0.00000E+00
    0.32405E+06        -0.49998E+08         0.00000E+00
    0.00000E+00         0.00000E+00        -0.49183E+08
 
   -0.48783E+08         0.38199E+06         0.00000E+00
    0.38199E+06        -0.49997E+08         0.00000E+00
    0.00000E+00         0.00000E+00        -0.49183E+08
 
   -0.48790E+08         0.43962E+06         0.00000E+00
    0.43962E+06        -0.49996E+08         0.00000E+00
    0.00000E+00         0.00000E+00        -0.49183E+08
 
   -0.48796E+08         0.49695E+06         0.00000E+00
    0.49695E+06        -0.49995E+08         0.00000E+00
    0.00000E+00         0.00000E+00        -0.49183E+08
 
   -0.48803E+08         0.55396E+06         0.00000E+00
    0.55396E+06        -0.49994E+08         0.00000E+00
    0.00000E+00         0.00000E+00        -0.49183E+08
 
   -0.48810E+08         0.61065E+06         0.00000E+00
    0.61065E+06        -0.49993E+08         0.00000E+00
    0.00000E+00         0.00000E+00        -0.49183E+08
 
   -0.48817E+08         0.66703E+06         0.00000E+00
    0.66703E+06        -0.49991E+08         0.00000E+00
    0.00000E+00         0.00000E+00        -0.49183E+08
 
   -0.48824E+08         0.72307E+06         0.00000E+00
    0.72307E+06        -0.49990E+08         0.00000E+00
    0.00000E+00         0.00000E+00        -0.49183E+08
 
   -0.48831E+08         0.77878E+06         0.00000E+00
    0.77878E+06        -0.49988E+08         0.00000E+00
    0.00000E+00         0.00000E+00        -0.49184E+08
 
   -0.48839E+08         0.83415E+06         0.00000E+00
    0.83415E+06        -0.49986E+08         0.00000E+00
    0.00000E+00         0.00000E+00        -0.49184E+08
 
   -0.48846E+08         0.88918E+06         0.00000E+00
    0.88918E+06        -0.49984E+08         0.00000E+00
    0.00000E+00         0.00000E+00        -0.49184E+08
 
   -0.48854E+08         0.94386E+06         0.00000E+00
    0.94386E+06        -0.49982E+08         0.00000E+00
    0.00000E+00         0.00000E+00        -0.49184E+08
 
   -0.48862E+08         0.99819E+06         0.00000E+00
    0.99819E+06        -0.49980E+08         0.00000E+00
    0.00000E+00         0.00000E+00        -0.49184E+08
 
   -0.48870E+08         0.10522E+07         0.00000E+00
    0.10522E+07        -0.49978E+08         0.00000E+00
    0.00000E+00         0.00000E+00        -0.49184E+08
 
   -0.48878E+08         0.11058E+07         0.00000E+00
    0.11058E+07        -0.49975E+08         0.00000E+00
    0.00000E+00         0.00000E+00        -0.49184E+08
 
   -0.48886E+08         0.11590E+07         0.00000E+00
    0.11590E+07        -0.49973E+08         0.00000E+00
    0.00000E+00         0.00000E+00        -0.49184E+08
 
   -0.48895E+08         0.12119E+07         0.00000E+00
    0.12119E+07        -0.49970E+08         0.00000E+00
    0.00000E+00         0.00000E+00        -0.49185E+08
 
   -0.48904E+08         0.12644E+07         0.00000E+00
    0.12644E+07        -0.49967E+08         0.00000E+00
    0.00000E+00         0.00000E+00        -0.49185E+08
 
   -0.48912E+08         0.13165E+07         0.00000E+00
    0.13165E+07        -0.49964E+08         0.00000E+00
    0.00000E+00         0.00000E+00        -0.49185E+08
 
   -0.48921E+08         0.13682E+07         0.00000E+00
    0.13682E+07        -0.49961E+08         0.00000E+00
    0.00000E+00         0.00000E+00        -0.49185E+08
 
   -0.48930E+08         0.14196E+07         0.00000E+00
    0.14196E+07        -0.49958E+08         0.00000E+00
    0.00000E+00         0.00000E+00        -0.49185E+08
 
   -0.48939E+08         0.14705E+07         0.00000E+00
    0.14705E+07        -0.49955E+08         0.00000E+00
    0.00000E+00         0.00000E+00        -0.49185E+08
 
   -0.48948E+08         0.15211E+07         0.00000E+00
    0.15211E+07        -0.49951E+08         0.00000E+00
    0.00000E+00         0.00000E+00        -0.49185E+08
 
   -0.48958E+08         0.15712E+07         0.00000E+00
    0.15712E+07        -0.49948E+08         0.00000E+00
    0.00000E+00         0.00000E+00        -0.49186E+08
 
   -0.48967E+08         0.16210E+07         0.00000E+00
    0.16210E+07        -0.49944E+08         0.00000E+00
    0.00000E+00         0.00000E+00        -0.49186E+08
 
   -0.48977E+08         0.16703E+07         0.00000E+00
    0.16703E+07        -0.49940E+08         0.00000E+00
    0.00000E+00         0.00000E+00        -0.49186E+08
 
   -0.48987E+08         0.17192E+07         0.00000E+00
    0.17192E+07        -0.49937E+08         0.00000E+00
    0.00000E+00         0.00000E+00        -0.49186E+08
 
   -0.48997E+08         0.17677E+07         0.00000E+00
    0.17677E+07        -0.49933E+08         0.00000E+00
    0.00000E+00         0.00000E+00        -0.49186E+08
 
   -0.49007E+08         0.18158E+07         0.00000E+00
    0.18158E+07        -0.49929E+08         0.00000E+00
    0.00000E+00         0.00000E+00        -0.49186E+08
 
   -0.49017E+08         0.18634E+07         0.00000E+00
    0.18634E+07        -0.49924E+08         0.00000E+00
    0.00000E+00         0.00000E+00        -0.49186E+08
 
   -0.49027E+08         0.19106E+07         0.00000E+00
    0.19106E+07        -0.49920E+08         0.00000E+00
    0.00000E+00         0.00000E+00        -0.49186E+08
 
   -0.49037E+08         0.19574E+07         0.00000E+00
    0.19574E+07        -0.49916E+08         0.00000E+00
    0.00000E+00         0.00000E+00        -0.49187E+08
 
   -0.49048E+08         0.20038E+07         0.00000E+00
    0.20038E+07        -0.49911E+08         0.00000E+00
    0.00000E+00         0.00000E+00        -0.49187E+08
 
   -0.49058E+08         0.20496E+07         0.00000E+00
    0.20496E+07        -0.49907E+08         0.00000E+00
    0.00000E+00         0.00000E+00        -0.49187E+08
 
   -0.49069E+08         0.20951E+07         0.00000E+00
    0.20951E+07        -0.49902E+08         0.00000E+00
    0.00000E+00         0.00000E+00        -0.49187E+08
 
   -0.49080E+08         0.21401E+07         0.00000E+00
    0.21401E+07        -0.49897E+08         0.00000E+00
    0.00000E+00         0.00000E+00        -0.49187E+08
 
   -0.49091E+08         0.21846E+07         0.00000E+00
    0.21846E+07        -0.49892E+08         0.00000E+00
    0.00000E+00         0.00000E+00        -0.49187E+08
 
   -0.49102E+08         0.22286E+07         0.00000E+00
    0.22286E+07        -0.49887E+08         0.00000E+00
    0.00000E+00         0.00000E+00        -0.49187E+08
 
   -0.49113E+08         0.22722E+07         0.00000E+00
    0.22722E+07        -0.49882E+08         0.00000E+00
    0.00000E+00         0.00000E+00        -0.49187E+08
 
   -0.49124E+08         0.23154E+07         0.00000E+00
    0.23154E+07        -0.49877E+08         0.00000E+00
    0.00000E+00         0.00000E+00        -0.49187E+08
 
   -0.49135E+08         0.23580E+07         0.00000E+00
    0.23580E+07        -0.49871E+08         0.00000E+00
    0.00000E+00         0.00000E+00        -0.49187E+08
 
   -0.49147E+08         0.24002E+07         0.00000E+00
    0.24002E+07        -0.49866E+08         0.00000E+00
    0.00000E+00         0.00000E+00        -0.49187E+08
 
   -0.49158E+08         0.24418E+07         0.00000E+00
    0.24418E+07        -0.49860E+08         0.00000E+00
    0.00000E+00         0.00000E+00        -0.49187E+08
 
   -0.49170E+08         0.24830E+07         0.00000E+00
    0.24830E+07        -0.49854E+08         0.00000E+00
    0.00000E+00         0.00000E+00        -0.49187E+08
 
   -0.49181E+08         0.25237E+07         0.00000E+00
    0.25237E+07        -0.49849E+08         0.00000E+00
    0.00000E+00         0.00000E+00        -0.49187E+08
 
   -0.48450E+08         0.30427E+05         0.00000E+00
    0.30427E+05        -0.50000E+08         0.00000E+00
    0.00000E+00         0.00000E+00        -0.48980E+08
 
   -0.48456E+08         0.90535E+05         0.00000E+00
    0.90535E+05        -0.50000E+08         0.00000E+00
    0.00000E+00         0.00000E+00        -0.48980E+08
 
   -0.48463E+08         0.15036E+06         0.00000E+00
    0.15036E+06        -0.49999E+08         0.00000E+00
    0.00000E+00         0.00000E+00        -0.48980E+08
 
   -0.48470E+08         0.20991E+06         0.00000E+00
    0.20991E+06        -0.49999E+08         0.00000E+00
    0.00000E+00         0.00000E+00        -0.48980E+08
 
   -0.48477E+08         0.26916E+06         0.00000E+00
    0.26916E+06        -0.49998E+08         0.00000E+00
    0.00000E+00         0.00000E+00        -0.48980E+08
 
   -0.48485E+08         0.32812E+06         0.00000E+00
    0.32812E+06        -0.49998E+08         0.00000E+00
    0.00000E+00         0.00000E+00        -0.48980E+08
 
   -0.48493E+08         0.38677E+06         0.00000E+00
    0.38677E+06        -0.49997E+08         0.00000E+00
    0.00000E+00         0.00000E+00        -0.48980E+08
 
   -0.48501E+08         0.44512E+06         0.00000E+00
    0.44512E+06        -0.49995E+08         0.00000E+00
    0.00000E+00         0.00000E+00        -0.48980E+08
 
   -0.48509E+08         0.50316E+06         0.00000E+00
    0.50316E+06        -0.49994E+08         0.00000E+00
    0.00000E+00         0.00000E+00        -0.48980E+08
 
   -0.48517E+08         0.56088E+06         0.00000E+00
    0.56088E+06        -0.49993E+08         0.00000E+00
    0.00000E+00         0.00000E+00        -0.48980E+08
 
   -0.48525E+08         0.61828E+06         0.00000E+00
    0.61828E+06        -0.49991E+08         0.00000E+00
    0.00000E+00         0.00000E+00        -0.48981E+08
 
   -0.48534E+08         0.67534E+06         0.00000E+00
    0.67534E+06        -0.49989E+08         0.00000E+00
    0.00000E+00         0.00000E+00        -0.48981E+08
 
   -0.48543E+08         0.73208E+06         0.00000E+00
    0.73208E+06        -0.49988E+08         0.00000E+00
    0.00000E+00         0.00000E+00        -0.48981E+08
 
   -0.48552E+08         0.78848E+06         0.00000E+00
    0.78848E+06        -0.49985E+08         0.00000E+00
    0.00000E+00         0.00000E+00        -0.48981E+08
 
   -0.48561E+08         0.84454E+06         0.00000E+00
    0.84454E+06        -0.49983E+08         0.00000E+00
    0.00000E+00         0.00000E+00        -0.48981E+08
 
   -0.48570E+08         0.90025E+06         0.00000E+00
    0.90025E+06        -0.49981E+08         0.00000E+00
    0.00000E+00         0.00000E+00        -0.48981E+08
 
   -0.48580E+08         0.95560E+06         0.00000E+00
    0.95560E+06        -0.49978E+08         0.00000E+00
    0.00000E+00         0.00000E+00        -0.48981E+08
 
   -0.48589E+08         0.10106E+07         0.00000E+00
    0.10106E+07        -0.49976E+08         0.00000E+00
    0.00000E+00         0.00000E+00        -0.48981E+08
 
   -0.48599E+08         0.10652E+07         0.00000E+00
    0.10652E+07        -0.49973E+08         0.00000E+00
    0.00000E+00         0.00000E+00        -0.48982E+08
 
   -0.48609E+08         0.11195E+07         0.00000E+00
    0.11195E+07        -0.49970E+08         0.00000E+00
    0.00000E+00         0.00000E+00        -0.48982E+08
 
   -0.48620E+08         0.11734E+07         0.00000E+00
    0.11734E+07        -0.49967E+08         0.00000E+00
    0.00000E+00         0.00000E+00        -0.48982E+08
 
   -0.48630E+08         0.12270E+07         0.00000E+00
    0.12270E+07        -0.49964E+08         0.00000E+00
    0.00000E+00         0.00000E+00        -0.48982E+08
 
   -0.48640E+08         0.12801E+07         0.00000E+00
    0.12801E+07        -0.49960E+08         0.00000E+00
    0.00000E+00         0.00000E+00        -0.48982E+08
 
   -0.48651E+08         0.13329E+07         0.00000E+00
    0.13329E+07        -0.49957E+08         0.00000E+00
    0.00000E+00         0.00000E+00        -0.48982E+08
 
   -0.48662E+08         0.13853E+07         0.00000E+00
    0.13853E+07        -0.49953E+08         0.00000E+00
    0.00000E+00         0.00000E+00        -0.48983E+08
 
   -0.48673E+08         0.14372E+07         0.00000E+00
    0.14372E+07        -0.49950E+08         0.00000E+00
    0.00000E+00         0.00000E+00        -0.48983E+08
 
   -0.48684E+08         0.14888E+07         0.00000E+00
    0.14888E+07        -0.49946E+08         0.00000E+00
    0.00000E+00         0.00000E+00        -0.48983E+08
 
   -0.48695E+08         0.15400E+07         0.00000E+00
    0.15400E+07        -0.49942E+08         0.00000E+00
    0.00000E+00         0.00000E+00        -0.48983E+08
 
   -0.48707E+08         0.15908E+07         0.00000E+00
    0.15908E+07        -0.49937E+08         0.00000E+00
    0.00000E+00         0.00000E+00        -0.48983E+08
 
   -0.48718E+08         0.16412E+07         0.00000E+00
    0.16412E+07        -0.49933E+08         0.00000E+00
    0.00000E+00         0.00000E+00        -0.48983E+08
 
   -0.48730E+08         0.16912E+07         0.00000E+00
    0.16912E+07        -0.49929E+08         0.00000E+00
    0.00000E+00         0.00000E+00        -0.48983E+08
 
   -0.48742E+08         0.17407E+07         0.00000E+00
    0.17407E+07        -0.49924E+08         0.00000E+00
    0.00000E+00         0.00000E+00        -0.48984E+08
 
   -0.48754E+08         0.17898E+07         0.00000E+00
    0.17898E+07        -0.49919E+08         0.00000E+00
    0.00000E+00         0.00000E+00        -0.48984E+08
 
   -0.48766E+08         0.18385E+07         0.00000E+00
    0.18385E+07        -0.49914E+08         0.00000E+00
    0.00000E+00         0.00000E+00        -0.48984E+08
 
   -0.48778E+08         0.18868E+07         0.00000E+00
    0.18868E+07        -0.49909E+08         0.00000E+00
    0.00000E+00         0.00000E+00        -0.48984E+08
 
   -0.48790E+08         0.19346E+07         0.00000E+00
    0.19346E+07        -0.49904E+08         0.00000E+00
    0.00000E+00         0.00000E+00        -0.48984E+08
 
   -0.48803E+08         0.19820E+07         0.00000E+00
    0.19820E+07        -0.49899E+08         0.00000E+00
    0.00000E+00         0.00000E+00        -0.48984E+08
 
   -0.48816E+08         0.20289E+07         0.00000E+00
    0.20289E+07        -0.49893E+08         0.00000E+00
    0.00000E+00         0.00000E+00        -0.48984E+08
 
   -0.48828E+08         0.20754E+07         0.00000E+00
    0.20754E+07        -0.49888E+08         0.00000E+00
    0.00000E+00         0.00000E+00        -0.48984E+08
 
   -0.48841E+08         0.21215E+07         0.00000E+00
    0.21215E+07        -0.49882E+08         0.00000E+00
    0.00000E+00         0.00000E+00        -0.48984E+08
 
   -0.48854E+08         0.21671E+07         0.00000E+00
    0.21671E+07        -0.49876E+08         0.00000E+00
    0.00000E+00         0.00000E+00        -0.48985E+08
 
   -0.48868E+08         0.22122E+07         0.00000E+00
    0.22122E+07        -0.49870E+08         0.00000E+00
    0.00000E+00         0.00000E+00        -0.48985E+08
 
   -0.48881E+08         0.22569E+07         0.00000E+00
    0.22569E+07        -0.49864E+08         0.00000E+00
    0.00000E+00         0.00000E+00        -0.48985E+08
 
   -0.48894E+08         0.23011E+07         0.00000E+00
    0.23011E+07        -0.49858E+08         0.00000E+00
    0.00000E+00         0.00000E+00        -0.48985E+08
 
   -0.48908E+08         0.23448E+07         0.00000E+00
    0.23448E+07        -0.49851E+08         0.00000E+00
    0.00000E+00         0.00000E+00        -0.48985E+08
 
   -0.48922E+08         0.23880E+07         0.00000E+00
    0.23880E+07        -0.49845E+08         0.00000E+00
    0.00000E+00         0.00000E+00        -0.48985E+08
 
   -0.48936E+08         0.24308E+07         0.00000E+00
    0.24308E+07        -0.49838E+08         0.00000E+00
    0.00000E+00         0.00000E+00        -0.48985E+08
 
   -0.48950E+08         0.24730E+07         0.00000E+00
    0.24730E+07        -0.49832E+08         0.00000E+00
    0.00000E+00         0.00000E+00        -0.48985E+08
 
   -0.48964E+08         0.25148E+07         0.00000E+00
    0.25148E+07        -0.49825E+08         0.00000E+00
    0.00000E+00         0.00000E+00        -0.48985E+08
 
   -0.48978E+08         0.25561E+07         0.00000E+00
    0.25561E+07        -0.49818E+08         0.00000E+00
    0.00000E+00         0.00000E+00        -0.48985E+08
 
   -0.48146E+08         0.30877E+05         0.00000E+00
    0.30877E+05        -0.50000E+08         0.00000E+00
    0.00000E+00         0.00000E+00        -0.48774E+08
 
   -0.48154E+08         0.91868E+05         0.00000E+00
    0.91868E+05        -0.50000E+08         0.00000E+00
    0.00000E+00         0.00000E+00        -0.48774E+08
 
   -0.48162E+08         0.15257E+06         0.00000E+00
    0.15257E+06        -0.49999E+08         0.00000E+00
    0.00000E+00         0.00000E+00        -0.48774E+08
 
   -0.48171E+08         0.21298E+06         0.00000E+00
    0.21298E+06        -0.49999E+08         0.00000E+00
    0.00000E+00         0.00000E+00        -0.48774E+08
 
   -0.48180E+08         0.27310E+06         0.00000E+00
    0.27310E+06        -0.49998E+08         0.00000E+00
    0.00000E+00         0.00000E+00        -0.48774E+08
 
   -0.48189E+08         0.33291E+06         0.00000E+00
    0.33291E+06        -0.49997E+08         0.00000E+00
    0.00000E+00         0.00000E+00        -0.48774E+08
 
   -0.48198E+08         0.39242E+06         0.00000E+00
    0.39242E+06        -0.49996E+08         0.00000E+00
    0.00000E+00         0.00000E+00        -0.48774E+08
 
   -0.48207E+08         0.45161E+06         0.00000E+00
    0.45161E+06        -0.49995E+08         0.00000E+00
    0.00000E+00         0.00000E+00        -0.48774E+08
 
   -0.48217E+08         0.51049E+06         0.00000E+00
    0.51049E+06        -0.49993E+08         0.00000E+00
    0.00000E+00         0.00000E+00        -0.48774E+08
 
   -0.48227E+08         0.56904E+06         0.00000E+00
    0.56904E+06        -0.49992E+08         0.00000E+00
    0.00000E+00         0.00000E+00        -0.48775E+08
 
   -0.48237E+08         0.62727E+06         0.00000E+00
    0.62727E+06        -0.49990E+08         0.00000E+00
    0.00000E+00         0.00000E+00        -0.48775E+08
 
   -0.48247E+08         0.68516E+06         0.00000E+00
    0.68516E+06        -0.49988E+08         0.00000E+00
    0.00000E+00         0.00000E+00        -0.48775E+08
 
   -0.48258E+08         0.74271E+06         0.00000E+00
    0.74271E+06        -0.49985E+08         0.00000E+00
    0.00000E+00         0.00000E+00        -0.48775E+08
 
   -0.48269E+08         0.79992E+06         0.00000E+00
    0.79992E+06        -0.49983E+08         0.00000E+00
    0.00000E+00         0.00000E+00        -0.48775E+08
 
   -0.48280E+08         0.85679E+06         0.00000E+00
    0.85679E+06        -0.49981E+08         0.00000E+00
    0.00000E+00         0.00000E+00        -0.48775E+08
 
   -0.48291E+08         0.91330E+06         0.00000E+00
    0.91330E+06        -0.49978E+08         0.00000E+00
    0.00000E+00         0.00000E+00        -0.48775E+08
 
   -0.48302E+08         0.96946E+06         0.00000E+00
    0.96946E+06        -0.49975E+08         0.00000E+00
    0.00000E+00         0.00000E+00        -0.48775E+08
 
   -0.48313E+08         0.10253E+07         0.00000E+00
    0.10253E+07        -0.49972E+08         0.00000E+00
    0.00000E+00         0.00000E+00        -0.48776E+08
 
   -0.48325E+08         0.10807E+07         0.00000E+00
    0.10807E+07        -0.49969E+08         0.00000E+00
    0.00000E+00         0.00000E+00        -0.48776E+08
 
   -0.48337E+08         0.11358E+07         0.00000E+00
    0.11358E+07        -0.49965E+08         0.00000E+00
    0.00000E+00         0.00000E+00        -0.48776E+08
 
   -0.48349E+08         0.11904E+07         0.00000E+00
    0.11904E+07        -0.49962E+08         0.00000E+00
    0.00000E+00         0.00000E+00        -0.48776E+08
 
   -0.48361E+08         0.12448E+07         0.00000E+00
    0.12448E+07        -0.49958E+08         0.00000E+00
    0.00000E+00         0.00000E+00        -0.48776E+08
 
   -0.48374E+08         0.12987E+07         0.00000E+00
    0.12987E+07        -0.49954E+08         0.00000E+00
    0.00000E+00         0.00000E+00        -0.48776E+08
 
   -0.48386E+08         0.13522E+07         0.00000E+00
    0.13522E+07        -0.49950E+08         0.00000E+00
    0.00000E+00         0.00000E+00        -0.48777E+08
 
   -0.48399E+08         0.14054E+07         0.00000E+00
    0.14054E+07        -0.49946E+08         0.00000E+00
    0.00000E+00         0.00000E+00        -0.48777E+08
 
   -0.48412E+08         0.14581E+07         0.00000E+00
    0.14581E+07        -0.49941E+08         0.00000E+00
    0.00000E+00         0.00000E+00        -0.48777E+08
 
   -0.48425E+08         0.15105E+07         0.00000E+00
    0.15105E+07        -0.49937E+08         0.00000E+00
    0.00000E+00         0.00000E+00        -0.48777E+08
 
   -0.48438E+08         0.15624E+07         0.00000E+00
    0.15624E+07        -0.49932E+08         0.00000E+00
    0.00000E+00         0.00000E+00        -0.48777E+08
 
   -0.48452E+08         0.16140E+07         0.00000E+00
    0.16140E+07        -0.49927E+08         0.00000E+00
    0.00000E+00         0.00000E+00        -0.48777E+08
 
   -0.48465E+08         0.16651E+07         0.00000E+00
    0.16651E+07        -0.49922E+08         0.00000E+00
    0.00000E+00         0.00000E+00        -0.48778E+08
 
   -0.48479E+08         0.17158E+07         0.00000E+00
    0.17158E+07        -0.49917E+08         0.00000E+00
    0.00000E+00         0.00000E+00        -0.48778E+08
 
   -0.48493E+08         0.17661E+07         0.00000E+00
    0.17661E+07        -0.49911E+08         0.00000E+00
    0.00000E+00         0.00000E+00        -0.48778E+08
 
   -0.48507E+08         0.18160E+07         0.00000E+00
    0.18160E+07        -0.49906E+08         0.00000E+00
    0.00000E+00         0.00000E+00        -0.48778E+08
 
   -0.48522E+08         0.18654E+07         0.00000E+00
    0.18654E+07        -0.49900E+08         0.00000E+00
    0.00000E+00         0.00000E+00        -0.48778E+08
 
   -0.48536E+08         0.19144E+07         0.00000E+00
    0.19144E+07        -0.49894E+08         0.00000E+00
    0.00000E+00         0.00000E+00        -0.48778E+08
 
   -0.48551E+08         0.19630E+07         0.00000E+00
    0.19630E+07        -0.49888E+08         0.00000E+00
    0.00000E+00         0.00000E+00        -0.48778E+08
 
   -0.48565E+08         0.20112E+07         0.00000E+00
    0.20112E+07        -0.49882E+08         0.00000E+00
    0.00000E+00         0.00000E+00        -0.48778E+08
 
   -0.48580E+08         0.20588E+07         0.00000E+00
    0.20588E+07        -0.49875E+08         0.00000E+00
    0.00000E+00         0.00000E+00        -0.48779E+08
 
   -0.48595E+08         0.21061E+07         0.00000E+00
    0.21061E+07        -0.49869E+08         0.00000E+00
    0.00000E+00         0.00000E+00        -0.48779E+08
 
   -0.48611E+08         0.21528E+07         0.00000E+00
    0.21528E+07        -0.49862E+08         0.00000E+00
    0.00000E+00         0.00000E+00        -0.48779E+08
 
   -0.48626E+08         0.21992E+07         0.00000E+00
    0.21992E+07        -0.49855E+08         0.00000E+00
    0.00000E+00         0.00000E+00        -0.48779E+08
 
   -0.48641E+08         0.22450E+07         0.00000E+00
    0.22450E+07        -0.49848E+08         0.00000E+00
    0.00000E+00         0.00000E+00        -0.48779E+08
 
   -0.48657E+08         0.22904E+07         0.00000E+00
    0.22904E+07        -0.49841E+08         0.00000E+00
    0.00000E+00         0.00000E+00        -0.48779E+08
 
   -0.48673E+08         0.23353E+07         0.00000E+00
    0.23353E+07        -0.49834E+08         0.00000E+00
    0.00000E+00         0.00000E+00        -0.48779E+08
 
   -0.48689E+08         0.23798E+07         0.00000E+00
    0.23798E+07        -0.49826E+08         0.00000E+00
    0.00000E+00         0.00000E+00        -0.48779E+08
 
   -0.48705E+08         0.24237E+07         0.00000E+00
    0.24237E+07        -0.49819E+08         0.00000E+00
    0.00000E+00         0.00000E+00        -0.48779E+08
 
   -0.48721E+08         0.24672E+07         0.00000E+00
    0.24672E+07        -0.49811E+08         0.00000E+00
    0.00000E+00         0.00000E+00        -0.48779E+08
 
   -0.48738E+08         0.25102E+07         0.00000E+00
    0.25102E+07        -0.49803E+08         0.00000E+00
    0.00000E+00         0.00000E+00        -0.48779E+08
 
   -0.48754E+08         0.25527E+07         0.00000E+00
    0.25527E+07        -0.49795E+08         0.00000E+00
    0.00000E+00         0.00000E+00        -0.48779E+08
 
   -0.48771E+08         0.25947E+07         0.00000E+00
    0.25947E+07        -0.49787E+08         0.00000E+00
    0.00000E+00         0.00000E+00        -0.48779E+08
 
   -0.47838E+08         0.31397E+05         0.00000E+00
    0.31397E+05        -0.50000E+08         0.00000E+00
    0.00000E+00         0.00000E+00        -0.48564E+08
 
   -0.47847E+08         0.93403E+05         0.00000E+00
    0.93403E+05        -0.50000E+08         0.00000E+00
    0.00000E+00         0.00000E+00        -0.48564E+08
 
   -0.47857E+08         0.15512E+06         0.00000E+00
    0.15512E+06        -0.49999E+08         0.00000E+00
    0.00000E+00         0.00000E+00        -0.48564E+08
 
   -0.47867E+08         0.21653E+06         0.00000E+00
    0.21653E+06        -0.49999E+08         0.00000E+00
    0.00000E+00         0.00000E+00        -0.48564E+08
 
   -0.47878E+08         0.27764E+06         0.00000E+00
    0.27764E+06        -0.49998E+08         0.00000E+00
    0.00000E+00         0.00000E+00        -0.48564E+08
 
   -0.47888E+08         0.33844E+06         0.00000E+00
    0.33844E+06        -0.49997E+08         0.00000E+00
    0.00000E+00         0.00000E+00        -0.48564E+08
 
   -0.47899E+08         0.39892E+06         0.00000E+00
    0.39892E+06        -0.49995E+08         0.00000E+00
    0.00000E+00         0.00000E+00        -0.48565E+08
 
   -0.47910E+08         0.45909E+06         0.00000E+00
    0.45909E+06        -0.49994E+08         0.00000E+00
    0.00000E+00         0.00000E+00        -0.48565E+08
 
   -0.47921E+08         0.51893E+06         0.00000E+00
    0.51893E+06        -0.49992E+08         0.00000E+00
    0.00000E+00         0.00000E+00        -0.48565E+08
 
   -0.47933E+08         0.57844E+06         0.00000E+00
    0.57844E+06        -0.49990E+08         0.00000E+00
    0.00000E+00         0.00000E+00        -0.48565E+08
 
   -0.47944E+08         0.63762E+06         0.00000E+00
    0.63762E+06        -0.49988E+08         0.00000E+00
    0.00000E+00         0.00000E+00        -0.48565E+08
 
   -0.47956E+08         0.69646E+06         0.00000E+00
    0.69646E+06        -0.49986E+08         0.00000E+00
    0.00000E+00         0.00000E+00        -0.48565E+08
 
   -0.47969E+08         0.75496E+06         0.00000E+00
    0.75496E+06        -0.49983E+08         0.00000E+00
    0.00000E+00         0.00000E+00        -0.48565E+08
 
   -0.47981E+08         0.81311E+06         0.00000E+00
    0.81311E+06        -0.49981E+08         0.00000E+00
    0.00000E+00         0.00000E+00        -0.48565E+08
 
   -0.47994E+08         0.87090E+06         0.00000E+00
    0.87090E+06        -0.49978E+08         0.00000E+00
    0.00000E+00         0.00000E+00        -0.48565E+08
 
   -0.48007E+08         0.92834E+06         0.00000E+00
    0.92834E+06        -0.49975E+08         0.00000E+00
    0.00000E+00         0.00000E+00        -0.48566E+08
 
   -0.48020E+08         0.98542E+06         0.00000E+00
    0.98542E+06        -0.49971E+08         0.00000E+00
    0.00000E+00         0.00000E+00        -0.48566E+08
 
   -0.48033E+08         0.10421E+07         0.00000E+00
    0.10421E+07        -0.49968E+08         0.00000E+00
    0.00000E+00         0.00000E+00        -0.48566E+08
 
   -0.48047E+08         0.10985E+07         0.00000E+00
    0.10985E+07        -0.49964E+08         0.00000E+00
    0.00000E+00         0.00000E+00        -0.48566E+08
 
   -0.48060E+08         0.11545E+07         0.00000E+00
    0.11545E+07        -0.49960E+08         0.00000E+00
    0.00000E+00         0.00000E+00        -0.48566E+08
 
   -0.48074E+08         0.12101E+07         0.00000E+00
    0.12101E+07        -0.49956E+08         0.00000E+00
    0.00000E+00         0.00000E+00        -0.48566E+08
 
   -0.48088E+08         0.12653E+07         0.00000E+00
    0.12653E+07        -0.49952E+08         0.00000E+00
    0.00000E+00         0.00000E+00        -0.48567E+08
 
   -0.48103E+08         0.13201E+07         0.00000E+00
    0.13201E+07        -0.49947E+08         0.00000E+00
    0.00000E+00         0.00000E+00        -0.48567E+08
 
   -0.48117E+08         0.13745E+07         0.00000E+00
    0.13745E+07        -0.49943E+08         0.00000E+00
    0.00000E+00         0.00000E+00        -0.48567E+08
 
   -0.48132E+08         0.14286E+07         0.00000E+00
    0.14286E+07        -0.49938E+08         0.00000E+00
    0.00000E+00         0.00000E+00        -0.48567E+08
 
   -0.48147E+08         0.14822E+07         0.00000E+00
    0.14822E+07        -0.49933E+08         0.00000E+00
    0.00000E+00         0.00000E+00        -0.48567E+08
 
   -0.48162E+08         0.15355E+07         0.00000E+00
    0.15355E+07        -0.49928E+08         0.00000E+00
    0.00000E+00         0.00000E+00        -0.48567E+08
 
   -0.48177E+08         0.15883E+07         0.00000E+00
    0.15883E+07        -0.49922E+08         0.00000E+00
    0.00000E+00         0.00000E+00        -0.48568E+08
 
   -0.48193E+08         0.16407E+07         0.00000E+00
    0.16407E+07        -0.49917E+08         0.00000E+00
    0.00000E+00         0.00000E+00        -0.48568E+08
 
   -0.48209E+08         0.16927E+07         0.00000E+00
    0.16927E+07        -0.49911E+08         0.00000E+00
    0.00000E+00         0.00000E+00        -0.48568E+08
 
   -0.48225E+08         0.17443E+07         0.00000E+00
    0.17443E+07        -0.49905E+08         0.00000E+00
    0.00000E+00         0.00000E+00        -0.48568E+08
 
   -0.48241E+08         0.17955E+07         0.00000E+00
    0.17955E+07        -0.49899E+08         0.00000E+00
    0.00000E+00         0.00000E+00        -0.48568E+08
 
   -0.48257E+08         0.18462E+07         0.00000E+00
    0.18462E+07        -0.49892E+08         0.00000E+00
    0.00000E+00         0.00000E+00        -0.48568E+08
 
   -0.48273E+08         0.18966E+07         0.00000E+00
    0.18966E+07        -0.49886E+08         0.00000E+00
    0.00000E+00         0.00000E+00        -0.48569E+08
 
   -0.48290E+08         0.19464E+07         0.00000E+00
    0.19464E+07        -0.49879E+08         0.00000E+00
    0.00000E+00         0.00000E+00        -0.48569E+08
 
   -0.48307E+08         0.19959E+07         0.00000E+00
    0.19959E+07        -0.49872E+08         0.00000E+00
    0.00000E+00         0.00000E+00        -0.48569E+08
 
   -0.48324E+08         0.20449E+07         0.00000E+00
    0.20449E+07        -0.49865E+08         0.00000E+00
    0.00000E+00         0.00000E+00        -0.48569E+08
 
   -0.48341E+08         0.20934E+07         0.00000E+00
    0.20934E+07        -0.49858E+08         0.00000E+00
    0.00000E+00         0.00000E+00        -0.48569E+08
 
   -0.48358E+08         0.21415E+07         0.00000E+00
    0.21415E+07        -0.49850E+08         0.00000E+00
    0.00000E+00         0.00000E+00        -0.48569E+08
 
   -0.48376E+08         0.21892E+07         0.00000E+00
    0.21892E+07        -0.49843E+08         0.00000E+00
    0.00000E+00         0.00000E+00        -0.48569E+08
 
   -0.48393E+08         0.22363E+07         0.00000E+00
    0.22363E+07        -0.49835E+08         0.00000E+00
    0.00000E+00         0.00000E+00        -0.48569E+08
 
   -0.48411E+08         0.22831E+07         0.00000E+00
    0.22831E+07        -0.49827E+08         0.00000E+00
    0.00000E+00         0.00000E+00        -0.48569E+08
 
   -0.48429E+08         0.23293E+07         0.00000E+00
    0.23293E+07        -0.49818E+08         0.00000E+00
    0.00000E+00         0.00000E+00        -0.48569E+08
 
   -0.48447E+08         0.23751E+07         0.00000E+00
    0.23751E+07        -0.49810E+08         0.00000E+00
    0.00000E+00         0.00000E+00        -0.48570E+08
 
   -0.48466E+08         0.24204E+07         0.00000E+00
    0.24204E+07        -0.49802E+08         0.00000E+00
    0.00000E+00         0.00000E+00        -0.48570E+08
 
   -0.48484E+08         0.24652E+07         0.00000E+00
    0.24652E+07        -0.49793E+08         0.00000E+00
    0.00000E+00         0.00000E+00        -0.48570E+08
 
   -0.48503E+08         0.25095E+07         0.00000E+00
    0.25095E+07        -0.49784E+08         0.00000E+00
    0.00000E+00         0.00000E+00        -0.48570E+08
 
   -0.48522E+08         0.25534E+07         0.00000E+00
    0.25534E+07        -0.49775E+08         0.00000E+00
    0.00000E+00         0.00000E+00        -0.48570E+08
 
   -0.48541E+08         0.25967E+07         0.00000E+00
    0.25967E+07        -0.49765E+08         0.00000E+00
    0.00000E+00         0.00000E+00        -0.48570E+08
 
   -0.48560E+08         0.26395E+07         0.00000E+00
    0.26395E+07        -0.49756E+08         0.00000E+00
    0.00000E+00         0.00000E+00        -0.48570E+08
 
   -0.47524E+08         0.31984E+05         0.00000E+00
    0.31984E+05        -0.50000E+08         0.00000E+00
    0.00000E+00         0.00000E+00        -0.48350E+08
 
   -0.47535E+08         0.95139E+05         0.00000E+00
    0.95139E+05        -0.50000E+08         0.00000E+00
    0.00000E+00         0.00000E+00        -0.48350E+08
 
   -0.47547E+08         0.15799E+06         0.00000E+00
    0.15799E+06        -0.49999E+08         0.00000E+00
    0.00000E+00         0.00000E+00        -0.48350E+08
 
   -0.47558E+08         0.22054E+06         0.00000E+00
    0.22054E+06        -0.49998E+08         0.00000E+00
    0.00000E+00         0.00000E+00        -0.48350E+08
 
   -0.47570E+08         0.28277E+06         0.00000E+00
    0.28277E+06        -0.49998E+08         0.00000E+00
    0.00000E+00         0.00000E+00        -0.48350E+08
 
   -0.47582E+08         0.34468E+06         0.00000E+00
    0.34468E+06        -0.49996E+08         0.00000E+00
    0.00000E+00         0.00000E+00        -0.48350E+08
 
   -0.47595E+08         0.40627E+06         0.00000E+00
    0.40627E+06        -0.49995E+08         0.00000E+00
    0.00000E+00         0.00000E+00        -0.48350E+08
 
   -0.47607E+08         0.46754E+06         0.00000E+00
    0.46754E+06        -0.49993E+08         0.00000E+00
    0.00000E+00         0.00000E+00        -0.48350E+08
 
   -0.47620E+08         0.52847E+06         0.00000E+00
    0.52847E+06        -0.49991E+08         0.00000E+00
    0.00000E+00         0.00000E+00        -0.48350E+08
 
   -0.47633E+08         0.58907E+06         0.00000E+00
    0.58907E+06        -0.49989E+08         0.00000E+00
    0.00000E+00         0.00000E+00        -0.48351E+08
 
   -0.47647E+08         0.64932E+06         0.00000E+00
    0.64932E+06        -0.49987E+08         0.00000E+00
    0.00000E+00         0.00000E+00        -0.48351E+08
 
   -0.47660E+08         0.70924E+06         0.00000E+00
    0.70924E+06        -0.49984E+08         0.00000E+00
    0.00000E+00         0.00000E+00        -0.48351E+08
 
   -0.47674E+08         0.76880E+06         0.00000E+00
    0.76880E+06        -0.49981E+08         0.00000E+00
    0.00000E+00         0.00000E+00        -0.48351E+08
 
   -0.47689E+08         0.82801E+06         0.00000E+00
    0.82801E+06        -0.49978E+08         0.00000E+00
    0.00000E+00         0.00000E+00        -0.48351E+08
 
   -0.47703E+08         0.88686E+06         0.00000E+00
    0.88686E+06        -0.49975E+08         0.00000E+00
    0.00000E+00         0.00000E+00        -0.48351E+08
 
   -0.47718E+08         0.94535E+06         0.00000E+00
    0.94535E+06        -0.49972E+08         0.00000E+00
    0.00000E+00         0.00000E+00        -0.48351E+08
 
   -0.47733E+08         0.10035E+07         0.00000E+00
    0.10035E+07        -0.49968E+08         0.00000E+00
    0.00000E+00         0.00000E+00        -0.48352E+08
 
   -0.47748E+08         0.10612E+07         0.00000E+00
    0.10612E+07        -0.49964E+08         0.00000E+00
    0.00000E+00         0.00000E+00        -0.48352E+08
 
   -0.47763E+08         0.11186E+07         0.00000E+00
    0.11186E+07        -0.49960E+08         0.00000E+00
    0.00000E+00         0.00000E+00        -0.48352E+08
 
   -0.47779E+08         0.11756E+07         0.00000E+00
    0.11756E+07        -0.49955E+08         0.00000E+00
    0.00000E+00         0.00000E+00        -0.48352E+08
 
   -0.47795E+08         0.12322E+07         0.00000E+00
    0.12322E+07        -0.49951E+08         0.00000E+00
    0.00000E+00         0.00000E+00        -0.48352E+08
 
   -0.47811E+08         0.12885E+07         0.00000E+00
    0.12885E+07        -0.49946E+08         0.00000E+00
    0.00000E+00         0.00000E+00        -0.48352E+08
 
   -0.47827E+08         0.13443E+07         0.00000E+00
    0.13443E+07        -0.49941E+08         0.00000E+00
    0.00000E+00         0.00000E+00        -0.48353E+08
 
   -0.47844E+08         0.13998E+07         0.00000E+00
    0.13998E+07        -0.49936E+08         0.00000E+00
    0.00000E+00         0.00000E+00        -0.48353E+08
 
   -0.47860E+08         0.14548E+07         0.00000E+00
    0.14548E+07        -0.49930E+08         0.00000E+00
    0.00000E+00         0.00000E+00        -0.48353E+08
 
   -0.47877E+08         0.15095E+07         0.00000E+00
    0.15095E+07        -0.49925E+08         0.00000E+00
    0.00000E+00         0.00000E+00        -0.48353E+08
 
   -0.47894E+08         0.15637E+07         0.00000E+00
    0.15637E+07        -0.49919E+08         0.00000E+00
    0.00000E+00         0.00000E+00        -0.48353E+08
 
   -0.47912E+08         0.16176E+07         0.00000E+00
    0.16176E+07        -0.49913E+08         0.00000E+00
    0.00000E+00         0.00000E+00        -0.48353E+08
 
   -0.47929E+08         0.16710E+07         0.00000E+00
    0.16710E+07        -0.49906E+08         0.00000E+00
    0.00000E+00         0.00000E+00        -0.48354E+08
 
   -0.47947E+08         0.17240E+07         0.00000E+00
    0.17240E+07        -0.49900E+08         0.00000E+00
    0.00000E+00         0.00000E+00        -0.48354E+08
 
   -0.47965E+08         0.17766E+07         0.00000E+00
    0.17766E+07        -0.49893E+08         0.00000E+00
    0.00000E+00         0.00000E+00        -0.48354E+08
 
   -0.47983E+08         0.18288E+07         0.00000E+00
    0.18288E+07        -0.49886E+08         0.00000E+00
    0.00000E+00         0.00000E+00        -0.48354E+08
 
   -0.48002E+08         0.18805E+07         0.00000E+00
    0.18805E+07        -0.49879E+08         0.00000E+00
    0.00000E+00         0.00000E+00        -0.48354E+08
 
   -0.48020E+08         0.19319E+07         0.00000E+00
    0.19319E+07        -0.49872E+08         0.00000E+00
    0.00000E+00         0.00000E+00        -0.48354E+08
 
   -0.48039E+08         0.19827E+07         0.00000E+00
    0.19827E+07        -0.49864E+08         0.00000E+00
    0.00000E+00         0.00000E+00        -0.48355E+08
 
   -0.48058E+08         0.20332E+07         0.00000E+00
    0.20332E+07        -0.49856E+08         0.00000E+00
    0.00000E+00         0.00000E+00        -0.48355E+08
 
   -0.48077E+08         0.20832E+07         0.00000E+00
    0.20832E+07        -0.49848E+08         0.00000E+00
    0.00000E+00         0.00000E+00        -0.48355E+08
 
   -0.48097E+08         0.21327E+07         0.00000E+00
    0.21327E+07        -0.49840E+08         0.00000E+00
    0.00000E+00         0.00000E+00        -0.48355E+08
 
   -0.48116E+08         0.21818E+07         0.00000E+00
    0.21818E+07        -0.49832E+08         0.00000E+00
    0.00000E+00         0.00000E+00        -0.48355E+08
 
   -0.48136E+08         0.22304E+07         0.00000E+00
    0.22304E+07        -0.49823E+08         0.00000E+00
    0.00000E+00         0.00000E+00        -0.48355E+08
 
   -0.48156E+08         0.22786E+07         0.00000E+00
    0.22786E+07        -0.49814E+08         0.00000E+00
    0.00000E+00         0.00000E+00        -0.48355E+08
 
   -0.48176E+08         0.23263E+07         0.00000E+00
    0.23263E+07        -0.49805E+08         0.00000E+00
    0.00000E+00         0.00000E+00        -0.48355E+08
 
   -0.48197E+08         0.23735E+07         0.00000E+00
    0.23735E+07        -0.49796E+08         0.00000E+00
    0.00000E+00         0.00000E+00        -0.48355E+08
 
   -0.48217E+08         0.24203E+07         0.00000E+00
    0.24203E+07        -0.49786E+08         0.00000E+00
    0.00000E+00         0.00000E+00        -0.48355E+08
 
   -0.48238E+08         0.24666E+07         0.00000E+00
    0.24666E+07        -0.49777E+08         0.00000E+00
    0.00000E+00         0.00000E+00        -0.48356E+08
 
   -0.48259E+08         0.25124E+07         0.00000E+00
    0.25124E+07        -0.49767E+08         0.00000E+00
    0.00000E+00         0.00000E+00        -0.48356E+08
 
   -0.48280E+08         0.25577E+07         0.00000E+00
    0.25577E+07        -0.49757E+08         0.00000E+00
    0.00000E+00         0.00000E+00        -0.48356E+08
 
   -0.48301E+08         0.26025E+07         0.00000E+00
    0.26025E+07        -0.49746E+08         0.00000E+00
    0.00000E+00         0.00000E+00        -0.48356E+08
 
   -0.48323E+08         0.26468E+07         0.00000E+00
    0.26468E+07        -0.49736E+08         0.00000E+00
    0.00000E+00         0.00000E+00        -0.48356E+08
 
   -0.48345E+08         0.26907E+07         0.00000E+00
    0.26907E+07        -0.49725E+08         0.00000E+00
    0.00000E+00         0.00000E+00        -0.48356E+08
 
   -0.47205E+08         0.32639E+05         0.00000E+00
    0.32639E+05        -0.50000E+08         0.00000E+00
    0.00000E+00         0.00000E+00        -0.48130E+08
 
   -0.47217E+08         0.97074E+05         0.00000E+00
    0.97074E+05        -0.50000E+08         0.00000E+00
    0.00000E+00         0.00000E+00        -0.48130E+08
 
   -0.47230E+08         0.16120E+06         0.00000E+00
    0.16120E+06        -0.49999E+08         0.00000E+00
    0.00000E+00         0.00000E+00        -0.48130E+08
 
   -0.47243E+08         0.22500E+06         0.00000E+00
    0.22500E+06        -0.49998E+08         0.00000E+00
    0.00000E+00         0.00000E+00        -0.48131E+08
 
   -0.47257E+08         0.28848E+06         0.00000E+00
    0.28848E+06        -0.49997E+08         0.00000E+00
    0.00000E+00         0.00000E+00        -0.48131E+08
 
   -0.47270E+08         0.35164E+06         0.00000E+00
    0.35164E+06        -0.49996E+08         0.00000E+00
    0.00000E+00         0.00000E+00        -0.48131E+08
 
   -0.47284E+08         0.41446E+06         0.00000E+00
    0.41446E+06        -0.49994E+08         0.00000E+00
    0.00000E+00         0.00000E+00        -0.48131E+08
 
   -0.47299E+08         0.47695E+06         0.00000E+00
    0.47695E+06        -0.49992E+08         0.00000E+00
    0.00000E+00         0.00000E+00        -0.48131E+08
 
   -0.47313E+08         0.53910E+06         0.00000E+00
    0.53910E+06        -0.49990E+08         0.00000E+00
    0.00000E+00         0.00000E+00        -0.48131E+08
 
   -0.47328E+08         0.60090E+06         0.00000E+00
    0.60090E+06        -0.49988E+08         0.00000E+00
    0.00000E+00         0.00000E+00        -0.48131E+08
 
   -0.47343E+08         0.66236E+06         0.00000E+00
    0.66236E+06        -0.49985E+08         0.00000E+00
    0.00000E+00         0.00000E+00        -0.48131E+08
 
   -0.47359E+08         0.72347E+06         0.00000E+00
    0.72347E+06        -0.49983E+08         0.00000E+00
    0.00000E+00         0.00000E+00        -0.48131E+08
 
   -0.47375E+08         0.78422E+06         0.00000E+00
    0.78422E+06        -0.49979E+08         0.00000E+00
    0.00000E+00         0.00000E+00        -0.48132E+08
 
   -0.47391E+08         0.84461E+06         0.00000E+00
    0.84461E+06        -0.49976E+08         0.00000E+00
    0.00000E+00         0.00000E+00        -0.48132E+08
 
   -0.47407E+08         0.90464E+06         0.00000E+00
    0.90464E+06        -0.49972E+08         0.00000E+00
    0.00000E+00         0.00000E+00        -0.48132E+08
 
   -0.47423E+08         0.96430E+06         0.00000E+00
    0.96430E+06        -0.49969E+08         0.00000E+00
    0.00000E+00         0.00000E+00        -0.48132E+08
 
   -0.47440E+08         0.10236E+07         0.00000E+00
    0.10236E+07        -0.49964E+08         0.00000E+00
    0.00000E+00         0.00000E+00        -0.48132E+08
 
   -0.47457E+08         0.10825E+07         0.00000E+00
    0.10825E+07        -0.49960E+08         0.00000E+00
    0.00000E+00         0.00000E+00        -0.48132E+08
 
   -0.47474E+08         0.11410E+07         0.00000E+00
    0.11410E+07        -0.49956E+08         0.00000E+00
    0.00000E+00         0.00000E+00        -0.48132E+08
 
   -0.47492E+08         0.11992E+07         0.00000E+00
    0.11992E+07        -0.49951E+08         0.00000E+00
    0.00000E+00         0.00000E+00        -0.48133E+08
 
   -0.47510E+08         0.12570E+07         0.00000E+00
    0.12570E+07        -0.49946E+08         0.00000E+00
    0.00000E+00         0.00000E+00        -0.48133E+08
 
   -0.47528E+08         0.13144E+07         0.00000E+00
    0.13144E+07        -0.49940E+08         0.00000E+00
    0.00000E+00         0.00000E+00        -0.48133E+08
 
   -0.47546E+08         0.13713E+07         0.00000E+00
    0.13713E+07        -0.49935E+08         0.00000E+00
    0.00000E+00         0.00000E+00        -0.48133E+08
 
   -0.47564E+08         0.14279E+07         0.00000E+00
    0.14279E+07        -0.49929E+08         0.00000E+00
    0.00000E+00         0.00000E+00        -0.48133E+08
 
   -0.47583E+08         0.14841E+07         0.00000E+00
    0.14841E+07        -0.49923E+08         0.00000E+00
    0.00000E+00         0.00000E+00        -0.48134E+08
 
   -0.47602E+08         0.15399E+07         0.00000E+00
    0.15399E+07        -0.49917E+08         0.00000E+00
    0.00000E+00         0.00000E+00        -0.48134E+08
 
   -0.47621E+08         0.15953E+07         0.00000E+00
    0.15953E+07        -0.49910E+08         0.00000E+00
    0.00000E+00         0.00000E+00        -0.48134E+08
 
   -0.47641E+08         0.16503E+07         0.00000E+00
    0.16503E+07        -0.49903E+08         0.00000E+00
    0.00000E+00         0.00000E+00        -0.48134E+08
 
   -0.47660E+08         0.17048E+07         0.00000E+00
    0.17048E+07        -0.49896E+08         0.00000E+00
    0.00000E+00         0.00000E+00        -0.48134E+08
 
   -0.47680E+08         0.17590E+07         0.00000E+00
    0.17590E+07        -0.49889E+08         0.00000E+00
    0.00000E+00         0.00000E+00        -0.48134E+08
 
   -0.47700E+08         0.18127E+07         0.00000E+00
    0.18127E+07        -0.49882E+08         0.00000E+00
    0.00000E+00         0.00000E+00        -0.48135E+08
 
   -0.47721E+08         0.18660E+07         0.00000E+00
    0.18660E+07        -0.49874E+08         0.00000E+00
    0.00000E+00         0.00000E+00        -0.48135E+08
 
   -0.47741E+08         0.19189E+07         0.00000E+00
    0.19189E+07        -0.49866E+08         0.00000E+00
    0.00000E+00         0.00000E+00        -0.48135E+08
 
   -0.47762E+08         0.19713E+07         0.00000E+00
    0.19713E+07        -0.49858E+08         0.00000E+00
    0.00000E+00         0.00000E+00        -0.48135E+08
 
   -0.47783E+08         0.20233E+07         0.00000E+00
    0.20233E+07        -0.49849E+08         0.00000E+00
    0.00000E+00         0.00000E+00        -0.48135E+08
 
   -0.47804E+08         0.20748E+07         0.00000E+00
    0.20748E+07        -0.49841E+08         0.00000E+00
    0.00000E+00         0.00000E+00        -0.48135E+08
 
   -0.47826E+08         0.21260E+07         0.00000E+00
    0.21260E+07        -0.49832E+08         0.00000E+00
    0.00000E+00         0.00000E+00        -0.48135E+08
 
   -0.47847E+08         0.21766E+07         0.00000E+00
    0.21766E+07        -0.49823E+08         0.00000E+00
    0.00000E+00         0.00000E+00        -0.48136E+08
 
   -0.47869E+08         0.22268E+07         0.00000E+00
    0.22268E+07        -0.49813E+08         0.00000E+00
    0.00000E+00         0.00000E+00        -0.48136E+08
 
   -0.47891E+08         0.22766E+07         0.00000E+00
    0.22766E+07        -0.49804E+08         0.00000E+00
    0.00000E+00         0.00000E+00        -0.48136E+08
 
   -0.47914E+08         0.23259E+07         0.00000E+00
    0.23259E+07        -0.49794E+08         0.00000E+00
    0.00000E+00         0.00000E+00        -0.48136E+08
 
   -0.47936E+08         0.23747E+07         0.00000E+00
    0.23747E+07        -0.49784E+08         0.00000E+00
    0.00000E+00         0.00000E+00        -0.48136E+08
 
   -0.47959E+08         0.24231E+07         0.00000E+00
    0.24231E+07        -0.49773E+08         0.00000E+00
    0.00000E+00         0.00000E+00        -0.48136E+08
 
   -0.47982E+08         0.24709E+07         0.00000E+00
    0.24709E+07        -0.49763E+08         0.00000E+00
    0.00000E+00         0.00000E+00        -0.48136E+08
 
   -0.48005E+08         0.25184E+07         0.00000E+00
    0.25184E+07        -0.49752E+08         0.00000E+00
    0.00000E+00         0.00000E+00        -0.48136E+08
 
   -0.48028E+08         0.25653E+07         0.00000E+00
    0.25653E+07        -0.49741E+08         0.00000E+00
    0.00000E+00         0.00000E+00        -0.48136E+08
 
   -0.48052E+08         0.26117E+07         0.00000E+00
    0.26117E+07        -0.49730E+08         0.00000E+00
    0.00000E+00         0.00000E+00        -0.48136E+08
 
   -0.48076E+08         0.26577E+07         0.00000E+00
    0.26577E+07        -0.49718E+08         0.00000E+00
    0.00000E+00         0.00000E+00        -0.48136E+08
 
   -0.48100E+08         0.27031E+07         0.00000E+00
    0.27031E+07        -0.49707E+08         0.00000E+00
    0.00000E+00         0.00000E+00        -0.48136E+08
 
   -0.48124E+08         0.27481E+07         0.00000E+00
    0.27481E+07        -0.49695E+08         0.00000E+00
    0.00000E+00         0.00000E+00        -0.48136E+08
 
   -0.46878E+08         0.33360E+05         0.00000E+00
    0.33360E+05        -0.50000E+08         0.00000E+00
    0.00000E+00         0.00000E+00        -0.47905E+08
 
   -0.46892E+08         0.99203E+05         0.00000E+00
    0.99203E+05        -0.50000E+08         0.00000E+00
    0.00000E+00         0.00000E+00        -0.47905E+08
 
   -0.46907E+08         0.16472E+06         0.00000E+00
    0.16472E+06        -0.49999E+08         0.00000E+00
    0.00000E+00         0.00000E+00        -0.47905E+08
 
   -0.46921E+08         0.22991E+06         0.00000E+00
    0.22991E+06        -0.49998E+08         0.00000E+00
    0.00000E+00         0.00000E+00        -0.47905E+08
 
   -0.46937E+08         0.29477E+06         0.00000E+00
    0.29477E+06        -0.49997E+08         0.00000E+00
    0.00000E+00         0.00000E+00        -0.47905E+08
 
   -0.46952E+08         0.35929E+06         0.00000E+00
    0.35929E+06        -0.49996E+08         0.00000E+00
    0.00000E+00         0.00000E+00        -0.47905E+08
 
   -0.46968E+08         0.42347E+06         0.00000E+00
    0.42347E+06        -0.49994E+08         0.00000E+00
    0.00000E+00         0.00000E+00        -0.47905E+08
 
   -0.46984E+08         0.48731E+06         0.00000E+00
    0.48731E+06        -0.49992E+08         0.00000E+00
    0.00000E+00         0.00000E+00        -0.47906E+08
 
   -0.47000E+08         0.55079E+06         0.00000E+00
    0.55079E+06        -0.49989E+08         0.00000E+00
    0.00000E+00         0.00000E+00        -0.47906E+08
 
   -0.47017E+08         0.61393E+06         0.00000E+00
    0.61393E+06        -0.49987E+08         0.00000E+00
    0.00000E+00         0.00000E+00        -0.47906E+08
 
   -0.47034E+08         0.67671E+06         0.00000E+00
    0.67671E+06        -0.49984E+08         0.00000E+00
    0.00000E+00         0.00000E+00        -0.47906E+08
 
   -0.47051E+08         0.73913E+06         0.00000E+00
    0.73913E+06        -0.49981E+08         0.00000E+00
    0.00000E+00         0.00000E+00        -0.47906E+08
 
   -0.47068E+08         0.80119E+06         0.00000E+00
    0.80119E+06        -0.49977E+08         0.00000E+00
    0.00000E+00         0.00000E+00        -0.47906E+08
 
   -0.47086E+08         0.86288E+06         0.00000E+00
    0.86288E+06        -0.49974E+08         0.00000E+00
    0.00000E+00         0.00000E+00        -0.47906E+08
 
   -0.47104E+08         0.92421E+06         0.00000E+00
    0.92421E+06        -0.49970E+08         0.00000E+00
    0.00000E+00         0.00000E+00        -0.47906E+08
 
   -0.47123E+08         0.98516E+06         0.00000E+00
    0.98516E+06        -0.49966E+08         0.00000E+00
    0.00000E+00         0.00000E+00        -0.47907E+08
 
   -0.47141E+08         0.10457E+07         0.00000E+00
    0.10457E+07        -0.49961E+08         0.00000E+00
    0.00000E+00         0.00000E+00        -0.47907E+08
 
   -0.47160E+08         0.11059E+07         0.00000E+00
    0.11059E+07        -0.49956E+08         0.00000E+00
    0.00000E+00         0.00000E+00        -0.47907E+08
 
   -0.47179E+08         0.11657E+07         0.00000E+00
    0.11657E+07        -0.49951E+08         0.00000E+00
    0.00000E+00         0.00000E+00        -0.47907E+08
 
   -0.47199E+08         0.12252E+07         0.00000E+00
    0.12252E+07        -0.49946E+08         0.00000E+00
    0.00000E+00         0.00000E+00        -0.47907E+08
 
   -0.47219E+08         0.12842E+07         0.00000E+00
    0.12842E+07        -0.49940E+08         0.00000E+00
    0.00000E+00         0.00000E+00        -0.47908E+08
 
   -0.47239E+08         0.13429E+07         0.00000E+00
    0.13429E+07        -0.49935E+08         0.00000E+00
    0.00000E+00         0.00000E+00        -0.47908E+08
 
   -0.47259E+08         0.14011E+07         0.00000E+00
    0.14011E+07        -0.49929E+08         0.00000E+00
    0.00000E+00         0.00000E+00        -0.47908E+08
 
   -0.47279E+08         0.14590E+07         0.00000E+00
    0.14590E+07        -0.49922E+08         0.00000E+00
    0.00000E+00         0.00000E+00        -0.47908E+08
 
   -0.47300E+08         0.15164E+07         0.00000E+00
    0.15164E+07        -0.49916E+08         0.00000E+00
    0.00000E+00         0.00000E+00        -0.47908E+08
 
   -0.47321E+08         0.15735E+07         0.00000E+00
    0.15735E+07        -0.49909E+08         0.00000E+00
    0.00000E+00         0.00000E+00        -0.47908E+08
 
   -0.47342E+08         0.16301E+07         0.00000E+00
    0.16301E+07        -0.49902E+08         0.00000E+00
    0.00000E+00         0.00000E+00        -0.47909E+08
 
   -0.47364E+08         0.16863E+07         0.00000E+00
    0.16863E+07        -0.49894E+08         0.00000E+00
    0.00000E+00         0.00000E+00        -0.47909E+08
 
   -0.47386E+08         0.17421E+07         0.00000E+00
    0.17421E+07        -0.49886E+08         0.00000E+00
    0.00000E+00         0.00000E+00        -0.47909E+08
 
   -0.47408E+08         0.17975E+07         0.00000E+00
    0.17975E+07        -0.49879E+08         0.00000E+00
    0.00000E+00         0.00000E+00        -0.47909E+08
 
   -0.47430E+08         0.18525E+07         0.00000E+00
    0.18525E+07        -0.49870E+08         0.00000E+00
    0.00000E+00         0.00000E+00        -0.47909E+08
 
   -0.47452E+08         0.19071E+07         0.00000E+00
    0.19071E+07        -0.49862E+08         0.00000E+00
    0.00000E+00         0.00000E+00        -0.47909E+08
 
   -0.47475E+08         0.19612E+07         0.00000E+00
    0.19612E+07        -0.49853E+08         0.00000E+00
    0.00000E+00         0.00000E+00        -0.47910E+08
 
   -0.47498E+08         0.20148E+07         0.00000E+00
    0.20148E+07        -0.49844E+08         0.00000E+00
    0.00000E+00         0.00000E+00        -0.47910E+08
 
   -0.47521E+08         0.20681E+07         0.00000E+00
    0.20681E+07        -0.49835E+08         0.00000E+00
    0.00000E+00         0.00000E+00        -0.47910E+08
 
   -0.47545E+08         0.21209E+07         0.00000E+00
    0.21209E+07        -0.49825E+08         0.00000E+00
    0.00000E+00         0.00000E+00        -0.47910E+08
 
   -0.47568E+08         0.21733E+07         0.00000E+00
    0.21733E+07        -0.49816E+08         0.00000E+00
    0.00000E+00         0.00000E+00        -0.47910E+08
 
   -0.47592E+08         0.22252E+07         0.00000E+00
    0.22252E+07        -0.49806E+08         0.00000E+00
    0.00000E+00         0.00000E+00        -0.47910E+08
 
   -0.47616E+08         0.22766E+07         0.00000E+00
    0.22766E+07        -0.49795E+08         0.00000E+00
    0.00000E+00         0.00000E+00        -0.47910E+08
 
   -0.47641E+08         0.23276E+07         0.00000E+00
    0.23276E+07        -0.49785E+08         0.00000E+00
    0.00000E+00         0.00000E+00        -0.47910E+08
 
   -0.47665E+08         0.23782E+07         0.00000E+00
    0.23782E+07        -0.49774E+08         0.00000E+00
    0.00000E+00         0.00000E+00        -0.47910E+08
 
   -0.47690E+08         0.24283E+07         0.00000E+00
    0.24283E+07        -0.49763E+08         0.00000E+00
    0.00000E+00         0.00000E+00        -0.47911E+08
 
   -0.47715E+08         0.24779E+07         0.00000E+00
    0.24779E+07        -0.49751E+08         0.00000E+00
    0.00000E+00         0.00000E+00        -0.47911E+08
 
   -0.47741E+08         0.25270E+07         0.00000E+00
    0.25270E+07        -0.49740E+08         0.00000E+00
    0.00000E+00         0.00000E+00        -0.47911E+08
 
   -0.47766E+08         0.25757E+07         0.00000E+00
    0.25757E+07        -0.49728E+08         0.00000E+00
    0.00000E+00         0.00000E+00        -0.47911E+08
 
   -0.47792E+08         0.26239E+07         0.00000E+00
    0.26239E+07        -0.49716E+08         0.00000E+00
    0.00000E+00         0.00000E+00        -0.47911E+08
 
   -0.47818E+08         0.26716E+07         0.00000E+00
    0.26716E+07        -0.49703E+08         0.00000E+00
    0.00000E+00         0.00000E+00        -0.47911E+08
 
   -0.47844E+08         0.27188E+07         0.00000E+00
    0.27188E+07        -0.49691E+08         0.00000E+00
    0.00000E+00         0.00000E+00        -0.47911E+08
 
   -0.47871E+08         0.27655E+07         0.00000E+00
    0.27655E+07        -0.49678E+08         0.00000E+00
    0.00000E+00         0.00000E+00        -0.47911E+08
 
   -0.47897E+08         0.28117E+07         0.00000E+00
    0.28117E+07        -0.49664E+08         0.00000E+00
    0.00000E+00         0.00000E+00        -0.47911E+08
 
   -0.46544E+08         0.34145E+05         0.00000E+00
    0.34145E+05        -0.50000E+08         0.00000E+00
    0.00000E+00         0.00000E+00        -0.47673E+08
 
   -0.46560E+08         0.10152E+06         0.00000E+00
    0.10152E+06        -0.50000E+08         0.00000E+00
    0.00000E+00         0.00000E+00        -0.47673E+08
 
   -0.46576E+08         0.16856E+06         0.00000E+00
    0.16856E+06        -0.49999E+08         0.00000E+00
    0.00000E+00         0.00000E+00        -0.47673E+08
 
   -0.46593E+08         0.23526E+06         0.00000E+00
    0.23526E+06        -0.49998E+08         0.00000E+00
    0.00000E+00         0.00000E+00        -0.47673E+08
 
   -0.46609E+08         0.30162E+06         0.00000E+00
    0.30162E+06        -0.49997E+08         0.00000E+00
    0.00000E+00         0.00000E+00        -0.47673E+08
 
   -0.46627E+08         0.36762E+06         0.00000E+00
    0.36762E+06        -0.49995E+08         0.00000E+00
    0.00000E+00         0.00000E+00        -0.47673E+08
 
   -0.46644E+08         0.43328E+06         0.00000E+00
    0.43328E+06        -0.49993E+08         0.00000E+00
    0.00000E+00         0.00000E+00        -0.47673E+08
 
   -0.46662E+08         0.49858E+06         0.00000E+00
    0.49858E+06        -0.49991E+08         0.00000E+00
    0.00000E+00         0.00000E+00        -0.47674E+08
 
   -0.46680E+08         0.56353E+06         0.00000E+00
    0.56353E+06        -0.49989E+08         0.00000E+00
    0.00000E+00         0.00000E+00        -0.47674E+08
 
   -0.46698E+08         0.62811E+06         0.00000E+00
    0.62811E+06        -0.49986E+08         0.00000E+00
    0.00000E+00         0.00000E+00        -0.47674E+08
 
   -0.46717E+08         0.69234E+06         0.00000E+00
    0.69234E+06        -0.49983E+08         0.00000E+00
    0.00000E+00         0.00000E+00        -0.47674E+08
 
   -0.46736E+08         0.75619E+06         0.00000E+00
    0.75619E+06        -0.49979E+08         0.00000E+00
    0.00000E+00         0.00000E+00        -0.47674E+08
 
   -0.46756E+08         0.81968E+06         0.00000E+00
    0.81968E+06        -0.49976E+08         0.00000E+00
    0.00000E+00         0.00000E+00        -0.47674E+08
 
   -0.46775E+08         0.88279E+06         0.00000E+00
    0.88279E+06        -0.49972E+08         0.00000E+00
    0.00000E+00         0.00000E+00        -0.47674E+08
 
   -0.46795E+08         0.94553E+06         0.00000E+00
    0.94553E+06        -0.49967E+08         0.00000E+00
    0.00000E+00         0.00000E+00        -0.47674E+08
 
   -0.46815E+08         0.10079E+07         0.00000E+00
    0.10079E+07        -0.49963E+08         0.00000E+00
    0.00000E+00         0.00000E+00        -0.47675E+08
 
   -0.46836E+08         0.10699E+07         0.00000E+00
    0.10699E+07        -0.49958E+08         0.00000E+00
    0.00000E+00         0.00000E+00        -0.47675E+08
 
   -0.46857E+08         0.11315E+07         0.00000E+00
    0.11315E+07        -0.49953E+08         0.00000E+00
    0.00000E+00         0.00000E+00        -0.47675E+08
 
   -0.46878E+08         0.11927E+07         0.00000E+00
    0.11927E+07        -0.49947E+08         0.00000E+00
    0.00000E+00         0.00000E+00        -0.47675E+08
 
   -0.46899E+08         0.12535E+07         0.00000E+00
    0.12535E+07        -0.49941E+08         0.00000E+00
    0.00000E+00         0.00000E+00        -0.47675E+08
 
   -0.46921E+08         0.13139E+07         0.00000E+00
    0.13139E+07        -0.49935E+08         0.00000E+00
    0.00000E+00         0.00000E+00        -0.47676E+08
 
   -0.46943E+08         0.13739E+07         0.00000E+00
    0.13739E+07        -0.49929E+08         0.00000E+00
    0.00000E+00         0.00000E+00        -0.47676E+08
 
   -0.46965E+08         0.14336E+07         0.00000E+00
    0.14336E+07        -0.49923E+08         0.00000E+00
    0.00000E+00         0.00000E+00        -0.47676E+08
 
   -0.46988E+08         0.14928E+07         0.00000E+00
    0.14928E+07        -0.49916E+08         0.00000E+00
    0.00000E+00         0.00000E+00        -0.47676E+08
 
   -0.47010E+08         0.15516E+07         0.00000E+00
    0.15516E+07        -0.49908E+08         0.00000E+00
    0.00000E+00         0.00000E+00        -0.47676E+08
 
   -0.47033E+08         0.16101E+07         0.00000E+00
    0.16101E+07        -0.49901E+08         0.00000E+00
    0.00000E+00         0.00000E+00        -0.47676E+08
 
   -0.47057E+08         0.16681E+07         0.00000E+00
    0.16681E+07        -0.49893E+08         0.00000E+00
    0.00000E+00         0.00000E+00        -0.47677E+08
 
   -0.47080E+08         0.17257E+07         0.00000E+00
    0.17257E+07        -0.49885E+08         0.00000E+00
    0.00000E+00         0.00000E+00        -0.47677E+08
 
   -0.47104E+08         0.17829E+07         0.00000E+00
    0.17829E+07        -0.49877E+08         0.00000E+00
    0.00000E+00         0.00000E+00        -0.47677E+08
 
   -0.47128E+08         0.18396E+07         0.00000E+00
    0.18396E+07        -0.49868E+08         0.00000E+00
    0.00000E+00         0.00000E+00        -0.47677E+08
 
   -0.47153E+08         0.18960E+07         0.00000E+00
    0.18960E+07        -0.49859E+08         0.00000E+00
    0.00000E+00         0.00000E+00        -0.47677E+08
 
   -0.47177E+08         0.19519E+07         0.00000E+00
    0.19519E+07        -0.49850E+08         0.00000E+00
    0.00000E+00         0.00000E+00        -0.47677E+08
 
   -0.47202E+08         0.20074E+07         0.00000E+00
    0.20074E+07        -0.49841E+08         0.00000E+00
    0.00000E+00         0.00000E+00        -0.47677E+08
 
   -0.47227E+08         0.20624E+07         0.00000E+00
    0.20624E+07        -0.49831E+08         0.00000E+00
    0.00000E+00         0.00000E+00        -0.47678E+08
 
   -0.47253E+08         0.21171E+07         0.00000E+00
    0.21171E+07        -0.49821E+08         0.00000E+00
    0.00000E+00         0.00000E+00        -0.47678E+08
 
   -0.47278E+08         0.21713E+07         0.00000E+00
    0.21713E+07        -0.49810E+08         0.00000E+00
    0.00000E+00         0.00000E+00        -0.47678E+08
 
   -0.47304E+08         0.22250E+07         0.00000E+00
    0.22250E+07        -0.49800E+08         0.00000E+00
    0.00000E+00         0.00000E+00        -0.47678E+08
 
   -0.47330E+08         0.22783E+07         0.00000E+00
    0.22783E+07        -0.49789E+08         0.00000E+00
    0.00000E+00         0.00000E+00        -0.47678E+08
 
   -0.47357E+08         0.23311E+07         0.00000E+00
    0.23311E+07        -0.49778E+08         0.00000E+00
    0.00000E+00         0.00000E+00        -0.47678E+08
 
   -0.47383E+08         0.23835E+07         0.00000E+00
    0.23835E+07        -0.49766E+08         0.00000E+00
    0.00000E+00         0.00000E+00        -0.47678E+08
 
   -0.47410E+08         0.24355E+07         0.00000E+00
    0.24355E+07        -0.49754E+08         0.00000E+00
    0.00000E+00         0.00000E+00        -0.47678E+08
 
   -0.47437E+08         0.24870E+07         0.00000E+00
    0.24870E+07        -0.49742E+08         0.00000E+00
    0.00000E+00         0.00000E+00        -0.47678E+08
 
   -0.47465E+08         0.25380E+07         0.00000E+00
    0.25380E+07        -0.49730E+08         0.00000E+00
    0.00000E+00         0.00000E+00        -0.47679E+08
 
   -0.47492E+08         0.25885E+07         0.00000E+00
    0.25885E+07        -0.49717E+08         0.00000E+00
    0.00000E+00         0.00000E+00        -0.47679E+08
 
   -0.47520E+08         0.26386E+07         0.00000E+00
    0.26386E+07        -0.49704E+08         0.00000E+00
    0.00000E+00         0.00000E+00        -0.47679E+08
 
   -0.47549E+08         0.26882E+07         0.00000E+00
    0.26882E+07        -0.49691E+08         0.00000E+00
    0.00000E+00         0.00000E+00        -0.47679E+08
 
   -0.47577E+08         0.27373E+07         0.00000E+00
    0.27373E+07        -0.49677E+08         0.00000E+00
    0.00000E+00         0.00000E+00        -0.47679E+08
 
   -0.47606E+08         0.27859E+07         0.00000E+00
    0.27859E+07        -0.49663E+08         0.00000E+00
    0.00000E+00         0.00000E+00        -0.47679E+08
 
   -0.47635E+08         0.28340E+07         0.00000E+00
    0.28340E+07        -0.49649E+08         0.00000E+00
    0.00000E+00         0.00000E+00        -0.47679E+08
 
   -0.47664E+08         0.28817E+07         0.00000E+00
    0.28817E+07        -0.49635E+08         0.00000E+00
    0.00000E+00         0.00000E+00        -0.47679E+08
 
   -0.46202E+08         0.34993E+05         0.00000E+00
    0.34993E+05        -0.50000E+08         0.00000E+00
    0.00000E+00         0.00000E+00        -0.47434E+08
 
   -0.46220E+08         0.10403E+06         0.00000E+00
    0.10403E+06        -0.50000E+08         0.00000E+00
    0.00000E+00         0.00000E+00        -0.47434E+08
 
   -0.46238E+08         0.17271E+06         0.00000E+00
    0.17271E+06        -0.49999E+08         0.00000E+00
    0.00000E+00         0.00000E+00        -0.47434E+08
 
   -0.46256E+08         0.24104E+06         0.00000E+00
    0.24104E+06        -0.49998E+08         0.00000E+00
    0.00000E+00         0.00000E+00        -0.47434E+08
 
   -0.46274E+08         0.30901E+06         0.00000E+00
    0.30901E+06        -0.49996E+08         0.00000E+00
    0.00000E+00         0.00000E+00        -0.47434E+08
 
   -0.46293E+08         0.37662E+06         0.00000E+00
    0.37662E+06        -0.49995E+08         0.00000E+00
    0.00000E+00         0.00000E+00        -0.47434E+08
 
   -0.46313E+08         0.44387E+06         0.00000E+00
    0.44387E+06        -0.49993E+08         0.00000E+00
    0.00000E+00         0.00000E+00        -0.47434E+08
 
   -0.46332E+08         0.51076E+06         0.00000E+00
    0.51076E+06        -0.49990E+08         0.00000E+00
    0.00000E+00         0.00000E+00        -0.47434E+08
 
   -0.46352E+08         0.57727E+06         0.00000E+00
    0.57727E+06        -0.49988E+08         0.00000E+00
    0.00000E+00         0.00000E+00        -0.47434E+08
 
   -0.46372E+08         0.64342E+06         0.00000E+00
    0.64342E+06        -0.49985E+08         0.00000E+00
    0.00000E+00         0.00000E+00        -0.47434E+08
 
   -0.46393E+08         0.70920E+06         0.00000E+00
    0.70920E+06        -0.49981E+08         0.00000E+00
    0.00000E+00         0.00000E+00        -0.47435E+08
 
   -0.46414E+08         0.77460E+06         0.00000E+00
    0.77460E+06        -0.49978E+08         0.00000E+00
    0.00000E+00         0.00000E+00        -0.47435E+08
 
   -0.46435E+08         0.83963E+06         0.00000E+00
    0.83963E+06        -0.49974E+08         0.00000E+00
    0.00000E+00         0.00000E+00        -0.47435E+08
 
   -0.46457E+08         0.90428E+06         0.00000E+00
    0.90428E+06        -0.49969E+08         0.00000E+00
    0.00000E+00         0.00000E+00        -0.47435E+08
 
   -0.46479E+08         0.96854E+06         0.00000E+00
    0.96854E+06        -0.49965E+08         0.00000E+00
    0.00000E+00         0.00000E+00        -0.47435E+08
 
   -0.46501E+08         0.10324E+07         0.00000E+00
    0.10324E+07        -0.49960E+08         0.00000E+00
    0.00000E+00         0.00000E+00        -0.47435E+08
 
   -0.46523E+08         0.10959E+07         0.00000E+00
    0.10959E+07        -0.49955E+08         0.00000E+00
    0.00000E+00         0.00000E+00        -0.47435E+08
 
   -0.46546E+08         0.11590E+07         0.00000E+00
    0.11590E+07        -0.49949E+08         0.00000E+00
    0.00000E+00         0.00000E+00        -0.47436E+08
 
   -0.46569E+08         0.12217E+07         0.00000E+00
    0.12217E+07        -0.49943E+08         0.00000E+00
    0.00000E+00         0.00000E+00        -0.47436E+08
 
   -0.46592E+08         0.12841E+07         0.00000E+00
    0.12841E+07        -0.49937E+08         0.00000E+00
    0.00000E+00         0.00000E+00        -0.47436E+08
 
   -0.46616E+08         0.13460E+07         0.00000E+00
    0.13460E+07        -0.49931E+08         0.00000E+00
    0.00000E+00         0.00000E+00        -0.47436E+08
 
   -0.46640E+08         0.14075E+07         0.00000E+00
    0.14075E+07        -0.49924E+08         0.00000E+00
    0.00000E+00         0.00000E+00        -0.47436E+08
 
   -0.46664E+08         0.14687E+07         0.00000E+00
    0.14687E+07        -0.49917E+08         0.00000E+00
    0.00000E+00         0.00000E+00        -0.47436E+08
 
   -0.46689E+08         0.15294E+07         0.00000E+00
    0.15294E+07        -0.49909E+08         0.00000E+00
    0.00000E+00         0.00000E+00        -0.47437E+08
 
   -0.46714E+08         0.15897E+07         0.00000E+00
    0.15897E+07        -0.49902E+08         0.00000E+00
    0.00000E+00         0.00000E+00        -0.47437E+08
 
   -0.46739E+08         0.16496E+07         0.00000E+00
    0.16496E+07        -0.49893E+08         0.00000E+00
    0.00000E+00         0.00000E+00        -0.47437E+08
 
   -0.46764E+08         0.17091E+07         0.00000E+00
    0.17091E+07        -0.49885E+08         0.00000E+00
    0.00000E+00         0.00000E+00        -0.47437E+08
 
   -0.46790E+08         0.17682E+07         0.00000E+00
    0.17682E+07        -0.49876E+08         0.00000E+00
    0.00000E+00         0.00000E+00        -0.47437E+08
 
   -0.46816E+08         0.18269E+07         0.00000E+00
    0.18269E+07        -0.49867E+08         0.00000E+00
    0.00000E+00         0.00000E+00        -0.47437E+08
 
   -0.46842E+08         0.18852E+07         0.00000E+00
    0.18852E+07        -0.49858E+08         0.00000E+00
    0.00000E+00         0.00000E+00        -0.47438E+08
 
   -0.46868E+08         0.19430E+07         0.00000E+00
    0.19430E+07        -0.49849E+08         0.00000E+00
    0.00000E+00         0.00000E+00        -0.47438E+08
 
   -0.46895E+08         0.20004E+07         0.00000E+00
    0.20004E+07        -0.49839E+08         0.00000E+00
    0.00000E+00         0.00000E+00        -0.47438E+08
 
   -0.46922E+08         0.20574E+07         0.00000E+00
    0.20574E+07        -0.49828E+08         0.00000E+00
    0.00000E+00         0.00000E+00        -0.47438E+08
 
   -0.46949E+08         0.21140E+07         0.00000E+00
    0.21140E+07        -0.49818E+08         0.00000E+00
    0.00000E+00         0.00000E+00        -0.47438E+08
 
   -0.46977E+08         0.21701E+07         0.00000E+00
    0.21701E+07        -0.49807E+08         0.00000E+00
    0.00000E+00         0.00000E+00        -0.47438E+08
 
   -0.47005E+08         0.22258E+07         0.00000E+00
    0.22258E+07        -0.49796E+08         0.00000E+00
    0.00000E+00         0.00000E+00        -0.47438E+08
 
   -0.47033E+08         0.22811E+07         0.00000E+00
    0.22811E+07        -0.49784E+08         0.00000E+00
    0.00000E+00         0.00000E+00        -0.47438E+08
 
   -0.47061E+08         0.23359E+07         0.00000E+00
    0.23359E+07        -0.49773E+08         0.00000E+00
    0.00000E+00         0.00000E+00        -0.47439E+08
 
   -0.47090E+08         0.23903E+07         0.00000E+00
    0.23903E+07        -0.49760E+08         0.00000E+00
    0.00000E+00         0.00000E+00        -0.47439E+08
 
   -0.47119E+08         0.24442E+07         0.00000E+00
    0.24442E+07        -0.49748E+08         0.00000E+00
    0.00000E+00         0.00000E+00        -0.47439E+08
 
   -0.47148E+08         0.24977E+07         0.00000E+00
    0.24977E+07        -0.49735E+08         0.00000E+00
    0.00000E+00         0.00000E+00        -0.47439E+08
 
   -0.47177E+08         0.25507E+07         0.00000E+00
    0.25507E+07        -0.49722E+08         0.00000E+00
    0.00000E+00         0.00000E+00        -0.47439E+08
 
   -0.47207E+08         0.26032E+07         0.00000E+00
    0.26032E+07        -0.49709E+08         0.00000E+00
    0.00000E+00         0.00000E+00        -0.47439E+08
 
   -0.47237E+08         0.26553E+07         0.00000E+00
    0.26553E+07        -0.49695E+08         0.00000E+00
    0.00000E+00         0.00000E+00        -0.47439E+08
 
   -0.47267E+08         0.27069E+07         0.00000E+00
    0.27069E+07        -0.49681E+08         0.00000E+00
    0.00000E+00         0.00000E+00        -0.47439E+08
 
   -0.47298E+08         0.27581E+07         0.00000E+00
    0.27581E+07        -0.49667E+08         0.00000E+00
    0.00000E+00         0.00000E+00        -0.47439E+08
 
   -0.47329E+08         0.28087E+07         0.00000E+00
    0.28087E+07        -0.49652E+08         0.00000E+00
    0.00000E+00         0.00000E+00        -0.47439E+08
 
   -0.47360E+08         0.28589E+07         0.00000E+00
    0.28589E+07        -0.49637E+08         0.00000E+00
    0.00000E+00         0.00000E+00        -0.47439E+08
 
   -0.47392E+08         0.29086E+07         0.00000E+00
    0.29086E+07        -0.49621E+08         0.00000E+00
    0.00000E+00         0.00000E+00        -0.47439E+08
 
   -0.47423E+08         0.29578E+07         0.00000E+00
    0.29578E+07        -0.49606E+08         0.00000E+00
    0.00000E+00         0.00000E+00        -0.47439E+08
 
   -0.45852E+08         0.35901E+05         0.00000E+00
    0.35901E+05        -0.50000E+08         0.00000E+00
    0.00000E+00         0.00000E+00        -0.47186E+08
 
   -0.45871E+08         0.10671E+06         0.00000E+00
    0.10671E+06        -0.50000E+08         0.00000E+00
    0.00000E+00         0.00000E+00        -0.47186E+08
 
   -0.45891E+08         0.17715E+06         0.00000E+00
    0.17715E+06        -0.49999E+08         0.00000E+00
    0.00000E+00         0.00000E+00        -0.47186E+08
 
   -0.45911E+08         0.24722E+06         0.00000E+00
    0.24722E+06        -0.49998E+08         0.00000E+00
    0.00000E+00         0.00000E+00        -0.47186E+08
 
   -0.45931E+08         0.31692E+06         0.00000E+00
    0.31692E+06        -0.49996E+08         0.00000E+00
    0.00000E+00         0.00000E+00        -0.47186E+08
 
   -0.45952E+08         0.38625E+06         0.00000E+00
    0.38625E+06        -0.49994E+08         0.00000E+00
    0.00000E+00         0.00000E+00        -0.47187E+08
 
   -0.45973E+08         0.45521E+06         0.00000E+00
    0.45521E+06        -0.49992E+08         0.00000E+00
    0.00000E+00         0.00000E+00        -0.47187E+08
 
   -0.45994E+08         0.52379E+06         0.00000E+00
    0.52379E+06        -0.49990E+08         0.00000E+00
    0.00000E+00         0.00000E+00        -0.47187E+08
 
   -0.46016E+08         0.59199E+06         0.00000E+00
    0.59199E+06        -0.49987E+08         0.00000E+00
    0.00000E+00         0.00000E+00        -0.47187E+08
 
   -0.46038E+08         0.65981E+06         0.00000E+00
    0.65981E+06        -0.49984E+08         0.00000E+00
    0.00000E+00         0.00000E+00        -0.47187E+08
 
   -0.46061E+08         0.72726E+06         0.00000E+00
    0.72726E+06        -0.49980E+08         0.00000E+00
    0.00000E+00         0.00000E+00        -0.47187E+08
 
   -0.46084E+08         0.79432E+06         0.00000E+00
    0.79432E+06        -0.49976E+08         0.00000E+00
    0.00000E+00         0.00000E+00        -0.47187E+08
 
   -0.46107E+08         0.86099E+06         0.00000E+00
    0.86099E+06        -0.49972E+08         0.00000E+00
    0.00000E+00         0.00000E+00        -0.47187E+08
 
   -0.46130E+08         0.92728E+06         0.00000E+00
    0.92728E+06        -0.49967E+08         0.00000E+00
    0.00000E+00         0.00000E+00        -0.47187E+08
 
   -0.46154E+08         0.99319E+06         0.00000E+00
    0.99319E+06        -0.49963E+08         0.00000E+00
    0.00000E+00         0.00000E+00        -0.47188E+08
 
   -0.46178E+08         0.10587E+07         0.00000E+00
    0.10587E+07        -0.49957E+08         0.00000E+00
    0.00000E+00         0.00000E+00        -0.47188E+08
 
   -0.46203E+08         0.11238E+07         0.00000E+00
    0.11238E+07        -0.49952E+08         0.00000E+00
    0.00000E+00         0.00000E+00        -0.47188E+08
 
   -0.46227E+08         0.11886E+07         0.00000E+00
    0.11886E+07        -0.49946E+08         0.00000E+00
    0.00000E+00         0.00000E+00        -0.47188E+08
 
   -0.46252E+08         0.12529E+07         0.00000E+00
    0.12529E+07        -0.49939E+08         0.00000E+00
    0.00000E+00         0.00000E+00        -0.47188E+08
 
   -0.46278E+08         0.13168E+07         0.00000E+00
    0.13168E+07        -0.49933E+08         0.00000E+00
    0.00000E+00         0.00000E+00        -0.47188E+08
 
   -0.46303E+08         0.13804E+07         0.00000E+00
    0.13804E+07        -0.49926E+08         0.00000E+00
    0.00000E+00         0.00000E+00        -0.47189E+08
 
   -0.46329E+08         0.14435E+07         0.00000E+00
    0.14435E+07        -0.49919E+08         0.00000E+00
    0.00000E+00         0.00000E+00        -0.47189E+08
 
   -0.46356E+08         0.15063E+07         0.00000E+00
    0.15063E+07        -0.49911E+08         0.00000E+00
    0.00000E+00         0.00000E+00        -0.47189E+08
 
   -0.46382E+08         0.15686E+07         0.00000E+00
    0.15686E+07        -0.49903E+08         0.00000E+00
    0.00000E+00         0.00000E+00        -0.47189E+08
 
   -0.46409E+08         0.16305E+07         0.00000E+00
    0.16305E+07        -0.49895E+08         0.00000E+00
    0.00000E+00         0.00000E+00        -0.47189E+08
 
   -0.46436E+08         0.16921E+07         0.00000E+00
    0.16921E+07        -0.49886E+08         0.00000E+00
    0.00000E+00         0.00000E+00        -0.47189E+08
 
   -0.46463E+08         0.17532E+07         0.00000E+00
    0.17532E+07        -0.49877E+08         0.00000E+00
    0.00000E+00         0.00000E+00        -0.47189E+08
 
   -0.46491E+08         0.18139E+07         0.00000E+00
    0.18139E+07        -0.49868E+08         0.00000E+00
    0.00000E+00         0.00000E+00        -0.47190E+08
 
   -0.46519E+08         0.18742E+07         0.00000E+00
    0.18742E+07        -0.49858E+08         0.00000E+00
    0.00000E+00         0.00000E+00        -0.47190E+08
 
   -0.46547E+08         0.19341E+07         0.00000E+00
    0.19341E+07        -0.49849E+08         0.00000E+00
    0.00000E+00         0.00000E+00        -0.47190E+08
 
   -0.46576E+08         0.19936E+07         0.00000E+00
    0.19936E+07        -0.49838E+08         0.00000E+00
    0.00000E+00         0.00000E+00        -0.47190E+08
 
   -0.46605E+08         0.20526E+07         0.00000E+00
    0.20526E+07        -0.49828E+08         0.00000E+00
    0.00000E+00         0.00000E+00        -0.47190E+08
 
   -0.46634E+08         0.21112E+07         0.00000E+00
    0.21112E+07        -0.49817E+08         0.00000E+00
    0.00000E+00         0.00000E+00        -0.47190E+08
 
   -0.46663E+08         0.21694E+07         0.00000E+00
    0.21694E+07        -0.49805E+08         0.00000E+00
    0.00000E+00         0.00000E+00        -0.47190E+08
 
   -0.46693E+08         0.22272E+07         0.00000E+00
    0.22272E+07        -0.49794E+08         0.00000E+00
    0.00000E+00         0.00000E+00        -0.47190E+08
 
   -0.46723E+08         0.22845E+07         0.00000E+00
    0.22845E+07        -0.49782E+08         0.00000E+00
    0.00000E+00         0.00000E+00        -0.47191E+08
 
   -0.46753E+08         0.23414E+07         0.00000E+00
    0.23414E+07        -0.49769E+08         0.00000E+00
    0.00000E+00         0.00000E+00        -0.47191E+08
 
   -0.46784E+08         0.23979E+07         0.00000E+00
    0.23979E+07        -0.49757E+08         0.00000E+00
    0.00000E+00         0.00000E+00        -0.47191E+08
 
   -0.46815E+08         0.24539E+07         0.00000E+00
    0.24539E+07        -0.49744E+08         0.00000E+00
    0.00000E+00         0.00000E+00        -0.47191E+08
 
   -0.46846E+08         0.25095E+07         0.00000E+00
    0.25095E+07        -0.49730E+08         0.00000E+00
    0.00000E+00         0.00000E+00        -0.47191E+08
 
   -0.46877E+08         0.25647E+07         0.00000E+00
    0.25647E+07        -0.49717E+08         0.00000E+00
    0.00000E+00         0.00000E+00        -0.47191E+08
 
   -0.46909E+08         0.26193E+07         0.00000E+00
    0.26193E+07        -0.49703E+08         0.00000E+00
    0.00000E+00         0.00000E+00        -0.47191E+08
 
   -0.46941E+08         0.26736E+07         0.00000E+00
    0.26736E+07        -0.49688E+08         0.00000E+00
    0.00000E+00         0.00000E+00        -0.47191E+08
 
   -0.46974E+08         0.27274E+07         0.00000E+00
    0.27274E+07        -0.49674E+08         0.00000E+00
    0.00000E+00         0.00000E+00        -0.47191E+08
 
   -0.47006E+08         0.27807E+07         0.00000E+00
    0.27807E+07        -0.49658E+08         0.00000E+00
    0.00000E+00         0.00000E+00        -0.47191E+08
 
   -0.47039E+08         0.28335E+07         0.00000E+00
    0.28335E+07        -0.49643E+08         0.00000E+00
    0.00000E+00         0.00000E+00        -0.47191E+08
 
   -0.47073E+08         0.28859E+07         0.00000E+00
    0.28859E+07        -0.49627E+08         0.00000E+00
    0.00000E+00         0.00000E+00        -0.47191E+08
 
   -0.47106E+08         0.29378E+07         0.00000E+00
    0.29378E+07        -0.49611E+08         0.00000E+00
    0.00000E+00         0.00000E+00        -0.47191E+08
 
   -0.47140E+08         0.29892E+07         0.00000E+00
    0.29892E+07        -0.49594E+08         0.00000E+00
    0.00000E+00         0.00000E+00        -0.47191E+08
 
   -0.47174E+08         0.30402E+07         0.00000E+00
    0.30402E+07        -0.49578E+08         0.00000E+00
    0.00000E+00         0.00000E+00        -0.47191E+08
 
   -0.45492E+08         0.36866E+05         0.00000E+00
    0.36866E+05        -0.50000E+08         0.00000E+00
    0.00000E+00         0.00000E+00        -0.46930E+08
 
   -0.45513E+08         0.10955E+06         0.00000E+00
    0.10955E+06        -0.50000E+08         0.00000E+00
    0.00000E+00         0.00000E+00        -0.46930E+08
 
   -0.45535E+08         0.18186E+06         0.00000E+00
    0.18186E+06        -0.49999E+08         0.00000E+00
    0.00000E+00         0.00000E+00        -0.46930E+08
 
   -0.45557E+08         0.25379E+06         0.00000E+00
    0.25379E+06        -0.49998E+08         0.00000E+00
    0.00000E+00         0.00000E+00        -0.46930E+08
 
   -0.45579E+08         0.32533E+06         0.00000E+00
    0.32533E+06        -0.49996E+08         0.00000E+00
    0.00000E+00         0.00000E+00        -0.46930E+08
 
   -0.45602E+08         0.39648E+06         0.00000E+00
    0.39648E+06        -0.49994E+08         0.00000E+00
    0.00000E+00         0.00000E+00        -0.46930E+08
 
   -0.45625E+08         0.46725E+06         0.00000E+00
    0.46725E+06        -0.49992E+08         0.00000E+00
    0.00000E+00         0.00000E+00        -0.46930E+08
 
   -0.45648E+08         0.53763E+06         0.00000E+00
    0.53763E+06        -0.49989E+08         0.00000E+00
    0.00000E+00         0.00000E+00        -0.46930E+08
 
   -0.45672E+08         0.60763E+06         0.00000E+00
    0.60763E+06        -0.49986E+08         0.00000E+00
    0.00000E+00         0.00000E+00        -0.46930E+08
 
   -0.45696E+08         0.67723E+06         0.00000E+00
    0.67723E+06        -0.49983E+08         0.00000E+00
    0.00000E+00         0.00000E+00        -0.46931E+08
 
   -0.45720E+08         0.74645E+06         0.00000E+00
    0.74645E+06        -0.49979E+08         0.00000E+00
    0.00000E+00         0.00000E+00        -0.46931E+08
 
   -0.45745E+08         0.81527E+06         0.00000E+00
    0.81527E+06        -0.49975E+08         0.00000E+00
    0.00000E+00         0.00000E+00        -0.46931E+08
 
   -0.45770E+08         0.88370E+06         0.00000E+00
    0.88370E+06        -0.49970E+08         0.00000E+00
    0.00000E+00         0.00000E+00        -0.46931E+08
 
   -0.45796E+08         0.95174E+06         0.00000E+00
    0.95174E+06        -0.49966E+08         0.00000E+00
    0.00000E+00         0.00000E+00        -0.46931E+08
 
   -0.45821E+08         0.10194E+07         0.00000E+00
    0.10194E+07        -0.49960E+08         0.00000E+00
    0.00000E+00         0.00000E+00        -0.46931E+08
 
   -0.45847E+08         0.10866E+07         0.00000E+00
    0.10866E+07        -0.49955E+08         0.00000E+00
    0.00000E+00         0.00000E+00        -0.46931E+08
 
   -0.45874E+08         0.11535E+07         0.00000E+00
    0.11535E+07        -0.49949E+08         0.00000E+00
    0.00000E+00         0.00000E+00        -0.46931E+08
 
   -0.45900E+08         0.12200E+07         0.00000E+00
    0.12200E+07        -0.49943E+08         0.00000E+00
    0.00000E+00         0.00000E+00        -0.46932E+08
 
   -0.45927E+08         0.12860E+07         0.00000E+00
    0.12860E+07        -0.49936E+08         0.00000E+00
    0.00000E+00         0.00000E+00        -0.46932E+08
 
   -0.45955E+08         0.13517E+07         0.00000E+00
    0.13517E+07        -0.49929E+08         0.00000E+00
    0.00000E+00         0.00000E+00        -0.46932E+08
 
   -0.45982E+08         0.14170E+07         0.00000E+00
    0.14170E+07        -0.49922E+08         0.00000E+00
    0.00000E+00         0.00000E+00        -0.46932E+08
 
   -0.46010E+08         0.14818E+07         0.00000E+00
    0.14818E+07        -0.49914E+08         0.00000E+00
    0.00000E+00         0.00000E+00        -0.46932E+08
 
   -0.46039E+08         0.15463E+07         0.00000E+00
    0.15463E+07        -0.49906E+08         0.00000E+00
    0.00000E+00         0.00000E+00        -0.46932E+08
 
   -0.46067E+08         0.16104E+07         0.00000E+00
    0.16104E+07        -0.49897E+08         0.00000E+00
    0.00000E+00         0.00000E+00        -0.46932E+08
 
   -0.46096E+08         0.16740E+07         0.00000E+00
    0.16740E+07        -0.49889E+08         0.00000E+00
    0.00000E+00         0.00000E+00        -0.46933E+08
 
   -0.46125E+08         0.17373E+07         0.00000E+00
    0.17373E+07        -0.49879E+08         0.00000E+00
    0.00000E+00         0.00000E+00        -0.46933E+08
 
   -0.46155E+08         0.18001E+07         0.00000E+00
    0.18001E+07        -0.49870E+08         0.00000E+00
    0.00000E+00         0.00000E+00        -0.46933E+08
 
   -0.46184E+08         0.18626E+07         0.00000E+00
    0.18626E+07        -0.49860E+08         0.00000E+00
    0.00000E+00         0.00000E+00        -0.46933E+08
 
   -0.46214E+08         0.19246E+07         0.00000E+00
    0.19246E+07        -0.49850E+08         0.00000E+00
    0.00000E+00         0.00000E+00        -0.46933E+08
 
   -0.46245E+08         0.19862E+07         0.00000E+00
    0.19862E+07        -0.49839E+08         0.00000E+00
    0.00000E+00         0.00000E+00        -0.46933E+08
 
   -0.46275E+08         0.20474E+07         0.00000E+00
    0.20474E+07        -0.49828E+08         0.00000E+00
    0.00000E+00         0.00000E+00        -0.46933E+08
 
   -0.46306E+08         0.21082E+07         0.00000E+00
    0.21082E+07        -0.49817E+08         0.00000E+00
    0.00000E+00         0.00000E+00        -0.46933E+08
 
   -0.46337E+08         0.21686E+07         0.00000E+00
    0.21686E+07        -0.49805E+08         0.00000E+00
    0.00000E+00         0.00000E+00        -0.46933E+08
 
   -0.46369E+08         0.22286E+07         0.00000E+00
    0.22286E+07        -0.49793E+08         0.00000E+00
    0.00000E+00         0.00000E+00        -0.46934E+08
 
   -0.46401E+08         0.22881E+07         0.00000E+00
    0.22881E+07        -0.49781E+08         0.00000E+00
    0.00000E+00         0.00000E+00        -0.46934E+08
 
   -0.46433E+08         0.23472E+07         0.00000E+00
    0.23472E+07        -0.49768E+08         0.00000E+00
    0.00000E+00         0.00000E+00        -0.46934E+08
 
   -0.46465E+08         0.24059E+07         0.00000E+00
    0.24059E+07        -0.49755E+08         0.00000E+00
    0.00000E+00         0.00000E+00        -0.46934E+08
 
   -0.46498E+08         0.24642E+07         0.00000E+00
    0.24642E+07        -0.49742E+08         0.00000E+00
    0.00000E+00         0.00000E+00        -0.46934E+08
 
   -0.46531E+08         0.25220E+07         0.00000E+00
    0.25220E+07        -0.49728E+08         0.00000E+00
    0.00000E+00         0.00000E+00        -0.46934E+08
 
   -0.46565E+08         0.25794E+07         0.00000E+00
    0.25794E+07        -0.49714E+08         0.00000E+00
    0.00000E+00         0.00000E+00        -0.46934E+08
 
   -0.46598E+08         0.26363E+07         0.00000E+00
    0.26363E+07        -0.49699E+08         0.00000E+00
    0.00000E+00         0.00000E+00        -0.46934E+08
 
   -0.46632E+08         0.26928E+07         0.00000E+00
    0.26928E+07        -0.49684E+08         0.00000E+00
    0.00000E+00         0.00000E+00        -0.46934E+08
 
   -0.46667E+08         0.27489E+07         0.00000E+00
    0.27489E+07        -0.49669E+08         0.00000E+00
    0.00000E+00         0.00000E+00        -0.46934E+08
 
   -0.46701E+08         0.28045E+07         0.00000E+00
    0.28045E+07        -0.49653E+08         0.00000E+00
    0.00000E+00         0.00000E+00        -0.46934E+08
 
   -0.46736E+08         0.28597E+07         0.00000E+00
    0.28597E+07        -0.49637E+08         0.00000E+00
    0.00000E+00         0.00000E+00        -0.46934E+08
 
   -0.46772E+08         0.29144E+07         0.00000E+00
    0.29144E+07        -0.49620E+08         0.00000E+00
    0.00000E+00         0.00000E+00        -0.46934E+08
 
   -0.46807E+08         0.29686E+07         0.00000E+00
    0.29686E+07        -0.49603E+08         0.00000E+00
    0.00000E+00         0.00000E+00        -0.46934E+08
 
   -0.46843E+08         0.30224E+07         0.00000E+00
    0.30224E+07        -0.49586E+08         0.00000E+00
    0.00000E+00         0.00000E+00        -0.46934E+08
 
   -0.46879E+08         0.30757E+07         0.00000E+00
    0.30757E+07        -0.49568E+08         0.00000E+00
    0.00000E+00         0.00000E+00        -0.46934E+08
 
   -0.46916E+08         0.31285E+07         0.00000E+00
    0.31285E+07        -0.49550E+08         0.00000E+00
    0.00000E+00         0.00000E+00        -0.46934E+08
 
   -0.45123E+08         0.37885E+05         0.00000E+00
    0.37885E+05        -0.50000E+08         0.00000E+00
    0.00000E+00         0.00000E+00        -0.46664E+08
 
   -0.45146E+08         0.11256E+06         0.00000E+00
    0.11256E+06        -0.50000E+08         0.00000E+00
    0.00000E+00         0.00000E+00        -0.46664E+08
 
   -0.45169E+08         0.18684E+06         0.00000E+00
    0.18684E+06        -0.49999E+08         0.00000E+00
    0.00000E+00         0.00000E+00        -0.46664E+08
 
   -0.45193E+08         0.26072E+06         0.00000E+00
    0.26072E+06        -0.49997E+08         0.00000E+00
    0.00000E+00         0.00000E+00        -0.46664E+08
 
   -0.45217E+08         0.33420E+06         0.00000E+00
    0.33420E+06        -0.49996E+08         0.00000E+00
    0.00000E+00         0.00000E+00        -0.46664E+08
 
   -0.45242E+08         0.40728E+06         0.00000E+00
    0.40728E+06        -0.49994E+08         0.00000E+00
    0.00000E+00         0.00000E+00        -0.46664E+08
 
   -0.45267E+08         0.47996E+06         0.00000E+00
    0.47996E+06        -0.49991E+08         0.00000E+00
    0.00000E+00         0.00000E+00        -0.46664E+08
 
   -0.45292E+08         0.55225E+06         0.00000E+00
    0.55225E+06        -0.49989E+08         0.00000E+00
    0.00000E+00         0.00000E+00        -0.46664E+08
 
   -0.45318E+08         0.62413E+06         0.00000E+00
    0.62413E+06        -0.49985E+08         0.00000E+00
    0.00000E+00         0.00000E+00        -0.46664E+08
 
   -0.45344E+08         0.69562E+06         0.00000E+00
    0.69562E+06        -0.49982E+08         0.00000E+00
    0.00000E+00         0.00000E+00        -0.46664E+08
 
   -0.45370E+08         0.76670E+06         0.00000E+00
    0.76670E+06        -0.49978E+08         0.00000E+00
    0.00000E+00         0.00000E+00        -0.46664E+08
 
   -0.45397E+08         0.83739E+06         0.00000E+00
    0.83739E+06        -0.49974E+08         0.00000E+00
    0.00000E+00         0.00000E+00        -0.46665E+08
 
   -0.45424E+08         0.90768E+06         0.00000E+00
    0.90768E+06        -0.49969E+08         0.00000E+00
    0.00000E+00         0.00000E+00        -0.46665E+08
 
   -0.45452E+08         0.97757E+06         0.00000E+00
    0.97757E+06        -0.49964E+08         0.00000E+00
    0.00000E+00         0.00000E+00        -0.46665E+08
 
   -0.45479E+08         0.10471E+07         0.00000E+00
    0.10471E+07        -0.49958E+08         0.00000E+00
    0.00000E+00         0.00000E+00        -0.46665E+08
 
   -0.45507E+08         0.11161E+07         0.00000E+00
    0.11161E+07        -0.49952E+08         0.00000E+00
    0.00000E+00         0.00000E+00        -0.46665E+08
 
   -0.45536E+08         0.11848E+07         0.00000E+00
    0.11848E+07        -0.49946E+08         0.00000E+00
    0.00000E+00         0.00000E+00        -0.46665E+08
 
   -0.45565E+08         0.12531E+07         0.00000E+00
    0.12531E+07        -0.49940E+08         0.00000E+00
    0.00000E+00         0.00000E+00        -0.46665E+08
 
   -0.45594E+08         0.13210E+07         0.00000E+00
    0.13210E+07        -0.49933E+08         0.00000E+00
    0.00000E+00         0.00000E+00        -0.46665E+08
 
   -0.45623E+08         0.13885E+07         0.00000E+00
    0.13885E+07        -0.49925E+08         0.00000E+00
    0.00000E+00         0.00000E+00        -0.46665E+08
 
   -0.45652E+08         0.14556E+07         0.00000E+00
    0.14556E+07        -0.49917E+08         0.00000E+00
    0.00000E+00         0.00000E+00        -0.46666E+08
 
   -0.45682E+08         0.15223E+07         0.00000E+00
    0.15223E+07        -0.49909E+08         0.00000E+00
    0.00000E+00         0.00000E+00        -0.46666E+08
 
   -0.45713E+08         0.15886E+07         0.00000E+00
    0.15886E+07        -0.49901E+08         0.00000E+00
    0.00000E+00         0.00000E+00        -0.46666E+08
 
   -0.45743E+08         0.16545E+07         0.00000E+00
    0.16545E+07        -0.49892E+08         0.00000E+00
    0.00000E+00         0.00000E+00        -0.46666E+08
 
   -0.45774E+08         0.17200E+07         0.00000E+00
    0.17200E+07        -0.49883E+08         0.00000E+00
    0.00000E+00         0.00000E+00        -0.46666E+08
 
   -0.45805E+08         0.17851E+07         0.00000E+00
    0.17851E+07        -0.49873E+08         0.00000E+00
    0.00000E+00         0.00000E+00        -0.46666E+08
 
   -0.45837E+08         0.18498E+07         0.00000E+00
    0.18498E+07        -0.49863E+08         0.00000E+00
    0.00000E+00         0.00000E+00        -0.46666E+08
 
   -0.45868E+08         0.19141E+07         0.00000E+00
    0.19141E+07        -0.49853E+08         0.00000E+00
    0.00000E+00         0.00000E+00        -0.46666E+08
 
   -0.45901E+08         0.19780E+07         0.00000E+00
    0.19780E+07        -0.49842E+08         0.00000E+00
    0.00000E+00         0.00000E+00        -0.46666E+08
 
   -0.45933E+08         0.20415E+07         0.00000E+00
    0.20415E+07        -0.49831E+08         0.00000E+00
    0.00000E+00         0.00000E+00        -0.46667E+08
 
   -0.45966E+08         0.21045E+07         0.00000E+00
    0.21045E+07        -0.49819E+08         0.00000E+00
    0.00000E+00         0.00000E+00        -0.46667E+08
 
   -0.45999E+08         0.21672E+07         0.00000E+00
    0.21672E+07        -0.49807E+08         0.00000E+00
    0.00000E+00         0.00000E+00        -0.46667E+08
 
   -0.46032E+08         0.22294E+07         0.00000E+00
    0.22294E+07        -0.49795E+08         0.00000E+00
    0.00000E+00         0.00000E+00        -0.46667E+08
 
   -0.46066E+08         0.22913E+07         0.00000E+00
    0.22913E+07        -0.49782E+08         0.00000E+00
    0.00000E+00         0.00000E+00        -0.46667E+08
 
   -0.46100E+08         0.23527E+07         0.00000E+00
    0.23527E+07        -0.49769E+08         0.00000E+00
    0.00000E+00         0.00000E+00        -0.46667E+08
 
   -0.46134E+08         0.24137E+07         0.00000E+00
    0.24137E+07        -0.49756E+08         0.00000E+00
    0.00000E+00         0.00000E+00        -0.46667E+08
 
   -0.46168E+08         0.24743E+07         0.00000E+00
    0.24743E+07        -0.49742E+08         0.00000E+00
    0.00000E+00         0.00000E+00        -0.46667E+08
 
   -0.46203E+08         0.25345E+07         0.00000E+00
    0.25345E+07        -0.49728E+08         0.00000E+00
    0.00000E+00         0.00000E+00        -0.46667E+08
 
   -0.46238E+08         0.25943E+07         0.00000E+00
    0.25943E+07        -0.49713E+08         0.00000E+00
    0.00000E+00         0.00000E+00        -0.46667E+08
 
   -0.46274E+08         0.26536E+07         0.00000E+00
    0.26536E+07        -0.49698E+08         0.00000E+00
    0.00000E+00         0.00000E+00        -0.46667E+08
 
   -0.46310E+08         0.27125E+07         0.00000E+00
    0.27125E+07        -0.49682E+08         0.00000E+00
    0.00000E+00         0.00000E+00        -0.46667E+08
 
   -0.46346E+08         0.27710E+07         0.00000E+00
    0.27710E+07        -0.49666E+08         0.00000E+00
    0.00000E+00         0.00000E+00        -0.46667E+08
 
   -0.46383E+08         0.28291E+07         0.00000E+00
    0.28291E+07        -0.49650E+08         0.00000E+00
    0.00000E+00         0.00000E+00        -0.46667E+08
 
   -0.46419E+08         0.28867E+07         0.00000E+00
    0.28867E+07        -0.49633E+08         0.00000E+00
    0.00000E+00         0.00000E+00        -0.46667E+08
 
   -0.46457E+08         0.29438E+07         0.00000E+00
    0.29438E+07        -0.49616E+08         0.00000E+00
    0.00000E+00         0.00000E+00        -0.46667E+08
 
   -0.46494E+08         0.30005E+07         0.00000E+00
    0.30005E+07        -0.49599E+08         0.00000E+00
    0.00000E+00         0.00000E+00        -0.46667E+08
 
   -0.46532E+08         0.30568E+07         0.00000E+00
    0.30568E+07        -0.49581E+08         0.00000E+00
    0.00000E+00         0.00000E+00        -0.46667E+08
 
   -0.46570E+08         0.31126E+07         0.00000E+00
    0.31126E+07        -0.49562E+08         0.00000E+00
    0.00000E+00         0.00000E+00        -0.46667E+08
 
   -0.46609E+08         0.31680E+07         0.00000E+00
    0.31680E+07        -0.49544E+08         0.00000E+00
    0.00000E+00         0.00000E+00        -0.46667E+08
 
   -0.46648E+08         0.32229E+07         0.00000E+00
    0.32229E+07        -0.49524E+08         0.00000E+00
    0.00000E+00         0.00000E+00        -0.46667E+08
 
   -0.44743E+08         0.38954E+05         0.00000E+00
    0.38954E+05        -0.50000E+08         0.00000E+00
    0.00000E+00         0.00000E+00        -0.46387E+08
 
   -0.44768E+08         0.11571E+06         0.00000E+00
    0.11571E+06        -0.49999E+08         0.00000E+00
    0.00000E+00         0.00000E+00        -0.46387E+08
 
   -0.44794E+08         0.19206E+06         0.00000E+00
    0.19206E+06        -0.49999E+08         0.00000E+00
    0.00000E+00         0.00000E+00        -0.46387E+08
 
   -0.44820E+08         0.26799E+06         0.00000E+00
    0.26799E+06        -0.49997E+08         0.00000E+00
    0.00000E+00         0.00000E+00        -0.46387E+08
 
   -0.44846E+08         0.34350E+06         0.00000E+00
    0.34350E+06        -0.49996E+08         0.00000E+00
    0.00000E+00         0.00000E+00        -0.46387E+08
 
   -0.44873E+08         0.41860E+06         0.00000E+00
    0.41860E+06        -0.49994E+08         0.00000E+00
    0.00000E+00         0.00000E+00        -0.46387E+08
 
   -0.44900E+08         0.49329E+06         0.00000E+00
    0.49329E+06        -0.49991E+08         0.00000E+00
    0.00000E+00         0.00000E+00        -0.46387E+08
 
   -0.44927E+08         0.56757E+06         0.00000E+00
    0.56757E+06        -0.49988E+08         0.00000E+00
    0.00000E+00         0.00000E+00        -0.46387E+08
 
   -0.44955E+08         0.64143E+06         0.00000E+00
    0.64143E+06        -0.49985E+08         0.00000E+00
    0.00000E+00         0.00000E+00        -0.46387E+08
 
   -0.44983E+08         0.71489E+06         0.00000E+00
    0.71489E+06        -0.49981E+08         0.00000E+00
    0.00000E+00         0.00000E+00        -0.46387E+08
 
   -0.45011E+08         0.78794E+06         0.00000E+00
    0.78794E+06        -0.49977E+08         0.00000E+00
    0.00000E+00         0.00000E+00        -0.46388E+08
 
   -0.45040E+08         0.86058E+06         0.00000E+00
    0.86058E+06        -0.49972E+08         0.00000E+00
    0.00000E+00         0.00000E+00        -0.46388E+08
 
   -0.45069E+08         0.93282E+06         0.00000E+00
    0.93282E+06        -0.49967E+08         0.00000E+00
    0.00000E+00         0.00000E+00        -0.46388E+08
 
   -0.45098E+08         0.10047E+07         0.00000E+00
    0.10047E+07        -0.49962E+08         0.00000E+00
    0.00000E+00         0.00000E+00        -0.46388E+08
 
   -0.45128E+08         0.10761E+07         0.00000E+00
    0.10761E+07        -0.49956E+08         0.00000E+00
    0.00000E+00         0.00000E+00        -0.46388E+08
 
   -0.45158E+08         0.11471E+07         0.00000E+00
    0.11471E+07        -0.49950E+08         0.00000E+00
    0.00000E+00         0.00000E+00        -0.46388E+08
 
   -0.45189E+08         0.12177E+07         0.00000E+00
    0.12177E+07        -0.49944E+08         0.00000E+00
    0.00000E+00         0.00000E+00        -0.46388E+08
 
   -0.45219E+08         0.12879E+07         0.00000E+00
    0.12879E+07        -0.49937E+08         0.00000E+00
    0.00000E+00         0.00000E+00        -0.46388E+08
 
   -0.45250E+08         0.13578E+07         0.00000E+00
    0.13578E+07        -0.49929E+08         0.00000E+00
    0.00000E+00         0.00000E+00        -0.46388E+08
 
   -0.45282E+08         0.14272E+07         0.00000E+00
    0.14272E+07        -0.49922E+08         0.00000E+00
    0.00000E+00         0.00000E+00        -0.46388E+08
 
   -0.45313E+08         0.14962E+07         0.00000E+00
    0.14962E+07        -0.49914E+08         0.00000E+00
    0.00000E+00         0.00000E+00        -0.46388E+08
 
   -0.45345E+08         0.15648E+07         0.00000E+00
    0.15648E+07        -0.49905E+08         0.00000E+00
    0.00000E+00         0.00000E+00        -0.46389E+08
 
   -0.45377E+08         0.16331E+07         0.00000E+00
    0.16331E+07        -0.49896E+08         0.00000E+00
    0.00000E+00         0.00000E+00        -0.46389E+08
 
   -0.45410E+08         0.17009E+07         0.00000E+00
    0.17009E+07        -0.49887E+08         0.00000E+00
    0.00000E+00         0.00000E+00        -0.46389E+08
 
   -0.45443E+08         0.17683E+07         0.00000E+00
    0.17683E+07        -0.49877E+08         0.00000E+00
    0.00000E+00         0.00000E+00        -0.46389E+08
 
   -0.45476E+08         0.18354E+07         0.00000E+00
    0.18354E+07        -0.49867E+08         0.00000E+00
    0.00000E+00         0.00000E+00        -0.46389E+08
 
   -0.45509E+08         0.19020E+07         0.00000E+00
    0.19020E+07        -0.49857E+08         0.00000E+00
    0.00000E+00         0.00000E+00        -0.46389E+08
 
   -0.45543E+08         0.19683E+07         0.00000E+00
    0.19683E+07        -0.49846E+08         0.00000E+00
    0.00000E+00         0.00000E+00        -0.46389E+08
 
   -0.45577E+08         0.20341E+07         0.00000E+00
    0.20341E+07        -0.49835E+08         0.00000E+00
    0.00000E+00         0.00000E+00        -0.46389E+08
 
   -0.45612E+08         0.20996E+07         0.00000E+00
    0.20996E+07        -0.49823E+08         0.00000E+00
    0.00000E+00         0.00000E+00        -0.46389E+08
 
   -0.45646E+08         0.21646E+07         0.00000E+00
    0.21646E+07        -0.49811E+08         0.00000E+00
    0.00000E+00         0.00000E+00        -0.46389E+08
 
   -0.45681E+08         0.22293E+07         0.00000E+00
    0.22293E+07        -0.49798E+08         0.00000E+00
    0.00000E+00         0.00000E+00        -0.46389E+08
 
   -0.45717E+08         0.22935E+07         0.00000E+00
    0.22935E+07        -0.49785E+08         0.00000E+00
    0.00000E+00         0.00000E+00        -0.46389E+08
 
   -0.45752E+08         0.23574E+07         0.00000E+00
    0.23574E+07        -0.49772E+08         0.00000E+00
    0.00000E+00         0.00000E+00        -0.46389E+08
 
   -0.45788E+08         0.24209E+07         0.00000E+00
    0.24209E+07        -0.49758E+08         0.00000E+00
    0.00000E+00         0.00000E+00        -0.46389E+08
 
   -0.45825E+08         0.24839E+07         0.00000E+00
    0.24839E+07        -0.49744E+08         0.00000E+00
    0.00000E+00         0.00000E+00        -0.46390E+08
 
   -0.45861E+08         0.25466E+07         0.00000E+00
    0.25466E+07        -0.49729E+08         0.00000E+00
    0.00000E+00         0.00000E+00        -0.46390E+08
 
   -0.45898E+08         0.26088E+07         0.00000E+00
    0.26088E+07        -0.49714E+08         0.00000E+00
    0.00000E+00         0.00000E+00        -0.46390E+08
 
   -0.45935E+08         0.26706E+07         0.00000E+00
    0.26706E+07        -0.49699E+08         0.00000E+00
    0.00000E+00         0.00000E+00        -0.46390E+08
 
   -0.45973E+08         0.27321E+07         0.00000E+00
    0.27321E+07        -0.49683E+08         0.00000E+00
    0.00000E+00         0.00000E+00        -0.46390E+08
 
   -0.46011E+08         0.27931E+07         0.00000E+00
    0.27931E+07        -0.49667E+08         0.00000E+00
    0.00000E+00         0.00000E+00        -0.46390E+08
 
   -0.46049E+08         0.28537E+07         0.00000E+00
    0.28537E+07        -0.49650E+08         0.00000E+00
    0.00000E+00         0.00000E+00        -0.46390E+08
 
   -0.46088E+08         0.29138E+07         0.00000E+00
    0.29138E+07        -0.49633E+08         0.00000E+00
    0.00000E+00         0.00000E+00        -0.46390E+08
 
   -0.46127E+08         0.29736E+07         0.00000E+00
    0.29736E+07        -0.49615E+08         0.00000E+00
    0.00000E+00         0.00000E+00        -0.46390E+08
 
   -0.46166E+08         0.30329E+07         0.00000E+00
    0.30329E+07        -0.49597E+08         0.00000E+00
    0.00000E+00         0.00000E+00        -0.46390E+08
 
   -0.46206E+08         0.30918E+07         0.00000E+00
    0.30918E+07        -0.49579E+08         0.00000E+00
    0.00000E+00         0.00000E+00        -0.46390E+08
 
   -0.46246E+08         0.31503E+07         0.00000E+00
    0.31503E+07        -0.49560E+08         0.00000E+00
    0.00000E+00         0.00000E+00        -0.46390E+08
 
   -0.46287E+08         0.32083E+07         0.00000E+00
    0.32083E+07        -0.49540E+08         0.00000E+00
    0.00000E+00         0.00000E+00        -0.46390E+08
 
   -0.46328E+08         0.32659E+07         0.00000E+00
    0.32659E+07        -0.49520E+08         0.00000E+00
    0.00000E+00         0.00000E+00        -0.46390E+08
 
   -0.46369E+08         0.33230E+07         0.00000E+00
    0.33230E+07        -0.49500E+08         0.00000E+00
    0.00000E+00         0.00000E+00        -0.46390E+08
 
   -0.44353E+08         0.40067E+05         0.00000E+00
    0.40067E+05        -0.50000E+08         0.00000E+00
    0.00000E+00         0.00000E+00        -0.46099E+08
 
   -0.44380E+08         0.11900E+06         0.00000E+00
    0.11900E+06        -0.49999E+08         0.00000E+00
    0.00000E+00         0.00000E+00        -0.46099E+08
 
   -0.44408E+08         0.19750E+06         0.00000E+00
    0.19750E+06        -0.49999E+08         0.00000E+00
    0.00000E+00         0.00000E+00        -0.46099E+08
 
   -0.44436E+08         0.27556E+06         0.00000E+00
    0.27556E+06        -0.49997E+08         0.00000E+00
    0.00000E+00         0.00000E+00        -0.46099E+08
 
   -0.44464E+08         0.35319E+06         0.00000E+00
    0.35319E+06        -0.49995E+08         0.00000E+00
    0.00000E+00         0.00000E+00        -0.46099E+08
 
   -0.44493E+08         0.43040E+06         0.00000E+00
    0.43040E+06        -0.49993E+08         0.00000E+00
    0.00000E+00         0.00000E+00        -0.46099E+08
 
   -0.44522E+08         0.50717E+06         0.00000E+00
    0.50717E+06        -0.49991E+08         0.00000E+00
    0.00000E+00         0.00000E+00        -0.46099E+08
 
   -0.44551E+08         0.58353E+06         0.00000E+00
    0.58353E+06        -0.49988E+08         0.00000E+00
    0.00000E+00         0.00000E+00        -0.46099E+08
 
   -0.44581E+08         0.65946E+06         0.00000E+00
    0.65946E+06        -0.49984E+08         0.00000E+00
    0.00000E+00         0.00000E+00        -0.46099E+08
 
   -0.44611E+08         0.73498E+06         0.00000E+00
    0.73498E+06        -0.49980E+08         0.00000E+00
    0.00000E+00         0.00000E+00        -0.46099E+08
 
   -0.44642E+08         0.81007E+06         0.00000E+00
    0.81007E+06        -0.49976E+08         0.00000E+00
    0.00000E+00         0.00000E+00        -0.46099E+08
 
   -0.44673E+08         0.88475E+06         0.00000E+00
    0.88475E+06        -0.49971E+08         0.00000E+00
    0.00000E+00         0.00000E+00        -0.46099E+08
 
   -0.44704E+08         0.95902E+06         0.00000E+00
    0.95902E+06        -0.49966E+08         0.00000E+00
    0.00000E+00         0.00000E+00        -0.46099E+08
 
   -0.44735E+08         0.10329E+07         0.00000E+00
    0.10329E+07        -0.49961E+08         0.00000E+00
    0.00000E+00         0.00000E+00        -0.46099E+08
 
   -0.44767E+08         0.11063E+07         0.00000E+00
    0.11063E+07        -0.49955E+08         0.00000E+00
    0.00000E+00         0.00000E+00        -0.46099E+08
 
   -0.44799E+08         0.11794E+07         0.00000E+00
    0.11794E+07        -0.49948E+08         0.00000E+00
    0.00000E+00         0.00000E+00        -0.46099E+08
 
   -0.44831E+08         0.12520E+07         0.00000E+00
    0.12520E+07        -0.49942E+08         0.00000E+00
    0.00000E+00         0.00000E+00        -0.46100E+08
 
   -0.44864E+08         0.13243E+07         0.00000E+00
    0.13243E+07        -0.49934E+08         0.00000E+00
    0.00000E+00         0.00000E+00        -0.46100E+08
 
   -0.44897E+08         0.13961E+07         0.00000E+00
    0.13961E+07        -0.49927E+08         0.00000E+00
    0.00000E+00         0.00000E+00        -0.46100E+08
 
   -0.44930E+08         0.14675E+07         0.00000E+00
    0.14675E+07        -0.49919E+08         0.00000E+00
    0.00000E+00         0.00000E+00        -0.46100E+08
 
   -0.44964E+08         0.15386E+07         0.00000E+00
    0.15386E+07        -0.49910E+08         0.00000E+00
    0.00000E+00         0.00000E+00        -0.46100E+08
 
   -0.44998E+08         0.16092E+07         0.00000E+00
    0.16092E+07        -0.49901E+08         0.00000E+00
    0.00000E+00         0.00000E+00        -0.46100E+08
 
   -0.45032E+08         0.16795E+07         0.00000E+00
    0.16795E+07        -0.49892E+08         0.00000E+00
    0.00000E+00         0.00000E+00        -0.46100E+08
 
   -0.45067E+08         0.17493E+07         0.00000E+00
    0.17493E+07        -0.49882E+08         0.00000E+00
    0.00000E+00         0.00000E+00        -0.46100E+08
 
   -0.45101E+08         0.18188E+07         0.00000E+00
    0.18188E+07        -0.49872E+08         0.00000E+00
    0.00000E+00         0.00000E+00        -0.46100E+08
 
   -0.45137E+08         0.18879E+07         0.00000E+00
    0.18879E+07        -0.49862E+08         0.00000E+00
    0.00000E+00         0.00000E+00        -0.46100E+08
 
   -0.45172E+08         0.19566E+07         0.00000E+00
    0.19566E+07        -0.49851E+08         0.00000E+00
    0.00000E+00         0.00000E+00        -0.46100E+08
 
   -0.45208E+08         0.20249E+07         0.00000E+00
    0.20249E+07        -0.49840E+08         0.00000E+00
    0.00000E+00         0.00000E+00        -0.46100E+08
 
   -0.45244E+08         0.20928E+07         0.00000E+00
    0.20928E+07        -0.49828E+08         0.00000E+00
    0.00000E+00         0.00000E+00        -0.46100E+08
 
   -0.45280E+08         0.21604E+07         0.00000E+00
    0.21604E+07        -0.49816E+08         0.00000E+00
    0.00000E+00         0.00000E+00        -0.46100E+08
 
   -0.45317E+08         0.22275E+07         0.00000E+00
    0.22275E+07        -0.49803E+08         0.00000E+00
    0.00000E+00         0.00000E+00        -0.46100E+08
 
   -0.45354E+08         0.22943E+07         0.00000E+00
    0.22943E+07        -0.49790E+08         0.00000E+00
    0.00000E+00         0.00000E+00        -0.46100E+08
 
   -0.45391E+08         0.23606E+07         0.00000E+00
    0.23606E+07        -0.49777E+08         0.00000E+00
    0.00000E+00         0.00000E+00        -0.46100E+08
 
   -0.45429E+08         0.24266E+07         0.00000E+00
    0.24266E+07        -0.49763E+08         0.00000E+00
    0.00000E+00         0.00000E+00        -0.46100E+08
 
   -0.45467E+08         0.24922E+07         0.00000E+00
    0.24922E+07        -0.49748E+08         0.00000E+00
    0.00000E+00         0.00000E+00        -0.46100E+08
 
   -0.45505E+08         0.25575E+07         0.00000E+00
    0.25575E+07        -0.49733E+08         0.00000E+00
    0.00000E+00         0.00000E+00        -0.46100E+08
 
   -0.45544E+08         0.26223E+07         0.00000E+00
    0.26223E+07        -0.49718E+08         0.00000E+00
    0.00000E+00         0.00000E+00        -0.46100E+08
 
   -0.45583E+08         0.26867E+07         0.00000E+00
    0.26867E+07        -0.49702E+08         0.00000E+00
    0.00000E+00         0.00000E+00        -0.46100E+08
 
   -0.45622E+08         0.27508E+07         0.00000E+00
    0.27508E+07        -0.49686E+08         0.00000E+00
    0.00000E+00         0.00000E+00        -0.46100E+08
 
   -0.45661E+08         0.28144E+07         0.00000E+00
    0.28144E+07        -0.49670E+08         0.00000E+00
    0.00000E+00         0.00000E+00        -0.46100E+08
 
   -0.45701E+08         0.28777E+07         0.00000E+00
    0.28777E+07        -0.49653E+08         0.00000E+00
    0.00000E+00         0.00000E+00        -0.46100E+08
 
   -0.45742E+08         0.29405E+07         0.00000E+00
    0.29405E+07        -0.49635E+08         0.00000E+00
    0.00000E+00         0.00000E+00        -0.46100E+08
 
   -0.45783E+08         0.30030E+07         0.00000E+00
    0.30030E+07        -0.49617E+08         0.00000E+00
    0.00000E+00         0.00000E+00        -0.46100E+08
 
   -0.45824E+08         0.30651E+07         0.00000E+00
    0.30651E+07        -0.49599E+08         0.00000E+00
    0.00000E+00         0.00000E+00        -0.46100E+08
 
   -0.45865E+08         0.31267E+07         0.00000E+00
    0.31267E+07        -0.49580E+08         0.00000E+00
    0.00000E+00         0.00000E+00        -0.46100E+08
 
   -0.45907E+08         0.31879E+07         0.00000E+00
    0.31879E+07        -0.49560E+08         0.00000E+00
    0.00000E+00         0.00000E+00        -0.46100E+08
 
   -0.45949E+08         0.32488E+07         0.00000E+00
    0.32488E+07        -0.49540E+08         0.00000E+00
    0.00000E+00         0.00000E+00        -0.46100E+08
 
   -0.45992E+08         0.33092E+07         0.00000E+00
    0.33092E+07        -0.49520E+08         0.00000E+00
    0.00000E+00         0.00000E+00        -0.46100E+08
 
   -0.46035E+08         0.33692E+07         0.00000E+00
    0.33692E+07        -0.49499E+08         0.00000E+00
    0.00000E+00         0.00000E+00        -0.46100E+08
 
   -0.46078E+08         0.34287E+07         0.00000E+00
    0.34287E+07        -0.49477E+08         0.00000E+00
    0.00000E+00         0.00000E+00        -0.46100E+08
 
   -0.43952E+08         0.41221E+05         0.00000E+00
    0.41221E+05        -0.50000E+08         0.00000E+00
    0.00000E+00         0.00000E+00        -0.45798E+08
 
   -0.43981E+08         0.12240E+06         0.00000E+00
    0.12240E+06        -0.49999E+08         0.00000E+00
    0.00000E+00         0.00000E+00        -0.45798E+08
 
   -0.44011E+08         0.20313E+06         0.00000E+00
    0.20313E+06        -0.49999E+08         0.00000E+00
    0.00000E+00         0.00000E+00        -0.45798E+08
 
   -0.44041E+08         0.28340E+06         0.00000E+00
    0.28340E+06        -0.49997E+08         0.00000E+00
    0.00000E+00         0.00000E+00        -0.45798E+08
 
   -0.44072E+08         0.36323E+06         0.00000E+00
    0.36323E+06        -0.49995E+08         0.00000E+00
    0.00000E+00         0.00000E+00        -0.45798E+08
 
   -0.44103E+08         0.44261E+06         0.00000E+00
    0.44261E+06        -0.49993E+08         0.00000E+00
    0.00000E+00         0.00000E+00        -0.45798E+08
 
   -0.44134E+08         0.52155E+06         0.00000E+00
    0.52155E+06        -0.49990E+08         0.00000E+00
    0.00000E+00         0.00000E+00        -0.45798E+08
 
   -0.44165E+08         0.60005E+06         0.00000E+00
    0.60005E+06        -0.49987E+08         0.00000E+00
    0.00000E+00         0.00000E+00        -0.45798E+08
 
   -0.44197E+08         0.67813E+06         0.00000E+00
    0.67813E+06        -0.49984E+08         0.00000E+00
    0.00000E+00         0.00000E+00        -0.45798E+08
 
   -0.44230E+08         0.75577E+06         0.00000E+00
    0.75577E+06        -0.49980E+08         0.00000E+00
    0.00000E+00         0.00000E+00        -0.45798E+08
 
   -0.44262E+08         0.83299E+06         0.00000E+00
    0.83299E+06        -0.49975E+08         0.00000E+00
    0.00000E+00         0.00000E+00        -0.45798E+08
 
   -0.44295E+08         0.90978E+06         0.00000E+00
    0.90978E+06        -0.49970E+08         0.00000E+00
    0.00000E+00         0.00000E+00        -0.45798E+08
 
   -0.44328E+08         0.98615E+06         0.00000E+00
    0.98615E+06        -0.49965E+08         0.00000E+00
    0.00000E+00         0.00000E+00        -0.45798E+08
 
   -0.44362E+08         0.10621E+07         0.00000E+00
    0.10621E+07        -0.49959E+08         0.00000E+00
    0.00000E+00         0.00000E+00        -0.45798E+08
 
   -0.44395E+08         0.11377E+07         0.00000E+00
    0.11377E+07        -0.49953E+08         0.00000E+00
    0.00000E+00         0.00000E+00        -0.45798E+08
 
   -0.44430E+08         0.12128E+07         0.00000E+00
    0.12128E+07        -0.49947E+08         0.00000E+00
    0.00000E+00         0.00000E+00        -0.45798E+08
 
   -0.44464E+08         0.12875E+07         0.00000E+00
    0.12875E+07        -0.49940E+08         0.00000E+00
    0.00000E+00         0.00000E+00        -0.45798E+08
 
   -0.44499E+08         0.13619E+07         0.00000E+00
    0.13619E+07        -0.49932E+08         0.00000E+00
    0.00000E+00         0.00000E+00        -0.45798E+08
 
   -0.44534E+08         0.14358E+07         0.00000E+00
    0.14358E+07        -0.49924E+08         0.00000E+00
    0.00000E+00         0.00000E+00        -0.45798E+08
 
   -0.44569E+08         0.15093E+07         0.00000E+00
    0.15093E+07        -0.49916E+08         0.00000E+00
    0.00000E+00         0.00000E+00        -0.45798E+08
 
   -0.44604E+08         0.15825E+07         0.00000E+00
    0.15825E+07        -0.49907E+08         0.00000E+00
    0.00000E+00         0.00000E+00        -0.45798E+08
 
   -0.44640E+08         0.16552E+07         0.00000E+00
    0.16552E+07        -0.49898E+08         0.00000E+00
    0.00000E+00         0.00000E+00        -0.45798E+08
 
   -0.44677E+08         0.17276E+07         0.00000E+00
    0.17276E+07        -0.49889E+08         0.00000E+00
    0.00000E+00         0.00000E+00        -0.45798E+08
 
   -0.44713E+08         0.17996E+07         0.00000E+00
    0.17996E+07        -0.49879E+08         0.00000E+00
    0.00000E+00         0.00000E+00        -0.45799E+08
 
   -0.44750E+08         0.18712E+07         0.00000E+00
    0.18712E+07        -0.49868E+08         0.00000E+00
    0.00000E+00         0.00000E+00        -0.45799E+08
 
   -0.44787E+08         0.19424E+07         0.00000E+00
    0.19424E+07        -0.49857E+08         0.00000E+00
    0.00000E+00         0.00000E+00        -0.45799E+08
 
   -0.44824E+08         0.20133E+07         0.00000E+00
    0.20133E+07        -0.49846E+08         0.00000E+00
    0.00000E+00         0.00000E+00        -0.45798E+08
 
   -0.44862E+08         0.20837E+07         0.00000E+00
    0.20837E+07        -0.49834E+08         0.00000E+00
    0.00000E+00         0.00000E+00        -0.45798E+08
 
   -0.44900E+08         0.21538E+07         0.00000E+00
    0.21538E+07        -0.49822E+08         0.00000E+00
    0.00000E+00         0.00000E+00        -0.45798E+08
 
   -0.44938E+08         0.22236E+07         0.00000E+00
    0.22236E+07        -0.49809E+08         0.00000E+00
    0.00000E+00         0.00000E+00        -0.45798E+08
 
   -0.44977E+08         0.22929E+07         0.00000E+00
    0.22929E+07        -0.49796E+08         0.00000E+00
    0.00000E+00         0.00000E+00        -0.45798E+08
 
   -0.45015E+08         0.23619E+07         0.00000E+00
    0.23619E+07        -0.49783E+08         0.00000E+00
    0.00000E+00         0.00000E+00        -0.45798E+08
 
   -0.45055E+08         0.24305E+07         0.00000E+00
    0.24305E+07        -0.49769E+08         0.00000E+00
    0.00000E+00         0.00000E+00        -0.45798E+08
 
   -0.45094E+08         0.24987E+07         0.00000E+00
    0.24987E+07        -0.49754E+08         0.00000E+00
    0.00000E+00         0.00000E+00        -0.45798E+08
 
   -0.45134E+08         0.25666E+07         0.00000E+00
    0.25666E+07        -0.49739E+08         0.00000E+00
    0.00000E+00         0.00000E+00        -0.45798E+08
 
   -0.45174E+08         0.26341E+07         0.00000E+00
    0.26341E+07        -0.49724E+08         0.00000E+00
    0.00000E+00         0.00000E+00        -0.45798E+08
 
   -0.45215E+08         0.27013E+07         0.00000E+00
    0.27013E+07        -0.49708E+08         0.00000E+00
    0.00000E+00         0.00000E+00        -0.45798E+08
 
   -0.45255E+08         0.27680E+07         0.00000E+00
    0.27680E+07        -0.49692E+08         0.00000E+00
    0.00000E+00         0.00000E+00        -0.45798E+08
 
   -0.45297E+08         0.28344E+07         0.00000E+00
    0.28344E+07        -0.49675E+08         0.00000E+00
    0.00000E+00         0.00000E+00        -0.45798E+08
 
   -0.45338E+08         0.29004E+07         0.00000E+00
    0.29004E+07        -0.49658E+08         0.00000E+00
    0.00000E+00         0.00000E+00        -0.45798E+08
 
   -0.45380E+08         0.29661E+07         0.00000E+00
    0.29661E+07        -0.49640E+08         0.00000E+00
    0.00000E+00         0.00000E+00        -0.45798E+08
 
   -0.45422E+08         0.30314E+07         0.00000E+00
    0.30314E+07        -0.49622E+08         0.00000E+00
    0.00000E+00         0.00000E+00        -0.45798E+08
 
   -0.45465E+08         0.30963E+07         0.00000E+00
    0.30963E+07        -0.49603E+08         0.00000E+00
    0.00000E+00         0.00000E+00        -0.45798E+08
 
   -0.45508E+08         0.31608E+07         0.00000E+00
    0.31608E+07        -0.49584E+08         0.00000E+00
    0.00000E+00         0.00000E+00        -0.45798E+08
 
   -0.45552E+08         0.32249E+07         0.00000E+00
    0.32249E+07        -0.49564E+08         0.00000E+00
    0.00000E+00         0.00000E+00        -0.45798E+08
 
   -0.45595E+08         0.32887E+07         0.00000E+00
    0.32887E+07        -0.49543E+08         0.00000E+00
    0.00000E+00         0.00000E+00        -0.45798E+08
 
   -0.45640E+08         0.33520E+07         0.00000E+00
    0.33520E+07        -0.49523E+08         0.00000E+00
    0.00000E+00         0.00000E+00        -0.45798E+08
 
   -0.45684E+08         0.34150E+07         0.00000E+00
    0.34150E+07        -0.49501E+08         0.00000E+00
    0.00000E+00         0.00000E+00        -0.45798E+08
 
   -0.45730E+08         0.34776E+07         0.00000E+00
    0.34776E+07        -0.49479E+08         0.00000E+00
    0.00000E+00         0.00000E+00        -0.45798E+08
 
   -0.45775E+08         0.35398E+07         0.00000E+00
    0.35398E+07        -0.49457E+08         0.00000E+00
    0.00000E+00         0.00000E+00        -0.45798E+08
 
   -0.43539E+08         0.42408E+05         0.00000E+00
    0.42408E+05        -0.50000E+08         0.00000E+00
    0.00000E+00         0.00000E+00        -0.45484E+08
 
   -0.43571E+08         0.12590E+06         0.00000E+00
    0.12590E+06        -0.49999E+08         0.00000E+00
    0.00000E+00         0.00000E+00        -0.45484E+08
 
   -0.43603E+08         0.20892E+06         0.00000E+00
    0.20892E+06        -0.49998E+08         0.00000E+00
    0.00000E+00         0.00000E+00        -0.45484E+08
 
   -0.43635E+08         0.29147E+06         0.00000E+00
    0.29147E+06        -0.49997E+08         0.00000E+00
    0.00000E+00         0.00000E+00        -0.45484E+08
 
   -0.43668E+08         0.37355E+06         0.00000E+00
    0.37355E+06        -0.49995E+08         0.00000E+00
    0.00000E+00         0.00000E+00        -0.45484E+08
 
   -0.43701E+08         0.45517E+06         0.00000E+00
    0.45517E+06        -0.49993E+08         0.00000E+00
    0.00000E+00         0.00000E+00        -0.45484E+08
 
   -0.43735E+08         0.53634E+06         0.00000E+00
    0.53634E+06        -0.49990E+08         0.00000E+00
    0.00000E+00         0.00000E+00        -0.45484E+08
 
   -0.43768E+08         0.61705E+06         0.00000E+00
    0.61705E+06        -0.49987E+08         0.00000E+00
    0.00000E+00         0.00000E+00        -0.45484E+08
 
   -0.43802E+08         0.69733E+06         0.00000E+00
    0.69733E+06        -0.49983E+08         0.00000E+00
    0.00000E+00         0.00000E+00        -0.45484E+08
 
   -0.43837E+08         0.77716E+06         0.00000E+00
    0.77716E+06        -0.49979E+08         0.00000E+00
    0.00000E+00         0.00000E+00        -0.45484E+08
 
   -0.43872E+08         0.85656E+06         0.00000E+00
    0.85656E+06        -0.49975E+08         0.00000E+00
    0.00000E+00         0.00000E+00        -0.45484E+08
 
   -0.43907E+08         0.93553E+06         0.00000E+00
    0.93553E+06        -0.49970E+08         0.00000E+00
    0.00000E+00         0.00000E+00        -0.45484E+08
 
   -0.43942E+08         0.10141E+07         0.00000E+00
    0.10141E+07        -0.49964E+08         0.00000E+00
    0.00000E+00         0.00000E+00        -0.45484E+08
 
   -0.43977E+08         0.10922E+07         0.00000E+00
    0.10922E+07        -0.49958E+08         0.00000E+00
    0.00000E+00         0.00000E+00        -0.45484E+08
 
   -0.44013E+08         0.11699E+07         0.00000E+00
    0.11699E+07        -0.49952E+08         0.00000E+00
    0.00000E+00         0.00000E+00        -0.45484E+08
 
   -0.44049E+08         0.12472E+07         0.00000E+00
    0.12472E+07        -0.49945E+08         0.00000E+00
    0.00000E+00         0.00000E+00        -0.45484E+08
 
   -0.44086E+08         0.13241E+07         0.00000E+00
    0.13241E+07        -0.49938E+08         0.00000E+00
    0.00000E+00         0.00000E+00        -0.45484E+08
 
   -0.44123E+08         0.14006E+07         0.00000E+00
    0.14006E+07        -0.49930E+08         0.00000E+00
    0.00000E+00         0.00000E+00        -0.45484E+08
 
   -0.44160E+08         0.14767E+07         0.00000E+00
    0.14767E+07        -0.49922E+08         0.00000E+00
    0.00000E+00         0.00000E+00        -0.45484E+08
 
   -0.44197E+08         0.15524E+07         0.00000E+00
    0.15524E+07        -0.49914E+08         0.00000E+00
    0.00000E+00         0.00000E+00        -0.45484E+08
 
   -0.44234E+08         0.16277E+07         0.00000E+00
    0.16277E+07        -0.49905E+08         0.00000E+00
    0.00000E+00         0.00000E+00        -0.45484E+08
 
   -0.44272E+08         0.17027E+07         0.00000E+00
    0.17027E+07        -0.49896E+08         0.00000E+00
    0.00000E+00         0.00000E+00        -0.45484E+08
 
   -0.44310E+08         0.17772E+07         0.00000E+00
    0.17772E+07        -0.49886E+08         0.00000E+00
    0.00000E+00         0.00000E+00        -0.45484E+08
 
   -0.44348E+08         0.18514E+07         0.00000E+00
    0.18514E+07        -0.49875E+08         0.00000E+00
    0.00000E+00         0.00000E+00        -0.45484E+08
 
   -0.44387E+08         0.19252E+07         0.00000E+00
    0.19252E+07        -0.49865E+08         0.00000E+00
    0.00000E+00         0.00000E+00        -0.45483E+08
 
   -0.44426E+08         0.19987E+07         0.00000E+00
    0.19987E+07        -0.49854E+08         0.00000E+00
    0.00000E+00         0.00000E+00        -0.45483E+08
 
   -0.44465E+08         0.20718E+07         0.00000E+00
    0.20718E+07        -0.49842E+08         0.00000E+00
    0.00000E+00         0.00000E+00        -0.45483E+08
 
   -0.44505E+08         0.21445E+07         0.00000E+00
    0.21445E+07        -0.49830E+08         0.00000E+00
    0.00000E+00         0.00000E+00        -0.45483E+08
 
   -0.44544E+08         0.22169E+07         0.00000E+00
    0.22169E+07        -0.49817E+08         0.00000E+00
    0.00000E+00         0.00000E+00        -0.45483E+08
 
   -0.44585E+08         0.22889E+07         0.00000E+00
    0.22889E+07        -0.49804E+08         0.00000E+00
    0.00000E+00         0.00000E+00        -0.45483E+08
 
   -0.44625E+08         0.23605E+07         0.00000E+00
    0.23605E+07        -0.49791E+08         0.00000E+00
    0.00000E+00         0.00000E+00        -0.45483E+08
 
   -0.44666E+08         0.24318E+07         0.00000E+00
    0.24318E+07        -0.49777E+08         0.00000E+00
    0.00000E+00         0.00000E+00        -0.45483E+08
 
   -0.44707E+08         0.25028E+07         0.00000E+00
    0.25028E+07        -0.49762E+08         0.00000E+00
    0.00000E+00         0.00000E+00        -0.45483E+08
 
   -0.44748E+08         0.25734E+07         0.00000E+00
    0.25734E+07        -0.49747E+08         0.00000E+00
    0.00000E+00         0.00000E+00        -0.45483E+08
 
   -0.44789E+08         0.26436E+07         0.00000E+00
    0.26436E+07        -0.49732E+08         0.00000E+00
    0.00000E+00         0.00000E+00        -0.45483E+08
 
   -0.44831E+08         0.27136E+07         0.00000E+00
    0.27136E+07        -0.49716E+08         0.00000E+00
    0.00000E+00         0.00000E+00        -0.45483E+08
 
   -0.44874E+08         0.27831E+07         0.00000E+00
    0.27831E+07        -0.49700E+08         0.00000E+00
    0.00000E+00         0.00000E+00        -0.45483E+08
 
   -0.44916E+08         0.28523E+07         0.00000E+00
    0.28523E+07        -0.49683E+08         0.00000E+00
    0.00000E+00         0.00000E+00        -0.45483E+08
 
   -0.44959E+08         0.29212E+07         0.00000E+00
    0.29212E+07        -0.49666E+08         0.00000E+00
    0.00000E+00         0.00000E+00        -0.45483E+08
 
   -0.45003E+08         0.29898E+07         0.00000E+00
    0.29898E+07        -0.49648E+08         0.00000E+00
    0.00000E+00         0.00000E+00        -0.45482E+08
 
   -0.45046E+08         0.30580E+07         0.00000E+00
    0.30580E+07        -0.49629E+08         0.00000E+00
    0.00000E+00         0.00000E+00        -0.45482E+08
 
   -0.45091E+08         0.31258E+07         0.00000E+00
    0.31258E+07        -0.49610E+08         0.00000E+00
    0.00000E+00         0.00000E+00        -0.45482E+08
 
   -0.45135E+08         0.31933E+07         0.00000E+00
    0.31933E+07        -0.49591E+08         0.00000E+00
    0.00000E+00         0.00000E+00        -0.45482E+08
 
   -0.45180E+08         0.32604E+07         0.00000E+00
    0.32604E+07        -0.49571E+08         0.00000E+00
    0.00000E+00         0.00000E+00        -0.45482E+08
 
   -0.45225E+08         0.33272E+07         0.00000E+00
    0.33272E+07        -0.49550E+08         0.00000E+00
    0.00000E+00         0.00000E+00        -0.45482E+08
 
   -0.45271E+08         0.33937E+07         0.00000E+00
    0.33937E+07        -0.49529E+08         0.00000E+00
    0.00000E+00         0.00000E+00        -0.45482E+08
 
   -0.45317E+08         0.34597E+07         0.00000E+00
    0.34597E+07        -0.49507E+08         0.00000E+00
    0.00000E+00         0.00000E+00        -0.45482E+08
 
   -0.45364E+08         0.35255E+07         0.00000E+00
    0.35255E+07        -0.49485E+08         0.00000E+00
    0.00000E+00         0.00000E+00        -0.45482E+08
 
   -0.45411E+08         0.35908E+07         0.00000E+00
    0.35908E+07        -0.49462E+08         0.00000E+00
    0.00000E+00         0.00000E+00        -0.45482E+08
 
   -0.45458E+08         0.36558E+07         0.00000E+00
    0.36558E+07        -0.49439E+08         0.00000E+00
    0.00000E+00         0.00000E+00        -0.45482E+08
 
   -0.43114E+08         0.43623E+05         0.00000E+00
    0.43623E+05        -0.50000E+08         0.00000E+00
    0.00000E+00         0.00000E+00        -0.45155E+08
 
   -0.43148E+08         0.12948E+06         0.00000E+00
    0.12948E+06        -0.49999E+08         0.00000E+00
    0.00000E+00         0.00000E+00        -0.45155E+08
 
   -0.43183E+08         0.21484E+06         0.00000E+00
    0.21484E+06        -0.49998E+08         0.00000E+00
    0.00000E+00         0.00000E+00        -0.45155E+08
 
   -0.43218E+08         0.29971E+06         0.00000E+00
    0.29971E+06        -0.49997E+08         0.00000E+00
    0.00000E+00         0.00000E+00        -0.45155E+08
 
   -0.43253E+08         0.38410E+06         0.00000E+00
    0.38410E+06        -0.49995E+08         0.00000E+00
    0.00000E+00         0.00000E+00        -0.45155E+08
 
   -0.43288E+08         0.46801E+06         0.00000E+00
    0.46801E+06        -0.49993E+08         0.00000E+00
    0.00000E+00         0.00000E+00        -0.45155E+08
 
   -0.43324E+08         0.55145E+06         0.00000E+00
    0.55145E+06        -0.49990E+08         0.00000E+00
    0.00000E+00         0.00000E+00        -0.45155E+08
 
   -0.43360E+08         0.63443E+06         0.00000E+00
    0.63443E+06        -0.49987E+08         0.00000E+00
    0.00000E+00         0.00000E+00        -0.45155E+08
 
   -0.43397E+08         0.71695E+06         0.00000E+00
    0.71695E+06        -0.49983E+08         0.00000E+00
    0.00000E+00         0.00000E+00        -0.45155E+08
 
   -0.43433E+08         0.79902E+06         0.00000E+00
    0.79902E+06        -0.49979E+08         0.00000E+00
    0.00000E+00         0.00000E+00        -0.45155E+08
 
   -0.43470E+08         0.88065E+06         0.00000E+00
    0.88065E+06        -0.49974E+08         0.00000E+00
    0.00000E+00         0.00000E+00        -0.45155E+08
 
   -0.43507E+08         0.96184E+06         0.00000E+00
    0.96184E+06        -0.49969E+08         0.00000E+00
    0.00000E+00         0.00000E+00        -0.45155E+08
 
   -0.43545E+08         0.10426E+07         0.00000E+00
    0.10426E+07        -0.49964E+08         0.00000E+00
    0.00000E+00         0.00000E+00        -0.45155E+08
 
   -0.43582E+08         0.11229E+07         0.00000E+00
    0.11229E+07        -0.49958E+08         0.00000E+00
    0.00000E+00         0.00000E+00        -0.45155E+08
 
   -0.43620E+08         0.12029E+07         0.00000E+00
    0.12029E+07        -0.49951E+08         0.00000E+00
    0.00000E+00         0.00000E+00        -0.45155E+08
 
   -0.43658E+08         0.12824E+07         0.00000E+00
    0.12824E+07        -0.49944E+08         0.00000E+00
    0.00000E+00         0.00000E+00        -0.45155E+08
 
   -0.43697E+08         0.13615E+07         0.00000E+00
    0.13615E+07        -0.49937E+08         0.00000E+00
    0.00000E+00         0.00000E+00        -0.45155E+08
 
   -0.43735E+08         0.14402E+07         0.00000E+00
    0.14402E+07        -0.49929E+08         0.00000E+00
    0.00000E+00         0.00000E+00        -0.45155E+08
 
   -0.43774E+08         0.15185E+07         0.00000E+00
    0.15185E+07        -0.49921E+08         0.00000E+00
    0.00000E+00         0.00000E+00        -0.45154E+08
 
   -0.43814E+08         0.15965E+07         0.00000E+00
    0.15965E+07        -0.49912E+08         0.00000E+00
    0.00000E+00         0.00000E+00        -0.45154E+08
 
   -0.43853E+08         0.16740E+07         0.00000E+00
    0.16740E+07        -0.49903E+08         0.00000E+00
    0.00000E+00         0.00000E+00        -0.45154E+08
 
   -0.43893E+08         0.17512E+07         0.00000E+00
    0.17512E+07        -0.49894E+08         0.00000E+00
    0.00000E+00         0.00000E+00        -0.45154E+08
 
   -0.43933E+08         0.18280E+07         0.00000E+00
    0.18280E+07        -0.49884E+08         0.00000E+00
    0.00000E+00         0.00000E+00        -0.45154E+08
 
   -0.43973E+08         0.19045E+07         0.00000E+00
    0.19045E+07        -0.49873E+08         0.00000E+00
    0.00000E+00         0.00000E+00        -0.45154E+08
 
   -0.44013E+08         0.19806E+07         0.00000E+00
    0.19806E+07        -0.49862E+08         0.00000E+00
    0.00000E+00         0.00000E+00        -0.45154E+08
 
   -0.44054E+08         0.20563E+07         0.00000E+00
    0.20563E+07        -0.49851E+08         0.00000E+00
    0.00000E+00         0.00000E+00        -0.45154E+08
 
   -0.44095E+08         0.21317E+07         0.00000E+00
    0.21317E+07        -0.49839E+08         0.00000E+00
    0.00000E+00         0.00000E+00        -0.45154E+08
 
   -0.44136E+08         0.22068E+07         0.00000E+00
    0.22068E+07        -0.49826E+08         0.00000E+00
    0.00000E+00         0.00000E+00        -0.45153E+08
 
   -0.44178E+08         0.22815E+07         0.00000E+00
    0.22815E+07        -0.49814E+08         0.00000E+00
    0.00000E+00         0.00000E+00        -0.45153E+08
 
   -0.44219E+08         0.23559E+07         0.00000E+00
    0.23559E+07        -0.49800E+08         0.00000E+00
    0.00000E+00         0.00000E+00        -0.45153E+08
 
   -0.44261E+08         0.24300E+07         0.00000E+00
    0.24300E+07        -0.49787E+08         0.00000E+00
    0.00000E+00         0.00000E+00        -0.45153E+08
 
   -0.44304E+08         0.25037E+07         0.00000E+00
    0.25037E+07        -0.49772E+08         0.00000E+00
    0.00000E+00         0.00000E+00        -0.45153E+08
 
   -0.44346E+08         0.25771E+07         0.00000E+00
    0.25771E+07        -0.49757E+08         0.00000E+00
    0.00000E+00         0.00000E+00        -0.45153E+08
 
   -0.44389E+08         0.26501E+07         0.00000E+00
    0.26501E+07        -0.49742E+08         0.00000E+00
    0.00000E+00         0.00000E+00        -0.45153E+08
 
   -0.44433E+08         0.27229E+07         0.00000E+00
    0.27229E+07        -0.49726E+08         0.00000E+00
    0.00000E+00         0.00000E+00        -0.45153E+08
 
   -0.44476E+08         0.27953E+07         0.00000E+00
    0.27953E+07        -0.49710E+08         0.00000E+00
    0.00000E+00         0.00000E+00        -0.45152E+08
 
   -0.44520E+08         0.28675E+07         0.00000E+00
    0.28675E+07        -0.49693E+08         0.00000E+00
    0.00000E+00         0.00000E+00        -0.45152E+08
 
   -0.44565E+08         0.29393E+07         0.00000E+00
    0.29393E+07        -0.49676E+08         0.00000E+00
    0.00000E+00         0.00000E+00        -0.45152E+08
 
   -0.44609E+08         0.30108E+07         0.00000E+00
    0.30108E+07        -0.49658E+08         0.00000E+00
    0.00000E+00         0.00000E+00        -0.45152E+08
 
   -0.44654E+08         0.30820E+07         0.00000E+00
    0.30820E+07        -0.49640E+08         0.00000E+00
    0.00000E+00         0.00000E+00        -0.45152E+08
 
   -0.44700E+08         0.31528E+07         0.00000E+00
    0.31528E+07        -0.49621E+08         0.00000E+00
    0.00000E+00         0.00000E+00        -0.45152E+08
 
   -0.44745E+08         0.32234E+07         0.00000E+00
    0.32234E+07        -0.49601E+08         0.00000E+00
    0.00000E+00         0.00000E+00        -0.45152E+08
 
   -0.44792E+08         0.32936E+07         0.00000E+00
    0.32936E+07        -0.49581E+08         0.00000E+00
    0.00000E+00         0.00000E+00        -0.45152E+08
 
   -0.44838E+08         0.33636E+07         0.00000E+00
    0.33636E+07        -0.49560E+08         0.00000E+00
    0.00000E+00         0.00000E+00        -0.45152E+08
 
   -0.44885E+08         0.34332E+07         0.00000E+00
    0.34332E+07        -0.49539E+08         0.00000E+00
    0.00000E+00         0.00000E+00        -0.45152E+08
 
   -0.44932E+08         0.35025E+07         0.00000E+00
    0.35025E+07        -0.49517E+08         0.00000E+00
    0.00000E+00         0.00000E+00        -0.45152E+08
 
   -0.44980E+08         0.35715E+07         0.00000E+00
    0.35715E+07        -0.49495E+08         0.00000E+00
    0.00000E+00         0.00000E+00        -0.45151E+08
 
   -0.45029E+08         0.36401E+07         0.00000E+00
    0.36401E+07        -0.49472E+08         0.00000E+00
    0.00000E+00         0.00000E+00        -0.45151E+08
 
   -0.45077E+08         0.37084E+07         0.00000E+00
    0.37084E+07        -0.49448E+08         0.00000E+00
    0.00000E+00         0.00000E+00        -0.45151E+08
 
   -0.45127E+08         0.37764E+07         0.00000E+00
    0.37764E+07        -0.49424E+08         0.00000E+00
    0.00000E+00         0.00000E+00        -0.45151E+08
 
   -0.42678E+08         0.44858E+05         0.00000E+00
    0.44858E+05        -0.50000E+08         0.00000E+00
    0.00000E+00         0.00000E+00        -0.44811E+08
 
   -0.42714E+08         0.13312E+06         0.00000E+00
    0.13312E+06        -0.49999E+08         0.00000E+00
    0.00000E+00         0.00000E+00        -0.44811E+08
 
   -0.42751E+08         0.22085E+06         0.00000E+00
    0.22085E+06        -0.49998E+08         0.00000E+00
    0.00000E+00         0.00000E+00        -0.44811E+08
 
   -0.42789E+08         0.30808E+06         0.00000E+00
    0.30808E+06        -0.49997E+08         0.00000E+00
    0.00000E+00         0.00000E+00        -0.44811E+08
 
   -0.42826E+08         0.39481E+06         0.00000E+00
    0.39481E+06        -0.49995E+08         0.00000E+00
    0.00000E+00         0.00000E+00        -0.44811E+08
 
   -0.42864E+08         0.48104E+06         0.00000E+00
    0.48104E+06        -0.49993E+08         0.00000E+00
    0.00000E+00         0.00000E+00        -0.44811E+08
 
   -0.42902E+08         0.56678E+06         0.00000E+00
    0.56678E+06        -0.49990E+08         0.00000E+00
    0.00000E+00         0.00000E+00        -0.44811E+08
 
   -0.42941E+08         0.65205E+06         0.00000E+00
    0.65205E+06        -0.49987E+08         0.00000E+00
    0.00000E+00         0.00000E+00        -0.44811E+08
 
   -0.42979E+08         0.73686E+06         0.00000E+00
    0.73686E+06        -0.49983E+08         0.00000E+00
    0.00000E+00         0.00000E+00        -0.44811E+08
 
   -0.43018E+08         0.82120E+06         0.00000E+00
    0.82120E+06        -0.49979E+08         0.00000E+00
    0.00000E+00         0.00000E+00        -0.44811E+08
 
   -0.43057E+08         0.90509E+06         0.00000E+00
    0.90509E+06        -0.49974E+08         0.00000E+00
    0.00000E+00         0.00000E+00        -0.44811E+08
 
   -0.43097E+08         0.98854E+06         0.00000E+00
    0.98854E+06        -0.49969E+08         0.00000E+00
    0.00000E+00         0.00000E+00        -0.44810E+08
 
   -0.43136E+08         0.10716E+07         0.00000E+00
    0.10716E+07        -0.49963E+08         0.00000E+00
    0.00000E+00         0.00000E+00        -0.44810E+08
 
   -0.43176E+08         0.11541E+07         0.00000E+00
    0.11541E+07        -0.49957E+08         0.00000E+00
    0.00000E+00         0.00000E+00        -0.44810E+08
 
   -0.43216E+08         0.12363E+07         0.00000E+00
    0.12363E+07        -0.49951E+08         0.00000E+00
    0.00000E+00         0.00000E+00        -0.44810E+08
 
   -0.43256E+08         0.13181E+07         0.00000E+00
    0.13181E+07        -0.49944E+08         0.00000E+00
    0.00000E+00         0.00000E+00        -0.44810E+08
 
   -0.43297E+08         0.13995E+07         0.00000E+00
    0.13995E+07        -0.49936E+08         0.00000E+00
    0.00000E+00         0.00000E+00        -0.44810E+08
 
   -0.43337E+08         0.14804E+07         0.00000E+00
    0.14804E+07        -0.49928E+08         0.00000E+00
    0.00000E+00         0.00000E+00        -0.44810E+08
 
   -0.43378E+08         0.15610E+07         0.00000E+00
    0.15610E+07        -0.49920E+08         0.00000E+00
    0.00000E+00         0.00000E+00        -0.44810E+08
 
   -0.43419E+08         0.16412E+07         0.00000E+00
    0.16412E+07        -0.49911E+08         0.00000E+00
    0.00000E+00         0.00000E+00        -0.44809E+08
 
   -0.43460E+08         0.17211E+07         0.00000E+00
    0.17211E+07        -0.49902E+08         0.00000E+00
    0.00000E+00         0.00000E+00        -0.44809E+08
 
   -0.43502E+08         0.18006E+07         0.00000E+00
    0.18006E+07        -0.49892E+08         0.00000E+00
    0.00000E+00         0.00000E+00        -0.44809E+08
 
   -0.43544E+08         0.18797E+07         0.00000E+00
    0.18797E+07        -0.49882E+08         0.00000E+00
    0.00000E+00         0.00000E+00        -0.44809E+08
 
   -0.43586E+08         0.19585E+07         0.00000E+00
    0.19585E+07        -0.49872E+08         0.00000E+00
    0.00000E+00         0.00000E+00        -0.44809E+08
 
   -0.43628E+08         0.20369E+07         0.00000E+00
    0.20369E+07        -0.49860E+08         0.00000E+00
    0.00000E+00         0.00000E+00        -0.44809E+08
 
   -0.43670E+08         0.21150E+07         0.00000E+00
    0.21150E+07        -0.49849E+08         0.00000E+00
    0.00000E+00         0.00000E+00        -0.44808E+08
 
   -0.43713E+08         0.21928E+07         0.00000E+00
    0.21928E+07        -0.49837E+08         0.00000E+00
    0.00000E+00         0.00000E+00        -0.44808E+08
 
   -0.43756E+08         0.22703E+07         0.00000E+00
    0.22703E+07        -0.49824E+08         0.00000E+00
    0.00000E+00         0.00000E+00        -0.44808E+08
 
   -0.43799E+08         0.23474E+07         0.00000E+00
    0.23474E+07        -0.49811E+08         0.00000E+00
    0.00000E+00         0.00000E+00        -0.44808E+08
 
   -0.43842E+08         0.24242E+07         0.00000E+00
    0.24242E+07        -0.49798E+08         0.00000E+00
    0.00000E+00         0.00000E+00        -0.44808E+08
 
   -0.43886E+08         0.25008E+07         0.00000E+00
    0.25008E+07        -0.49784E+08         0.00000E+00
    0.00000E+00         0.00000E+00        -0.44807E+08
 
   -0.43930E+08         0.25770E+07         0.00000E+00
    0.25770E+07        -0.49769E+08         0.00000E+00
    0.00000E+00         0.00000E+00        -0.44807E+08
 
   -0.43974E+08         0.26529E+07         0.00000E+00
    0.26529E+07        -0.49754E+08         0.00000E+00
    0.00000E+00         0.00000E+00        -0.44807E+08
 
   -0.44018E+08         0.27286E+07         0.00000E+00
    0.27286E+07        -0.49739E+08         0.00000E+00
    0.00000E+00         0.00000E+00        -0.44807E+08
 
   -0.44063E+08         0.28039E+07         0.00000E+00
    0.28039E+07        -0.49723E+08         0.00000E+00
    0.00000E+00         0.00000E+00        -0.44807E+08
 
   -0.44108E+08         0.28790E+07         0.00000E+00
    0.28790E+07        -0.49706E+08         0.00000E+00
    0.00000E+00         0.00000E+00        -0.44807E+08
 
   -0.44154E+08         0.29538E+07         0.00000E+00
    0.29538E+07        -0.49689E+08         0.00000E+00
    0.00000E+00         0.00000E+00        -0.44806E+08
 
   -0.44200E+08         0.30283E+07         0.00000E+00
    0.30283E+07        -0.49671E+08         0.00000E+00
    0.00000E+00         0.00000E+00        -0.44806E+08
 
   -0.44246E+08         0.31026E+07         0.00000E+00
    0.31026E+07        -0.49653E+08         0.00000E+00
    0.00000E+00         0.00000E+00        -0.44806E+08
 
   -0.44292E+08         0.31765E+07         0.00000E+00
    0.31765E+07        -0.49634E+08         0.00000E+00
    0.00000E+00         0.00000E+00        -0.44806E+08
 
   -0.44339E+08         0.32502E+07         0.00000E+00
    0.32502E+07        -0.49615E+08         0.00000E+00
    0.00000E+00         0.00000E+00        -0.44806E+08
 
   -0.44386E+08         0.33236E+07         0.00000E+00
    0.33236E+07        -0.49595E+08         0.00000E+00
    0.00000E+00         0.00000E+00        -0.44806E+08
 
   -0.44434E+08         0.33968E+07         0.00000E+00
    0.33968E+07        -0.49574E+08         0.00000E+00
    0.00000E+00         0.00000E+00        -0.44805E+08
 
   -0.44482E+08         0.34697E+07         0.00000E+00
    0.34697E+07        -0.49553E+08         0.00000E+00
    0.00000E+00         0.00000E+00        -0.44805E+08
 
   -0.44530E+08         0.35423E+07         0.00000E+00
    0.35423E+07        -0.49531E+08         0.00000E+00
    0.00000E+00         0.00000E+00        -0.44805E+08
 
   -0.44579E+08         0.36146E+07         0.00000E+00
    0.36146E+07        -0.49509E+08         0.00000E+00
    0.00000E+00         0.00000E+00        -0.44805E+08
 
   -0.44629E+08         0.36867E+07         0.00000E+00
    0.36867E+07        -0.49486E+08         0.00000E+00
    0.00000E+00         0.00000E+00        -0.44805E+08
 
   -0.44678E+08         0.37584E+07         0.00000E+00
    0.37584E+07        -0.49462E+08         0.00000E+00
    0.00000E+00         0.00000E+00        -0.44805E+08
 
   -0.44729E+08         0.38299E+07         0.00000E+00
    0.38299E+07        -0.49438E+08         0.00000E+00
    0.00000E+00         0.00000E+00        -0.44805E+08
 
   -0.44779E+08         0.39011E+07         0.00000E+00
    0.39011E+07        -0.49413E+08         0.00000E+00
    0.00000E+00         0.00000E+00        -0.44805E+08
 
   -0.42229E+08         0.46105E+05         0.00000E+00
    0.46105E+05        -0.50000E+08         0.00000E+00
    0.00000E+00         0.00000E+00        -0.44450E+08
 
   -0.42268E+08         0.13678E+06         0.00000E+00
    0.13678E+06        -0.49999E+08         0.00000E+00
    0.00000E+00         0.00000E+00        -0.44450E+08
 
   -0.42308E+08         0.22692E+06         0.00000E+00
    0.22692E+06        -0.49998E+08         0.00000E+00
    0.00000E+00         0.00000E+00        -0.44450E+08
 
   -0.42348E+08         0.31652E+06         0.00000E+00
    0.31652E+06        -0.49997E+08         0.00000E+00
    0.00000E+00         0.00000E+00        -0.44450E+08
 
   -0.42388E+08         0.40560E+06         0.00000E+00
    0.40560E+06        -0.49995E+08         0.00000E+00
    0.00000E+00         0.00000E+00        -0.44450E+08
 
   -0.42428E+08         0.49416E+06         0.00000E+00
    0.49416E+06        -0.49993E+08         0.00000E+00
    0.00000E+00         0.00000E+00        -0.44450E+08
 
   -0.42469E+08         0.58223E+06         0.00000E+00
    0.58223E+06        -0.49990E+08         0.00000E+00
    0.00000E+00         0.00000E+00        -0.44450E+08
 
   -0.42510E+08         0.66981E+06         0.00000E+00
    0.66981E+06        -0.49986E+08         0.00000E+00
    0.00000E+00         0.00000E+00        -0.44450E+08
 
   -0.42551E+08         0.75690E+06         0.00000E+00
    0.75690E+06        -0.49983E+08         0.00000E+00
    0.00000E+00         0.00000E+00        -0.44450E+08
 
   -0.42592E+08         0.84353E+06         0.00000E+00
    0.84353E+06        -0.49978E+08         0.00000E+00
    0.00000E+00         0.00000E+00        -0.44450E+08
 
   -0.42633E+08         0.92970E+06         0.00000E+00
    0.92970E+06        -0.49974E+08         0.00000E+00
    0.00000E+00         0.00000E+00        -0.44449E+08
 
   -0.42675E+08         0.10154E+07         0.00000E+00
    0.10154E+07        -0.49969E+08         0.00000E+00
    0.00000E+00         0.00000E+00        -0.44449E+08
 
   -0.42716E+08         0.11007E+07         0.00000E+00
    0.11007E+07        -0.49963E+08         0.00000E+00
    0.00000E+00         0.00000E+00        -0.44449E+08
 
   -0.42758E+08         0.11856E+07         0.00000E+00
    0.11856E+07        -0.49957E+08         0.00000E+00
    0.00000E+00         0.00000E+00        -0.44449E+08
 
   -0.42800E+08         0.12700E+07         0.00000E+00
    0.12700E+07        -0.49950E+08         0.00000E+00
    0.00000E+00         0.00000E+00        -0.44449E+08
 
   -0.42843E+08         0.13540E+07         0.00000E+00
    0.13540E+07        -0.49943E+08         0.00000E+00
    0.00000E+00         0.00000E+00        -0.44449E+08
 
   -0.42885E+08         0.14377E+07         0.00000E+00
    0.14377E+07        -0.49936E+08         0.00000E+00
    0.00000E+00         0.00000E+00        -0.44448E+08
 
   -0.42928E+08         0.15209E+07         0.00000E+00
    0.15209E+07        -0.49928E+08         0.00000E+00
    0.00000E+00         0.00000E+00        -0.44448E+08
 
   -0.42970E+08         0.16038E+07         0.00000E+00
    0.16038E+07        -0.49920E+08         0.00000E+00
    0.00000E+00         0.00000E+00        -0.44448E+08
 
   -0.43013E+08         0.16863E+07         0.00000E+00
    0.16863E+07        -0.49911E+08         0.00000E+00
    0.00000E+00         0.00000E+00        -0.44448E+08
 
   -0.43056E+08         0.17685E+07         0.00000E+00
    0.17685E+07        -0.49902E+08         0.00000E+00
    0.00000E+00         0.00000E+00        -0.44448E+08
 
   -0.43099E+08         0.18503E+07         0.00000E+00
    0.18503E+07        -0.49892E+08         0.00000E+00
    0.00000E+00         0.00000E+00        -0.44447E+08
 
   -0.43143E+08         0.19318E+07         0.00000E+00
    0.19318E+07        -0.49882E+08         0.00000E+00
    0.00000E+00         0.00000E+00        -0.44447E+08
 
   -0.43186E+08         0.20129E+07         0.00000E+00
    0.20129E+07        -0.49871E+08         0.00000E+00
    0.00000E+00         0.00000E+00        -0.44447E+08
 
   -0.43230E+08         0.20938E+07         0.00000E+00
    0.20938E+07        -0.49860E+08         0.00000E+00
    0.00000E+00         0.00000E+00        -0.44447E+08
 
   -0.43274E+08         0.21743E+07         0.00000E+00
    0.21743E+07        -0.49848E+08         0.00000E+00
    0.00000E+00         0.00000E+00        -0.44446E+08
 
   -0.43318E+08         0.22545E+07         0.00000E+00
    0.22545E+07        -0.49836E+08         0.00000E+00
    0.00000E+00         0.00000E+00        -0.44446E+08
 
   -0.43363E+08         0.23344E+07         0.00000E+00
    0.23344E+07        -0.49824E+08         0.00000E+00
    0.00000E+00         0.00000E+00        -0.44446E+08
 
   -0.43407E+08         0.24140E+07         0.00000E+00
    0.24140E+07        -0.49811E+08         0.00000E+00
    0.00000E+00         0.00000E+00        -0.44446E+08
 
   -0.43452E+08         0.24934E+07         0.00000E+00
    0.24934E+07        -0.49797E+08         0.00000E+00
    0.00000E+00         0.00000E+00        -0.44445E+08
 
   -0.43497E+08         0.25725E+07         0.00000E+00
    0.25725E+07        -0.49783E+08         0.00000E+00
    0.00000E+00         0.00000E+00        -0.44445E+08
 
   -0.43543E+08         0.26513E+07         0.00000E+00
    0.26513E+07        -0.49768E+08         0.00000E+00
    0.00000E+00         0.00000E+00        -0.44445E+08
 
   -0.43588E+08         0.27298E+07         0.00000E+00
    0.27298E+07        -0.49753E+08         0.00000E+00
    0.00000E+00         0.00000E+00        -0.44444E+08
 
   -0.43634E+08         0.28081E+07         0.00000E+00
    0.28081E+07        -0.49737E+08         0.00000E+00
    0.00000E+00         0.00000E+00        -0.44444E+08
 
   -0.43680E+08         0.28862E+07         0.00000E+00
    0.28862E+07        -0.49721E+08         0.00000E+00
    0.00000E+00         0.00000E+00        -0.44444E+08
 
   -0.43727E+08         0.29640E+07         0.00000E+00
    0.29640E+07        -0.49704E+08         0.00000E+00
    0.00000E+00         0.00000E+00        -0.44444E+08
 
   -0.43773E+08         0.30416E+07         0.00000E+00
    0.30416E+07        -0.49687E+08         0.00000E+00
    0.00000E+00         0.00000E+00        -0.44443E+08
 
   -0.43821E+08         0.31189E+07         0.00000E+00
    0.31189E+07        -0.49669E+08         0.00000E+00
    0.00000E+00         0.00000E+00        -0.44443E+08
 
   -0.43868E+08         0.31960E+07         0.00000E+00
    0.31960E+07        -0.49650E+08         0.00000E+00
    0.00000E+00         0.00000E+00        -0.44443E+08
 
   -0.43916E+08         0.32729E+07         0.00000E+00
    0.32729E+07        -0.49631E+08         0.00000E+00
    0.00000E+00         0.00000E+00        -0.44443E+08
 
   -0.43964E+08         0.33495E+07         0.00000E+00
    0.33495E+07        -0.49612E+08         0.00000E+00
    0.00000E+00         0.00000E+00        -0.44443E+08
 
   -0.44012E+08         0.34260E+07         0.00000E+00
    0.34260E+07        -0.49591E+08         0.00000E+00
    0.00000E+00         0.00000E+00        -0.44442E+08
 
   -0.44061E+08         0.35022E+07         0.00000E+00
    0.35022E+07        -0.49570E+08         0.00000E+00
    0.00000E+00         0.00000E+00        -0.44442E+08
 
   -0.44110E+08         0.35781E+07         0.00000E+00
    0.35781E+07        -0.49549E+08         0.00000E+00
    0.00000E+00         0.00000E+00        -0.44442E+08
 
   -0.44160E+08         0.36539E+07         0.00000E+00
    0.36539E+07        -0.49527E+08         0.00000E+00
    0.00000E+00         0.00000E+00        -0.44442E+08
 
   -0.44210E+08         0.37294E+07         0.00000E+00
    0.37294E+07        -0.49504E+08         0.00000E+00
    0.00000E+00         0.00000E+00        -0.44442E+08
 
   -0.44261E+08         0.38048E+07         0.00000E+00
    0.38048E+07        -0.49480E+08         0.00000E+00
    0.00000E+00         0.00000E+00        -0.44442E+08
 
   -0.44312E+08         0.38798E+07         0.00000E+00
    0.38798E+07        -0.49456E+08         0.00000E+00
    0.00000E+00         0.00000E+00        -0.44442E+08
 
   -0.44363E+08         0.39547E+07         0.00000E+00
    0.39547E+07        -0.49431E+08         0.00000E+00
    0.00000E+00         0.00000E+00        -0.44442E+08
 
   -0.44415E+08         0.40294E+07         0.00000E+00
    0.40294E+07        -0.49405E+08         0.00000E+00
    0.00000E+00         0.00000E+00        -0.44442E+08
 
   -0.41768E+08         0.47354E+05         0.00000E+00
    0.47354E+05        -0.50000E+08         0.00000E+00
    0.00000E+00         0.00000E+00        -0.44072E+08
 
   -0.41810E+08         0.14045E+06         0.00000E+00
    0.14045E+06        -0.49999E+08         0.00000E+00
    0.00000E+00         0.00000E+00        -0.44072E+08
 
   -0.41853E+08         0.23298E+06         0.00000E+00
    0.23298E+06        -0.49998E+08         0.00000E+00
    0.00000E+00         0.00000E+00        -0.44072E+08
 
   -0.41895E+08         0.32495E+06         0.00000E+00
    0.32495E+06        -0.49997E+08         0.00000E+00
    0.00000E+00         0.00000E+00        -0.44072E+08
 
   -0.41938E+08         0.41638E+06         0.00000E+00
    0.41638E+06        -0.49995E+08         0.00000E+00
    0.00000E+00         0.00000E+00        -0.44072E+08
 
   -0.41981E+08         0.50728E+06         0.00000E+00
    0.50728E+06        -0.49993E+08         0.00000E+00
    0.00000E+00         0.00000E+00        -0.44071E+08
 
   -0.42024E+08         0.59766E+06         0.00000E+00
    0.59766E+06        -0.49990E+08         0.00000E+00
    0.00000E+00         0.00000E+00        -0.44071E+08
 
   -0.42067E+08         0.68753E+06         0.00000E+00
    0.68753E+06        -0.49987E+08         0.00000E+00
    0.00000E+00         0.00000E+00        -0.44071E+08
 
   -0.42111E+08         0.77691E+06         0.00000E+00
    0.77691E+06        -0.49983E+08         0.00000E+00
    0.00000E+00         0.00000E+00        -0.44071E+08
 
   -0.42154E+08         0.86582E+06         0.00000E+00
    0.86582E+06        -0.49979E+08         0.00000E+00
    0.00000E+00         0.00000E+00        -0.44071E+08
 
   -0.42198E+08         0.95426E+06         0.00000E+00
    0.95426E+06        -0.49974E+08         0.00000E+00
    0.00000E+00         0.00000E+00        -0.44071E+08
 
   -0.42242E+08         0.10422E+07         0.00000E+00
    0.10422E+07        -0.49969E+08         0.00000E+00
    0.00000E+00         0.00000E+00        -0.44070E+08
 
   -0.42285E+08         0.11298E+07         0.00000E+00
    0.11298E+07        -0.49963E+08         0.00000E+00
    0.00000E+00         0.00000E+00        -0.44070E+08
 
   -0.42329E+08         0.12169E+07         0.00000E+00
    0.12169E+07        -0.49957E+08         0.00000E+00
    0.00000E+00         0.00000E+00        -0.44070E+08
 
   -0.42373E+08         0.13036E+07         0.00000E+00
    0.13036E+07        -0.49951E+08         0.00000E+00
    0.00000E+00         0.00000E+00        -0.44070E+08
 
   -0.42418E+08         0.13899E+07         0.00000E+00
    0.13899E+07        -0.49944E+08         0.00000E+00
    0.00000E+00         0.00000E+00        -0.44070E+08
 
   -0.42462E+08         0.14758E+07         0.00000E+00
    0.14758E+07        -0.49936E+08         0.00000E+00
    0.00000E+00         0.00000E+00        -0.44069E+08
 
   -0.42506E+08         0.15614E+07         0.00000E+00
    0.15614E+07        -0.49929E+08         0.00000E+00
    0.00000E+00         0.00000E+00        -0.44069E+08
 
   -0.42551E+08         0.16465E+07         0.00000E+00
    0.16465E+07        -0.49920E+08         0.00000E+00
    0.00000E+00         0.00000E+00        -0.44069E+08
 
   -0.42596E+08         0.17314E+07         0.00000E+00
    0.17314E+07        -0.49912E+08         0.00000E+00
    0.00000E+00         0.00000E+00        -0.44068E+08
 
   -0.42640E+08         0.18159E+07         0.00000E+00
    0.18159E+07        -0.49902E+08         0.00000E+00
    0.00000E+00         0.00000E+00        -0.44068E+08
 
   -0.42685E+08         0.19000E+07         0.00000E+00
    0.19000E+07        -0.49893E+08         0.00000E+00
    0.00000E+00         0.00000E+00        -0.44068E+08
 
   -0.42730E+08         0.19838E+07         0.00000E+00
    0.19838E+07        -0.49883E+08         0.00000E+00
    0.00000E+00         0.00000E+00        -0.44067E+08
 
   -0.42775E+08         0.20674E+07         0.00000E+00
    0.20674E+07        -0.49872E+08         0.00000E+00
    0.00000E+00         0.00000E+00        -0.44067E+08
 
   -0.42821E+08         0.21506E+07         0.00000E+00
    0.21506E+07        -0.49861E+08         0.00000E+00
    0.00000E+00         0.00000E+00        -0.44067E+08
 
   -0.42866E+08         0.22336E+07         0.00000E+00
    0.22336E+07        -0.49849E+08         0.00000E+00
    0.00000E+00         0.00000E+00        -0.44066E+08
 
   -0.42912E+08         0.23163E+07         0.00000E+00
    0.23163E+07        -0.49837E+08         0.00000E+00
    0.00000E+00         0.00000E+00        -0.44066E+08
 
   -0.42958E+08         0.23987E+07         0.00000E+00
    0.23987E+07        -0.49825E+08         0.00000E+00
    0.00000E+00         0.00000E+00        -0.44066E+08
 
   -0.43004E+08         0.24809E+07         0.00000E+00
    0.24809E+07        -0.49812E+08         0.00000E+00
    0.00000E+00         0.00000E+00        -0.44065E+08
 
   -0.43050E+08         0.25628E+07         0.00000E+00
    0.25628E+07        -0.49798E+08         0.00000E+00
    0.00000E+00         0.00000E+00        -0.44065E+08
 
   -0.43096E+08         0.26445E+07         0.00000E+00
    0.26445E+07        -0.49784E+08         0.00000E+00
    0.00000E+00         0.00000E+00        -0.44065E+08
 
   -0.43143E+08         0.27259E+07         0.00000E+00
    0.27259E+07        -0.49769E+08         0.00000E+00
    0.00000E+00         0.00000E+00        -0.44064E+08
 
   -0.43189E+08         0.28072E+07         0.00000E+00
    0.28072E+07        -0.49754E+08         0.00000E+00
    0.00000E+00         0.00000E+00        -0.44064E+08
 
   -0.43236E+08         0.28882E+07         0.00000E+00
    0.28882E+07        -0.49738E+08         0.00000E+00
    0.00000E+00         0.00000E+00        -0.44064E+08
 
   -0.43284E+08         0.29690E+07         0.00000E+00
    0.29690E+07        -0.49722E+08         0.00000E+00
    0.00000E+00         0.00000E+00        -0.44063E+08
 
   -0.43331E+08         0.30497E+07         0.00000E+00
    0.30497E+07        -0.49705E+08         0.00000E+00
    0.00000E+00         0.00000E+00        -0.44063E+08
 
   -0.43379E+08         0.31301E+07         0.00000E+00
    0.31301E+07        -0.49688E+08         0.00000E+00
    0.00000E+00         0.00000E+00        -0.44063E+08
 
   -0.43427E+08         0.32104E+07         0.00000E+00
    0.32104E+07        -0.49670E+08         0.00000E+00
    0.00000E+00         0.00000E+00        -0.44062E+08
 
   -0.43475E+08         0.32904E+07         0.00000E+00
    0.32904E+07        -0.49651E+08         0.00000E+00
    0.00000E+00         0.00000E+00        -0.44062E+08
 
   -0.43524E+08         0.33703E+07         0.00000E+00
    0.33703E+07        -0.49632E+08         0.00000E+00
    0.00000E+00         0.00000E+00        -0.44062E+08
 
   -0.43573E+08         0.34501E+07         0.00000E+00
    0.34501E+07        -0.49612E+08         0.00000E+00
    0.00000E+00         0.00000E+00        -0.44062E+08
 
   -0.43623E+08         0.35296E+07         0.00000E+00
    0.35296E+07        -0.49591E+08         0.00000E+00
    0.00000E+00         0.00000E+00        -0.44061E+08
 
   -0.43672E+08         0.36090E+07         0.00000E+00
    0.36090E+07        -0.49570E+08         0.00000E+00
    0.00000E+00         0.00000E+00        -0.44061E+08
 
   -0.43723E+08         0.36883E+07         0.00000E+00
    0.36883E+07        -0.49549E+08         0.00000E+00
    0.00000E+00         0.00000E+00        -0.44061E+08
 
   -0.43773E+08         0.37674E+07         0.00000E+00
    0.37674E+07        -0.49526E+08         0.00000E+00
    0.00000E+00         0.00000E+00        -0.44061E+08
 
   -0.43824E+08         0.38463E+07         0.00000E+00
    0.38463E+07        -0.49503E+08         0.00000E+00
    0.00000E+00         0.00000E+00        -0.44061E+08
 
   -0.43876E+08         0.39250E+07         0.00000E+00
    0.39250E+07        -0.49479E+08         0.00000E+00
    0.00000E+00         0.00000E+00        -0.44061E+08
 
   -0.43928E+08         0.40036E+07         0.00000E+00
    0.40036E+07        -0.49454E+08         0.00000E+00
    0.00000E+00         0.00000E+00        -0.44060E+08
 
   -0.43981E+08         0.40821E+07         0.00000E+00
    0.40821E+07        -0.49429E+08         0.00000E+00
    0.00000E+00         0.00000E+00        -0.44060E+08
 
   -0.44034E+08         0.41604E+07         0.00000E+00
    0.41604E+07        -0.49403E+08         0.00000E+00
    0.00000E+00         0.00000E+00        -0.44060E+08
 
   -0.41295E+08         0.48595E+05         0.00000E+00
    0.48595E+05        -0.50000E+08         0.00000E+00
    0.00000E+00         0.00000E+00        -0.43674E+08
 
   -0.41340E+08         0.14409E+06         0.00000E+00
    0.14409E+06        -0.49999E+08         0.00000E+00
    0.00000E+00         0.00000E+00        -0.43674E+08
 
   -0.41385E+08         0.23899E+06         0.00000E+00
    0.23899E+06        -0.49998E+08         0.00000E+00
    0.00000E+00         0.00000E+00        -0.43674E+08
 
   -0.41431E+08         0.33330E+06         0.00000E+00
    0.33330E+06        -0.49997E+08         0.00000E+00
    0.00000E+00         0.00000E+00        -0.43674E+08
 
   -0.41476E+08         0.42705E+06         0.00000E+00
    0.42705E+06        -0.49995E+08         0.00000E+00
    0.00000E+00         0.00000E+00        -0.43674E+08
 
   -0.41522E+08         0.52024E+06         0.00000E+00
    0.52024E+06        -0.49993E+08         0.00000E+00
    0.00000E+00         0.00000E+00        -0.43674E+08
 
   -0.41568E+08         0.61291E+06         0.00000E+00
    0.61291E+06        -0.49990E+08         0.00000E+00
    0.00000E+00         0.00000E+00        -0.43674E+08
 
   -0.41613E+08         0.70505E+06         0.00000E+00
    0.70505E+06        -0.49987E+08         0.00000E+00
    0.00000E+00         0.00000E+00        -0.43674E+08
 
   -0.41659E+08         0.79668E+06         0.00000E+00
    0.79668E+06        -0.49983E+08         0.00000E+00
    0.00000E+00         0.00000E+00        -0.43673E+08
 
   -0.41705E+08         0.88783E+06         0.00000E+00
    0.88783E+06        -0.49979E+08         0.00000E+00
    0.00000E+00         0.00000E+00        -0.43673E+08
 
   -0.41751E+08         0.97851E+06         0.00000E+00
    0.97851E+06        -0.49974E+08         0.00000E+00
    0.00000E+00         0.00000E+00        -0.43673E+08
 
   -0.41797E+08         0.10687E+07         0.00000E+00
    0.10687E+07        -0.49969E+08         0.00000E+00
    0.00000E+00         0.00000E+00        -0.43673E+08
 
   -0.41843E+08         0.11585E+07         0.00000E+00
    0.11585E+07        -0.49964E+08         0.00000E+00
    0.00000E+00         0.00000E+00        -0.43672E+08
 
   -0.41889E+08         0.12479E+07         0.00000E+00
    0.12479E+07        -0.49958E+08         0.00000E+00
    0.00000E+00         0.00000E+00        -0.43672E+08
 
   -0.41935E+08         0.13368E+07         0.00000E+00
    0.13368E+07        -0.49952E+08         0.00000E+00
    0.00000E+00         0.00000E+00        -0.43672E+08
 
   -0.41981E+08         0.14253E+07         0.00000E+00
    0.14253E+07        -0.49945E+08         0.00000E+00
    0.00000E+00         0.00000E+00        -0.43671E+08
 
   -0.42028E+08         0.15135E+07         0.00000E+00
    0.15135E+07        -0.49938E+08         0.00000E+00
    0.00000E+00         0.00000E+00        -0.43671E+08
 
   -0.42074E+08         0.16013E+07         0.00000E+00
    0.16013E+07        -0.49930E+08         0.00000E+00
    0.00000E+00         0.00000E+00        -0.43671E+08
 
   -0.42120E+08         0.16888E+07         0.00000E+00
    0.16888E+07        -0.49922E+08         0.00000E+00
    0.00000E+00         0.00000E+00        -0.43670E+08
 
   -0.42167E+08         0.17759E+07         0.00000E+00
    0.17759E+07        -0.49913E+08         0.00000E+00
    0.00000E+00         0.00000E+00        -0.43670E+08
 
   -0.42213E+08         0.18627E+07         0.00000E+00
    0.18627E+07        -0.49904E+08         0.00000E+00
    0.00000E+00         0.00000E+00        -0.43670E+08
 
   -0.42259E+08         0.19492E+07         0.00000E+00
    0.19492E+07        -0.49895E+08         0.00000E+00
    0.00000E+00         0.00000E+00        -0.43669E+08
 
   -0.42306E+08         0.20354E+07         0.00000E+00
    0.20354E+07        -0.49885E+08         0.00000E+00
    0.00000E+00         0.00000E+00        -0.43669E+08
 
   -0.42352E+08         0.21213E+07         0.00000E+00
    0.21213E+07        -0.49874E+08         0.00000E+00
    0.00000E+00         0.00000E+00        -0.43668E+08
 
   -0.42399E+08         0.22069E+07         0.00000E+00
    0.22069E+07        -0.49863E+08         0.00000E+00
    0.00000E+00         0.00000E+00        -0.43668E+08
 
   -0.42446E+08         0.22923E+07         0.00000E+00
    0.22923E+07        -0.49852E+08         0.00000E+00
    0.00000E+00         0.00000E+00        -0.43667E+08
 
   -0.42493E+08         0.23775E+07         0.00000E+00
    0.23775E+07        -0.49840E+08         0.00000E+00
    0.00000E+00         0.00000E+00        -0.43667E+08
 
   -0.42540E+08         0.24625E+07         0.00000E+00
    0.24625E+07        -0.49828E+08         0.00000E+00
    0.00000E+00         0.00000E+00        -0.43667E+08
 
   -0.42587E+08         0.25472E+07         0.00000E+00
    0.25472E+07        -0.49815E+08         0.00000E+00
    0.00000E+00         0.00000E+00        -0.43666E+08
 
   -0.42634E+08         0.26317E+07         0.00000E+00
    0.26317E+07        -0.49801E+08         0.00000E+00
    0.00000E+00         0.00000E+00        -0.43666E+08
 
   -0.42681E+08         0.27160E+07         0.00000E+00
    0.27160E+07        -0.49787E+08         0.00000E+00
    0.00000E+00         0.00000E+00        -0.43665E+08
 
   -0.42729E+08         0.28002E+07         0.00000E+00
    0.28002E+07        -0.49773E+08         0.00000E+00
    0.00000E+00         0.00000E+00        -0.43665E+08
 
   -0.42777E+08         0.28842E+07         0.00000E+00
    0.28842E+07        -0.49758E+08         0.00000E+00
    0.00000E+00         0.00000E+00        -0.43664E+08
 
   -0.42825E+08         0.29680E+07         0.00000E+00
    0.29680E+07        -0.49742E+08         0.00000E+00
    0.00000E+00         0.00000E+00        -0.43664E+08
 
   -0.42873E+08         0.30517E+07         0.00000E+00
    0.30517E+07        -0.49726E+08         0.00000E+00
    0.00000E+00         0.00000E+00        -0.43664E+08
 
   -0.42921E+08         0.31352E+07         0.00000E+00
    0.31352E+07        -0.49709E+08         0.00000E+00
    0.00000E+00         0.00000E+00        -0.43663E+08
 
   -0.42970E+08         0.32186E+07         0.00000E+00
    0.32186E+07        -0.49692E+08         0.00000E+00
    0.00000E+00         0.00000E+00        -0.43663E+08
 
   -0.43019E+08         0.33019E+07         0.00000E+00
    0.33019E+07        -0.49674E+08         0.00000E+00
    0.00000E+00         0.00000E+00        -0.43662E+08
 
   -0.43068E+08         0.33850E+07         0.00000E+00
    0.33850E+07        -0.49655E+08         0.00000E+00
    0.00000E+00         0.00000E+00        -0.43662E+08
 
   -0.43117E+08         0.34681E+07         0.00000E+00
    0.34681E+07        -0.49636E+08         0.00000E+00
    0.00000E+00         0.00000E+00        -0.43662E+08
 
   -0.43167E+08         0.35510E+07         0.00000E+00
    0.35510E+07        -0.49616E+08         0.00000E+00
    0.00000E+00         0.00000E+00        -0.43661E+08
 
   -0.43217E+08         0.36338E+07         0.00000E+00
    0.36338E+07        -0.49596E+08         0.00000E+00
    0.00000E+00         0.00000E+00        -0.43661E+08
 
   -0.43267E+08         0.37166E+07         0.00000E+00
    0.37166E+07        -0.49575E+08         0.00000E+00
    0.00000E+00         0.00000E+00        -0.43661E+08
 
   -0.43318E+08         0.37992E+07         0.00000E+00
    0.37992E+07        -0.49553E+08         0.00000E+00
    0.00000E+00         0.00000E+00        -0.43661E+08
 
   -0.43370E+08         0.38818E+07         0.00000E+00
    0.38818E+07        -0.49530E+08         0.00000E+00
    0.00000E+00         0.00000E+00        -0.43661E+08
 
   -0.43421E+08         0.39643E+07         0.00000E+00
    0.39643E+07        -0.49507E+08         0.00000E+00
    0.00000E+00         0.00000E+00        -0.43660E+08
 
   -0.43473E+08         0.40466E+07         0.00000E+00
    0.40466E+07        -0.49483E+08         0.00000E+00
    0.00000E+00         0.00000E+00        -0.43660E+08
 
   -0.43526E+08         0.41289E+07         0.00000E+00
    0.41289E+07        -0.49458E+08         0.00000E+00
    0.00000E+00         0.00000E+00        -0.43660E+08
 
   -0.43579E+08         0.42112E+07         0.00000E+00
    0.42112E+07        -0.49433E+08         0.00000E+00
    0.00000E+00         0.00000E+00        -0.43660E+08
 
   -0.43633E+08         0.42933E+07         0.00000E+00
    0.42933E+07        -0.49406E+08         0.00000E+00
    0.00000E+00         0.00000E+00        -0.43660E+08
 
   -0.40810E+08         0.49816E+05         0.00000E+00
    0.49816E+05        -0.50000E+08         0.00000E+00
    0.00000E+00         0.00000E+00        -0.43257E+08
 
   -0.40858E+08         0.14766E+06         0.00000E+00
    0.14766E+06        -0.49999E+08         0.00000E+00
    0.00000E+00         0.00000E+00        -0.43257E+08
 
   -0.40907E+08         0.24487E+06         0.00000E+00
    0.24487E+06        -0.49999E+08         0.00000E+00
    0.00000E+00         0.00000E+00        -0.43257E+08
 
   -0.40955E+08         0.34147E+06         0.00000E+00
    0.34147E+06        -0.49997E+08         0.00000E+00
    0.00000E+00         0.00000E+00        -0.43257E+08
 
   -0.41003E+08         0.43748E+06         0.00000E+00
    0.43748E+06        -0.49995E+08         0.00000E+00
    0.00000E+00         0.00000E+00        -0.43257E+08
 
   -0.41052E+08         0.53292E+06         0.00000E+00
    0.53292E+06        -0.49993E+08         0.00000E+00
    0.00000E+00         0.00000E+00        -0.43257E+08
 
   -0.41100E+08         0.62780E+06         0.00000E+00
    0.62780E+06        -0.49990E+08         0.00000E+00
    0.00000E+00         0.00000E+00        -0.43256E+08
 
   -0.41148E+08         0.72215E+06         0.00000E+00
    0.72215E+06        -0.49987E+08         0.00000E+00
    0.00000E+00         0.00000E+00        -0.43256E+08
 
   -0.41197E+08         0.81598E+06         0.00000E+00
    0.81598E+06        -0.49984E+08         0.00000E+00
    0.00000E+00         0.00000E+00        -0.43256E+08
 
   -0.41245E+08         0.90931E+06         0.00000E+00
    0.90931E+06        -0.49980E+08         0.00000E+00
    0.00000E+00         0.00000E+00        -0.43256E+08
 
   -0.41293E+08         0.10022E+07         0.00000E+00
    0.10022E+07        -0.49975E+08         0.00000E+00
    0.00000E+00         0.00000E+00        -0.43255E+08
 
   -0.41342E+08         0.10945E+07         0.00000E+00
    0.10945E+07        -0.49970E+08         0.00000E+00
    0.00000E+00         0.00000E+00        -0.43255E+08
 
   -0.41390E+08         0.11865E+07         0.00000E+00
    0.11865E+07        -0.49965E+08         0.00000E+00
    0.00000E+00         0.00000E+00        -0.43255E+08
 
   -0.41438E+08         0.12780E+07         0.00000E+00
    0.12780E+07        -0.49959E+08         0.00000E+00
    0.00000E+00         0.00000E+00        -0.43254E+08
 
   -0.41486E+08         0.13691E+07         0.00000E+00
    0.13691E+07        -0.49953E+08         0.00000E+00
    0.00000E+00         0.00000E+00        -0.43254E+08
 
   -0.41534E+08         0.14599E+07         0.00000E+00
    0.14599E+07        -0.49947E+08         0.00000E+00
    0.00000E+00         0.00000E+00        -0.43253E+08
 
   -0.41582E+08         0.15502E+07         0.00000E+00
    0.15502E+07        -0.49940E+08         0.00000E+00
    0.00000E+00         0.00000E+00        -0.43253E+08
 
   -0.41630E+08         0.16402E+07         0.00000E+00
    0.16402E+07        -0.49932E+08         0.00000E+00
    0.00000E+00         0.00000E+00        -0.43252E+08
 
   -0.41678E+08         0.17299E+07         0.00000E+00
    0.17299E+07        -0.49924E+08         0.00000E+00
    0.00000E+00         0.00000E+00        -0.43252E+08
 
   -0.41726E+08         0.18193E+07         0.00000E+00
    0.18193E+07        -0.49916E+08         0.00000E+00
    0.00000E+00         0.00000E+00        -0.43251E+08
 
   -0.41774E+08         0.19084E+07         0.00000E+00
    0.19084E+07        -0.49907E+08         0.00000E+00
    0.00000E+00         0.00000E+00        -0.43251E+08
 
   -0.41822E+08         0.19972E+07         0.00000E+00
    0.19972E+07        -0.49898E+08         0.00000E+00
    0.00000E+00         0.00000E+00        -0.43250E+08
 
   -0.41870E+08         0.20857E+07         0.00000E+00
    0.20857E+07        -0.49888E+08         0.00000E+00
    0.00000E+00         0.00000E+00        -0.43250E+08
 
   -0.41918E+08         0.21740E+07         0.00000E+00
    0.21740E+07        -0.49878E+08         0.00000E+00
    0.00000E+00         0.00000E+00        -0.43249E+08
 
   -0.41965E+08         0.22620E+07         0.00000E+00
    0.22620E+07        -0.49868E+08         0.00000E+00
    0.00000E+00         0.00000E+00        -0.43249E+08
 
   -0.42013E+08         0.23499E+07         0.00000E+00
    0.23499E+07        -0.49857E+08         0.00000E+00
    0.00000E+00         0.00000E+00        -0.43248E+08
 
   -0.42061E+08         0.24375E+07         0.00000E+00
    0.24375E+07        -0.49845E+08         0.00000E+00
    0.00000E+00         0.00000E+00        -0.43248E+08
 
   -0.42109E+08         0.25250E+07         0.00000E+00
    0.25250E+07        -0.49833E+08         0.00000E+00
    0.00000E+00         0.00000E+00        -0.43247E+08
 
   -0.42157E+08         0.26123E+07         0.00000E+00
    0.26123E+07        -0.49820E+08         0.00000E+00
    0.00000E+00         0.00000E+00        -0.43247E+08
 
   -0.42205E+08         0.26994E+07         0.00000E+00
    0.26994E+07        -0.49807E+08         0.00000E+00
    0.00000E+00         0.00000E+00        -0.43246E+08
 
   -0.42253E+08         0.27864E+07         0.00000E+00
    0.27864E+07        -0.49794E+08         0.00000E+00
    0.00000E+00         0.00000E+00        -0.43246E+08
 
   -0.42302E+08         0.28733E+07         0.00000E+00
    0.28733E+07        -0.49779E+08         0.00000E+00
    0.00000E+00         0.00000E+00        -0.43245E+08
 
   -0.42350E+08         0.29600E+07         0.00000E+00
    0.29600E+07        -0.49765E+08         0.00000E+00
    0.00000E+00         0.00000E+00        -0.43245E+08
 
   -0.42399E+08         0.30467E+07         0.00000E+00
    0.30467E+07        -0.49749E+08         0.00000E+00
    0.00000E+00         0.00000E+00        -0.43244E+08
 
   -0.42447E+08         0.31333E+07         0.00000E+00
    0.31333E+07        -0.49734E+08         0.00000E+00
    0.00000E+00         0.00000E+00        -0.43244E+08
 
   -0.42496E+08         0.32197E+07         0.00000E+00
    0.32197E+07        -0.49717E+08         0.00000E+00
    0.00000E+00         0.00000E+00        -0.43243E+08
 
   -0.42545E+08         0.33062E+07         0.00000E+00
    0.33062E+07        -0.49700E+08         0.00000E+00
    0.00000E+00         0.00000E+00        -0.43243E+08
 
   -0.42595E+08         0.33925E+07         0.00000E+00
    0.33925E+07        -0.49682E+08         0.00000E+00
    0.00000E+00         0.00000E+00        -0.43242E+08
 
   -0.42644E+08         0.34789E+07         0.00000E+00
    0.34789E+07        -0.49664E+08         0.00000E+00
    0.00000E+00         0.00000E+00        -0.43242E+08
 
   -0.42694E+08         0.35651E+07         0.00000E+00
    0.35651E+07        -0.49645E+08         0.00000E+00
    0.00000E+00         0.00000E+00        -0.43242E+08
 
   -0.42744E+08         0.36514E+07         0.00000E+00
    0.36514E+07        -0.49626E+08         0.00000E+00
    0.00000E+00         0.00000E+00        -0.43241E+08
 
   -0.42794E+08         0.37376E+07         0.00000E+00
    0.37376E+07        -0.49605E+08         0.00000E+00
    0.00000E+00         0.00000E+00        -0.43241E+08
 
   -0.42845E+08         0.38238E+07         0.00000E+00
    0.38238E+07        -0.49584E+08         0.00000E+00
    0.00000E+00         0.00000E+00        -0.43241E+08
 
   -0.42896E+08         0.39100E+07         0.00000E+00
    0.39100E+07        -0.49563E+08         0.00000E+00
    0.00000E+00         0.00000E+00        -0.43240E+08
 
   -0.42948E+08         0.39962E+07         0.00000E+00
    0.39962E+07        -0.49540E+08         0.00000E+00
    0.00000E+00         0.00000E+00        -0.43240E+08
 
   -0.43000E+08         0.40824E+07         0.00000E+00
    0.40824E+07        -0.49517E+08         0.00000E+00
    0.00000E+00         0.00000E+00        -0.43240E+08
 
   -0.43052E+08         0.41686E+07         0.00000E+00
    0.41686E+07        -0.49493E+08         0.00000E+00
    0.00000E+00         0.00000E+00        -0.43240E+08
 
   -0.43105E+08         0.42548E+07         0.00000E+00
    0.42548E+07        -0.49468E+08         0.00000E+00
    0.00000E+00         0.00000E+00        -0.43239E+08
 
   -0.43158E+08         0.43410E+07         0.00000E+00
    0.43410E+07        -0.49443E+08         0.00000E+00
    0.00000E+00         0.00000E+00        -0.43239E+08
 
   -0.43212E+08         0.44272E+07         0.00000E+00
    0.44272E+07        -0.49416E+08         0.00000E+00
    0.00000E+00         0.00000E+00        -0.43239E+08
 
   -0.40313E+08         0.51002E+05         0.00000E+00
    0.51002E+05        -0.50000E+08         0.00000E+00
    0.00000E+00         0.00000E+00        -0.42818E+08
 
   -0.40365E+08         0.15111E+06         0.00000E+00
    0.15111E+06        -0.49999E+08         0.00000E+00
    0.00000E+00         0.00000E+00        -0.42818E+08
 
   -0.40416E+08         0.25055E+06         0.00000E+00
    0.25055E+06        -0.49999E+08         0.00000E+00
    0.00000E+00         0.00000E+00        -0.42818E+08
 
   -0.40468E+08         0.34935E+06         0.00000E+00
    0.34935E+06        -0.49997E+08         0.00000E+00
    0.00000E+00         0.00000E+00        -0.42818E+08
 
   -0.40519E+08         0.44753E+06         0.00000E+00
    0.44753E+06        -0.49996E+08         0.00000E+00
    0.00000E+00         0.00000E+00        -0.42818E+08
 
   -0.40570E+08         0.54512E+06         0.00000E+00
    0.54512E+06        -0.49993E+08         0.00000E+00
    0.00000E+00         0.00000E+00        -0.42818E+08
 
   -0.40622E+08         0.64213E+06         0.00000E+00
    0.64213E+06        -0.49991E+08         0.00000E+00
    0.00000E+00         0.00000E+00        -0.42818E+08
 
   -0.40673E+08         0.73858E+06         0.00000E+00
    0.73858E+06        -0.49988E+08         0.00000E+00
    0.00000E+00         0.00000E+00        -0.42817E+08
 
   -0.40724E+08         0.83451E+06         0.00000E+00
    0.83451E+06        -0.49984E+08         0.00000E+00
    0.00000E+00         0.00000E+00        -0.42817E+08
 
   -0.40774E+08         0.92992E+06         0.00000E+00
    0.92992E+06        -0.49981E+08         0.00000E+00
    0.00000E+00         0.00000E+00        -0.42817E+08
 
   -0.40825E+08         0.10248E+07         0.00000E+00
    0.10248E+07        -0.49976E+08         0.00000E+00
    0.00000E+00         0.00000E+00        -0.42816E+08
 
   -0.40875E+08         0.11193E+07         0.00000E+00
    0.11193E+07        -0.49972E+08         0.00000E+00
    0.00000E+00         0.00000E+00        -0.42816E+08
 
   -0.40926E+08         0.12133E+07         0.00000E+00
    0.12133E+07        -0.49967E+08         0.00000E+00
    0.00000E+00         0.00000E+00        -0.42815E+08
 
   -0.40976E+08         0.13069E+07         0.00000E+00
    0.13069E+07        -0.49961E+08         0.00000E+00
    0.00000E+00         0.00000E+00        -0.42815E+08
 
   -0.41026E+08         0.14001E+07         0.00000E+00
    0.14001E+07        -0.49955E+08         0.00000E+00
    0.00000E+00         0.00000E+00        -0.42814E+08
 
   -0.41076E+08         0.14930E+07         0.00000E+00
    0.14930E+07        -0.49949E+08         0.00000E+00
    0.00000E+00         0.00000E+00        -0.42814E+08
 
   -0.41126E+08         0.15854E+07         0.00000E+00
    0.15854E+07        -0.49943E+08         0.00000E+00
    0.00000E+00         0.00000E+00        -0.42813E+08
 
   -0.41175E+08         0.16776E+07         0.00000E+00
    0.16776E+07        -0.49935E+08         0.00000E+00
    0.00000E+00         0.00000E+00        -0.42813E+08
 
   -0.41225E+08         0.17694E+07         0.00000E+00
    0.17694E+07        -0.49928E+08         0.00000E+00
    0.00000E+00         0.00000E+00        -0.42812E+08
 
   -0.41274E+08         0.18610E+07         0.00000E+00
    0.18610E+07        -0.49920E+08         0.00000E+00
    0.00000E+00         0.00000E+00        -0.42812E+08
 
   -0.41324E+08         0.19522E+07         0.00000E+00
    0.19522E+07        -0.49912E+08         0.00000E+00
    0.00000E+00         0.00000E+00        -0.42811E+08
 
   -0.41373E+08         0.20433E+07         0.00000E+00
    0.20433E+07        -0.49903E+08         0.00000E+00
    0.00000E+00         0.00000E+00        -0.42810E+08
 
   -0.41422E+08         0.21341E+07         0.00000E+00
    0.21341E+07        -0.49894E+08         0.00000E+00
    0.00000E+00         0.00000E+00        -0.42810E+08
 
   -0.41471E+08         0.22247E+07         0.00000E+00
    0.22247E+07        -0.49884E+08         0.00000E+00
    0.00000E+00         0.00000E+00        -0.42809E+08
 
   -0.41520E+08         0.23151E+07         0.00000E+00
    0.23151E+07        -0.49874E+08         0.00000E+00
    0.00000E+00         0.00000E+00        -0.42808E+08
 
   -0.41568E+08         0.24053E+07         0.00000E+00
    0.24053E+07        -0.49863E+08         0.00000E+00
    0.00000E+00         0.00000E+00        -0.42808E+08
 
   -0.41617E+08         0.24954E+07         0.00000E+00
    0.24954E+07        -0.49852E+08         0.00000E+00
    0.00000E+00         0.00000E+00        -0.42807E+08
 
   -0.41666E+08         0.25853E+07         0.00000E+00
    0.25853E+07        -0.49841E+08         0.00000E+00
    0.00000E+00         0.00000E+00        -0.42807E+08
 
   -0.41715E+08         0.26752E+07         0.00000E+00
    0.26752E+07        -0.49829E+08         0.00000E+00
    0.00000E+00         0.00000E+00        -0.42806E+08
 
   -0.41763E+08         0.27649E+07         0.00000E+00
    0.27649E+07        -0.49816E+08         0.00000E+00
    0.00000E+00         0.00000E+00        -0.42805E+08
 
   -0.41812E+08         0.28546E+07         0.00000E+00
    0.28546E+07        -0.49803E+08         0.00000E+00
    0.00000E+00         0.00000E+00        -0.42805E+08
 
   -0.41861E+08         0.29442E+07         0.00000E+00
    0.29442E+07        -0.49790E+08         0.00000E+00
    0.00000E+00         0.00000E+00        -0.42804E+08
 
   -0.41909E+08         0.30337E+07         0.00000E+00
    0.30337E+07        -0.49775E+08         0.00000E+00
    0.00000E+00         0.00000E+00        -0.42804E+08
 
   -0.41958E+08         0.31233E+07         0.00000E+00
    0.31233E+07        -0.49761E+08         0.00000E+00
    0.00000E+00         0.00000E+00        -0.42803E+08
 
   -0.42007E+08         0.32128E+07         0.00000E+00
    0.32128E+07        -0.49745E+08         0.00000E+00
    0.00000E+00         0.00000E+00        -0.42802E+08
 
   -0.42056E+08         0.33023E+07         0.00000E+00
    0.33023E+07        -0.49729E+08         0.00000E+00
    0.00000E+00         0.00000E+00        -0.42802E+08
 
   -0.42106E+08         0.33918E+07         0.00000E+00
    0.33918E+07        -0.49713E+08         0.00000E+00
    0.00000E+00         0.00000E+00        -0.42801E+08
 
   -0.42155E+08         0.34813E+07         0.00000E+00
    0.34813E+07        -0.49696E+08         0.00000E+00
    0.00000E+00         0.00000E+00        -0.42801E+08
 
   -0.42204E+08         0.35708E+07         0.00000E+00
    0.35708E+07        -0.49678E+08         0.00000E+00
    0.00000E+00         0.00000E+00        -0.42800E+08
 
   -0.42254E+08         0.36604E+07         0.00000E+00
    0.36604E+07        -0.49659E+08         0.00000E+00
    0.00000E+00         0.00000E+00        -0.42800E+08
 
   -0.42304E+08         0.37501E+07         0.00000E+00
    0.37501E+07        -0.49640E+08         0.00000E+00
    0.00000E+00         0.00000E+00        -0.42799E+08
 
   -0.42354E+08         0.38398E+07         0.00000E+00
    0.38398E+07        -0.49620E+08         0.00000E+00
    0.00000E+00         0.00000E+00        -0.42799E+08
 
   -0.42405E+08         0.39296E+07         0.00000E+00
    0.39296E+07        -0.49600E+08         0.00000E+00
    0.00000E+00         0.00000E+00        -0.42799E+08
 
   -0.42456E+08         0.40195E+07         0.00000E+00
    0.40195E+07        -0.49579E+08         0.00000E+00
    0.00000E+00         0.00000E+00        -0.42798E+08
 
   -0.42507E+08         0.41095E+07         0.00000E+00
    0.41095E+07        -0.49556E+08         0.00000E+00
    0.00000E+00         0.00000E+00        -0.42798E+08
 
   -0.42559E+08         0.41995E+07         0.00000E+00
    0.41995E+07        -0.49534E+08         0.00000E+00
    0.00000E+00         0.00000E+00        -0.42798E+08
 
   -0.42611E+08         0.42897E+07         0.00000E+00
    0.42897E+07        -0.49510E+08         0.00000E+00
    0.00000E+00         0.00000E+00        -0.42798E+08
 
   -0.42664E+08         0.43800E+07         0.00000E+00
    0.43800E+07        -0.49485E+08         0.00000E+00
    0.00000E+00         0.00000E+00        -0.42797E+08
 
   -0.42717E+08         0.44704E+07         0.00000E+00
    0.44704E+07        -0.49460E+08         0.00000E+00
    0.00000E+00         0.00000E+00        -0.42797E+08
 
   -0.42770E+08         0.45608E+07         0.00000E+00
    0.45608E+07        -0.49434E+08         0.00000E+00
    0.00000E+00         0.00000E+00        -0.42797E+08
 
   -0.39806E+08         0.52135E+05         0.00000E+00
    0.52135E+05        -0.50000E+08         0.00000E+00
    0.00000E+00         0.00000E+00        -0.42357E+08
 
   -0.39861E+08         0.15439E+06         0.00000E+00
    0.15439E+06        -0.50000E+08         0.00000E+00
    0.00000E+00         0.00000E+00        -0.42357E+08
 
   -0.39916E+08         0.25593E+06         0.00000E+00
    0.25593E+06        -0.49999E+08         0.00000E+00
    0.00000E+00         0.00000E+00        -0.42357E+08
 
   -0.39970E+08         0.35681E+06         0.00000E+00
    0.35681E+06        -0.49997E+08         0.00000E+00
    0.00000E+00         0.00000E+00        -0.42357E+08
 
   -0.40025E+08         0.45703E+06         0.00000E+00
    0.45703E+06        -0.49996E+08         0.00000E+00
    0.00000E+00         0.00000E+00        -0.42357E+08
 
   -0.40079E+08         0.55662E+06         0.00000E+00
    0.55662E+06        -0.49994E+08         0.00000E+00
    0.00000E+00         0.00000E+00        -0.42357E+08
 
   -0.40133E+08         0.65562E+06         0.00000E+00
    0.65562E+06        -0.49991E+08         0.00000E+00
    0.00000E+00         0.00000E+00        -0.42356E+08
 
   -0.40187E+08         0.75405E+06         0.00000E+00
    0.75405E+06        -0.49989E+08         0.00000E+00
    0.00000E+00         0.00000E+00        -0.42356E+08
 
   -0.40240E+08         0.85193E+06         0.00000E+00
    0.85193E+06        -0.49985E+08         0.00000E+00
    0.00000E+00         0.00000E+00        -0.42356E+08
 
   -0.40294E+08         0.94929E+06         0.00000E+00
    0.94929E+06        -0.49982E+08         0.00000E+00
    0.00000E+00         0.00000E+00        -0.42355E+08
 
   -0.40347E+08         0.10462E+07         0.00000E+00
    0.10462E+07        -0.49978E+08         0.00000E+00
    0.00000E+00         0.00000E+00        -0.42355E+08
 
   -0.40399E+08         0.11426E+07         0.00000E+00
    0.11426E+07        -0.49974E+08         0.00000E+00
    0.00000E+00         0.00000E+00        -0.42354E+08
 
   -0.40452E+08         0.12385E+07         0.00000E+00
    0.12385E+07        -0.49969E+08         0.00000E+00
    0.00000E+00         0.00000E+00        -0.42354E+08
 
   -0.40504E+08         0.13341E+07         0.00000E+00
    0.13341E+07        -0.49964E+08         0.00000E+00
    0.00000E+00         0.00000E+00        -0.42353E+08
 
   -0.40556E+08         0.14292E+07         0.00000E+00
    0.14292E+07        -0.49959E+08         0.00000E+00
    0.00000E+00         0.00000E+00        -0.42353E+08
 
   -0.40608E+08         0.15240E+07         0.00000E+00
    0.15240E+07        -0.49953E+08         0.00000E+00
    0.00000E+00         0.00000E+00        -0.42352E+08
 
   -0.40659E+08         0.16185E+07         0.00000E+00
    0.16185E+07        -0.49947E+08         0.00000E+00
    0.00000E+00         0.00000E+00        -0.42351E+08
 
   -0.40710E+08         0.17127E+07         0.00000E+00
    0.17127E+07        -0.49940E+08         0.00000E+00
    0.00000E+00         0.00000E+00        -0.42351E+08
 
   -0.40761E+08         0.18065E+07         0.00000E+00
    0.18065E+07        -0.49933E+08         0.00000E+00
    0.00000E+00         0.00000E+00        -0.42350E+08
 
   -0.40812E+08         0.19001E+07         0.00000E+00
    0.19001E+07        -0.49926E+08         0.00000E+00
    0.00000E+00         0.00000E+00        -0.42349E+08
 
   -0.40862E+08         0.19935E+07         0.00000E+00
    0.19935E+07        -0.49918E+08         0.00000E+00
    0.00000E+00         0.00000E+00        -0.42349E+08
 
   -0.40913E+08         0.20867E+07         0.00000E+00
    0.20867E+07        -0.49910E+08         0.00000E+00
    0.00000E+00         0.00000E+00        -0.42348E+08
 
   -0.40963E+08         0.21797E+07         0.00000E+00
    0.21797E+07        -0.49902E+08         0.00000E+00
    0.00000E+00         0.00000E+00        -0.42347E+08
 
   -0.41013E+08         0.22725E+07         0.00000E+00
    0.22725E+07        -0.49893E+08         0.00000E+00
    0.00000E+00         0.00000E+00        -0.42346E+08
 
   -0.41062E+08         0.23652E+07         0.00000E+00
    0.23652E+07        -0.49883E+08         0.00000E+00
    0.00000E+00         0.00000E+00        -0.42346E+08
 
   -0.41112E+08         0.24577E+07         0.00000E+00
    0.24577E+07        -0.49873E+08         0.00000E+00
    0.00000E+00         0.00000E+00        -0.42345E+08
 
   -0.41161E+08         0.25502E+07         0.00000E+00
    0.25502E+07        -0.49863E+08         0.00000E+00
    0.00000E+00         0.00000E+00        -0.42344E+08
 
   -0.41210E+08         0.26426E+07         0.00000E+00
    0.26426E+07        -0.49852E+08         0.00000E+00
    0.00000E+00         0.00000E+00        -0.42343E+08
 
   -0.41259E+08         0.27349E+07         0.00000E+00
    0.27349E+07        -0.49841E+08         0.00000E+00
    0.00000E+00         0.00000E+00        -0.42343E+08
 
   -0.41308E+08         0.28272E+07         0.00000E+00
    0.28272E+07        -0.49829E+08         0.00000E+00
    0.00000E+00         0.00000E+00        -0.42342E+08
 
   -0.41357E+08         0.29195E+07         0.00000E+00
    0.29195E+07        -0.49817E+08         0.00000E+00
    0.00000E+00         0.00000E+00        -0.42341E+08
 
   -0.41406E+08         0.30119E+07         0.00000E+00
    0.30119E+07        -0.49804E+08         0.00000E+00
    0.00000E+00         0.00000E+00        -0.42341E+08
 
   -0.41455E+08         0.31042E+07         0.00000E+00
    0.31042E+07        -0.49790E+08         0.00000E+00
    0.00000E+00         0.00000E+00        -0.42340E+08
 
   -0.41503E+08         0.31966E+07         0.00000E+00
    0.31966E+07        -0.49776E+08         0.00000E+00
    0.00000E+00         0.00000E+00        -0.42339E+08
 
   -0.41552E+08         0.32890E+07         0.00000E+00
    0.32890E+07        -0.49762E+08         0.00000E+00
    0.00000E+00         0.00000E+00        -0.42339E+08
 
   -0.41601E+08         0.33815E+07         0.00000E+00
    0.33815E+07        -0.49747E+08         0.00000E+00
    0.00000E+00         0.00000E+00        -0.42338E+08
 
   -0.41650E+08         0.34742E+07         0.00000E+00
    0.34742E+07        -0.49731E+08         0.00000E+00
    0.00000E+00         0.00000E+00        -0.42337E+08
 
   -0.41699E+08         0.35669E+07         0.00000E+00
    0.35669E+07        -0.49715E+08         0.00000E+00
    0.00000E+00         0.00000E+00        -0.42337E+08
 
   -0.41748E+08         0.36597E+07         0.00000E+00
    0.36597E+07        -0.49697E+08         0.00000E+00
    0.00000E+00         0.00000E+00        -0.42336E+08
 
   -0.41797E+08         0.37527E+07         0.00000E+00
    0.37527E+07        -0.49680E+08         0.00000E+00
    0.00000E+00         0.00000E+00        -0.42336E+08
 
   -0.41847E+08         0.38459E+07         0.00000E+00
    0.38459E+07        -0.49661E+08         0.00000E+00
    0.00000E+00         0.00000E+00        -0.42335E+08
 
   -0.41896E+08         0.39392E+07         0.00000E+00
    0.39392E+07        -0.49642E+08         0.00000E+00
    0.00000E+00         0.00000E+00        -0.42335E+08
 
   -0.41946E+08         0.40327E+07         0.00000E+00
    0.40327E+07        -0.49622E+08         0.00000E+00
    0.00000E+00         0.00000E+00        -0.42334E+08
 
   -0.41997E+08         0.41264E+07         0.00000E+00
    0.41264E+07        -0.49602E+08         0.00000E+00
    0.00000E+00         0.00000E+00        -0.42334E+08
 
   -0.42047E+08         0.42203E+07         0.00000E+00
    0.42203E+07        -0.49580E+08         0.00000E+00
    0.00000E+00         0.00000E+00        -0.42334E+08
 
   -0.42098E+08         0.43144E+07         0.00000E+00
    0.43144E+07        -0.49558E+08         0.00000E+00
    0.00000E+00         0.00000E+00        -0.42333E+08
 
   -0.42149E+08         0.44087E+07         0.00000E+00
    0.44087E+07        -0.49535E+08         0.00000E+00
    0.00000E+00         0.00000E+00        -0.42333E+08
 
   -0.42201E+08         0.45032E+07         0.00000E+00
    0.45032E+07        -0.49511E+08         0.00000E+00
    0.00000E+00         0.00000E+00        -0.42333E+08
 
   -0.42253E+08         0.45979E+07         0.00000E+00
    0.45979E+07        -0.49486E+08         0.00000E+00
    0.00000E+00         0.00000E+00        -0.42333E+08
 
   -0.42306E+08         0.46929E+07         0.00000E+00
    0.46929E+07        -0.49461E+08         0.00000E+00
    0.00000E+00         0.00000E+00        -0.42333E+08
 
   -0.39287E+08         0.53194E+05         0.00000E+00
    0.53194E+05        -0.50000E+08         0.00000E+00
    0.00000E+00         0.00000E+00        -0.41873E+08
 
   -0.39346E+08         0.15742E+06         0.00000E+00
    0.15742E+06        -0.50000E+08         0.00000E+00
    0.00000E+00         0.00000E+00        -0.41873E+08
 
   -0.39405E+08         0.26090E+06         0.00000E+00
    0.26090E+06        -0.49999E+08         0.00000E+00
    0.00000E+00         0.00000E+00        -0.41873E+08
 
   -0.39463E+08         0.36366E+06         0.00000E+00
    0.36366E+06        -0.49998E+08         0.00000E+00
    0.00000E+00         0.00000E+00        -0.41872E+08
 
   -0.39520E+08         0.46574E+06         0.00000E+00
    0.46574E+06        -0.49996E+08         0.00000E+00
    0.00000E+00         0.00000E+00        -0.41872E+08
 
   -0.39578E+08         0.56716E+06         0.00000E+00
    0.56716E+06        -0.49994E+08         0.00000E+00
    0.00000E+00         0.00000E+00        -0.41872E+08
 
   -0.39635E+08         0.66796E+06         0.00000E+00
    0.66796E+06        -0.49992E+08         0.00000E+00
    0.00000E+00         0.00000E+00        -0.41871E+08
 
   -0.39691E+08         0.76816E+06         0.00000E+00
    0.76816E+06        -0.49990E+08         0.00000E+00
    0.00000E+00         0.00000E+00        -0.41871E+08
 
   -0.39748E+08         0.86781E+06         0.00000E+00
    0.86781E+06        -0.49987E+08         0.00000E+00
    0.00000E+00         0.00000E+00        -0.41871E+08
 
   -0.39803E+08         0.96693E+06         0.00000E+00
    0.96693E+06        -0.49984E+08         0.00000E+00
    0.00000E+00         0.00000E+00        -0.41870E+08
 
   -0.39859E+08         0.10655E+07         0.00000E+00
    0.10655E+07        -0.49980E+08         0.00000E+00
    0.00000E+00         0.00000E+00        -0.41870E+08
 
   -0.39914E+08         0.11637E+07         0.00000E+00
    0.11637E+07        -0.49976E+08         0.00000E+00
    0.00000E+00         0.00000E+00        -0.41869E+08
 
   -0.39969E+08         0.12614E+07         0.00000E+00
    0.12614E+07        -0.49972E+08         0.00000E+00
    0.00000E+00         0.00000E+00        -0.41868E+08
 
   -0.40023E+08         0.13587E+07         0.00000E+00
    0.13587E+07        -0.49968E+08         0.00000E+00
    0.00000E+00         0.00000E+00        -0.41868E+08
 
   -0.40077E+08         0.14557E+07         0.00000E+00
    0.14557E+07        -0.49963E+08         0.00000E+00
    0.00000E+00         0.00000E+00        -0.41867E+08
 
   -0.40130E+08         0.15523E+07         0.00000E+00
    0.15523E+07        -0.49958E+08         0.00000E+00
    0.00000E+00         0.00000E+00        -0.41866E+08
 
   -0.40183E+08         0.16486E+07         0.00000E+00
    0.16486E+07        -0.49952E+08         0.00000E+00
    0.00000E+00         0.00000E+00        -0.41866E+08
 
   -0.40235E+08         0.17446E+07         0.00000E+00
    0.17446E+07        -0.49947E+08         0.00000E+00
    0.00000E+00         0.00000E+00        -0.41865E+08
 
   -0.40288E+08         0.18404E+07         0.00000E+00
    0.18404E+07        -0.49940E+08         0.00000E+00
    0.00000E+00         0.00000E+00        -0.41864E+08
 
   -0.40340E+08         0.19359E+07         0.00000E+00
    0.19359E+07        -0.49934E+08         0.00000E+00
    0.00000E+00         0.00000E+00        -0.41863E+08
 
   -0.40391E+08         0.20312E+07         0.00000E+00
    0.20312E+07        -0.49927E+08         0.00000E+00
    0.00000E+00         0.00000E+00        -0.41862E+08
 
   -0.40442E+08         0.21264E+07         0.00000E+00
    0.21264E+07        -0.49920E+08         0.00000E+00
    0.00000E+00         0.00000E+00        -0.41862E+08
 
   -0.40493E+08         0.22214E+07         0.00000E+00
    0.22214E+07        -0.49912E+08         0.00000E+00
    0.00000E+00         0.00000E+00        -0.41861E+08
 
   -0.40543E+08         0.23164E+07         0.00000E+00
    0.23164E+07        -0.49904E+08         0.00000E+00
    0.00000E+00         0.00000E+00        -0.41860E+08
 
   -0.40594E+08         0.24112E+07         0.00000E+00
    0.24112E+07        -0.49895E+08         0.00000E+00
    0.00000E+00         0.00000E+00        -0.41859E+08
 
   -0.40643E+08         0.25060E+07         0.00000E+00
    0.25060E+07        -0.49886E+08         0.00000E+00
    0.00000E+00         0.00000E+00        -0.41858E+08
 
   -0.40693E+08         0.26008E+07         0.00000E+00
    0.26008E+07        -0.49877E+08         0.00000E+00
    0.00000E+00         0.00000E+00        -0.41857E+08
 
   -0.40742E+08         0.26955E+07         0.00000E+00
    0.26955E+07        -0.49867E+08         0.00000E+00
    0.00000E+00         0.00000E+00        -0.41857E+08
 
   -0.40791E+08         0.27903E+07         0.00000E+00
    0.27903E+07        -0.49857E+08         0.00000E+00
    0.00000E+00         0.00000E+00        -0.41856E+08
 
   -0.40840E+08         0.28851E+07         0.00000E+00
    0.28851E+07        -0.49846E+08         0.00000E+00
    0.00000E+00         0.00000E+00        -0.41855E+08
 
   -0.40889E+08         0.29800E+07         0.00000E+00
    0.29800E+07        -0.49835E+08         0.00000E+00
    0.00000E+00         0.00000E+00        -0.41854E+08
 
   -0.40937E+08         0.30750E+07         0.00000E+00
    0.30750E+07        -0.49823E+08         0.00000E+00
    0.00000E+00         0.00000E+00        -0.41853E+08
 
   -0.40986E+08         0.31701E+07         0.00000E+00
    0.31701E+07        -0.49811E+08         0.00000E+00
    0.00000E+00         0.00000E+00        -0.41853E+08
 
   -0.41034E+08         0.32653E+07         0.00000E+00
    0.32653E+07        -0.49798E+08         0.00000E+00
    0.00000E+00         0.00000E+00        -0.41852E+08
 
   -0.41082E+08         0.33607E+07         0.00000E+00
    0.33607E+07        -0.49784E+08         0.00000E+00
    0.00000E+00         0.00000E+00        -0.41851E+08
 
   -0.41130E+08         0.34562E+07         0.00000E+00
    0.34562E+07        -0.49770E+08         0.00000E+00
    0.00000E+00         0.00000E+00        -0.41850E+08
 
   -0.41179E+08         0.35520E+07         0.00000E+00
    0.35520E+07        -0.49755E+08         0.00000E+00
    0.00000E+00         0.00000E+00        -0.41850E+08
 
   -0.41227E+08         0.36479E+07         0.00000E+00
    0.36479E+07        -0.49740E+08         0.00000E+00
    0.00000E+00         0.00000E+00        -0.41849E+08
 
   -0.41275E+08         0.37441E+07         0.00000E+00
    0.37441E+07        -0.49724E+08         0.00000E+00
    0.00000E+00         0.00000E+00        -0.41848E+08
 
   -0.41323E+08         0.38406E+07         0.00000E+00
    0.38406E+07        -0.49707E+08         0.00000E+00
    0.00000E+00         0.00000E+00        -0.41848E+08
 
   -0.41372E+08         0.39373E+07         0.00000E+00
    0.39373E+07        -0.49690E+08         0.00000E+00
    0.00000E+00         0.00000E+00        -0.41847E+08
 
   -0.41420E+08         0.40343E+07         0.00000E+00
    0.40343E+07        -0.49672E+08         0.00000E+00
    0.00000E+00         0.00000E+00        -0.41847E+08
 
   -0.41469E+08         0.41316E+07         0.00000E+00
    0.41316E+07        -0.49653E+08         0.00000E+00
    0.00000E+00         0.00000E+00        -0.41846E+08
 
   -0.41518E+08         0.42292E+07         0.00000E+00
    0.42292E+07        -0.49633E+08         0.00000E+00
    0.00000E+00         0.00000E+00        -0.41846E+08
 
   -0.41567E+08         0.43271E+07         0.00000E+00
    0.43271E+07        -0.49613E+08         0.00000E+00
    0.00000E+00         0.00000E+00        -0.41845E+08
 
   -0.41617E+08         0.44253E+07         0.00000E+00
    0.44253E+07        -0.49592E+08         0.00000E+00
    0.00000E+00         0.00000E+00        -0.41845E+08
 
   -0.41666E+08         0.45239E+07         0.00000E+00
    0.45239E+07        -0.49570E+08         0.00000E+00
    0.00000E+00         0.00000E+00        -0.41845E+08
 
   -0.41717E+08         0.46229E+07         0.00000E+00
    0.46229E+07        -0.49547E+08         0.00000E+00
    0.00000E+00         0.00000E+00        -0.41845E+08
 
   -0.41767E+08         0.47222E+07         0.00000E+00
    0.47222E+07        -0.49523E+08         0.00000E+00
    0.00000E+00         0.00000E+00        -0.41845E+08
 
   -0.41819E+08         0.48219E+07         0.00000E+00
    0.48219E+07        -0.49498E+08         0.00000E+00
    0.00000E+00         0.00000E+00        -0.41844E+08
 
   -0.38760E+08         0.54147E+05         0.00000E+00
    0.54147E+05        -0.50000E+08         0.00000E+00
    0.00000E+00         0.00000E+00        -0.41363E+08
 
   -0.38822E+08         0.16011E+06         0.00000E+00
    0.16011E+06        -0.50000E+08         0.00000E+00
    0.00000E+00         0.00000E+00        -0.41363E+08
 
   -0.38885E+08         0.26528E+06         0.00000E+00
    0.26528E+06        -0.49999E+08         0.00000E+00
    0.00000E+00         0.00000E+00        -0.41363E+08
 
   -0.38946E+08         0.36969E+06         0.00000E+00
    0.36969E+06        -0.49998E+08         0.00000E+00
    0.00000E+00         0.00000E+00        -0.41363E+08
 
   -0.39008E+08         0.47338E+06         0.00000E+00
    0.47338E+06        -0.49997E+08         0.00000E+00
    0.00000E+00         0.00000E+00        -0.41362E+08
 
   -0.39068E+08         0.57637E+06         0.00000E+00
    0.57637E+06        -0.49995E+08         0.00000E+00
    0.00000E+00         0.00000E+00        -0.41362E+08
 
   -0.39128E+08         0.67872E+06         0.00000E+00
    0.67872E+06        -0.49993E+08         0.00000E+00
    0.00000E+00         0.00000E+00        -0.41362E+08
 
   -0.39188E+08         0.78046E+06         0.00000E+00
    0.78046E+06        -0.49991E+08         0.00000E+00
    0.00000E+00         0.00000E+00        -0.41361E+08
 
   -0.39247E+08         0.88162E+06         0.00000E+00
    0.88162E+06        -0.49989E+08         0.00000E+00
    0.00000E+00         0.00000E+00        -0.41361E+08
 
   -0.39305E+08         0.98224E+06         0.00000E+00
    0.98224E+06        -0.49986E+08         0.00000E+00
    0.00000E+00         0.00000E+00        -0.41360E+08
 
   -0.39363E+08         0.10824E+07         0.00000E+00
    0.10824E+07        -0.49983E+08         0.00000E+00
    0.00000E+00         0.00000E+00        -0.41360E+08
 
   -0.39420E+08         0.11820E+07         0.00000E+00
    0.11820E+07        -0.49980E+08         0.00000E+00
    0.00000E+00         0.00000E+00        -0.41359E+08
 
   -0.39477E+08         0.12813E+07         0.00000E+00
    0.12813E+07        -0.49977E+08         0.00000E+00
    0.00000E+00         0.00000E+00        -0.41358E+08
 
   -0.39533E+08         0.13801E+07         0.00000E+00
    0.13801E+07        -0.49973E+08         0.00000E+00
    0.00000E+00         0.00000E+00        -0.41357E+08
 
   -0.39589E+08         0.14786E+07         0.00000E+00
    0.14786E+07        -0.49969E+08         0.00000E+00
    0.00000E+00         0.00000E+00        -0.41357E+08
 
   -0.39644E+08         0.15768E+07         0.00000E+00
    0.15768E+07        -0.49965E+08         0.00000E+00
    0.00000E+00         0.00000E+00        -0.41356E+08
 
   -0.39698E+08         0.16747E+07         0.00000E+00
    0.16747E+07        -0.49960E+08         0.00000E+00
    0.00000E+00         0.00000E+00        -0.41355E+08
 
   -0.39752E+08         0.17724E+07         0.00000E+00
    0.17724E+07        -0.49955E+08         0.00000E+00
    0.00000E+00         0.00000E+00        -0.41354E+08
 
   -0.39805E+08         0.18698E+07         0.00000E+00
    0.18698E+07        -0.49950E+08         0.00000E+00
    0.00000E+00         0.00000E+00        -0.41353E+08
 
   -0.39858E+08         0.19671E+07         0.00000E+00
    0.19671E+07        -0.49944E+08         0.00000E+00
    0.00000E+00         0.00000E+00        -0.41352E+08
 
   -0.39910E+08         0.20642E+07         0.00000E+00
    0.20642E+07        -0.49938E+08         0.00000E+00
    0.00000E+00         0.00000E+00        -0.41352E+08
 
   -0.39962E+08         0.21613E+07         0.00000E+00
    0.21613E+07        -0.49932E+08         0.00000E+00
    0.00000E+00         0.00000E+00        -0.41351E+08
 
   -0.40013E+08         0.22582E+07         0.00000E+00
    0.22582E+07        -0.49926E+08         0.00000E+00
    0.00000E+00         0.00000E+00        -0.41350E+08
 
   -0.40064E+08         0.23551E+07         0.00000E+00
    0.23551E+07        -0.49919E+08         0.00000E+00
    0.00000E+00         0.00000E+00        -0.41349E+08
 
   -0.40114E+08         0.24520E+07         0.00000E+00
    0.24520E+07        -0.49911E+08         0.00000E+00
    0.00000E+00         0.00000E+00        -0.41348E+08
 
   -0.40164E+08         0.25488E+07         0.00000E+00
    0.25488E+07        -0.49904E+08         0.00000E+00
    0.00000E+00         0.00000E+00        -0.41347E+08
 
   -0.40214E+08         0.26458E+07         0.00000E+00
    0.26458E+07        -0.49896E+08         0.00000E+00
    0.00000E+00         0.00000E+00        -0.41346E+08
 
   -0.40263E+08         0.27428E+07         0.00000E+00
    0.27428E+07        -0.49887E+08         0.00000E+00
    0.00000E+00         0.00000E+00        -0.41345E+08
 
   -0.40311E+08         0.28399E+07         0.00000E+00
    0.28399E+07        -0.49878E+08         0.00000E+00
    0.00000E+00         0.00000E+00        -0.41344E+08
 
   -0.40360E+08         0.29371E+07         0.00000E+00
    0.29371E+07        -0.49869E+08         0.00000E+00
    0.00000E+00         0.00000E+00        -0.41343E+08
 
   -0.40408E+08         0.30345E+07         0.00000E+00
    0.30345E+07        -0.49859E+08         0.00000E+00
    0.00000E+00         0.00000E+00        -0.41342E+08
 
   -0.40456E+08         0.31321E+07         0.00000E+00
    0.31321E+07        -0.49848E+08         0.00000E+00
    0.00000E+00         0.00000E+00        -0.41341E+08
 
   -0.40503E+08         0.32299E+07         0.00000E+00
    0.32299E+07        -0.49837E+08         0.00000E+00
    0.00000E+00         0.00000E+00        -0.41340E+08
 
   -0.40550E+08         0.33279E+07         0.00000E+00
    0.33279E+07        -0.49826E+08         0.00000E+00
    0.00000E+00         0.00000E+00        -0.41340E+08
 
   -0.40597E+08         0.34262E+07         0.00000E+00
    0.34262E+07        -0.49813E+08         0.00000E+00
    0.00000E+00         0.00000E+00        -0.41339E+08
 
   -0.40644E+08         0.35248E+07         0.00000E+00
    0.35248E+07        -0.49801E+08         0.00000E+00
    0.00000E+00         0.00000E+00        -0.41338E+08
 
   -0.40691E+08         0.36236E+07         0.00000E+00
    0.36236E+07        -0.49788E+08         0.00000E+00
    0.00000E+00         0.00000E+00        -0.41337E+08
 
   -0.40738E+08         0.37228E+07         0.00000E+00
    0.37228E+07        -0.49774E+08         0.00000E+00
    0.00000E+00         0.00000E+00        -0.41336E+08
 
   -0.40785E+08         0.38224E+07         0.00000E+00
    0.38224E+07        -0.49759E+08         0.00000E+00
    0.00000E+00         0.00000E+00        -0.41336E+08
 
   -0.40831E+08         0.39223E+07         0.00000E+00
    0.39223E+07        -0.49744E+08         0.00000E+00
    0.00000E+00         0.00000E+00        -0.41335E+08
 
   -0.40878E+08         0.40226E+07         0.00000E+00
    0.40226E+07        -0.49728E+08         0.00000E+00
    0.00000E+00         0.00000E+00        -0.41334E+08
 
   -0.40925E+08         0.41234E+07         0.00000E+00
    0.41234E+07        -0.49711E+08         0.00000E+00
    0.00000E+00         0.00000E+00        -0.41334E+08
 
   -0.40972E+08         0.42245E+07         0.00000E+00
    0.42245E+07        -0.49694E+08         0.00000E+00
    0.00000E+00         0.00000E+00        -0.41333E+08
 
   -0.41019E+08         0.43261E+07         0.00000E+00
    0.43261E+07        -0.49675E+08         0.00000E+00
    0.00000E+00         0.00000E+00        -0.41333E+08
 
   -0.41066E+08         0.44282E+07         0.00000E+00
    0.44282E+07        -0.49656E+08         0.00000E+00
    0.00000E+00         0.00000E+00        -0.41333E+08
 
   -0.41113E+08         0.45307E+07         0.00000E+00
    0.45307E+07        -0.49636E+08         0.00000E+00
    0.00000E+00         0.00000E+00        -0.41332E+08
 
   -0.41161E+08         0.46338E+07         0.00000E+00
    0.46338E+07        -0.49615E+08         0.00000E+00
    0.00000E+00         0.00000E+00        -0.41332E+08
 
   -0.41209E+08         0.47373E+07         0.00000E+00
    0.47373E+07        -0.49594E+08         0.00000E+00
    0.00000E+00         0.00000E+00        -0.41332E+08
 
   -0.41258E+08         0.48414E+07         0.00000E+00
    0.48414E+07        -0.49571E+08         0.00000E+00
    0.00000E+00         0.00000E+00        -0.41332E+08
 
   -0.41307E+08         0.49460E+07         0.00000E+00
    0.49460E+07        -0.49547E+08         0.00000E+00
    0.00000E+00         0.00000E+00        -0.41331E+08
 
   -0.38224E+08         0.54955E+05         0.00000E+00
    0.54955E+05        -0.50000E+08         0.00000E+00
    0.00000E+00         0.00000E+00        -0.40828E+08
 
   -0.38291E+08         0.16235E+06         0.00000E+00
    0.16235E+06        -0.50000E+08         0.00000E+00
    0.00000E+00         0.00000E+00        -0.40827E+08
 
   -0.38357E+08         0.26889E+06         0.00000E+00
    0.26889E+06        -0.49999E+08         0.00000E+00
    0.00000E+00         0.00000E+00        -0.40827E+08
 
   -0.38423E+08         0.37461E+06         0.00000E+00
    0.37461E+06        -0.49998E+08         0.00000E+00
    0.00000E+00         0.00000E+00        -0.40827E+08
 
   -0.38488E+08         0.47957E+06         0.00000E+00
    0.47957E+06        -0.49998E+08         0.00000E+00
    0.00000E+00         0.00000E+00        -0.40827E+08
 
   -0.38552E+08         0.58381E+06         0.00000E+00
    0.58381E+06        -0.49996E+08         0.00000E+00
    0.00000E+00         0.00000E+00        -0.40826E+08
 
   -0.38615E+08         0.68737E+06         0.00000E+00
    0.68737E+06        -0.49995E+08         0.00000E+00
    0.00000E+00         0.00000E+00        -0.40826E+08
 
   -0.38677E+08         0.79031E+06         0.00000E+00
    0.79031E+06        -0.49993E+08         0.00000E+00
    0.00000E+00         0.00000E+00        -0.40825E+08
 
   -0.38739E+08         0.89266E+06         0.00000E+00
    0.89266E+06        -0.49992E+08         0.00000E+00
    0.00000E+00         0.00000E+00        -0.40825E+08
 
   -0.38800E+08         0.99447E+06         0.00000E+00
    0.99447E+06        -0.49990E+08         0.00000E+00
    0.00000E+00         0.00000E+00        -0.40824E+08
 
   -0.38860E+08         0.10958E+07         0.00000E+00
    0.10958E+07        -0.49987E+08         0.00000E+00
    0.00000E+00         0.00000E+00        -0.40823E+08
 
   -0.38920E+08         0.11967E+07         0.00000E+00
    0.11967E+07        -0.49985E+08         0.00000E+00
    0.00000E+00         0.00000E+00        -0.40823E+08
 
   -0.38978E+08         0.12971E+07         0.00000E+00
    0.12971E+07        -0.49982E+08         0.00000E+00
    0.00000E+00         0.00000E+00        -0.40822E+08
 
   -0.39036E+08         0.13972E+07         0.00000E+00
    0.13972E+07        -0.49980E+08         0.00000E+00
    0.00000E+00         0.00000E+00        -0.40821E+08
 
   -0.39093E+08         0.14970E+07         0.00000E+00
    0.14970E+07        -0.49977E+08         0.00000E+00
    0.00000E+00         0.00000E+00        -0.40820E+08
 
   -0.39150E+08         0.15965E+07         0.00000E+00
    0.15965E+07        -0.49973E+08         0.00000E+00
    0.00000E+00         0.00000E+00        -0.40819E+08
 
   -0.39205E+08         0.16957E+07         0.00000E+00
    0.16957E+07        -0.49970E+08         0.00000E+00
    0.00000E+00         0.00000E+00        -0.40818E+08
 
   -0.39260E+08         0.17948E+07         0.00000E+00
    0.17948E+07        -0.49966E+08         0.00000E+00
    0.00000E+00         0.00000E+00        -0.40818E+08
 
   -0.39314E+08         0.18937E+07         0.00000E+00
    0.18937E+07        -0.49962E+08         0.00000E+00
    0.00000E+00         0.00000E+00        -0.40817E+08
 
   -0.39368E+08         0.19925E+07         0.00000E+00
    0.19925E+07        -0.49958E+08         0.00000E+00
    0.00000E+00         0.00000E+00        -0.40816E+08
 
   -0.39421E+08         0.20912E+07         0.00000E+00
    0.20912E+07        -0.49953E+08         0.00000E+00
    0.00000E+00         0.00000E+00        -0.40815E+08
 
   -0.39473E+08         0.21898E+07         0.00000E+00
    0.21898E+07        -0.49949E+08         0.00000E+00
    0.00000E+00         0.00000E+00        -0.40814E+08
 
   -0.39524E+08         0.22885E+07         0.00000E+00
    0.22885E+07        -0.49944E+08         0.00000E+00
    0.00000E+00         0.00000E+00        -0.40813E+08
 
   -0.39575E+08         0.23871E+07         0.00000E+00
    0.23871E+07        -0.49938E+08         0.00000E+00
    0.00000E+00         0.00000E+00        -0.40811E+08
 
   -0.39625E+08         0.24859E+07         0.00000E+00
    0.24859E+07        -0.49932E+08         0.00000E+00
    0.00000E+00         0.00000E+00        -0.40810E+08
 
   -0.39674E+08         0.25847E+07         0.00000E+00
    0.25847E+07        -0.49926E+08         0.00000E+00
    0.00000E+00         0.00000E+00        -0.40809E+08
 
   -0.39723E+08         0.26836E+07         0.00000E+00
    0.26836E+07        -0.49920E+08         0.00000E+00
    0.00000E+00         0.00000E+00        -0.40808E+08
 
   -0.39772E+08         0.27828E+07         0.00000E+00
    0.27828E+07        -0.49913E+08         0.00000E+00
    0.00000E+00         0.00000E+00        -0.40807E+08
 
   -0.39820E+08         0.28821E+07         0.00000E+00
    0.28821E+07        -0.49905E+08         0.00000E+00
    0.00000E+00         0.00000E+00        -0.40806E+08
 
   -0.39867E+08         0.29816E+07         0.00000E+00
    0.29816E+07        -0.49897E+08         0.00000E+00
    0.00000E+00         0.00000E+00        -0.40805E+08
 
   -0.39914E+08         0.30814E+07         0.00000E+00
    0.30814E+07        -0.49889E+08         0.00000E+00
    0.00000E+00         0.00000E+00        -0.40804E+08
 
   -0.39961E+08         0.31815E+07         0.00000E+00
    0.31815E+07        -0.49880E+08         0.00000E+00
    0.00000E+00         0.00000E+00        -0.40803E+08
 
   -0.40007E+08         0.32819E+07         0.00000E+00
    0.32819E+07        -0.49871E+08         0.00000E+00
    0.00000E+00         0.00000E+00        -0.40802E+08
 
   -0.40053E+08         0.33827E+07         0.00000E+00
    0.33827E+07        -0.49861E+08         0.00000E+00
    0.00000E+00         0.00000E+00        -0.40801E+08
 
   -0.40098E+08         0.34838E+07         0.00000E+00
    0.34838E+07        -0.49851E+08         0.00000E+00
    0.00000E+00         0.00000E+00        -0.40801E+08
 
   -0.40143E+08         0.35854E+07         0.00000E+00
    0.35854E+07        -0.49840E+08         0.00000E+00
    0.00000E+00         0.00000E+00        -0.40800E+08
 
   -0.40188E+08         0.36873E+07         0.00000E+00
    0.36873E+07        -0.49829E+08         0.00000E+00
    0.00000E+00         0.00000E+00        -0.40799E+08
 
   -0.40233E+08         0.37898E+07         0.00000E+00
    0.37898E+07        -0.49817E+08         0.00000E+00
    0.00000E+00         0.00000E+00        -0.40798E+08
 
   -0.40277E+08         0.38927E+07         0.00000E+00
    0.38927E+07        -0.49804E+08         0.00000E+00
    0.00000E+00         0.00000E+00        -0.40797E+08
 
   -0.40322E+08         0.39961E+07         0.00000E+00
    0.39961E+07        -0.49790E+08         0.00000E+00
    0.00000E+00         0.00000E+00        -0.40797E+08
 
   -0.40366E+08         0.41000E+07         0.00000E+00
    0.41000E+07        -0.49776E+08         0.00000E+00
    0.00000E+00         0.00000E+00        -0.40796E+08
 
   -0.40410E+08         0.42045E+07         0.00000E+00
    0.42045E+07        -0.49761E+08         0.00000E+00
    0.00000E+00         0.00000E+00        -0.40795E+08
 
   -0.40455E+08         0.43096E+07         0.00000E+00
    0.43096E+07        -0.49745E+08         0.00000E+00
    0.00000E+00         0.00000E+00        -0.40795E+08
 
   -0.40499E+08         0.44153E+07         0.00000E+00
    0.44153E+07        -0.49729E+08         0.00000E+00
    0.00000E+00         0.00000E+00        -0.40794E+08
 
   -0.40544E+08         0.45216E+07         0.00000E+00
    0.45216E+07        -0.49712E+08         0.00000E+00
    0.00000E+00         0.00000E+00        -0.40794E+08
 
   -0.40588E+08         0.46286E+07         0.00000E+00
    0.46286E+07        -0.49693E+08         0.00000E+00
    0.00000E+00         0.00000E+00        -0.40793E+08
 
   -0.40633E+08         0.47362E+07         0.00000E+00
    0.47362E+07        -0.49674E+08         0.00000E+00
    0.00000E+00         0.00000E+00        -0.40793E+08
 
   -0.40678E+08         0.48444E+07         0.00000E+00
    0.48444E+07        -0.49654E+08         0.00000E+00
    0.00000E+00         0.00000E+00        -0.40793E+08
 
   -0.40724E+08         0.49534E+07         0.00000E+00
    0.49534E+07        -0.49633E+08         0.00000E+00
    0.00000E+00         0.00000E+00        -0.40793E+08
 
   -0.40769E+08         0.50631E+07         0.00000E+00
    0.50631E+07        -0.49611E+08         0.00000E+00
    0.00000E+00         0.00000E+00        -0.40793E+08
 
   -0.37682E+08         0.55561E+05         0.00000E+00
    0.55561E+05        -0.50000E+08         0.00000E+00
    0.00000E+00         0.00000E+00        -0.40265E+08
 
   -0.37753E+08         0.16395E+06         0.00000E+00
    0.16395E+06        -0.50000E+08         0.00000E+00
    0.00000E+00         0.00000E+00        -0.40265E+08
 
   -0.37824E+08         0.27142E+06         0.00000E+00
    0.27142E+06        -0.50000E+08         0.00000E+00
    0.00000E+00         0.00000E+00        -0.40264E+08
 
   -0.37894E+08         0.37803E+06         0.00000E+00
    0.37803E+06        -0.49999E+08         0.00000E+00
    0.00000E+00         0.00000E+00        -0.40264E+08
 
   -0.37962E+08         0.48383E+06         0.00000E+00
    0.48383E+06        -0.49999E+08         0.00000E+00
    0.00000E+00         0.00000E+00        -0.40264E+08
 
   -0.38030E+08         0.58888E+06         0.00000E+00
    0.58888E+06        -0.49998E+08         0.00000E+00
    0.00000E+00         0.00000E+00        -0.40263E+08
 
   -0.38096E+08         0.69323E+06         0.00000E+00
    0.69323E+06        -0.49997E+08         0.00000E+00
    0.00000E+00         0.00000E+00        -0.40263E+08
 
   -0.38162E+08         0.79694E+06         0.00000E+00
    0.79694E+06        -0.49996E+08         0.00000E+00
    0.00000E+00         0.00000E+00        -0.40262E+08
 
   -0.38227E+08         0.90006E+06         0.00000E+00
    0.90006E+06        -0.49995E+08         0.00000E+00
    0.00000E+00         0.00000E+00        -0.40262E+08
 
   -0.38290E+08         0.10026E+07         0.00000E+00
    0.10026E+07        -0.49994E+08         0.00000E+00
    0.00000E+00         0.00000E+00        -0.40261E+08
 
   -0.38353E+08         0.11048E+07         0.00000E+00
    0.11048E+07        -0.49993E+08         0.00000E+00
    0.00000E+00         0.00000E+00        -0.40260E+08
 
   -0.38414E+08         0.12064E+07         0.00000E+00
    0.12064E+07        -0.49992E+08         0.00000E+00
    0.00000E+00         0.00000E+00        -0.40259E+08
 
   -0.38475E+08         0.13077E+07         0.00000E+00
    0.13077E+07        -0.49990E+08         0.00000E+00
    0.00000E+00         0.00000E+00        -0.40258E+08
 
   -0.38534E+08         0.14087E+07         0.00000E+00
    0.14087E+07        -0.49989E+08         0.00000E+00
    0.00000E+00         0.00000E+00        -0.40258E+08
 
   -0.38593E+08         0.15094E+07         0.00000E+00
    0.15094E+07        -0.49987E+08         0.00000E+00
    0.00000E+00         0.00000E+00        -0.40257E+08
 
   -0.38650E+08         0.16099E+07         0.00000E+00
    0.16099E+07        -0.49985E+08         0.00000E+00
    0.00000E+00         0.00000E+00        -0.40256E+08
 
   -0.38707E+08         0.17102E+07         0.00000E+00
    0.17102E+07        -0.49983E+08         0.00000E+00
    0.00000E+00         0.00000E+00        -0.40255E+08
 
   -0.38762E+08         0.18103E+07         0.00000E+00
    0.18103E+07        -0.49981E+08         0.00000E+00
    0.00000E+00         0.00000E+00        -0.40254E+08
 
   -0.38817E+08         0.19104E+07         0.00000E+00
    0.19104E+07        -0.49978E+08         0.00000E+00
    0.00000E+00         0.00000E+00        -0.40253E+08
 
   -0.38871E+08         0.20104E+07         0.00000E+00
    0.20104E+07        -0.49976E+08         0.00000E+00
    0.00000E+00         0.00000E+00        -0.40252E+08
 
   -0.38924E+08         0.21104E+07         0.00000E+00
    0.21104E+07        -0.49973E+08         0.00000E+00
    0.00000E+00         0.00000E+00        -0.40250E+08
 
   -0.38976E+08         0.22104E+07         0.00000E+00
    0.22104E+07        -0.49970E+08         0.00000E+00
    0.00000E+00         0.00000E+00        -0.40249E+08
 
   -0.39027E+08         0.23105E+07         0.00000E+00
    0.23105E+07        -0.49967E+08         0.00000E+00
    0.00000E+00         0.00000E+00        -0.40248E+08
 
   -0.39077E+08         0.24108E+07         0.00000E+00
    0.24108E+07        -0.49963E+08         0.00000E+00
    0.00000E+00         0.00000E+00        -0.40247E+08
 
   -0.39127E+08         0.25112E+07         0.00000E+00
    0.25112E+07        -0.49959E+08         0.00000E+00
    0.00000E+00         0.00000E+00        -0.40246E+08
 
   -0.39175E+08         0.26117E+07         0.00000E+00
    0.26117E+07        -0.49955E+08         0.00000E+00
    0.00000E+00         0.00000E+00        -0.40245E+08
 
   -0.39223E+08         0.27126E+07         0.00000E+00
    0.27126E+07        -0.49950E+08         0.00000E+00
    0.00000E+00         0.00000E+00        -0.40244E+08
 
   -0.39270E+08         0.28136E+07         0.00000E+00
    0.28136E+07        -0.49945E+08         0.00000E+00
    0.00000E+00         0.00000E+00        -0.40243E+08
 
   -0.39317E+08         0.29150E+07         0.00000E+00
    0.29150E+07        -0.49940E+08         0.00000E+00
    0.00000E+00         0.00000E+00        -0.40242E+08
 
   -0.39363E+08         0.30167E+07         0.00000E+00
    0.30167E+07        -0.49934E+08         0.00000E+00
    0.00000E+00         0.00000E+00        -0.40241E+08
 
   -0.39408E+08         0.31188E+07         0.00000E+00
    0.31188E+07        -0.49928E+08         0.00000E+00
    0.00000E+00         0.00000E+00        -0.40239E+08
 
   -0.39453E+08         0.32213E+07         0.00000E+00
    0.32213E+07        -0.49921E+08         0.00000E+00
    0.00000E+00         0.00000E+00        -0.40238E+08
 
   -0.39497E+08         0.33243E+07         0.00000E+00
    0.33243E+07        -0.49914E+08         0.00000E+00
    0.00000E+00         0.00000E+00        -0.40237E+08
 
   -0.39541E+08         0.34277E+07         0.00000E+00
    0.34277E+07        -0.49907E+08         0.00000E+00
    0.00000E+00         0.00000E+00        -0.40236E+08
 
   -0.39584E+08         0.35316E+07         0.00000E+00
    0.35316E+07        -0.49899E+08         0.00000E+00
    0.00000E+00         0.00000E+00        -0.40235E+08
 
   -0.39627E+08         0.36360E+07         0.00000E+00
    0.36360E+07        -0.49890E+08         0.00000E+00
    0.00000E+00         0.00000E+00        -0.40234E+08
 
   -0.39669E+08         0.37411E+07         0.00000E+00
    0.37411E+07        -0.49881E+08         0.00000E+00
    0.00000E+00         0.00000E+00        -0.40234E+08
 
   -0.39711E+08         0.38467E+07         0.00000E+00
    0.38467E+07        -0.49871E+08         0.00000E+00
    0.00000E+00         0.00000E+00        -0.40233E+08
 
   -0.39753E+08         0.39529E+07         0.00000E+00
    0.39529E+07        -0.49860E+08         0.00000E+00
    0.00000E+00         0.00000E+00        -0.40232E+08
 
   -0.39794E+08         0.40598E+07         0.00000E+00
    0.40598E+07        -0.49849E+08         0.00000E+00
    0.00000E+00         0.00000E+00        -0.40231E+08
 
   -0.39836E+08         0.41674E+07         0.00000E+00
    0.41674E+07        -0.49837E+08         0.00000E+00
    0.00000E+00         0.00000E+00        -0.40230E+08
 
   -0.39877E+08         0.42757E+07         0.00000E+00
    0.42757E+07        -0.49824E+08         0.00000E+00
    0.00000E+00         0.00000E+00        -0.40230E+08
 
   -0.39918E+08         0.43847E+07         0.00000E+00
    0.43847E+07        -0.49811E+08         0.00000E+00
    0.00000E+00         0.00000E+00        -0.40229E+08
 
   -0.39958E+08         0.44946E+07         0.00000E+00
    0.44946E+07        -0.49796E+08         0.00000E+00
    0.00000E+00         0.00000E+00        -0.40229E+08
 
   -0.39999E+08         0.46052E+07         0.00000E+00
    0.46052E+07        -0.49781E+08         0.00000E+00
    0.00000E+00         0.00000E+00        -0.40228E+08
 
   -0.40040E+08         0.47166E+07         0.00000E+00
    0.47166E+07        -0.49765E+08         0.00000E+00
    0.00000E+00         0.00000E+00        -0.40228E+08
 
   -0.40081E+08         0.48289E+07         0.00000E+00
    0.48289E+07        -0.49748E+08         0.00000E+00
    0.00000E+00         0.00000E+00        -0.40227E+08
 
   -0.40123E+08         0.49420E+07         0.00000E+00
    0.49420E+07        -0.49730E+08         0.00000E+00
    0.00000E+00         0.00000E+00        -0.40227E+08
 
   -0.40164E+08         0.50560E+07         0.00000E+00
    0.50560E+07        -0.49712E+08         0.00000E+00
    0.00000E+00         0.00000E+00        -0.40227E+08
 
   -0.40206E+08         0.51710E+07         0.00000E+00
    0.51710E+07        -0.49692E+08         0.00000E+00
    0.00000E+00         0.00000E+00        -0.40227E+08
 
   -0.37136E+08         0.55889E+05         0.00000E+00
    0.55889E+05        -0.50000E+08         0.00000E+00
    0.00000E+00         0.00000E+00        -0.39673E+08
 
   -0.37213E+08         0.16470E+06         0.00000E+00
    0.16470E+06        -0.50000E+08         0.00000E+00
    0.00000E+00         0.00000E+00        -0.39673E+08
 
   -0.37288E+08         0.27253E+06         0.00000E+00
    0.27253E+06        -0.50000E+08         0.00000E+00
    0.00000E+00         0.00000E+00        -0.39673E+08
 
   -0.37362E+08         0.37944E+06         0.00000E+00
    0.37944E+06        -0.50000E+08         0.00000E+00
    0.00000E+00         0.00000E+00        -0.39673E+08
 
   -0.37434E+08         0.48551E+06         0.00000E+00
    0.48551E+06        -0.50000E+08         0.00000E+00
    0.00000E+00         0.00000E+00        -0.39672E+08
 
   -0.37506E+08         0.59080E+06         0.00000E+00
    0.59080E+06        -0.50000E+08         0.00000E+00
    0.00000E+00         0.00000E+00        -0.39672E+08
 
   -0.37575E+08         0.69538E+06         0.00000E+00
    0.69538E+06        -0.50000E+08         0.00000E+00
    0.00000E+00         0.00000E+00        -0.39671E+08
 
   -0.37644E+08         0.79931E+06         0.00000E+00
    0.79931E+06        -0.50000E+08         0.00000E+00
    0.00000E+00         0.00000E+00        -0.39671E+08
 
   -0.37711E+08         0.90267E+06         0.00000E+00
    0.90267E+06        -0.50000E+08         0.00000E+00
    0.00000E+00         0.00000E+00        -0.39670E+08
 
   -0.37778E+08         0.10055E+07         0.00000E+00
    0.10055E+07        -0.50000E+08         0.00000E+00
    0.00000E+00         0.00000E+00        -0.39669E+08
 
   -0.37842E+08         0.11079E+07         0.00000E+00
    0.11079E+07        -0.50000E+08         0.00000E+00
    0.00000E+00         0.00000E+00        -0.39669E+08
 
   -0.37906E+08         0.12099E+07         0.00000E+00
    0.12099E+07        -0.50000E+08         0.00000E+00
    0.00000E+00         0.00000E+00        -0.39668E+08
 
   -0.37968E+08         0.13116E+07         0.00000E+00
    0.13116E+07        -0.50000E+08         0.00000E+00
    0.00000E+00         0.00000E+00        -0.39667E+08
 
   -0.38029E+08         0.14130E+07         0.00000E+00
    0.14130E+07        -0.50000E+08         0.00000E+00
    0.00000E+00         0.00000E+00        -0.39666E+08
 
   -0.38088E+08         0.15142E+07         0.00000E+00
    0.15142E+07        -0.50000E+08         0.00000E+00
    0.00000E+00         0.00000E+00        -0.39665E+08
 
   -0.38147E+08         0.16153E+07         0.00000E+00
    0.16153E+07        -0.50000E+08         0.00000E+00
    0.00000E+00         0.00000E+00        -0.39664E+08
 
   -0.38204E+08         0.17162E+07         0.00000E+00
    0.17162E+07        -0.50000E+08         0.00000E+00
    0.00000E+00         0.00000E+00        -0.39663E+08
 
   -0.38260E+08         0.18171E+07         0.00000E+00
    0.18171E+07        -0.49999E+08         0.00000E+00
    0.00000E+00         0.00000E+00        -0.39662E+08
 
   -0.38315E+08         0.19180E+07         0.00000E+00
    0.19180E+07        -0.49999E+08         0.00000E+00
    0.00000E+00         0.00000E+00        -0.39661E+08
 
   -0.38368E+08         0.20189E+07         0.00000E+00
    0.20189E+07        -0.49999E+08         0.00000E+00
    0.00000E+00         0.00000E+00        -0.39659E+08
 
   -0.38421E+08         0.21199E+07         0.00000E+00
    0.21199E+07        -0.49998E+08         0.00000E+00
    0.00000E+00         0.00000E+00        -0.39658E+08
 
   -0.38472E+08         0.22210E+07         0.00000E+00
    0.22210E+07        -0.49997E+08         0.00000E+00
    0.00000E+00         0.00000E+00        -0.39657E+08
 
   -0.38522E+08         0.23224E+07         0.00000E+00
    0.23224E+07        -0.49996E+08         0.00000E+00
    0.00000E+00         0.00000E+00        -0.39656E+08
 
   -0.38572E+08         0.24239E+07         0.00000E+00
    0.24239E+07        -0.49995E+08         0.00000E+00
    0.00000E+00         0.00000E+00        -0.39655E+08
 
   -0.38620E+08         0.25258E+07         0.00000E+00
    0.25258E+07        -0.49993E+08         0.00000E+00
    0.00000E+00         0.00000E+00        -0.39654E+08
 
   -0.38668E+08         0.26279E+07         0.00000E+00
    0.26279E+07        -0.49991E+08         0.00000E+00
    0.00000E+00         0.00000E+00        -0.39652E+08
 
   -0.38714E+08         0.27304E+07         0.00000E+00
    0.27304E+07        -0.49989E+08         0.00000E+00
    0.00000E+00         0.00000E+00        -0.39651E+08
 
   -0.38760E+08         0.28332E+07         0.00000E+00
    0.28332E+07        -0.49987E+08         0.00000E+00
    0.00000E+00         0.00000E+00        -0.39650E+08
 
   -0.38804E+08         0.29365E+07         0.00000E+00
    0.29365E+07        -0.49984E+08         0.00000E+00
    0.00000E+00         0.00000E+00        -0.39649E+08
 
   -0.38848E+08         0.30403E+07         0.00000E+00
    0.30403E+07        -0.49981E+08         0.00000E+00
    0.00000E+00         0.00000E+00        -0.39648E+08
 
   -0.38891E+08         0.31445E+07         0.00000E+00
    0.31445E+07        -0.49977E+08         0.00000E+00
    0.00000E+00         0.00000E+00        -0.39647E+08
 
   -0.38933E+08         0.32493E+07         0.00000E+00
    0.32493E+07        -0.49973E+08         0.00000E+00
    0.00000E+00         0.00000E+00        -0.39645E+08
 
   -0.38975E+08         0.33547E+07         0.00000E+00
    0.33547E+07        -0.49968E+08         0.00000E+00
    0.00000E+00         0.00000E+00        -0.39644E+08
 
   -0.39016E+08         0.34606E+07         0.00000E+00
    0.34606E+07        -0.49963E+08         0.00000E+00
    0.00000E+00         0.00000E+00        -0.39643E+08
 
   -0.39056E+08         0.35673E+07         0.00000E+00
    0.35673E+07        -0.49958E+08         0.00000E+00
    0.00000E+00         0.00000E+00        -0.39642E+08
 
   -0.39096E+08         0.36745E+07         0.00000E+00
    0.36745E+07        -0.49952E+08         0.00000E+00
    0.00000E+00         0.00000E+00        -0.39641E+08
 
   -0.39135E+08         0.37825E+07         0.00000E+00
    0.37825E+07        -0.49945E+08         0.00000E+00
    0.00000E+00         0.00000E+00        -0.39640E+08
 
   -0.39173E+08         0.38913E+07         0.00000E+00
    0.38913E+07        -0.49938E+08         0.00000E+00
    0.00000E+00         0.00000E+00        -0.39640E+08
 
   -0.39211E+08         0.40008E+07         0.00000E+00
    0.40008E+07        -0.49930E+08         0.00000E+00
    0.00000E+00         0.00000E+00        -0.39639E+08
 
   -0.39249E+08         0.41112E+07         0.00000E+00
    0.41112E+07        -0.49922E+08         0.00000E+00
    0.00000E+00         0.00000E+00        -0.39638E+08
 
   -0.39286E+08         0.42224E+07         0.00000E+00
    0.42224E+07        -0.49913E+08         0.00000E+00
    0.00000E+00         0.00000E+00        -0.39637E+08
 
   -0.39323E+08         0.43345E+07         0.00000E+00
    0.43345E+07        -0.49903E+08         0.00000E+00
    0.00000E+00         0.00000E+00        -0.39636E+08
 
   -0.39360E+08         0.44475E+07         0.00000E+00
    0.44475E+07        -0.49892E+08         0.00000E+00
    0.00000E+00         0.00000E+00        -0.39636E+08
 
   -0.39397E+08         0.45614E+07         0.00000E+00
    0.45614E+07        -0.49880E+08         0.00000E+00
    0.00000E+00         0.00000E+00        -0.39635E+08
 
   -0.39433E+08         0.46764E+07         0.00000E+00
    0.46764E+07        -0.49868E+08         0.00000E+00
    0.00000E+00         0.00000E+00        -0.39635E+08
 
   -0.39469E+08         0.47924E+07         0.00000E+00
    0.47924E+07        -0.49855E+08         0.00000E+00
    0.00000E+00         0.00000E+00        -0.39634E+08
 
   -0.39506E+08         0.49094E+07         0.00000E+00
    0.49094E+07        -0.49840E+08         0.00000E+00
    0.00000E+00         0.00000E+00        -0.39634E+08
 
   -0.39542E+08         0.50275E+07         0.00000E+00
    0.50275E+07        -0.49825E+08         0.00000E+00
    0.00000E+00         0.00000E+00        -0.39634E+08
 
   -0.39578E+08         0.51467E+07         0.00000E+00
    0.51467E+07        -0.49809E+08         0.00000E+00
    0.00000E+00         0.00000E+00        -0.39633E+08
 
   -0.39615E+08         0.52670E+07         0.00000E+00
    0.52670E+07        -0.49792E+08         0.00000E+00
    0.00000E+00         0.00000E+00        -0.39633E+08
 
   -0.36590E+08         0.55832E+05         0.00000E+00
    0.55832E+05        -0.50000E+08         0.00000E+00
    0.00000E+00         0.00000E+00        -0.39053E+08
 
   -0.36672E+08         0.16429E+06         0.00000E+00
    0.16429E+06        -0.50000E+08         0.00000E+00
    0.00000E+00         0.00000E+00        -0.39053E+08
 
   -0.36752E+08         0.27171E+06         0.00000E+00
    0.27171E+06        -0.50001E+08         0.00000E+00
    0.00000E+00         0.00000E+00        -0.39052E+08
 
   -0.36830E+08         0.37817E+06         0.00000E+00
    0.37817E+06        -0.50001E+08         0.00000E+00
    0.00000E+00         0.00000E+00        -0.39052E+08
 
   -0.36907E+08         0.48376E+06         0.00000E+00
    0.48376E+06        -0.50002E+08         0.00000E+00
    0.00000E+00         0.00000E+00        -0.39052E+08
 
   -0.36982E+08         0.58856E+06         0.00000E+00
    0.58856E+06        -0.50003E+08         0.00000E+00
    0.00000E+00         0.00000E+00        -0.39051E+08
 
   -0.37055E+08         0.69266E+06         0.00000E+00
    0.69266E+06        -0.50004E+08         0.00000E+00
    0.00000E+00         0.00000E+00        -0.39051E+08
 
   -0.37127E+08         0.79613E+06         0.00000E+00
    0.79613E+06        -0.50005E+08         0.00000E+00
    0.00000E+00         0.00000E+00        -0.39050E+08
 
   -0.37197E+08         0.89907E+06         0.00000E+00
    0.89907E+06        -0.50006E+08         0.00000E+00
    0.00000E+00         0.00000E+00        -0.39049E+08
 
   -0.37265E+08         0.10015E+07         0.00000E+00
    0.10015E+07        -0.50008E+08         0.00000E+00
    0.00000E+00         0.00000E+00        -0.39048E+08
 
   -0.37332E+08         0.11036E+07         0.00000E+00
    0.11036E+07        -0.50009E+08         0.00000E+00
    0.00000E+00         0.00000E+00        -0.39048E+08
 
   -0.37397E+08         0.12054E+07         0.00000E+00
    0.12054E+07        -0.50011E+08         0.00000E+00
    0.00000E+00         0.00000E+00        -0.39047E+08
 
   -0.37460E+08         0.13069E+07         0.00000E+00
    0.13069E+07        -0.50013E+08         0.00000E+00
    0.00000E+00         0.00000E+00        -0.39046E+08
 
   -0.37522E+08         0.14082E+07         0.00000E+00
    0.14082E+07        -0.50015E+08         0.00000E+00
    0.00000E+00         0.00000E+00        -0.39045E+08
 
   -0.37582E+08         0.15094E+07         0.00000E+00
    0.15094E+07        -0.50017E+08         0.00000E+00
    0.00000E+00         0.00000E+00        -0.39044E+08
 
   -0.37641E+08         0.16105E+07         0.00000E+00
    0.16105E+07        -0.50019E+08         0.00000E+00
    0.00000E+00         0.00000E+00        -0.39043E+08
 
   -0.37698E+08         0.17116E+07         0.00000E+00
    0.17116E+07        -0.50021E+08         0.00000E+00
    0.00000E+00         0.00000E+00        -0.39042E+08
 
   -0.37754E+08         0.18128E+07         0.00000E+00
    0.18128E+07        -0.50024E+08         0.00000E+00
    0.00000E+00         0.00000E+00        -0.39040E+08
 
   -0.37809E+08         0.19141E+07         0.00000E+00
    0.19141E+07        -0.50026E+08         0.00000E+00
    0.00000E+00         0.00000E+00        -0.39039E+08
 
   -0.37862E+08         0.20156E+07         0.00000E+00
    0.20156E+07        -0.50028E+08         0.00000E+00
    0.00000E+00         0.00000E+00        -0.39038E+08
 
   -0.37913E+08         0.21173E+07         0.00000E+00
    0.21173E+07        -0.50030E+08         0.00000E+00
    0.00000E+00         0.00000E+00        -0.39037E+08
 
   -0.37964E+08         0.22193E+07         0.00000E+00
    0.22193E+07        -0.50032E+08         0.00000E+00
    0.00000E+00         0.00000E+00        -0.39036E+08
 
   -0.38013E+08         0.23215E+07         0.00000E+00
    0.23215E+07        -0.50033E+08         0.00000E+00
    0.00000E+00         0.00000E+00        -0.39034E+08
 
   -0.38060E+08         0.24241E+07         0.00000E+00
    0.24241E+07        -0.50035E+08         0.00000E+00
    0.00000E+00         0.00000E+00        -0.39033E+08
 
   -0.38107E+08         0.25272E+07         0.00000E+00
    0.25272E+07        -0.50036E+08         0.00000E+00
    0.00000E+00         0.00000E+00        -0.39032E+08
 
   -0.38152E+08         0.26306E+07         0.00000E+00
    0.26306E+07        -0.50037E+08         0.00000E+00
    0.00000E+00         0.00000E+00        -0.39031E+08
 
   -0.38197E+08         0.27346E+07         0.00000E+00
    0.27346E+07        -0.50038E+08         0.00000E+00
    0.00000E+00         0.00000E+00        -0.39030E+08
 
   -0.38240E+08         0.28391E+07         0.00000E+00
    0.28391E+07        -0.50039E+08         0.00000E+00
    0.00000E+00         0.00000E+00        -0.39028E+08
 
   -0.38282E+08         0.29441E+07         0.00000E+00
    0.29441E+07        -0.50039E+08         0.00000E+00
    0.00000E+00         0.00000E+00        -0.39027E+08
 
   -0.38323E+08         0.30497E+07         0.00000E+00
    0.30497E+07        -0.50039E+08         0.00000E+00
    0.00000E+00         0.00000E+00        -0.39026E+08
 
   -0.38363E+08         0.31560E+07         0.00000E+00
    0.31560E+07        -0.50038E+08         0.00000E+00
    0.00000E+00         0.00000E+00        -0.39025E+08
 
   -0.38402E+08         0.32630E+07         0.00000E+00
    0.32630E+07        -0.50037E+08         0.00000E+00
    0.00000E+00         0.00000E+00        -0.39024E+08
 
   -0.38441E+08         0.33707E+07         0.00000E+00
    0.33707E+07        -0.50036E+08         0.00000E+00
    0.00000E+00         0.00000E+00        -0.39023E+08
 
   -0.38478E+08         0.34791E+07         0.00000E+00
    0.34791E+07        -0.50034E+08         0.00000E+00
    0.00000E+00         0.00000E+00        -0.39022E+08
 
   -0.38514E+08         0.35883E+07         0.00000E+00
    0.35883E+07        -0.50032E+08         0.00000E+00
    0.00000E+00         0.00000E+00        -0.39020E+08
 
   -0.38550E+08         0.36983E+07         0.00000E+00
    0.36983E+07        -0.50029E+08         0.00000E+00
    0.00000E+00         0.00000E+00        -0.39019E+08
 
   -0.38585E+08         0.38092E+07         0.00000E+00
    0.38092E+07        -0.50026E+08         0.00000E+00
    0.00000E+00         0.00000E+00        -0.39019E+08
 
   -0.38620E+08         0.39210E+07         0.00000E+00
    0.39210E+07        -0.50022E+08         0.00000E+00
    0.00000E+00         0.00000E+00        -0.39018E+08
 
   -0.38653E+08         0.40338E+07         0.00000E+00
    0.40338E+07        -0.50017E+08         0.00000E+00
    0.00000E+00         0.00000E+00        -0.39017E+08
 
   -0.38686E+08         0.41475E+07         0.00000E+00
    0.41475E+07        -0.50012E+08         0.00000E+00
    0.00000E+00         0.00000E+00        -0.39016E+08
 
   -0.38719E+08         0.42623E+07         0.00000E+00
    0.42623E+07        -0.50006E+08         0.00000E+00
    0.00000E+00         0.00000E+00        -0.39015E+08
 
   -0.38751E+08         0.43781E+07         0.00000E+00
    0.43781E+07        -0.49999E+08         0.00000E+00
    0.00000E+00         0.00000E+00        -0.39014E+08
 
   -0.38782E+08         0.44951E+07         0.00000E+00
    0.44951E+07        -0.49992E+08         0.00000E+00
    0.00000E+00         0.00000E+00        -0.39014E+08
 
   -0.38814E+08         0.46132E+07         0.00000E+00
    0.46132E+07        -0.49984E+08         0.00000E+00
    0.00000E+00         0.00000E+00        -0.39013E+08
 
   -0.38844E+08         0.47325E+07         0.00000E+00
    0.47325E+07        -0.49975E+08         0.00000E+00
    0.00000E+00         0.00000E+00        -0.39013E+08
 
   -0.38875E+08         0.48530E+07         0.00000E+00
    0.48530E+07        -0.49965E+08         0.00000E+00
    0.00000E+00         0.00000E+00        -0.39012E+08
 
   -0.38905E+08         0.49748E+07         0.00000E+00
    0.49748E+07        -0.49954E+08         0.00000E+00
    0.00000E+00         0.00000E+00        -0.39012E+08
 
   -0.38936E+08         0.50980E+07         0.00000E+00
    0.50980E+07        -0.49942E+08         0.00000E+00
    0.00000E+00         0.00000E+00        -0.39012E+08
 
   -0.38966E+08         0.52224E+07         0.00000E+00
    0.52224E+07        -0.49929E+08         0.00000E+00
    0.00000E+00         0.00000E+00        -0.39011E+08
 
   -0.38996E+08         0.53483E+07         0.00000E+00
    0.53483E+07        -0.49915E+08         0.00000E+00
    0.00000E+00         0.00000E+00        -0.39011E+08
 
   -0.36048E+08         0.55247E+05         0.00000E+00
    0.55247E+05        -0.50000E+08         0.00000E+00
    0.00000E+00         0.00000E+00        -0.38402E+08
 
   -0.36135E+08         0.16234E+06         0.00000E+00
    0.16234E+06        -0.50001E+08         0.00000E+00
    0.00000E+00         0.00000E+00        -0.38402E+08
 
   -0.36220E+08         0.26834E+06         0.00000E+00
    0.26834E+06        -0.50001E+08         0.00000E+00
    0.00000E+00         0.00000E+00        -0.38401E+08
 
   -0.36303E+08         0.37336E+06         0.00000E+00
    0.37336E+06        -0.50002E+08         0.00000E+00
    0.00000E+00         0.00000E+00        -0.38401E+08
 
   -0.36384E+08         0.47751E+06         0.00000E+00
    0.47751E+06        -0.50004E+08         0.00000E+00
    0.00000E+00         0.00000E+00        -0.38401E+08
 
   -0.36463E+08         0.58090E+06         0.00000E+00
    0.58090E+06        -0.50006E+08         0.00000E+00
    0.00000E+00         0.00000E+00        -0.38400E+08
 
   -0.36539E+08         0.68362E+06         0.00000E+00
    0.68362E+06        -0.50008E+08         0.00000E+00
    0.00000E+00         0.00000E+00        -0.38400E+08
 
   -0.36614E+08         0.78577E+06         0.00000E+00
    0.78577E+06        -0.50011E+08         0.00000E+00
    0.00000E+00         0.00000E+00        -0.38399E+08
 
   -0.36686E+08         0.88744E+06         0.00000E+00
    0.88744E+06        -0.50014E+08         0.00000E+00
    0.00000E+00         0.00000E+00        -0.38398E+08
 
   -0.36756E+08         0.98874E+06         0.00000E+00
    0.98874E+06        -0.50018E+08         0.00000E+00
    0.00000E+00         0.00000E+00        -0.38397E+08
 
   -0.36824E+08         0.10897E+07         0.00000E+00
    0.10897E+07        -0.50021E+08         0.00000E+00
    0.00000E+00         0.00000E+00        -0.38396E+08
 
   -0.36891E+08         0.11905E+07         0.00000E+00
    0.11905E+07        -0.50025E+08         0.00000E+00
    0.00000E+00         0.00000E+00        -0.38396E+08
 
   -0.36955E+08         0.12911E+07         0.00000E+00
    0.12911E+07        -0.50030E+08         0.00000E+00
    0.00000E+00         0.00000E+00        -0.38395E+08
 
   -0.37017E+08         0.13917E+07         0.00000E+00
    0.13917E+07        -0.50034E+08         0.00000E+00
    0.00000E+00         0.00000E+00        -0.38394E+08
 
   -0.37078E+08         0.14923E+07         0.00000E+00
    0.14923E+07        -0.50039E+08         0.00000E+00
    0.00000E+00         0.00000E+00        -0.38392E+08
 
   -0.37136E+08         0.15930E+07         0.00000E+00
    0.15930E+07        -0.50044E+08         0.00000E+00
    0.00000E+00         0.00000E+00        -0.38391E+08
 
   -0.37193E+08         0.16938E+07         0.00000E+00
    0.16938E+07        -0.50049E+08         0.00000E+00
    0.00000E+00         0.00000E+00        -0.38390E+08
 
   -0.37248E+08         0.17948E+07         0.00000E+00
    0.17948E+07        -0.50054E+08         0.00000E+00
    0.00000E+00         0.00000E+00        -0.38389E+08
 
   -0.37301E+08         0.18961E+07         0.00000E+00
    0.18961E+07        -0.50059E+08         0.00000E+00
    0.00000E+00         0.00000E+00        -0.38388E+08
 
   -0.37353E+08         0.19977E+07         0.00000E+00
    0.19977E+07        -0.50065E+08         0.00000E+00
    0.00000E+00         0.00000E+00        -0.38387E+08
 
   -0.37403E+08         0.20997E+07         0.00000E+00
    0.20997E+07        -0.50070E+08         0.00000E+00
    0.00000E+00         0.00000E+00        -0.38385E+08
 
   -0.37451E+08         0.22021E+07         0.00000E+00
    0.22021E+07        -0.50075E+08         0.00000E+00
    0.00000E+00         0.00000E+00        -0.38384E+08
 
   -0.37498E+08         0.23050E+07         0.00000E+00
    0.23050E+07        -0.50080E+08         0.00000E+00
    0.00000E+00         0.00000E+00        -0.38383E+08
 
   -0.37544E+08         0.24084E+07         0.00000E+00
    0.24084E+07        -0.50085E+08         0.00000E+00
    0.00000E+00         0.00000E+00        -0.38382E+08
 
   -0.37588E+08         0.25124E+07         0.00000E+00
    0.25124E+07        -0.50090E+08         0.00000E+00
    0.00000E+00         0.00000E+00        -0.38381E+08
 
   -0.37631E+08         0.26170E+07         0.00000E+00
    0.26170E+07        -0.50095E+08         0.00000E+00
    0.00000E+00         0.00000E+00        -0.38379E+08
 
   -0.37672E+08         0.27222E+07         0.00000E+00
    0.27222E+07        -0.50099E+08         0.00000E+00
    0.00000E+00         0.00000E+00        -0.38378E+08
 
   -0.37712E+08         0.28281E+07         0.00000E+00
    0.28281E+07        -0.50104E+08         0.00000E+00
    0.00000E+00         0.00000E+00        -0.38377E+08
 
   -0.37751E+08         0.29348E+07         0.00000E+00
    0.29348E+07        -0.50108E+08         0.00000E+00
    0.00000E+00         0.00000E+00        -0.38376E+08
 
   -0.37788E+08         0.30422E+07         0.00000E+00
    0.30422E+07        -0.50111E+08         0.00000E+00
    0.00000E+00         0.00000E+00        -0.38374E+08
 
   -0.37825E+08         0.31503E+07         0.00000E+00
    0.31503E+07        -0.50114E+08         0.00000E+00
    0.00000E+00         0.00000E+00        -0.38373E+08
 
   -0.37860E+08         0.32594E+07         0.00000E+00
    0.32594E+07        -0.50117E+08         0.00000E+00
    0.00000E+00         0.00000E+00        -0.38372E+08
 
   -0.37894E+08         0.33693E+07         0.00000E+00
    0.33693E+07        -0.50120E+08         0.00000E+00
    0.00000E+00         0.00000E+00        -0.38371E+08
 
   -0.37928E+08         0.34801E+07         0.00000E+00
    0.34801E+07        -0.50122E+08         0.00000E+00
    0.00000E+00         0.00000E+00        -0.38370E+08
 
   -0.37960E+08         0.35918E+07         0.00000E+00
    0.35918E+07        -0.50123E+08         0.00000E+00
    0.00000E+00         0.00000E+00        -0.38369E+08
 
   -0.37991E+08         0.37045E+07         0.00000E+00
    0.37045E+07        -0.50124E+08         0.00000E+00
    0.00000E+00         0.00000E+00        -0.38368E+08
 
   -0.38021E+08         0.38183E+07         0.00000E+00
    0.38183E+07        -0.50125E+08         0.00000E+00
    0.00000E+00         0.00000E+00        -0.38367E+08
 
   -0.38050E+08         0.39331E+07         0.00000E+00
    0.39331E+07        -0.50125E+08         0.00000E+00
    0.00000E+00         0.00000E+00        -0.38366E+08
 
   -0.38079E+08         0.40490E+07         0.00000E+00
    0.40490E+07        -0.50124E+08         0.00000E+00
    0.00000E+00         0.00000E+00        -0.38365E+08
 
   -0.38106E+08         0.41660E+07         0.00000E+00
    0.41660E+07        -0.50122E+08         0.00000E+00
    0.00000E+00         0.00000E+00        -0.38364E+08
 
   -0.38133E+08         0.42843E+07         0.00000E+00
    0.42843E+07        -0.50120E+08         0.00000E+00
    0.00000E+00         0.00000E+00        -0.38364E+08
 
   -0.38159E+08         0.44038E+07         0.00000E+00
    0.44038E+07        -0.50118E+08         0.00000E+00
    0.00000E+00         0.00000E+00        -0.38363E+08
 
   -0.38185E+08         0.45246E+07         0.00000E+00
    0.45246E+07        -0.50114E+08         0.00000E+00
    0.00000E+00         0.00000E+00        -0.38362E+08
 
   -0.38209E+08         0.46468E+07         0.00000E+00
    0.46468E+07        -0.50110E+08         0.00000E+00
    0.00000E+00         0.00000E+00        -0.38362E+08
 
   -0.38234E+08         0.47703E+07         0.00000E+00
    0.47703E+07        -0.50105E+08         0.00000E+00
    0.00000E+00         0.00000E+00        -0.38361E+08
 
   -0.38257E+08         0.48954E+07         0.00000E+00
    0.48954E+07        -0.50099E+08         0.00000E+00
    0.00000E+00         0.00000E+00        -0.38361E+08
 
   -0.38281E+08         0.50220E+07         0.00000E+00
    0.50220E+07        -0.50092E+08         0.00000E+00
    0.00000E+00         0.00000E+00        -0.38360E+08
 
   -0.38303E+08         0.51501E+07         0.00000E+00
    0.51501E+07        -0.50084E+08         0.00000E+00
    0.00000E+00         0.00000E+00        -0.38360E+08
 
   -0.38326E+08         0.52799E+07         0.00000E+00
    0.52799E+07        -0.50075E+08         0.00000E+00
    0.00000E+00         0.00000E+00        -0.38360E+08
 
   -0.38349E+08         0.54114E+07         0.00000E+00
    0.54114E+07        -0.50065E+08         0.00000E+00
    0.00000E+00         0.00000E+00        -0.38360E+08
 
   -0.35515E+08         0.53952E+05         0.00000E+00
    0.53952E+05        -0.50000E+08         0.00000E+00
    0.00000E+00         0.00000E+00        -0.37720E+08
 
   -0.35608E+08         0.15834E+06         0.00000E+00
    0.15834E+06        -0.50001E+08         0.00000E+00
    0.00000E+00         0.00000E+00        -0.37719E+08
 
   -0.35699E+08         0.26163E+06         0.00000E+00
    0.26163E+06        -0.50002E+08         0.00000E+00
    0.00000E+00         0.00000E+00        -0.37719E+08
 
   -0.35786E+08         0.36396E+06         0.00000E+00
    0.36396E+06        -0.50004E+08         0.00000E+00
    0.00000E+00         0.00000E+00        -0.37719E+08
 
   -0.35871E+08         0.46547E+06         0.00000E+00
    0.46547E+06        -0.50007E+08         0.00000E+00
    0.00000E+00         0.00000E+00        -0.37718E+08
 
   -0.35953E+08         0.56628E+06         0.00000E+00
    0.56628E+06        -0.50011E+08         0.00000E+00
    0.00000E+00         0.00000E+00        -0.37718E+08
 
   -0.36033E+08         0.66651E+06         0.00000E+00
    0.66651E+06        -0.50015E+08         0.00000E+00
    0.00000E+00         0.00000E+00        -0.37717E+08
 
   -0.36109E+08         0.76626E+06         0.00000E+00
    0.76626E+06        -0.50019E+08         0.00000E+00
    0.00000E+00         0.00000E+00        -0.37717E+08
 
   -0.36184E+08         0.86566E+06         0.00000E+00
    0.86566E+06        -0.50024E+08         0.00000E+00
    0.00000E+00         0.00000E+00        -0.37716E+08
 
   -0.36255E+08         0.96481E+06         0.00000E+00
    0.96481E+06        -0.50030E+08         0.00000E+00
    0.00000E+00         0.00000E+00        -0.37715E+08
 
   -0.36324E+08         0.10638E+07         0.00000E+00
    0.10638E+07        -0.50037E+08         0.00000E+00
    0.00000E+00         0.00000E+00        -0.37714E+08
 
   -0.36391E+08         0.11627E+07         0.00000E+00
    0.11627E+07        -0.50043E+08         0.00000E+00
    0.00000E+00         0.00000E+00        -0.37713E+08
 
   -0.36455E+08         0.12617E+07         0.00000E+00
    0.12617E+07        -0.50051E+08         0.00000E+00
    0.00000E+00         0.00000E+00        -0.37712E+08
 
   -0.36517E+08         0.13608E+07         0.00000E+00
    0.13608E+07        -0.50058E+08         0.00000E+00
    0.00000E+00         0.00000E+00        -0.37711E+08
 
   -0.36577E+08         0.14600E+07         0.00000E+00
    0.14600E+07        -0.50066E+08         0.00000E+00
    0.00000E+00         0.00000E+00        -0.37710E+08
 
   -0.36635E+08         0.15595E+07         0.00000E+00
    0.15595E+07        -0.50075E+08         0.00000E+00
    0.00000E+00         0.00000E+00        -0.37709E+08
 
   -0.36690E+08         0.16594E+07         0.00000E+00
    0.16594E+07        -0.50083E+08         0.00000E+00
    0.00000E+00         0.00000E+00        -0.37708E+08
 
   -0.36744E+08         0.17597E+07         0.00000E+00
    0.17597E+07        -0.50092E+08         0.00000E+00
    0.00000E+00         0.00000E+00        -0.37707E+08
 
   -0.36795E+08         0.18604E+07         0.00000E+00
    0.18604E+07        -0.50101E+08         0.00000E+00
    0.00000E+00         0.00000E+00        -0.37706E+08
 
   -0.36844E+08         0.19617E+07         0.00000E+00
    0.19617E+07        -0.50110E+08         0.00000E+00
    0.00000E+00         0.00000E+00        -0.37704E+08
 
   -0.36892E+08         0.20635E+07         0.00000E+00
    0.20635E+07        -0.50120E+08         0.00000E+00
    0.00000E+00         0.00000E+00        -0.37703E+08
 
   -0.36938E+08         0.21660E+07         0.00000E+00
    0.21660E+07        -0.50129E+08         0.00000E+00
    0.00000E+00         0.00000E+00        -0.37702E+08
 
   -0.36981E+08         0.22692E+07         0.00000E+00
    0.22692E+07        -0.50139E+08         0.00000E+00
    0.00000E+00         0.00000E+00        -0.37701E+08
 
   -0.37024E+08         0.23731E+07         0.00000E+00
    0.23731E+07        -0.50148E+08         0.00000E+00
    0.00000E+00         0.00000E+00        -0.37700E+08
 
   -0.37064E+08         0.24777E+07         0.00000E+00
    0.24777E+07        -0.50157E+08         0.00000E+00
    0.00000E+00         0.00000E+00        -0.37698E+08
 
   -0.37103E+08         0.25832E+07         0.00000E+00
    0.25832E+07        -0.50166E+08         0.00000E+00
    0.00000E+00         0.00000E+00        -0.37697E+08
 
   -0.37141E+08         0.26895E+07         0.00000E+00
    0.26895E+07        -0.50175E+08         0.00000E+00
    0.00000E+00         0.00000E+00        -0.37696E+08
 
   -0.37177E+08         0.27967E+07         0.00000E+00
    0.27967E+07        -0.50184E+08         0.00000E+00
    0.00000E+00         0.00000E+00        -0.37695E+08
 
   -0.37212E+08         0.29048E+07         0.00000E+00
    0.29048E+07        -0.50192E+08         0.00000E+00
    0.00000E+00         0.00000E+00        -0.37694E+08
 
   -0.37245E+08         0.30139E+07         0.00000E+00
    0.30139E+07        -0.50201E+08         0.00000E+00
    0.00000E+00         0.00000E+00        -0.37692E+08
 
   -0.37277E+08         0.31239E+07         0.00000E+00
    0.31239E+07        -0.50208E+08         0.00000E+00
    0.00000E+00         0.00000E+00        -0.37691E+08
 
   -0.37307E+08         0.32350E+07         0.00000E+00
    0.32350E+07        -0.50216E+08         0.00000E+00
    0.00000E+00         0.00000E+00        -0.37690E+08
 
   -0.37337E+08         0.33470E+07         0.00000E+00
    0.33470E+07        -0.50223E+08         0.00000E+00
    0.00000E+00         0.00000E+00        -0.37689E+08
 
   -0.37365E+08         0.34602E+07         0.00000E+00
    0.34602E+07        -0.50229E+08         0.00000E+00
    0.00000E+00         0.00000E+00        -0.37688E+08
 
   -0.37392E+08         0.35744E+07         0.00000E+00
    0.35744E+07        -0.50236E+08         0.00000E+00
    0.00000E+00         0.00000E+00        -0.37687E+08
 
   -0.37418E+08         0.36898E+07         0.00000E+00
    0.36898E+07        -0.50241E+08         0.00000E+00
    0.00000E+00         0.00000E+00        -0.37686E+08
 
   -0.37442E+08         0.38063E+07         0.00000E+00
    0.38063E+07        -0.50246E+08         0.00000E+00
    0.00000E+00         0.00000E+00        -0.37685E+08
 
   -0.37466E+08         0.39241E+07         0.00000E+00
    0.39241E+07        -0.50251E+08         0.00000E+00
    0.00000E+00         0.00000E+00        -0.37684E+08
 
   -0.37488E+08         0.40431E+07         0.00000E+00
    0.40431E+07        -0.50254E+08         0.00000E+00
    0.00000E+00         0.00000E+00        -0.37684E+08
 
   -0.37510E+08         0.41633E+07         0.00000E+00
    0.41633E+07        -0.50258E+08         0.00000E+00
    0.00000E+00         0.00000E+00        -0.37683E+08
 
   -0.37530E+08         0.42850E+07         0.00000E+00
    0.42850E+07        -0.50260E+08         0.00000E+00
    0.00000E+00         0.00000E+00        -0.37682E+08
 
   -0.37549E+08         0.44080E+07         0.00000E+00
    0.44080E+07        -0.50262E+08         0.00000E+00
    0.00000E+00         0.00000E+00        -0.37681E+08
 
   -0.37567E+08         0.45325E+07         0.00000E+00
    0.45325E+07        -0.50263E+08         0.00000E+00
    0.00000E+00         0.00000E+00        -0.37681E+08
 
   -0.37585E+08         0.46586E+07         0.00000E+00
    0.46586E+07        -0.50264E+08         0.00000E+00
    0.00000E+00         0.00000E+00        -0.37680E+08
 
   -0.37601E+08         0.47864E+07         0.00000E+00
    0.47864E+07        -0.50263E+08         0.00000E+00
    0.00000E+00         0.00000E+00        -0.37680E+08
 
   -0.37617E+08         0.49158E+07         0.00000E+00
    0.49158E+07        -0.50262E+08         0.00000E+00
    0.00000E+00         0.00000E+00        -0.37679E+08
 
   -0.37631E+08         0.50470E+07         0.00000E+00
    0.50470E+07        -0.50260E+08         0.00000E+00
    0.00000E+00         0.00000E+00        -0.37679E+08
 
   -0.37646E+08         0.51801E+07         0.00000E+00
    0.51801E+07        -0.50257E+08         0.00000E+00
    0.00000E+00         0.00000E+00        -0.37679E+08
 
   -0.37659E+08         0.53151E+07         0.00000E+00
    0.53151E+07        -0.50253E+08         0.00000E+00
    0.00000E+00         0.00000E+00        -0.37679E+08
 
   -0.37672E+08         0.54523E+07         0.00000E+00
    0.54523E+07        -0.50248E+08         0.00000E+00
    0.00000E+00         0.00000E+00        -0.37678E+08
 
   -0.35001E+08         0.51729E+05         0.00000E+00
    0.51729E+05        -0.50000E+08         0.00000E+00
    0.00000E+00         0.00000E+00        -0.37005E+08
 
   -0.35100E+08         0.15172E+06         0.00000E+00
    0.15172E+06        -0.50001E+08         0.00000E+00
    0.00000E+00         0.00000E+00        -0.37005E+08
 
   -0.35195E+08         0.25068E+06         0.00000E+00
    0.25068E+06        -0.50004E+08         0.00000E+00
    0.00000E+00         0.00000E+00        -0.37005E+08
 
   -0.35287E+08         0.34878E+06         0.00000E+00
    0.34878E+06        -0.50007E+08         0.00000E+00
    0.00000E+00         0.00000E+00        -0.37005E+08
 
   -0.35375E+08         0.44616E+06         0.00000E+00
    0.44616E+06        -0.50011E+08         0.00000E+00
    0.00000E+00         0.00000E+00        -0.37004E+08
 
   -0.35460E+08         0.54296E+06         0.00000E+00
    0.54296E+06        -0.50016E+08         0.00000E+00
    0.00000E+00         0.00000E+00        -0.37004E+08
 
   -0.35542E+08         0.63934E+06         0.00000E+00
    0.63934E+06        -0.50022E+08         0.00000E+00
    0.00000E+00         0.00000E+00        -0.37003E+08
 
   -0.35620E+08         0.73542E+06         0.00000E+00
    0.73542E+06        -0.50029E+08         0.00000E+00
    0.00000E+00         0.00000E+00        -0.37002E+08
 
   -0.35695E+08         0.83131E+06         0.00000E+00
    0.83131E+06        -0.50037E+08         0.00000E+00
    0.00000E+00         0.00000E+00        -0.37002E+08
 
   -0.35767E+08         0.92716E+06         0.00000E+00
    0.92716E+06        -0.50046E+08         0.00000E+00
    0.00000E+00         0.00000E+00        -0.37001E+08
 
   -0.35837E+08         0.10230E+07         0.00000E+00
    0.10230E+07        -0.50055E+08         0.00000E+00
    0.00000E+00         0.00000E+00        -0.37000E+08
 
   -0.35903E+08         0.11191E+07         0.00000E+00
    0.11191E+07        -0.50065E+08         0.00000E+00
    0.00000E+00         0.00000E+00        -0.36999E+08
 
   -0.35966E+08         0.12154E+07         0.00000E+00
    0.12154E+07        -0.50076E+08         0.00000E+00
    0.00000E+00         0.00000E+00        -0.36998E+08
 
   -0.36027E+08         0.13120E+07         0.00000E+00
    0.13120E+07        -0.50088E+08         0.00000E+00
    0.00000E+00         0.00000E+00        -0.36997E+08
 
   -0.36085E+08         0.14091E+07         0.00000E+00
    0.14091E+07        -0.50100E+08         0.00000E+00
    0.00000E+00         0.00000E+00        -0.36996E+08
 
   -0.36140E+08         0.15067E+07         0.00000E+00
    0.15067E+07        -0.50112E+08         0.00000E+00
    0.00000E+00         0.00000E+00        -0.36995E+08
 
   -0.36193E+08         0.16049E+07         0.00000E+00
    0.16049E+07        -0.50125E+08         0.00000E+00
    0.00000E+00         0.00000E+00        -0.36994E+08
 
   -0.36244E+08         0.17037E+07         0.00000E+00
    0.17037E+07        -0.50139E+08         0.00000E+00
    0.00000E+00         0.00000E+00        -0.36993E+08
 
   -0.36292E+08         0.18033E+07         0.00000E+00
    0.18033E+07        -0.50152E+08         0.00000E+00
    0.00000E+00         0.00000E+00        -0.36992E+08
 
   -0.36338E+08         0.19036E+07         0.00000E+00
    0.19036E+07        -0.50166E+08         0.00000E+00
    0.00000E+00         0.00000E+00        -0.36990E+08
 
   -0.36382E+08         0.20048E+07         0.00000E+00
    0.20048E+07        -0.50181E+08         0.00000E+00
    0.00000E+00         0.00000E+00        -0.36989E+08
 
   -0.36424E+08         0.21069E+07         0.00000E+00
    0.21069E+07        -0.50195E+08         0.00000E+00
    0.00000E+00         0.00000E+00        -0.36988E+08
 
   -0.36464E+08         0.22098E+07         0.00000E+00
    0.22098E+07        -0.50209E+08         0.00000E+00
    0.00000E+00         0.00000E+00        -0.36987E+08
 
   -0.36502E+08         0.23138E+07         0.00000E+00
    0.23138E+07        -0.50224E+08         0.00000E+00
    0.00000E+00         0.00000E+00        -0.36986E+08
 
   -0.36538E+08         0.24188E+07         0.00000E+00
    0.24188E+07        -0.50238E+08         0.00000E+00
    0.00000E+00         0.00000E+00        -0.36985E+08
 
   -0.36572E+08         0.25249E+07         0.00000E+00
    0.25249E+07        -0.50253E+08         0.00000E+00
    0.00000E+00         0.00000E+00        -0.36984E+08
 
   -0.36605E+08         0.26320E+07         0.00000E+00
    0.26320E+07        -0.50267E+08         0.00000E+00
    0.00000E+00         0.00000E+00        -0.36982E+08
 
   -0.36636E+08         0.27403E+07         0.00000E+00
    0.27403E+07        -0.50282E+08         0.00000E+00
    0.00000E+00         0.00000E+00        -0.36981E+08
 
   -0.36665E+08         0.28497E+07         0.00000E+00
    0.28497E+07        -0.50296E+08         0.00000E+00
    0.00000E+00         0.00000E+00        -0.36980E+08
 
   -0.36693E+08         0.29603E+07         0.00000E+00
    0.29603E+07        -0.50309E+08         0.00000E+00
    0.00000E+00         0.00000E+00        -0.36979E+08
 
   -0.36719E+08         0.30720E+07         0.00000E+00
    0.30720E+07        -0.50323E+08         0.00000E+00
    0.00000E+00         0.00000E+00        -0.36978E+08
 
   -0.36744E+08         0.31850E+07         0.00000E+00
    0.31850E+07        -0.50336E+08         0.00000E+00
    0.00000E+00         0.00000E+00        -0.36977E+08
 
   -0.36768E+08         0.32993E+07         0.00000E+00
    0.32993E+07        -0.50349E+08         0.00000E+00
    0.00000E+00         0.00000E+00        -0.36976E+08
 
   -0.36790E+08         0.34148E+07         0.00000E+00
    0.34148E+07        -0.50361E+08         0.00000E+00
    0.00000E+00         0.00000E+00        -0.36975E+08
 
   -0.36811E+08         0.35315E+07         0.00000E+00
    0.35315E+07        -0.50373E+08         0.00000E+00
    0.00000E+00         0.00000E+00        -0.36974E+08
 
   -0.36831E+08         0.36496E+07         0.00000E+00
    0.36496E+07        -0.50384E+08         0.00000E+00
    0.00000E+00         0.00000E+00        -0.36974E+08
 
   -0.36849E+08         0.37690E+07         0.00000E+00
    0.37690E+07        -0.50395E+08         0.00000E+00
    0.00000E+00         0.00000E+00        -0.36973E+08
 
   -0.36866E+08         0.38898E+07         0.00000E+00
    0.38898E+07        -0.50405E+08         0.00000E+00
    0.00000E+00         0.00000E+00        -0.36972E+08
 
   -0.36882E+08         0.40119E+07         0.00000E+00
    0.40119E+07        -0.50414E+08         0.00000E+00
    0.00000E+00         0.00000E+00        -0.36971E+08
 
   -0.36896E+08         0.41354E+07         0.00000E+00
    0.41354E+07        -0.50423E+08         0.00000E+00
    0.00000E+00         0.00000E+00        -0.36971E+08
 
   -0.36909E+08         0.42604E+07         0.00000E+00
    0.42604E+07        -0.50431E+08         0.00000E+00
    0.00000E+00         0.00000E+00        -0.36970E+08
 
   -0.36921E+08         0.43869E+07         0.00000E+00
    0.43869E+07        -0.50439E+08         0.00000E+00
    0.00000E+00         0.00000E+00        -0.36969E+08
 
   -0.36932E+08         0.45150E+07         0.00000E+00
    0.45150E+07        -0.50445E+08         0.00000E+00
    0.00000E+00         0.00000E+00        -0.36969E+08
 
   -0.36940E+08         0.46447E+07         0.00000E+00
    0.46447E+07        -0.50451E+08         0.00000E+00
    0.00000E+00         0.00000E+00        -0.36968E+08
 
   -0.36948E+08         0.47762E+07         0.00000E+00
    0.47762E+07        -0.50457E+08         0.00000E+00
    0.00000E+00         0.00000E+00        -0.36968E+08
 
   -0.36954E+08         0.49096E+07         0.00000E+00
    0.49096E+07        -0.50461E+08         0.00000E+00
    0.00000E+00         0.00000E+00        -0.36968E+08
 
   -0.36959E+08         0.50452E+07         0.00000E+00
    0.50452E+07        -0.50465E+08         0.00000E+00
    0.00000E+00         0.00000E+00        -0.36967E+08
 
   -0.36962E+08         0.51832E+07         0.00000E+00
    0.51832E+07        -0.50468E+08         0.00000E+00
    0.00000E+00         0.00000E+00        -0.36967E+08
 
   -0.36965E+08         0.53235E+07         0.00000E+00
    0.53235E+07        -0.50470E+08         0.00000E+00
    0.00000E+00         0.00000E+00        -0.36967E+08
 
   -0.36966E+08         0.54656E+07         0.00000E+00
    0.54656E+07        -0.50471E+08         0.00000E+00
    0.00000E+00         0.00000E+00        -0.36967E+08
 
   -0.34513E+08         0.48340E+05         0.00000E+00
    0.48340E+05        -0.50000E+08         0.00000E+00
    0.00000E+00         0.00000E+00        -0.36259E+08
 
   -0.34617E+08         0.14188E+06         0.00000E+00
    0.14188E+06        -0.50002E+08         0.00000E+00
    0.00000E+00         0.00000E+00        -0.36259E+08
 
   -0.34717E+08         0.23456E+06         0.00000E+00
    0.23456E+06        -0.50005E+08         0.00000E+00
    0.00000E+00         0.00000E+00        -0.36258E+08
 
   -0.34812E+08         0.32654E+06         0.00000E+00
    0.32654E+06        -0.50010E+08         0.00000E+00
    0.00000E+00         0.00000E+00        -0.36258E+08
 
   -0.34903E+08         0.41801E+06         0.00000E+00
    0.41801E+06        -0.50016E+08         0.00000E+00
    0.00000E+00         0.00000E+00        -0.36258E+08
 
   -0.34990E+08         0.50913E+06         0.00000E+00
    0.50913E+06        -0.50023E+08         0.00000E+00
    0.00000E+00         0.00000E+00        -0.36257E+08
 
   -0.35073E+08         0.60006E+06         0.00000E+00
    0.60006E+06        -0.50031E+08         0.00000E+00
    0.00000E+00         0.00000E+00        -0.36257E+08
 
   -0.35152E+08         0.69094E+06         0.00000E+00
    0.69094E+06        -0.50041E+08         0.00000E+00
    0.00000E+00         0.00000E+00        -0.36256E+08
 
   -0.35227E+08         0.78191E+06         0.00000E+00
    0.78191E+06        -0.50052E+08         0.00000E+00
    0.00000E+00         0.00000E+00        -0.36255E+08
 
   -0.35299E+08         0.87309E+06         0.00000E+00
    0.87309E+06        -0.50064E+08         0.00000E+00
    0.00000E+00         0.00000E+00        -0.36254E+08
 
   -0.35367E+08         0.96460E+06         0.00000E+00
    0.96460E+06        -0.50077E+08         0.00000E+00
    0.00000E+00         0.00000E+00        -0.36253E+08
 
   -0.35431E+08         0.10566E+07         0.00000E+00
    0.10566E+07        -0.50091E+08         0.00000E+00
    0.00000E+00         0.00000E+00        -0.36253E+08
 
   -0.35493E+08         0.11491E+07         0.00000E+00
    0.11491E+07        -0.50107E+08         0.00000E+00
    0.00000E+00         0.00000E+00        -0.36252E+08
 
   -0.35551E+08         0.12422E+07         0.00000E+00
    0.12422E+07        -0.50122E+08         0.00000E+00
    0.00000E+00         0.00000E+00        -0.36251E+08
 
   -0.35606E+08         0.13361E+07         0.00000E+00
    0.13361E+07        -0.50139E+08         0.00000E+00
    0.00000E+00         0.00000E+00        -0.36250E+08
 
   -0.35658E+08         0.14308E+07         0.00000E+00
    0.14308E+07        -0.50156E+08         0.00000E+00
    0.00000E+00         0.00000E+00        -0.36249E+08
 
   -0.35707E+08         0.15264E+07         0.00000E+00
    0.15264E+07        -0.50175E+08         0.00000E+00
    0.00000E+00         0.00000E+00        -0.36248E+08
 
   -0.35753E+08         0.16229E+07         0.00000E+00
    0.16229E+07        -0.50193E+08         0.00000E+00
    0.00000E+00         0.00000E+00        -0.36246E+08
 
   -0.35797E+08         0.17205E+07         0.00000E+00
    0.17205E+07        -0.50212E+08         0.00000E+00
    0.00000E+00         0.00000E+00        -0.36245E+08
 
   -0.35838E+08         0.18192E+07         0.00000E+00
    0.18192E+07        -0.50232E+08         0.00000E+00
    0.00000E+00         0.00000E+00        -0.36244E+08
 
   -0.35877E+08         0.19190E+07         0.00000E+00
    0.19190E+07        -0.50252E+08         0.00000E+00
    0.00000E+00         0.00000E+00        -0.36243E+08
 
   -0.35913E+08         0.20200E+07         0.00000E+00
    0.20200E+07        -0.50272E+08         0.00000E+00
    0.00000E+00         0.00000E+00        -0.36242E+08
 
   -0.35948E+08         0.21222E+07         0.00000E+00
    0.21222E+07        -0.50293E+08         0.00000E+00
    0.00000E+00         0.00000E+00        -0.36241E+08
 
   -0.35980E+08         0.22258E+07         0.00000E+00
    0.22258E+07        -0.50313E+08         0.00000E+00
    0.00000E+00         0.00000E+00        -0.36240E+08
 
   -0.36010E+08         0.23306E+07         0.00000E+00
    0.23306E+07        -0.50334E+08         0.00000E+00
    0.00000E+00         0.00000E+00        -0.36239E+08
 
   -0.36038E+08         0.24367E+07         0.00000E+00
    0.24367E+07        -0.50355E+08         0.00000E+00
    0.00000E+00         0.00000E+00        -0.36238E+08
 
   -0.36065E+08         0.25443E+07         0.00000E+00
    0.25443E+07        -0.50376E+08         0.00000E+00
    0.00000E+00         0.00000E+00        -0.36237E+08
 
   -0.36089E+08         0.26532E+07         0.00000E+00
    0.26532E+07        -0.50397E+08         0.00000E+00
    0.00000E+00         0.00000E+00        -0.36236E+08
 
   -0.36112E+08         0.27636E+07         0.00000E+00
    0.27636E+07        -0.50418E+08         0.00000E+00
    0.00000E+00         0.00000E+00        -0.36235E+08
 
   -0.36134E+08         0.28754E+07         0.00000E+00
    0.28754E+07        -0.50439E+08         0.00000E+00
    0.00000E+00         0.00000E+00        -0.36234E+08
 
   -0.36153E+08         0.29886E+07         0.00000E+00
    0.29886E+07        -0.50459E+08         0.00000E+00
    0.00000E+00         0.00000E+00        -0.36233E+08
 
   -0.36172E+08         0.31033E+07         0.00000E+00
    0.31033E+07        -0.50479E+08         0.00000E+00
    0.00000E+00         0.00000E+00        -0.36233E+08
 
   -0.36188E+08         0.32195E+07         0.00000E+00
    0.32195E+07        -0.50499E+08         0.00000E+00
    0.00000E+00         0.00000E+00        -0.36232E+08
 
   -0.36204E+08         0.33372E+07         0.00000E+00
    0.33372E+07        -0.50519E+08         0.00000E+00
    0.00000E+00         0.00000E+00        -0.36231E+08
 
   -0.36218E+08         0.34565E+07         0.00000E+00
    0.34565E+07        -0.50538E+08         0.00000E+00
    0.00000E+00         0.00000E+00        -0.36230E+08
 
   -0.36230E+08         0.35772E+07         0.00000E+00
    0.35772E+07        -0.50556E+08         0.00000E+00
    0.00000E+00         0.00000E+00        -0.36230E+08
 
   -0.36241E+08         0.36995E+07         0.00000E+00
    0.36995E+07        -0.50574E+08         0.00000E+00
    0.00000E+00         0.00000E+00        -0.36229E+08
 
   -0.36251E+08         0.38233E+07         0.00000E+00
    0.38233E+07        -0.50592E+08         0.00000E+00
    0.00000E+00         0.00000E+00        -0.36228E+08
 
   -0.36259E+08         0.39487E+07         0.00000E+00
    0.39487E+07        -0.50609E+08         0.00000E+00
    0.00000E+00         0.00000E+00        -0.36228E+08
 
   -0.36266E+08         0.40756E+07         0.00000E+00
    0.40756E+07        -0.50625E+08         0.00000E+00
    0.00000E+00         0.00000E+00        -0.36227E+08
 
   -0.36271E+08         0.42041E+07         0.00000E+00
    0.42041E+07        -0.50641E+08         0.00000E+00
    0.00000E+00         0.00000E+00        -0.36227E+08
 
   -0.36275E+08         0.43343E+07         0.00000E+00
    0.43343E+07        -0.50655E+08         0.00000E+00
    0.00000E+00         0.00000E+00        -0.36226E+08
 
   -0.36277E+08         0.44662E+07         0.00000E+00
    0.44662E+07        -0.50669E+08         0.00000E+00
    0.00000E+00         0.00000E+00        -0.36226E+08
 
   -0.36277E+08         0.45998E+07         0.00000E+00
    0.45998E+07        -0.50683E+08         0.00000E+00
    0.00000E+00         0.00000E+00        -0.36226E+08
 
   -0.36276E+08         0.47351E+07         0.00000E+00
    0.47351E+07        -0.50695E+08         0.00000E+00
    0.00000E+00         0.00000E+00        -0.36225E+08
 
   -0.36272E+08         0.48720E+07         0.00000E+00
    0.48720E+07        -0.50706E+08         0.00000E+00
    0.00000E+00         0.00000E+00        -0.36225E+08
 
   -0.36266E+08         0.50106E+07         0.00000E+00
    0.50106E+07        -0.50716E+08         0.00000E+00
    0.00000E+00         0.00000E+00        -0.36225E+08
 
   -0.36256E+08         0.51514E+07         0.00000E+00
    0.51514E+07        -0.50727E+08         0.00000E+00
    0.00000E+00         0.00000E+00        -0.36225E+08
 
   -0.36244E+08         0.52957E+07         0.00000E+00
    0.52957E+07        -0.50737E+08         0.00000E+00
    0.00000E+00         0.00000E+00        -0.36225E+08
 
   -0.36231E+08         0.54459E+07         0.00000E+00
    0.54459E+07        -0.50747E+08         0.00000E+00
    0.00000E+00         0.00000E+00        -0.36224E+08
 
   -0.34064E+08         0.43552E+05         0.00000E+00
    0.43552E+05        -0.50001E+08         0.00000E+00
    0.00000E+00         0.00000E+00        -0.35479E+08
 
   -0.34173E+08         0.12824E+06         0.00000E+00
    0.12824E+06        -0.50003E+08         0.00000E+00
    0.00000E+00         0.00000E+00        -0.35479E+08
 
   -0.34275E+08         0.21235E+06         0.00000E+00
    0.21235E+06        -0.50007E+08         0.00000E+00
    0.00000E+00         0.00000E+00        -0.35479E+08
 
   -0.34373E+08         0.29608E+06         0.00000E+00
    0.29608E+06        -0.50013E+08         0.00000E+00
    0.00000E+00         0.00000E+00        -0.35479E+08
 
   -0.34465E+08         0.37961E+06         0.00000E+00
    0.37961E+06        -0.50021E+08         0.00000E+00
    0.00000E+00         0.00000E+00        -0.35478E+08
 
   -0.34553E+08         0.46313E+06         0.00000E+00
    0.46313E+06        -0.50030E+08         0.00000E+00
    0.00000E+00         0.00000E+00        -0.35478E+08
 
   -0.34636E+08         0.54681E+06         0.00000E+00
    0.54681E+06        -0.50042E+08         0.00000E+00
    0.00000E+00         0.00000E+00        -0.35477E+08
 
   -0.34714E+08         0.63078E+06         0.00000E+00
    0.63078E+06        -0.50055E+08         0.00000E+00
    0.00000E+00         0.00000E+00        -0.35476E+08
 
   -0.34787E+08         0.71519E+06         0.00000E+00
    0.71519E+06        -0.50069E+08         0.00000E+00
    0.00000E+00         0.00000E+00        -0.35476E+08
 
   -0.34857E+08         0.80019E+06         0.00000E+00
    0.80019E+06        -0.50085E+08         0.00000E+00
    0.00000E+00         0.00000E+00        -0.35475E+08
 
   -0.34922E+08         0.88588E+06         0.00000E+00
    0.88588E+06        -0.50102E+08         0.00000E+00
    0.00000E+00         0.00000E+00        -0.35474E+08
 
   -0.34983E+08         0.97238E+06         0.00000E+00
    0.97238E+06        -0.50121E+08         0.00000E+00
    0.00000E+00         0.00000E+00        -0.35473E+08
 
   -0.35040E+08         0.10598E+07         0.00000E+00
    0.10598E+07        -0.50141E+08         0.00000E+00
    0.00000E+00         0.00000E+00        -0.35472E+08
 
   -0.35094E+08         0.11482E+07         0.00000E+00
    0.11482E+07        -0.50161E+08         0.00000E+00
    0.00000E+00         0.00000E+00        -0.35471E+08
 
   -0.35144E+08         0.12378E+07         0.00000E+00
    0.12378E+07        -0.50183E+08         0.00000E+00
    0.00000E+00         0.00000E+00        -0.35471E+08
 
   -0.35191E+08         0.13285E+07         0.00000E+00
    0.13285E+07        -0.50206E+08         0.00000E+00
    0.00000E+00         0.00000E+00        -0.35470E+08
 
   -0.35235E+08         0.14204E+07         0.00000E+00
    0.14204E+07        -0.50230E+08         0.00000E+00
    0.00000E+00         0.00000E+00        -0.35469E+08
 
   -0.35275E+08         0.15137E+07         0.00000E+00
    0.15137E+07        -0.50254E+08         0.00000E+00
    0.00000E+00         0.00000E+00        -0.35468E+08
 
   -0.35313E+08         0.16084E+07         0.00000E+00
    0.16084E+07        -0.50280E+08         0.00000E+00
    0.00000E+00         0.00000E+00        -0.35467E+08
 
   -0.35348E+08         0.17045E+07         0.00000E+00
    0.17045E+07        -0.50305E+08         0.00000E+00
    0.00000E+00         0.00000E+00        -0.35466E+08
 
   -0.35380E+08         0.18020E+07         0.00000E+00
    0.18020E+07        -0.50332E+08         0.00000E+00
    0.00000E+00         0.00000E+00        -0.35465E+08
 
   -0.35409E+08         0.19011E+07         0.00000E+00
    0.19011E+07        -0.50359E+08         0.00000E+00
    0.00000E+00         0.00000E+00        -0.35464E+08
 
   -0.35437E+08         0.20018E+07         0.00000E+00
    0.20018E+07        -0.50386E+08         0.00000E+00
    0.00000E+00         0.00000E+00        -0.35463E+08
 
   -0.35462E+08         0.21040E+07         0.00000E+00
    0.21040E+07        -0.50414E+08         0.00000E+00
    0.00000E+00         0.00000E+00        -0.35462E+08
 
   -0.35484E+08         0.22079E+07         0.00000E+00
    0.22079E+07        -0.50442E+08         0.00000E+00
    0.00000E+00         0.00000E+00        -0.35461E+08
 
   -0.35505E+08         0.23134E+07         0.00000E+00
    0.23134E+07        -0.50471E+08         0.00000E+00
    0.00000E+00         0.00000E+00        -0.35460E+08
 
   -0.35524E+08         0.24206E+07         0.00000E+00
    0.24206E+07        -0.50499E+08         0.00000E+00
    0.00000E+00         0.00000E+00        -0.35459E+08
 
   -0.35541E+08         0.25295E+07         0.00000E+00
    0.25295E+07        -0.50528E+08         0.00000E+00
    0.00000E+00         0.00000E+00        -0.35459E+08
 
   -0.35556E+08         0.26401E+07         0.00000E+00
    0.26401E+07        -0.50557E+08         0.00000E+00
    0.00000E+00         0.00000E+00        -0.35458E+08
 
   -0.35569E+08         0.27524E+07         0.00000E+00
    0.27524E+07        -0.50585E+08         0.00000E+00
    0.00000E+00         0.00000E+00        -0.35457E+08
 
   -0.35581E+08         0.28664E+07         0.00000E+00
    0.28664E+07        -0.50614E+08         0.00000E+00
    0.00000E+00         0.00000E+00        -0.35457E+08
 
   -0.35591E+08         0.29821E+07         0.00000E+00
    0.29821E+07        -0.50643E+08         0.00000E+00
    0.00000E+00         0.00000E+00        -0.35456E+08
 
   -0.35600E+08         0.30995E+07         0.00000E+00
    0.30995E+07        -0.50672E+08         0.00000E+00
    0.00000E+00         0.00000E+00        -0.35455E+08
 
   -0.35607E+08         0.32187E+07         0.00000E+00
    0.32187E+07        -0.50700E+08         0.00000E+00
    0.00000E+00         0.00000E+00        -0.35455E+08
 
   -0.35613E+08         0.33397E+07         0.00000E+00
    0.33397E+07        -0.50728E+08         0.00000E+00
    0.00000E+00         0.00000E+00        -0.35454E+08
 
   -0.35617E+08         0.34624E+07         0.00000E+00
    0.34624E+07        -0.50757E+08         0.00000E+00
    0.00000E+00         0.00000E+00        -0.35454E+08
 
   -0.35620E+08         0.35868E+07         0.00000E+00
    0.35868E+07        -0.50784E+08         0.00000E+00
    0.00000E+00         0.00000E+00        -0.35453E+08
 
   -0.35622E+08         0.37130E+07         0.00000E+00
    0.37130E+07        -0.50812E+08         0.00000E+00
    0.00000E+00         0.00000E+00        -0.35453E+08
 
   -0.35621E+08         0.38411E+07         0.00000E+00
    0.38411E+07        -0.50839E+08         0.00000E+00
    0.00000E+00         0.00000E+00        -0.35453E+08
 
   -0.35620E+08         0.39710E+07         0.00000E+00
    0.39710E+07        -0.50866E+08         0.00000E+00
    0.00000E+00         0.00000E+00        -0.35452E+08
 
   -0.35617E+08         0.41027E+07         0.00000E+00
    0.41027E+07        -0.50893E+08         0.00000E+00
    0.00000E+00         0.00000E+00        -0.35452E+08
 
   -0.35612E+08         0.42360E+07         0.00000E+00
    0.42360E+07        -0.50919E+08         0.00000E+00
    0.00000E+00         0.00000E+00        -0.35452E+08
 
   -0.35605E+08         0.43708E+07         0.00000E+00
    0.43708E+07        -0.50944E+08         0.00000E+00
    0.00000E+00         0.00000E+00        -0.35452E+08
 
   -0.35596E+08         0.45075E+07         0.00000E+00
    0.45075E+07        -0.50970E+08         0.00000E+00
    0.00000E+00         0.00000E+00        -0.35452E+08
 
   -0.35583E+08         0.46465E+07         0.00000E+00
    0.46465E+07        -0.50996E+08         0.00000E+00
    0.00000E+00         0.00000E+00        -0.35452E+08
 
   -0.35568E+08         0.47892E+07         0.00000E+00
    0.47892E+07        -0.51022E+08         0.00000E+00
    0.00000E+00         0.00000E+00        -0.35452E+08
 
   -0.35551E+08         0.49349E+07         0.00000E+00
    0.49349E+07        -0.51046E+08         0.00000E+00
    0.00000E+00         0.00000E+00        -0.35452E+08
 
   -0.35532E+08         0.50826E+07         0.00000E+00
    0.50826E+07        -0.51063E+08         0.00000E+00
    0.00000E+00         0.00000E+00        -0.35452E+08
 
   -0.35509E+08         0.52285E+07         0.00000E+00
    0.52285E+07        -0.51079E+08         0.00000E+00
    0.00000E+00         0.00000E+00        -0.35452E+08
 
   -0.35474E+08         0.53677E+07         0.00000E+00
    0.53677E+07        -0.51097E+08         0.00000E+00
    0.00000E+00         0.00000E+00        -0.35451E+08
 
   -0.33667E+08         0.37180E+05         0.00000E+00
    0.37180E+05        -0.50001E+08         0.00000E+00
    0.00000E+00         0.00000E+00        -0.34667E+08
 
   -0.33778E+08         0.11034E+06         0.00000E+00
    0.11034E+06        -0.50004E+08         0.00000E+00
    0.00000E+00         0.00000E+00        -0.34667E+08
 
   -0.33882E+08         0.18338E+06         0.00000E+00
    0.18338E+06        -0.50009E+08         0.00000E+00
    0.00000E+00         0.00000E+00        -0.34666E+08
 
   -0.33980E+08         0.25650E+06         0.00000E+00
    0.25650E+06        -0.50016E+08         0.00000E+00
    0.00000E+00         0.00000E+00        -0.34666E+08
 
   -0.34072E+08         0.32990E+06         0.00000E+00
    0.32990E+06        -0.50026E+08         0.00000E+00
    0.00000E+00         0.00000E+00        -0.34666E+08
 
   -0.34158E+08         0.40374E+06         0.00000E+00
    0.40374E+06        -0.50039E+08         0.00000E+00
    0.00000E+00         0.00000E+00        -0.34665E+08
 
   -0.34238E+08         0.47821E+06         0.00000E+00
    0.47821E+06        -0.50053E+08         0.00000E+00
    0.00000E+00         0.00000E+00        -0.34665E+08
 
   -0.34313E+08         0.55343E+06         0.00000E+00
    0.55343E+06        -0.50069E+08         0.00000E+00
    0.00000E+00         0.00000E+00        -0.34664E+08
 
   -0.34383E+08         0.62957E+06         0.00000E+00
    0.62957E+06        -0.50087E+08         0.00000E+00
    0.00000E+00         0.00000E+00        -0.34663E+08
 
   -0.34448E+08         0.70675E+06         0.00000E+00
    0.70675E+06        -0.50107E+08         0.00000E+00
    0.00000E+00         0.00000E+00        -0.34663E+08
 
   -0.34509E+08         0.78507E+06         0.00000E+00
    0.78507E+06        -0.50129E+08         0.00000E+00
    0.00000E+00         0.00000E+00        -0.34662E+08
 
   -0.34565E+08         0.86466E+06         0.00000E+00
    0.86466E+06        -0.50152E+08         0.00000E+00
    0.00000E+00         0.00000E+00        -0.34661E+08
 
   -0.34616E+08         0.94561E+06         0.00000E+00
    0.94561E+06        -0.50177E+08         0.00000E+00
    0.00000E+00         0.00000E+00        -0.34660E+08
 
   -0.34663E+08         0.10280E+07         0.00000E+00
    0.10280E+07        -0.50203E+08         0.00000E+00
    0.00000E+00         0.00000E+00        -0.34659E+08
 
   -0.34707E+08         0.11119E+07         0.00000E+00
    0.11119E+07        -0.50230E+08         0.00000E+00
    0.00000E+00         0.00000E+00        -0.34659E+08
 
   -0.34747E+08         0.11974E+07         0.00000E+00
    0.11974E+07        -0.50259E+08         0.00000E+00
    0.00000E+00         0.00000E+00        -0.34658E+08
 
   -0.34783E+08         0.12846E+07         0.00000E+00
    0.12846E+07        -0.50288E+08         0.00000E+00
    0.00000E+00         0.00000E+00        -0.34657E+08
 
   -0.34816E+08         0.13735E+07         0.00000E+00
    0.13735E+07        -0.50319E+08         0.00000E+00
    0.00000E+00         0.00000E+00        -0.34656E+08
 
   -0.34845E+08         0.14642E+07         0.00000E+00
    0.14642E+07        -0.50351E+08         0.00000E+00
    0.00000E+00         0.00000E+00        -0.34655E+08
 
   -0.34872E+08         0.15567E+07         0.00000E+00
    0.15567E+07        -0.50383E+08         0.00000E+00
    0.00000E+00         0.00000E+00        -0.34654E+08
 
   -0.34896E+08         0.16510E+07         0.00000E+00
    0.16510E+07        -0.50417E+08         0.00000E+00
    0.00000E+00         0.00000E+00        -0.34654E+08
 
   -0.34917E+08         0.17472E+07         0.00000E+00
    0.17472E+07        -0.50451E+08         0.00000E+00
    0.00000E+00         0.00000E+00        -0.34653E+08
 
   -0.34935E+08         0.18453E+07         0.00000E+00
    0.18453E+07        -0.50485E+08         0.00000E+00
    0.00000E+00         0.00000E+00        -0.34652E+08
 
   -0.34951E+08         0.19453E+07         0.00000E+00
    0.19453E+07        -0.50521E+08         0.00000E+00
    0.00000E+00         0.00000E+00        -0.34651E+08
 
   -0.34965E+08         0.20472E+07         0.00000E+00
    0.20472E+07        -0.50556E+08         0.00000E+00
    0.00000E+00         0.00000E+00        -0.34651E+08
 
   -0.34977E+08         0.21511E+07         0.00000E+00
    0.21511E+07        -0.50593E+08         0.00000E+00
    0.00000E+00         0.00000E+00        -0.34650E+08
 
   -0.34987E+08         0.22569E+07         0.00000E+00
    0.22569E+07        -0.50629E+08         0.00000E+00
    0.00000E+00         0.00000E+00        -0.34649E+08
 
   -0.34995E+08         0.23647E+07         0.00000E+00
    0.23647E+07        -0.50666E+08         0.00000E+00
    0.00000E+00         0.00000E+00        -0.34649E+08
 
   -0.35001E+08         0.24743E+07         0.00000E+00
    0.24743E+07        -0.50704E+08         0.00000E+00
    0.00000E+00         0.00000E+00        -0.34648E+08
 
   -0.35005E+08         0.25859E+07         0.00000E+00
    0.25859E+07        -0.50741E+08         0.00000E+00
    0.00000E+00         0.00000E+00        -0.34648E+08
 
   -0.35008E+08         0.26994E+07         0.00000E+00
    0.26994E+07        -0.50779E+08         0.00000E+00
    0.00000E+00         0.00000E+00        -0.34647E+08
 
   -0.35009E+08         0.28148E+07         0.00000E+00
    0.28148E+07        -0.50817E+08         0.00000E+00
    0.00000E+00         0.00000E+00        -0.34647E+08
 
   -0.35009E+08         0.29320E+07         0.00000E+00
    0.29320E+07        -0.50856E+08         0.00000E+00
    0.00000E+00         0.00000E+00        -0.34647E+08
 
   -0.35007E+08         0.30512E+07         0.00000E+00
    0.30512E+07        -0.50894E+08         0.00000E+00
    0.00000E+00         0.00000E+00        -0.34646E+08
 
   -0.35004E+08         0.31722E+07         0.00000E+00
    0.31722E+07        -0.50933E+08         0.00000E+00
    0.00000E+00         0.00000E+00        -0.34646E+08
 
   -0.34999E+08         0.32951E+07         0.00000E+00
    0.32951E+07        -0.50972E+08         0.00000E+00
    0.00000E+00         0.00000E+00        -0.34646E+08
 
   -0.34994E+08         0.34196E+07         0.00000E+00
    0.34196E+07        -0.51011E+08         0.00000E+00
    0.00000E+00         0.00000E+00        -0.34646E+08
 
   -0.34986E+08         0.35457E+07         0.00000E+00
    0.35457E+07        -0.51050E+08         0.00000E+00
    0.00000E+00         0.00000E+00        -0.34646E+08
 
   -0.34978E+08         0.36734E+07         0.00000E+00
    0.36734E+07        -0.51090E+08         0.00000E+00
    0.00000E+00         0.00000E+00        -0.34646E+08
 
   -0.34967E+08         0.38026E+07         0.00000E+00
    0.38026E+07        -0.51131E+08         0.00000E+00
    0.00000E+00         0.00000E+00        -0.34646E+08
 
   -0.34954E+08         0.39339E+07         0.00000E+00
    0.39339E+07        -0.51172E+08         0.00000E+00
    0.00000E+00         0.00000E+00        -0.34646E+08
 
   -0.34939E+08         0.40681E+07         0.00000E+00
    0.40681E+07        -0.51215E+08         0.00000E+00
    0.00000E+00         0.00000E+00        -0.34646E+08
 
   -0.34924E+08         0.42049E+07         0.00000E+00
    0.42049E+07        -0.51257E+08         0.00000E+00
    0.00000E+00         0.00000E+00        -0.34646E+08
 
   -0.34909E+08         0.43430E+07         0.00000E+00
    0.43430E+07        -0.51294E+08         0.00000E+00
    0.00000E+00         0.00000E+00        -0.34646E+08
 
   -0.34894E+08         0.44802E+07         0.00000E+00
    0.44802E+07        -0.51332E+08         0.00000E+00
    0.00000E+00         0.00000E+00        -0.34647E+08
 
   -0.34874E+08         0.46113E+07         0.00000E+00
    0.46113E+07        -0.51372E+08         0.00000E+00
    0.00000E+00         0.00000E+00        -0.34647E+08
 
   -0.34843E+08         0.47410E+07         0.00000E+00
    0.47410E+07        -0.51426E+08         0.00000E+00
    0.00000E+00         0.00000E+00        -0.34647E+08
 
   -0.34802E+08         0.48741E+07         0.00000E+00
    0.48741E+07        -0.51509E+08         0.00000E+00
    0.00000E+00         0.00000E+00        -0.34650E+08
 
   -0.34800E+08         0.49954E+07         0.00000E+00
    0.49954E+07        -0.51584E+08         0.00000E+00
    0.00000E+00         0.00000E+00        -0.34706E+08
 
   -0.34801E+08         0.51130E+07         0.00000E+00
    0.51130E+07        -0.51664E+08         0.00000E+00
    0.00000E+00         0.00000E+00        -0.34769E+08
 
   -0.33336E+08         0.29122E+05         0.00000E+00
    0.29122E+05        -0.50001E+08         0.00000E+00
    0.00000E+00         0.00000E+00        -0.33821E+08
 
   -0.33446E+08         0.87971E+05         0.00000E+00
    0.87971E+05        -0.50004E+08         0.00000E+00
    0.00000E+00         0.00000E+00        -0.33821E+08
 
   -0.33549E+08         0.14734E+06         0.00000E+00
    0.14734E+06        -0.50011E+08         0.00000E+00
    0.00000E+00         0.00000E+00        -0.33821E+08
 
   -0.33645E+08         0.20743E+06         0.00000E+00
    0.20743E+06        -0.50020E+08         0.00000E+00
    0.00000E+00         0.00000E+00        -0.33820E+08
 
   -0.33733E+08         0.26841E+06         0.00000E+00
    0.26841E+06        -0.50032E+08         0.00000E+00
    0.00000E+00         0.00000E+00        -0.33820E+08
 
   -0.33815E+08         0.33046E+06         0.00000E+00
    0.33046E+06        -0.50047E+08         0.00000E+00
    0.00000E+00         0.00000E+00        -0.33820E+08
 
   -0.33891E+08         0.39373E+06         0.00000E+00
    0.39373E+06        -0.50064E+08         0.00000E+00
    0.00000E+00         0.00000E+00        -0.33819E+08
 
   -0.33960E+08         0.45836E+06         0.00000E+00
    0.45836E+06        -0.50084E+08         0.00000E+00
    0.00000E+00         0.00000E+00        -0.33819E+08
 
   -0.34024E+08         0.52448E+06         0.00000E+00
    0.52448E+06        -0.50106E+08         0.00000E+00
    0.00000E+00         0.00000E+00        -0.33818E+08
 
   -0.34082E+08         0.59219E+06         0.00000E+00
    0.59219E+06        -0.50130E+08         0.00000E+00
    0.00000E+00         0.00000E+00        -0.33817E+08
 
   -0.34135E+08         0.66161E+06         0.00000E+00
    0.66161E+06        -0.50156E+08         0.00000E+00
    0.00000E+00         0.00000E+00        -0.33817E+08
 
   -0.34183E+08         0.73283E+06         0.00000E+00
    0.73283E+06        -0.50183E+08         0.00000E+00
    0.00000E+00         0.00000E+00        -0.33816E+08
 
   -0.34226E+08         0.80593E+06         0.00000E+00
    0.80593E+06        -0.50213E+08         0.00000E+00
    0.00000E+00         0.00000E+00        -0.33815E+08
 
   -0.34265E+08         0.88099E+06         0.00000E+00
    0.88099E+06        -0.50244E+08         0.00000E+00
    0.00000E+00         0.00000E+00        -0.33815E+08
 
   -0.34299E+08         0.95807E+06         0.00000E+00
    0.95807E+06        -0.50277E+08         0.00000E+00
    0.00000E+00         0.00000E+00        -0.33814E+08
 
   -0.34330E+08         0.10372E+07         0.00000E+00
    0.10372E+07        -0.50311E+08         0.00000E+00
    0.00000E+00         0.00000E+00        -0.33813E+08
 
   -0.34357E+08         0.11185E+07         0.00000E+00
    0.11185E+07        -0.50347E+08         0.00000E+00
    0.00000E+00         0.00000E+00        -0.33813E+08
 
   -0.34380E+08         0.12019E+07         0.00000E+00
    0.12019E+07        -0.50383E+08         0.00000E+00
    0.00000E+00         0.00000E+00        -0.33812E+08
 
   -0.34399E+08         0.12876E+07         0.00000E+00
    0.12876E+07        -0.50421E+08         0.00000E+00
    0.00000E+00         0.00000E+00        -0.33811E+08
 
   -0.34416E+08         0.13754E+07         0.00000E+00
    0.13754E+07        -0.50460E+08         0.00000E+00
    0.00000E+00         0.00000E+00        -0.33811E+08
 
   -0.34429E+08         0.14654E+07         0.00000E+00
    0.14654E+07        -0.50500E+08         0.00000E+00
    0.00000E+00         0.00000E+00        -0.33810E+08
 
   -0.34440E+08         0.15578E+07         0.00000E+00
    0.15578E+07        -0.50541E+08         0.00000E+00
    0.00000E+00         0.00000E+00        -0.33809E+08
 
   -0.34449E+08         0.16523E+07         0.00000E+00
    0.16523E+07        -0.50583E+08         0.00000E+00
    0.00000E+00         0.00000E+00        -0.33809E+08
 
   -0.34454E+08         0.17491E+07         0.00000E+00
    0.17491E+07        -0.50625E+08         0.00000E+00
    0.00000E+00         0.00000E+00        -0.33808E+08
 
   -0.34458E+08         0.18481E+07         0.00000E+00
    0.18481E+07        -0.50669E+08         0.00000E+00
    0.00000E+00         0.00000E+00        -0.33808E+08
 
   -0.34459E+08         0.19493E+07         0.00000E+00
    0.19493E+07        -0.50712E+08         0.00000E+00
    0.00000E+00         0.00000E+00        -0.33807E+08
 
   -0.34459E+08         0.20526E+07         0.00000E+00
    0.20526E+07        -0.50757E+08         0.00000E+00
    0.00000E+00         0.00000E+00        -0.33807E+08
 
   -0.34457E+08         0.21581E+07         0.00000E+00
    0.21581E+07        -0.50802E+08         0.00000E+00
    0.00000E+00         0.00000E+00        -0.33807E+08
 
   -0.34453E+08         0.22657E+07         0.00000E+00
    0.22657E+07        -0.50847E+08         0.00000E+00
    0.00000E+00         0.00000E+00        -0.33806E+08
 
   -0.34447E+08         0.23754E+07         0.00000E+00
    0.23754E+07        -0.50893E+08         0.00000E+00
    0.00000E+00         0.00000E+00        -0.33806E+08
 
   -0.34440E+08         0.24872E+07         0.00000E+00
    0.24872E+07        -0.50940E+08         0.00000E+00
    0.00000E+00         0.00000E+00        -0.33806E+08
 
   -0.34432E+08         0.26009E+07         0.00000E+00
    0.26009E+07        -0.50987E+08         0.00000E+00
    0.00000E+00         0.00000E+00        -0.33806E+08
 
   -0.34423E+08         0.27163E+07         0.00000E+00
    0.27163E+07        -0.51034E+08         0.00000E+00
    0.00000E+00         0.00000E+00        -0.33806E+08
 
   -0.34412E+08         0.28334E+07         0.00000E+00
    0.28334E+07        -0.51082E+08         0.00000E+00
    0.00000E+00         0.00000E+00        -0.33806E+08
 
   -0.34400E+08         0.29520E+07         0.00000E+00
    0.29520E+07        -0.51130E+08         0.00000E+00
    0.00000E+00         0.00000E+00        -0.33806E+08
 
   -0.34386E+08         0.30724E+07         0.00000E+00
    0.30724E+07        -0.51180E+08         0.00000E+00
    0.00000E+00         0.00000E+00        -0.33806E+08
 
   -0.34371E+08         0.31950E+07         0.00000E+00
    0.31950E+07        -0.51230E+08         0.00000E+00
    0.00000E+00         0.00000E+00        -0.33806E+08
 
   -0.34356E+08         0.33202E+07         0.00000E+00
    0.33202E+07        -0.51282E+08         0.00000E+00
    0.00000E+00         0.00000E+00        -0.33806E+08
 
   -0.34341E+08         0.34467E+07         0.00000E+00
    0.34467E+07        -0.51330E+08         0.00000E+00
    0.00000E+00         0.00000E+00        -0.33807E+08
 
   -0.34326E+08         0.35748E+07         0.00000E+00
    0.35748E+07        -0.51377E+08         0.00000E+00
    0.00000E+00         0.00000E+00        -0.33807E+08
 
   -0.34312E+08         0.37009E+07         0.00000E+00
    0.37009E+07        -0.51424E+08         0.00000E+00
    0.00000E+00         0.00000E+00        -0.33808E+08
 
   -0.34296E+08         0.38214E+07         0.00000E+00
    0.38214E+07        -0.51474E+08         0.00000E+00
    0.00000E+00         0.00000E+00        -0.33808E+08
 
   -0.34271E+08         0.39398E+07         0.00000E+00
    0.39398E+07        -0.51534E+08         0.00000E+00
    0.00000E+00         0.00000E+00        -0.33809E+08
 
   -0.34236E+08         0.40615E+07         0.00000E+00
    0.40615E+07        -0.51621E+08         0.00000E+00
    0.00000E+00         0.00000E+00        -0.33809E+08
 
   -0.34232E+08         0.41752E+07         0.00000E+00
    0.41752E+07        -0.51701E+08         0.00000E+00
    0.00000E+00         0.00000E+00        -0.33854E+08
 
   -0.34232E+08         0.42871E+07         0.00000E+00
    0.42871E+07        -0.51781E+08         0.00000E+00
    0.00000E+00         0.00000E+00        -0.33911E+08
 
   -0.34246E+08         0.43927E+07         0.00000E+00
    0.43927E+07        -0.51856E+08         0.00000E+00
    0.00000E+00         0.00000E+00        -0.33990E+08
 
   -0.34299E+08         0.44811E+07         0.00000E+00
    0.44811E+07        -0.51917E+08         0.00000E+00
    0.00000E+00         0.00000E+00        -0.34115E+08
 
   -0.34365E+08         0.45679E+07         0.00000E+00
    0.45679E+07        -0.52002E+08         0.00000E+00
    0.00000E+00         0.00000E+00        -0.34257E+08
 
   -0.34432E+08         0.46431E+07         0.00000E+00
    0.46431E+07        -0.52096E+08         0.00000E+00
    0.00000E+00         0.00000E+00        -0.34398E+08
 
   -0.33085E+08         0.19394E+05         0.00000E+00
    0.19394E+05        -0.50001E+08         0.00000E+00
    0.00000E+00         0.00000E+00        -0.32943E+08
 
   -0.33192E+08         0.61207E+05         0.00000E+00
    0.61207E+05        -0.50005E+08         0.00000E+00
    0.00000E+00         0.00000E+00        -0.32943E+08
 
   -0.33289E+08         0.10438E+06         0.00000E+00
    0.10438E+06        -0.50013E+08         0.00000E+00
    0.00000E+00         0.00000E+00        -0.32943E+08
 
   -0.33379E+08         0.14910E+06         0.00000E+00
    0.14910E+06        -0.50023E+08         0.00000E+00
    0.00000E+00         0.00000E+00        -0.32942E+08
 
   -0.33460E+08         0.19550E+06         0.00000E+00
    0.19550E+06        -0.50038E+08         0.00000E+00
    0.00000E+00         0.00000E+00        -0.32942E+08
 
   -0.33535E+08         0.24374E+06         0.00000E+00
    0.24374E+06        -0.50055E+08         0.00000E+00
    0.00000E+00         0.00000E+00        -0.32942E+08
 
   -0.33602E+08         0.29394E+06         0.00000E+00
    0.29394E+06        -0.50075E+08         0.00000E+00
    0.00000E+00         0.00000E+00        -0.32941E+08
 
   -0.33663E+08         0.34622E+06         0.00000E+00
    0.34622E+06        -0.50097E+08         0.00000E+00
    0.00000E+00         0.00000E+00        -0.32941E+08
 
   -0.33717E+08         0.40068E+06         0.00000E+00
    0.40068E+06        -0.50123E+08         0.00000E+00
    0.00000E+00         0.00000E+00        -0.32940E+08
 
   -0.33766E+08         0.45742E+06         0.00000E+00
    0.45742E+06        -0.50150E+08         0.00000E+00
    0.00000E+00         0.00000E+00        -0.32940E+08
 
   -0.33808E+08         0.51651E+06         0.00000E+00
    0.51651E+06        -0.50180E+08         0.00000E+00
    0.00000E+00         0.00000E+00        -0.32939E+08
 
   -0.33845E+08         0.57803E+06         0.00000E+00
    0.57803E+06        -0.50212E+08         0.00000E+00
    0.00000E+00         0.00000E+00        -0.32939E+08
 
   -0.33878E+08         0.64203E+06         0.00000E+00
    0.64203E+06        -0.50246E+08         0.00000E+00
    0.00000E+00         0.00000E+00        -0.32938E+08
 
   -0.33905E+08         0.70857E+06         0.00000E+00
    0.70857E+06        -0.50282E+08         0.00000E+00
    0.00000E+00         0.00000E+00        -0.32938E+08
 
   -0.33928E+08         0.77768E+06         0.00000E+00
    0.77768E+06        -0.50320E+08         0.00000E+00
    0.00000E+00         0.00000E+00        -0.32937E+08
 
   -0.33947E+08         0.84941E+06         0.00000E+00
    0.84941E+06        -0.50359E+08         0.00000E+00
    0.00000E+00         0.00000E+00        -0.32936E+08
 
   -0.33961E+08         0.92378E+06         0.00000E+00
    0.92378E+06        -0.50400E+08         0.00000E+00
    0.00000E+00         0.00000E+00        -0.32936E+08
 
   -0.33972E+08         0.10008E+07         0.00000E+00
    0.10008E+07        -0.50442E+08         0.00000E+00
    0.00000E+00         0.00000E+00        -0.32935E+08
 
   -0.33980E+08         0.10805E+07         0.00000E+00
    0.10805E+07        -0.50486E+08         0.00000E+00
    0.00000E+00         0.00000E+00        -0.32935E+08
 
   -0.33984E+08         0.11628E+07         0.00000E+00
    0.11628E+07        -0.50531E+08         0.00000E+00
    0.00000E+00         0.00000E+00        -0.32935E+08
 
   -0.33986E+08         0.12478E+07         0.00000E+00
    0.12478E+07        -0.50576E+08         0.00000E+00
    0.00000E+00         0.00000E+00        -0.32934E+08
 
   -0.33984E+08         0.13354E+07         0.00000E+00
    0.13354E+07        -0.50623E+08         0.00000E+00
    0.00000E+00         0.00000E+00        -0.32934E+08
 
   -0.33981E+08         0.14256E+07         0.00000E+00
    0.14256E+07        -0.50671E+08         0.00000E+00
    0.00000E+00         0.00000E+00        -0.32934E+08
 
   -0.33975E+08         0.15184E+07         0.00000E+00
    0.15184E+07        -0.50720E+08         0.00000E+00
    0.00000E+00         0.00000E+00        -0.32933E+08
 
   -0.33966E+08         0.16138E+07         0.00000E+00
    0.16138E+07        -0.50770E+08         0.00000E+00
    0.00000E+00         0.00000E+00        -0.32933E+08
 
   -0.33956E+08         0.17117E+07         0.00000E+00
    0.17117E+07        -0.50820E+08         0.00000E+00
    0.00000E+00         0.00000E+00        -0.32933E+08
 
   -0.33945E+08         0.18119E+07         0.00000E+00
    0.18119E+07        -0.50871E+08         0.00000E+00
    0.00000E+00         0.00000E+00        -0.32933E+08
 
   -0.33932E+08         0.19145E+07         0.00000E+00
    0.19145E+07        -0.50922E+08         0.00000E+00
    0.00000E+00         0.00000E+00        -0.32933E+08
 
   -0.33917E+08         0.20192E+07         0.00000E+00
    0.20192E+07        -0.50974E+08         0.00000E+00
    0.00000E+00         0.00000E+00        -0.32933E+08
 
   -0.33901E+08         0.21259E+07         0.00000E+00
    0.21259E+07        -0.51028E+08         0.00000E+00
    0.00000E+00         0.00000E+00        -0.32933E+08
 
   -0.33884E+08         0.22346E+07         0.00000E+00
    0.22346E+07        -0.51081E+08         0.00000E+00
    0.00000E+00         0.00000E+00        -0.32933E+08
 
   -0.33865E+08         0.23459E+07         0.00000E+00
    0.23459E+07        -0.51136E+08         0.00000E+00
    0.00000E+00         0.00000E+00        -0.32933E+08
 
   -0.33846E+08         0.24598E+07         0.00000E+00
    0.24598E+07        -0.51191E+08         0.00000E+00
    0.00000E+00         0.00000E+00        -0.32933E+08
 
   -0.33826E+08         0.25761E+07         0.00000E+00
    0.25761E+07        -0.51246E+08         0.00000E+00
    0.00000E+00         0.00000E+00        -0.32934E+08
 
   -0.33808E+08         0.26942E+07         0.00000E+00
    0.26942E+07        -0.51297E+08         0.00000E+00
    0.00000E+00         0.00000E+00        -0.32934E+08
 
   -0.33791E+08         0.28127E+07         0.00000E+00
    0.28127E+07        -0.51349E+08         0.00000E+00
    0.00000E+00         0.00000E+00        -0.32934E+08
 
   -0.33775E+08         0.29280E+07         0.00000E+00
    0.29280E+07        -0.51402E+08         0.00000E+00
    0.00000E+00         0.00000E+00        -0.32935E+08
 
   -0.33754E+08         0.30397E+07         0.00000E+00
    0.30397E+07        -0.51455E+08         0.00000E+00
    0.00000E+00         0.00000E+00        -0.32935E+08
 
   -0.33726E+08         0.31537E+07         0.00000E+00
    0.31537E+07        -0.51528E+08         0.00000E+00
    0.00000E+00         0.00000E+00        -0.32936E+08
 
   -0.33692E+08         0.32679E+07         0.00000E+00
    0.32679E+07        -0.51615E+08         0.00000E+00
    0.00000E+00         0.00000E+00        -0.32940E+08
 
   -0.33688E+08         0.33783E+07         0.00000E+00
    0.33783E+07        -0.51691E+08         0.00000E+00
    0.00000E+00         0.00000E+00        -0.32989E+08
 
   -0.33680E+08         0.34909E+07         0.00000E+00
    0.34909E+07        -0.51767E+08         0.00000E+00
    0.00000E+00         0.00000E+00        -0.33044E+08
 
   -0.33678E+08         0.36020E+07         0.00000E+00
    0.36020E+07        -0.51837E+08         0.00000E+00
    0.00000E+00         0.00000E+00        -0.33116E+08
 
   -0.33712E+08         0.37017E+07         0.00000E+00
    0.37017E+07        -0.51889E+08         0.00000E+00
    0.00000E+00         0.00000E+00        -0.33237E+08
 
   -0.33755E+08         0.38003E+07         0.00000E+00
    0.38003E+07        -0.51959E+08         0.00000E+00
    0.00000E+00         0.00000E+00        -0.33374E+08
 
   -0.33800E+08         0.38918E+07         0.00000E+00
    0.38918E+07        -0.52036E+08         0.00000E+00
    0.00000E+00         0.00000E+00        -0.33515E+08
 
   -0.33849E+08         0.39745E+07         0.00000E+00
    0.39745E+07        -0.52119E+08         0.00000E+00
    0.00000E+00         0.00000E+00        -0.33651E+08
 
   -0.33907E+08         0.40551E+07         0.00000E+00
    0.40551E+07        -0.52205E+08         0.00000E+00
    0.00000E+00         0.00000E+00        -0.33782E+08
 
   -0.33970E+08         0.41338E+07         0.00000E+00
    0.41338E+07        -0.52287E+08         0.00000E+00
    0.00000E+00         0.00000E+00        -0.33903E+08
 
   -0.34040E+08         0.42149E+07         0.00000E+00
    0.42149E+07        -0.52366E+08         0.00000E+00
    0.00000E+00         0.00000E+00        -0.34019E+08
 
   -0.32929E+08         0.81443E+04         0.00000E+00
    0.81443E+04        -0.50001E+08         0.00000E+00
    0.00000E+00         0.00000E+00        -0.32033E+08
 
   -0.33026E+08         0.30485E+05         0.00000E+00
    0.30485E+05        -0.50006E+08         0.00000E+00
    0.00000E+00         0.00000E+00        -0.32033E+08
 
   -0.33114E+08         0.55231E+05         0.00000E+00
    0.55231E+05        -0.50014E+08         0.00000E+00
    0.00000E+00         0.00000E+00        -0.32033E+08
 
   -0.33193E+08         0.82509E+05         0.00000E+00
    0.82509E+05        -0.50026E+08         0.00000E+00
    0.00000E+00         0.00000E+00        -0.32032E+08
 
   -0.33263E+08         0.11243E+06         0.00000E+00
    0.11243E+06        -0.50042E+08         0.00000E+00
    0.00000E+00         0.00000E+00        -0.32032E+08
 
   -0.33326E+08         0.14511E+06         0.00000E+00
    0.14511E+06        -0.50061E+08         0.00000E+00
    0.00000E+00         0.00000E+00        -0.32032E+08
 
   -0.33381E+08         0.18061E+06         0.00000E+00
    0.18061E+06        -0.50084E+08         0.00000E+00
    0.00000E+00         0.00000E+00        -0.32032E+08
 
   -0.33429E+08         0.21904E+06         0.00000E+00
    0.21904E+06        -0.50109E+08         0.00000E+00
    0.00000E+00         0.00000E+00        -0.32031E+08
 
   -0.33471E+08         0.26046E+06         0.00000E+00
    0.26046E+06        -0.50137E+08         0.00000E+00
    0.00000E+00         0.00000E+00        -0.32031E+08
 
   -0.33505E+08         0.30493E+06         0.00000E+00
    0.30493E+06        -0.50168E+08         0.00000E+00
    0.00000E+00         0.00000E+00        -0.32030E+08
 
   -0.33534E+08         0.35250E+06         0.00000E+00
    0.35250E+06        -0.50201E+08         0.00000E+00
    0.00000E+00         0.00000E+00        -0.32030E+08
 
   -0.33558E+08         0.40322E+06         0.00000E+00
    0.40322E+06        -0.50236E+08         0.00000E+00
    0.00000E+00         0.00000E+00        -0.32030E+08
 
   -0.33576E+08         0.45712E+06         0.00000E+00
    0.45712E+06        -0.50274E+08         0.00000E+00
    0.00000E+00         0.00000E+00        -0.32029E+08
 
   -0.33589E+08         0.51420E+06         0.00000E+00
    0.51420E+06        -0.50314E+08         0.00000E+00
    0.00000E+00         0.00000E+00        -0.32029E+08
 
   -0.33597E+08         0.57449E+06         0.00000E+00
    0.57449E+06        -0.50356E+08         0.00000E+00
    0.00000E+00         0.00000E+00        -0.32029E+08
 
   -0.33601E+08         0.63799E+06         0.00000E+00
    0.63799E+06        -0.50399E+08         0.00000E+00
    0.00000E+00         0.00000E+00        -0.32028E+08
 
   -0.33601E+08         0.70467E+06         0.00000E+00
    0.70467E+06        -0.50444E+08         0.00000E+00
    0.00000E+00         0.00000E+00        -0.32028E+08
 
   -0.33598E+08         0.77455E+06         0.00000E+00
    0.77455E+06        -0.50491E+08         0.00000E+00
    0.00000E+00         0.00000E+00        -0.32028E+08
 
   -0.33591E+08         0.84766E+06         0.00000E+00
    0.84766E+06        -0.50539E+08         0.00000E+00
    0.00000E+00         0.00000E+00        -0.32028E+08
 
   -0.33581E+08         0.92399E+06         0.00000E+00
    0.92399E+06        -0.50588E+08         0.00000E+00
    0.00000E+00         0.00000E+00        -0.32027E+08
 
   -0.33568E+08         0.10034E+07         0.00000E+00
    0.10034E+07        -0.50639E+08         0.00000E+00
    0.00000E+00         0.00000E+00        -0.32027E+08
 
   -0.33552E+08         0.10860E+07         0.00000E+00
    0.10860E+07        -0.50690E+08         0.00000E+00
    0.00000E+00         0.00000E+00        -0.32027E+08
 
   -0.33535E+08         0.11716E+07         0.00000E+00
    0.11716E+07        -0.50743E+08         0.00000E+00
    0.00000E+00         0.00000E+00        -0.32027E+08
 
   -0.33515E+08         0.12599E+07         0.00000E+00
    0.12599E+07        -0.50796E+08         0.00000E+00
    0.00000E+00         0.00000E+00        -0.32027E+08
 
   -0.33494E+08         0.13509E+07         0.00000E+00
    0.13509E+07        -0.50851E+08         0.00000E+00
    0.00000E+00         0.00000E+00        -0.32027E+08
 
   -0.33470E+08         0.14447E+07         0.00000E+00
    0.14447E+07        -0.50906E+08         0.00000E+00
    0.00000E+00         0.00000E+00        -0.32027E+08
 
   -0.33445E+08         0.15417E+07         0.00000E+00
    0.15417E+07        -0.50962E+08         0.00000E+00
    0.00000E+00         0.00000E+00        -0.32027E+08
 
   -0.33419E+08         0.16419E+07         0.00000E+00
    0.16419E+07        -0.51019E+08         0.00000E+00
    0.00000E+00         0.00000E+00        -0.32028E+08
 
   -0.33393E+08         0.17452E+07         0.00000E+00
    0.17452E+07        -0.51077E+08         0.00000E+00
    0.00000E+00         0.00000E+00        -0.32028E+08
 
   -0.33367E+08         0.18514E+07         0.00000E+00
    0.18514E+07        -0.51131E+08         0.00000E+00
    0.00000E+00         0.00000E+00        -0.32028E+08
 
   -0.33343E+08         0.19590E+07         0.00000E+00
    0.19590E+07        -0.51186E+08         0.00000E+00
    0.00000E+00         0.00000E+00        -0.32029E+08
 
   -0.33319E+08         0.20649E+07         0.00000E+00
    0.20649E+07        -0.51241E+08         0.00000E+00
    0.00000E+00         0.00000E+00        -0.32029E+08
 
   -0.33292E+08         0.21691E+07         0.00000E+00
    0.21691E+07        -0.51296E+08         0.00000E+00
    0.00000E+00         0.00000E+00        -0.32030E+08
 
   -0.33260E+08         0.22743E+07         0.00000E+00
    0.22743E+07        -0.51361E+08         0.00000E+00
    0.00000E+00         0.00000E+00        -0.32030E+08
 
   -0.33221E+08         0.23821E+07         0.00000E+00
    0.23821E+07        -0.51445E+08         0.00000E+00
    0.00000E+00         0.00000E+00        -0.32031E+08
 
   -0.33197E+08         0.24893E+07         0.00000E+00
    0.24893E+07        -0.51522E+08         0.00000E+00
    0.00000E+00         0.00000E+00        -0.32062E+08
 
   -0.33180E+08         0.25993E+07         0.00000E+00
    0.25993E+07        -0.51595E+08         0.00000E+00
    0.00000E+00         0.00000E+00        -0.32112E+08
 
   -0.33154E+08         0.27139E+07         0.00000E+00
    0.27139E+07        -0.51666E+08         0.00000E+00
    0.00000E+00         0.00000E+00        -0.32165E+08
 
   -0.33151E+08         0.28259E+07         0.00000E+00
    0.28259E+07        -0.51722E+08         0.00000E+00
    0.00000E+00         0.00000E+00        -0.32257E+08
 
   -0.33163E+08         0.29329E+07         0.00000E+00
    0.29329E+07        -0.51769E+08         0.00000E+00
    0.00000E+00         0.00000E+00        -0.32377E+08
 
   -0.33184E+08         0.30402E+07         0.00000E+00
    0.30402E+07        -0.51834E+08         0.00000E+00
    0.00000E+00         0.00000E+00        -0.32513E+08
 
   -0.33205E+08         0.31407E+07         0.00000E+00
    0.31407E+07        -0.51902E+08         0.00000E+00
    0.00000E+00         0.00000E+00        -0.32651E+08
 
   -0.33232E+08         0.32335E+07         0.00000E+00
    0.32335E+07        -0.51975E+08         0.00000E+00
    0.00000E+00         0.00000E+00        -0.32787E+08
 
   -0.33268E+08         0.33236E+07         0.00000E+00
    0.33236E+07        -0.52052E+08         0.00000E+00
    0.00000E+00         0.00000E+00        -0.32920E+08
 
   -0.33311E+08         0.34114E+07         0.00000E+00
    0.34114E+07        -0.52128E+08         0.00000E+00
    0.00000E+00         0.00000E+00        -0.33045E+08
 
   -0.33361E+08         0.34999E+07         0.00000E+00
    0.34999E+07        -0.52203E+08         0.00000E+00
    0.00000E+00         0.00000E+00        -0.33165E+08
 
   -0.33417E+08         0.35900E+07         0.00000E+00
    0.35900E+07        -0.52275E+08         0.00000E+00
    0.00000E+00         0.00000E+00        -0.33279E+08
 
   -0.33476E+08         0.36804E+07         0.00000E+00
    0.36804E+07        -0.52344E+08         0.00000E+00
    0.00000E+00         0.00000E+00        -0.33389E+08
 
   -0.33539E+08         0.37713E+07         0.00000E+00
    0.37713E+07        -0.52412E+08         0.00000E+00
    0.00000E+00         0.00000E+00        -0.33494E+08
 
   -0.33607E+08         0.38619E+07         0.00000E+00
    0.38619E+07        -0.52478E+08         0.00000E+00
    0.00000E+00         0.00000E+00        -0.33594E+08
 
   -0.32877E+08        -0.43266E+04         0.00000E+00
   -0.43266E+04        -0.50001E+08         0.00000E+00
    0.00000E+00         0.00000E+00        -0.31092E+08
 
   -0.32960E+08        -0.33708E+04         0.00000E+00
   -0.33708E+04        -0.50006E+08         0.00000E+00
    0.00000E+00         0.00000E+00        -0.31092E+08
 
   -0.33032E+08         0.11773E+04         0.00000E+00
    0.11773E+04        -0.50015E+08         0.00000E+00
    0.00000E+00         0.00000E+00        -0.31092E+08
 
   -0.33096E+08         0.94012E+04         0.00000E+00
    0.94012E+04        -0.50028E+08         0.00000E+00
    0.00000E+00         0.00000E+00        -0.31092E+08
 
   -0.33150E+08         0.21368E+05         0.00000E+00
    0.21368E+05        -0.50045E+08         0.00000E+00
    0.00000E+00         0.00000E+00        -0.31092E+08
 
   -0.33196E+08         0.37137E+05         0.00000E+00
    0.37137E+05        -0.50066E+08         0.00000E+00
    0.00000E+00         0.00000E+00        -0.31091E+08
 
   -0.33235E+08         0.56752E+05         0.00000E+00
    0.56752E+05        -0.50090E+08         0.00000E+00
    0.00000E+00         0.00000E+00        -0.31091E+08
 
   -0.33266E+08         0.80228E+05         0.00000E+00
    0.80228E+05        -0.50117E+08         0.00000E+00
    0.00000E+00         0.00000E+00        -0.31091E+08
 
   -0.33290E+08         0.10760E+06         0.00000E+00
    0.10760E+06        -0.50147E+08         0.00000E+00
    0.00000E+00         0.00000E+00        -0.31091E+08
 
   -0.33307E+08         0.13888E+06         0.00000E+00
    0.13888E+06        -0.50180E+08         0.00000E+00
    0.00000E+00         0.00000E+00        -0.31091E+08
 
   -0.33318E+08         0.17407E+06         0.00000E+00
    0.17407E+06        -0.50215E+08         0.00000E+00
    0.00000E+00         0.00000E+00        -0.31090E+08
 
   -0.33324E+08         0.21316E+06         0.00000E+00
    0.21316E+06        -0.50253E+08         0.00000E+00
    0.00000E+00         0.00000E+00        -0.31090E+08
 
   -0.33324E+08         0.25619E+06         0.00000E+00
    0.25619E+06        -0.50294E+08         0.00000E+00
    0.00000E+00         0.00000E+00        -0.31090E+08
 
   -0.33319E+08         0.30322E+06         0.00000E+00
    0.30322E+06        -0.50336E+08         0.00000E+00
    0.00000E+00         0.00000E+00        -0.31090E+08
 
   -0.33310E+08         0.35418E+06         0.00000E+00
    0.35418E+06        -0.50380E+08         0.00000E+00
    0.00000E+00         0.00000E+00        -0.31090E+08
 
   -0.33297E+08         0.40905E+06         0.00000E+00
    0.40905E+06        -0.50427E+08         0.00000E+00
    0.00000E+00         0.00000E+00        -0.31090E+08
 
   -0.33279E+08         0.46784E+06         0.00000E+00
    0.46784E+06        -0.50474E+08         0.00000E+00
    0.00000E+00         0.00000E+00        -0.31090E+08
 
   -0.33258E+08         0.53036E+06         0.00000E+00
    0.53036E+06        -0.50524E+08         0.00000E+00
    0.00000E+00         0.00000E+00        -0.31090E+08
 
   -0.33234E+08         0.59637E+06         0.00000E+00
    0.59637E+06        -0.50574E+08         0.00000E+00
    0.00000E+00         0.00000E+00        -0.31090E+08
 
   -0.33207E+08         0.66588E+06         0.00000E+00
    0.66588E+06        -0.50627E+08         0.00000E+00
    0.00000E+00         0.00000E+00        -0.31090E+08
 
   -0.33177E+08         0.73923E+06         0.00000E+00
    0.73923E+06        -0.50680E+08         0.00000E+00
    0.00000E+00         0.00000E+00        -0.31090E+08
 
   -0.33144E+08         0.81646E+06         0.00000E+00
    0.81646E+06        -0.50735E+08         0.00000E+00
    0.00000E+00         0.00000E+00        -0.31090E+08
 
   -0.33110E+08         0.89767E+06         0.00000E+00
    0.89767E+06        -0.50791E+08         0.00000E+00
    0.00000E+00         0.00000E+00        -0.31091E+08
 
   -0.33074E+08         0.98302E+06         0.00000E+00
    0.98302E+06        -0.50848E+08         0.00000E+00
    0.00000E+00         0.00000E+00        -0.31091E+08
 
   -0.33039E+08         0.10725E+07         0.00000E+00
    0.10725E+07        -0.50903E+08         0.00000E+00
    0.00000E+00         0.00000E+00        -0.31092E+08
 
   -0.33004E+08         0.11640E+07         0.00000E+00
    0.11640E+07        -0.50958E+08         0.00000E+00
    0.00000E+00         0.00000E+00        -0.31092E+08
 
   -0.32969E+08         0.12550E+07         0.00000E+00
    0.12550E+07        -0.51014E+08         0.00000E+00
    0.00000E+00         0.00000E+00        -0.31092E+08
 
   -0.32930E+08         0.13463E+07         0.00000E+00
    0.13463E+07        -0.51070E+08         0.00000E+00
    0.00000E+00         0.00000E+00        -0.31093E+08
 
   -0.32887E+08         0.14395E+07         0.00000E+00
    0.14395E+07        -0.51133E+08         0.00000E+00
    0.00000E+00         0.00000E+00        -0.31094E+08
 
   -0.32838E+08         0.15358E+07         0.00000E+00
    0.15358E+07        -0.51214E+08         0.00000E+00
    0.00000E+00         0.00000E+00        -0.31094E+08
 
   -0.32801E+08         0.16343E+07         0.00000E+00
    0.16343E+07        -0.51287E+08         0.00000E+00
    0.00000E+00         0.00000E+00        -0.31123E+08
 
   -0.32768E+08         0.17376E+07         0.00000E+00
    0.17376E+07        -0.51356E+08         0.00000E+00
    0.00000E+00         0.00000E+00        -0.31170E+08
 
   -0.32727E+08         0.18471E+07         0.00000E+00
    0.18471E+07        -0.51423E+08         0.00000E+00
    0.00000E+00         0.00000E+00        -0.31218E+08
 
   -0.32692E+08         0.19600E+07         0.00000E+00
    0.19600E+07        -0.51482E+08         0.00000E+00
    0.00000E+00         0.00000E+00        -0.31289E+08
 
   -0.32679E+08         0.20712E+07         0.00000E+00
    0.20712E+07        -0.51523E+08         0.00000E+00
    0.00000E+00         0.00000E+00        -0.31401E+08
 
   -0.32669E+08         0.21829E+07         0.00000E+00
    0.21829E+07        -0.51576E+08         0.00000E+00
    0.00000E+00         0.00000E+00        -0.31526E+08
 
   -0.32663E+08         0.22925E+07         0.00000E+00
    0.22925E+07        -0.51636E+08         0.00000E+00
    0.00000E+00         0.00000E+00        -0.31660E+08
 
   -0.32660E+08         0.23961E+07         0.00000E+00
    0.23961E+07        -0.51698E+08         0.00000E+00
    0.00000E+00         0.00000E+00        -0.31795E+08
 
   -0.32665E+08         0.24947E+07         0.00000E+00
    0.24947E+07        -0.51765E+08         0.00000E+00
    0.00000E+00         0.00000E+00        -0.31929E+08
 
   -0.32679E+08         0.25914E+07         0.00000E+00
    0.25914E+07        -0.51836E+08         0.00000E+00
    0.00000E+00         0.00000E+00        -0.32061E+08
 
   -0.32700E+08         0.26859E+07         0.00000E+00
    0.26859E+07        -0.51905E+08         0.00000E+00
    0.00000E+00         0.00000E+00        -0.32186E+08
 
   -0.32728E+08         0.27812E+07         0.00000E+00
    0.27812E+07        -0.51975E+08         0.00000E+00
    0.00000E+00         0.00000E+00        -0.32308E+08
 
   -0.32763E+08         0.28771E+07         0.00000E+00
    0.28771E+07        -0.52044E+08         0.00000E+00
    0.00000E+00         0.00000E+00        -0.32425E+08
 
   -0.32801E+08         0.29730E+07         0.00000E+00
    0.29730E+07        -0.52110E+08         0.00000E+00
    0.00000E+00         0.00000E+00        -0.32538E+08
 
   -0.32845E+08         0.30694E+07         0.00000E+00
    0.30694E+07        -0.52175E+08         0.00000E+00
    0.00000E+00         0.00000E+00        -0.32646E+08
 
   -0.32893E+08         0.31657E+07         0.00000E+00
    0.31657E+07        -0.52238E+08         0.00000E+00
    0.00000E+00         0.00000E+00        -0.32750E+08
 
   -0.32947E+08         0.32622E+07         0.00000E+00
    0.32622E+07        -0.52301E+08         0.00000E+00
    0.00000E+00         0.00000E+00        -0.32850E+08
 
   -0.33006E+08         0.33583E+07         0.00000E+00
    0.33583E+07        -0.52363E+08         0.00000E+00
    0.00000E+00         0.00000E+00        -0.32946E+08
 
   -0.33070E+08         0.34543E+07         0.00000E+00
    0.34543E+07        -0.52424E+08         0.00000E+00
    0.00000E+00         0.00000E+00        -0.33039E+08
 
   -0.33137E+08         0.35508E+07         0.00000E+00
    0.35508E+07        -0.52484E+08         0.00000E+00
    0.00000E+00         0.00000E+00        -0.33128E+08
 
   -0.32939E+08        -0.17560E+05         0.00000E+00
   -0.17560E+05        -0.50001E+08         0.00000E+00
    0.00000E+00         0.00000E+00        -0.30122E+08
 
   -0.33001E+08        -0.39258E+05         0.00000E+00
   -0.39258E+05        -0.50006E+08         0.00000E+00
    0.00000E+00         0.00000E+00        -0.30122E+08
 
   -0.33052E+08        -0.55985E+05         0.00000E+00
   -0.55985E+05        -0.50016E+08         0.00000E+00
    0.00000E+00         0.00000E+00        -0.30122E+08
 
   -0.33094E+08        -0.67777E+05         0.00000E+00
   -0.67777E+05        -0.50029E+08         0.00000E+00
    0.00000E+00         0.00000E+00        -0.30122E+08
 
   -0.33126E+08        -0.74655E+05         0.00000E+00
   -0.74655E+05        -0.50047E+08         0.00000E+00
    0.00000E+00         0.00000E+00        -0.30122E+08
 
   -0.33151E+08        -0.76639E+05         0.00000E+00
   -0.76639E+05        -0.50068E+08         0.00000E+00
    0.00000E+00         0.00000E+00        -0.30122E+08
 
   -0.33167E+08        -0.73715E+05         0.00000E+00
   -0.73715E+05        -0.50093E+08         0.00000E+00
    0.00000E+00         0.00000E+00        -0.30122E+08
 
   -0.33176E+08        -0.65819E+05         0.00000E+00
   -0.65819E+05        -0.50121E+08         0.00000E+00
    0.00000E+00         0.00000E+00        -0.30122E+08
 
   -0.33178E+08        -0.52991E+05         0.00000E+00
   -0.52991E+05        -0.50152E+08         0.00000E+00
    0.00000E+00         0.00000E+00        -0.30122E+08
 
   -0.33174E+08        -0.35281E+05         0.00000E+00
   -0.35281E+05        -0.50186E+08         0.00000E+00
    0.00000E+00         0.00000E+00        -0.30122E+08
 
   -0.33163E+08        -0.12669E+05         0.00000E+00
   -0.12669E+05        -0.50223E+08         0.00000E+00
    0.00000E+00         0.00000E+00        -0.30122E+08
 
   -0.33147E+08         0.14758E+05         0.00000E+00
    0.14758E+05        -0.50262E+08         0.00000E+00
    0.00000E+00         0.00000E+00        -0.30122E+08
 
   -0.33126E+08         0.46759E+05         0.00000E+00
    0.46759E+05        -0.50302E+08         0.00000E+00
    0.00000E+00         0.00000E+00        -0.30122E+08
 
   -0.33100E+08         0.83097E+05         0.00000E+00
    0.83097E+05        -0.50345E+08         0.00000E+00
    0.00000E+00         0.00000E+00        -0.30122E+08
 
   -0.33069E+08         0.12407E+06         0.00000E+00
    0.12407E+06        -0.50391E+08         0.00000E+00
    0.00000E+00         0.00000E+00        -0.30122E+08
 
   -0.33034E+08         0.16984E+06         0.00000E+00
    0.16984E+06        -0.50438E+08         0.00000E+00
    0.00000E+00         0.00000E+00        -0.30123E+08
 
   -0.32995E+08         0.22034E+06         0.00000E+00
    0.22034E+06        -0.50487E+08         0.00000E+00
    0.00000E+00         0.00000E+00        -0.30123E+08
 
   -0.32953E+08         0.27587E+06         0.00000E+00
    0.27587E+06        -0.50539E+08         0.00000E+00
    0.00000E+00         0.00000E+00        -0.30123E+08
 
   -0.32909E+08         0.33678E+06         0.00000E+00
    0.33678E+06        -0.50591E+08         0.00000E+00
    0.00000E+00         0.00000E+00        -0.30124E+08
 
   -0.32864E+08         0.40233E+06         0.00000E+00
    0.40233E+06        -0.50642E+08         0.00000E+00
    0.00000E+00         0.00000E+00        -0.30124E+08
 
   -0.32817E+08         0.47008E+06         0.00000E+00
    0.47008E+06        -0.50694E+08         0.00000E+00
    0.00000E+00         0.00000E+00        -0.30125E+08
 
   -0.32768E+08         0.53938E+06         0.00000E+00
    0.53938E+06        -0.50747E+08         0.00000E+00
    0.00000E+00         0.00000E+00        -0.30126E+08
 
   -0.32716E+08         0.61091E+06         0.00000E+00
    0.61091E+06        -0.50801E+08         0.00000E+00
    0.00000E+00         0.00000E+00        -0.30126E+08
 
   -0.32658E+08         0.68562E+06         0.00000E+00
    0.68562E+06        -0.50860E+08         0.00000E+00
    0.00000E+00         0.00000E+00        -0.30127E+08
 
   -0.32593E+08         0.76409E+06         0.00000E+00
    0.76409E+06        -0.50935E+08         0.00000E+00
    0.00000E+00         0.00000E+00        -0.30128E+08
 
   -0.32545E+08         0.84718E+06         0.00000E+00
    0.84718E+06        -0.51000E+08         0.00000E+00
    0.00000E+00         0.00000E+00        -0.30165E+08
 
   -0.32491E+08         0.93757E+06         0.00000E+00
    0.93757E+06        -0.51063E+08         0.00000E+00
    0.00000E+00         0.00000E+00        -0.30208E+08
 
   -0.32429E+08         0.10355E+07         0.00000E+00
    0.10355E+07        -0.51125E+08         0.00000E+00
    0.00000E+00         0.00000E+00        -0.30253E+08
 
   -0.32369E+08         0.11395E+07         0.00000E+00
    0.11395E+07        -0.51180E+08         0.00000E+00
    0.00000E+00         0.00000E+00        -0.30316E+08
 
   -0.32329E+08         0.12455E+07         0.00000E+00
    0.12455E+07        -0.51218E+08         0.00000E+00
    0.00000E+00         0.00000E+00        -0.30420E+08
 
   -0.32290E+08         0.13535E+07         0.00000E+00
    0.13535E+07        -0.51265E+08         0.00000E+00
    0.00000E+00         0.00000E+00        -0.30538E+08
 
   -0.32254E+08         0.14616E+07         0.00000E+00
    0.14616E+07        -0.51319E+08         0.00000E+00
    0.00000E+00         0.00000E+00        -0.30665E+08
 
   -0.32220E+08         0.15667E+07         0.00000E+00
    0.15667E+07        -0.51374E+08         0.00000E+00
    0.00000E+00         0.00000E+00        -0.30794E+08
 
   -0.32192E+08         0.16678E+07         0.00000E+00
    0.16678E+07        -0.51433E+08         0.00000E+00
    0.00000E+00         0.00000E+00        -0.30926E+08
 
   -0.32173E+08         0.17674E+07         0.00000E+00
    0.17674E+07        -0.51497E+08         0.00000E+00
    0.00000E+00         0.00000E+00        -0.31058E+08
 
   -0.32162E+08         0.18659E+07         0.00000E+00
    0.18659E+07        -0.51561E+08         0.00000E+00
    0.00000E+00         0.00000E+00        -0.31186E+08
 
   -0.32159E+08         0.19641E+07         0.00000E+00
    0.19641E+07        -0.51626E+08         0.00000E+00
    0.00000E+00         0.00000E+00        -0.31312E+08
 
   -0.32163E+08         0.20628E+07         0.00000E+00
    0.20628E+07        -0.51692E+08         0.00000E+00
    0.00000E+00         0.00000E+00        -0.31435E+08
 
   -0.32173E+08         0.21618E+07         0.00000E+00
    0.21618E+07        -0.51757E+08         0.00000E+00
    0.00000E+00         0.00000E+00        -0.31555E+08
 
   -0.32188E+08         0.22610E+07         0.00000E+00
    0.22610E+07        -0.51821E+08         0.00000E+00
    0.00000E+00         0.00000E+00        -0.31670E+08
 
   -0.32209E+08         0.23608E+07         0.00000E+00
    0.23608E+07        -0.51884E+08         0.00000E+00
    0.00000E+00         0.00000E+00        -0.31782E+08
 
   -0.32236E+08         0.24608E+07         0.00000E+00
    0.24608E+07        -0.51945E+08         0.00000E+00
    0.00000E+00         0.00000E+00        -0.31890E+08
 
   -0.32268E+08         0.25612E+07         0.00000E+00
    0.25612E+07        -0.52006E+08         0.00000E+00
    0.00000E+00         0.00000E+00        -0.31994E+08
 
   -0.32307E+08         0.26617E+07         0.00000E+00
    0.26617E+07        -0.52067E+08         0.00000E+00
    0.00000E+00         0.00000E+00        -0.32094E+08
 
   -0.32351E+08         0.27625E+07         0.00000E+00
    0.27625E+07        -0.52126E+08         0.00000E+00
    0.00000E+00         0.00000E+00        -0.32191E+08
 
   -0.32400E+08         0.28637E+07         0.00000E+00
    0.28637E+07        -0.52185E+08         0.00000E+00
    0.00000E+00         0.00000E+00        -0.32284E+08
 
   -0.32452E+08         0.29653E+07         0.00000E+00
    0.29653E+07        -0.52242E+08         0.00000E+00
    0.00000E+00         0.00000E+00        -0.32374E+08
 
   -0.32508E+08         0.30686E+07         0.00000E+00
    0.30686E+07        -0.52297E+08         0.00000E+00
    0.00000E+00         0.00000E+00        -0.32462E+08
 
   -0.32568E+08         0.31727E+07         0.00000E+00
    0.31727E+07        -0.52351E+08         0.00000E+00
    0.00000E+00         0.00000E+00        -0.32546E+08
 
   -0.32633E+08         0.32773E+07         0.00000E+00
    0.32773E+07        -0.52403E+08         0.00000E+00
    0.00000E+00         0.00000E+00        -0.32627E+08
 
   -0.33119E+08        -0.31345E+05         0.00000E+00
   -0.31345E+05        -0.50001E+08         0.00000E+00
    0.00000E+00         0.00000E+00        -0.29125E+08
 
   -0.33152E+08        -0.75948E+05         0.00000E+00
   -0.75948E+05        -0.50006E+08         0.00000E+00
    0.00000E+00         0.00000E+00        -0.29125E+08
 
   -0.33176E+08        -0.11430E+06         0.00000E+00
   -0.11430E+06        -0.50016E+08         0.00000E+00
    0.00000E+00         0.00000E+00        -0.29125E+08
 
   -0.33189E+08        -0.14636E+06         0.00000E+00
   -0.14636E+06        -0.50030E+08         0.00000E+00
    0.00000E+00         0.00000E+00        -0.29125E+08
 
   -0.33194E+08        -0.17215E+06         0.00000E+00
   -0.17215E+06        -0.50047E+08         0.00000E+00
    0.00000E+00         0.00000E+00        -0.29125E+08
 
   -0.33191E+08        -0.19175E+06         0.00000E+00
   -0.19175E+06        -0.50069E+08         0.00000E+00
    0.00000E+00         0.00000E+00        -0.29125E+08
 
   -0.33181E+08        -0.20538E+06         0.00000E+00
   -0.20538E+06        -0.50093E+08         0.00000E+00
    0.00000E+00         0.00000E+00        -0.29125E+08
 
   -0.33163E+08        -0.21334E+06         0.00000E+00
   -0.21334E+06        -0.50120E+08         0.00000E+00
    0.00000E+00         0.00000E+00        -0.29126E+08
 
   -0.33138E+08        -0.21549E+06         0.00000E+00
   -0.21549E+06        -0.50151E+08         0.00000E+00
    0.00000E+00         0.00000E+00        -0.29126E+08
 
   -0.33106E+08        -0.21166E+06         0.00000E+00
   -0.21166E+06        -0.50184E+08         0.00000E+00
    0.00000E+00         0.00000E+00        -0.29126E+08
 
   -0.33069E+08        -0.20195E+06         0.00000E+00
   -0.20195E+06        -0.50221E+08         0.00000E+00
    0.00000E+00         0.00000E+00        -0.29126E+08
 
   -0.33026E+08        -0.18620E+06         0.00000E+00
   -0.18620E+06        -0.50260E+08         0.00000E+00
    0.00000E+00         0.00000E+00        -0.29127E+08
 
   -0.32979E+08        -0.16400E+06         0.00000E+00
   -0.16400E+06        -0.50302E+08         0.00000E+00
    0.00000E+00         0.00000E+00        -0.29127E+08
 
   -0.32928E+08        -0.13524E+06         0.00000E+00
   -0.13524E+06        -0.50345E+08         0.00000E+00
    0.00000E+00         0.00000E+00        -0.29128E+08
 
   -0.32874E+08        -0.10201E+06         0.00000E+00
   -0.10201E+06        -0.50387E+08         0.00000E+00
    0.00000E+00         0.00000E+00        -0.29128E+08
 
   -0.32817E+08        -0.65698E+05         0.00000E+00
   -0.65698E+05        -0.50432E+08         0.00000E+00
    0.00000E+00         0.00000E+00        -0.29129E+08
 
   -0.32756E+08        -0.25711E+05         0.00000E+00
   -0.25711E+05        -0.50478E+08         0.00000E+00
    0.00000E+00         0.00000E+00        -0.29130E+08
 
   -0.32688E+08         0.18306E+05         0.00000E+00
    0.18306E+05        -0.50524E+08         0.00000E+00
    0.00000E+00         0.00000E+00        -0.29131E+08
 
   -0.32614E+08         0.66805E+05         0.00000E+00
    0.66805E+05        -0.50577E+08         0.00000E+00
    0.00000E+00         0.00000E+00        -0.29131E+08
 
   -0.32542E+08         0.12051E+06         0.00000E+00
    0.12051E+06        -0.50637E+08         0.00000E+00
    0.00000E+00         0.00000E+00        -0.29146E+08
 
   -0.32475E+08         0.18158E+06         0.00000E+00
    0.18158E+06        -0.50692E+08         0.00000E+00
    0.00000E+00         0.00000E+00        -0.29184E+08
 
   -0.32400E+08         0.25118E+06         0.00000E+00
    0.25118E+06        -0.50746E+08         0.00000E+00
    0.00000E+00         0.00000E+00        -0.29223E+08
 
   -0.32316E+08         0.32930E+06         0.00000E+00
    0.32930E+06        -0.50799E+08         0.00000E+00
    0.00000E+00         0.00000E+00        -0.29264E+08
 
   -0.32232E+08         0.41505E+06         0.00000E+00
    0.41505E+06        -0.50845E+08         0.00000E+00
    0.00000E+00         0.00000E+00        -0.29322E+08
 
   -0.32163E+08         0.50569E+06         0.00000E+00
    0.50569E+06        -0.50878E+08         0.00000E+00
    0.00000E+00         0.00000E+00        -0.29418E+08
 
   -0.32096E+08         0.59996E+06         0.00000E+00
    0.59996E+06        -0.50922E+08         0.00000E+00
    0.00000E+00         0.00000E+00        -0.29529E+08
 
   -0.32028E+08         0.69564E+06         0.00000E+00
    0.69564E+06        -0.50968E+08         0.00000E+00
    0.00000E+00         0.00000E+00        -0.29646E+08
 
   -0.31961E+08         0.79086E+06         0.00000E+00
    0.79086E+06        -0.51016E+08         0.00000E+00
    0.00000E+00         0.00000E+00        -0.29768E+08
 
   -0.31899E+08         0.88428E+06         0.00000E+00
    0.88428E+06        -0.51067E+08         0.00000E+00
    0.00000E+00         0.00000E+00        -0.29894E+08
 
   -0.31845E+08         0.97754E+06         0.00000E+00
    0.97754E+06        -0.51123E+08         0.00000E+00
    0.00000E+00         0.00000E+00        -0.30022E+08
 
   -0.31798E+08         0.10715E+07         0.00000E+00
    0.10715E+07        -0.51180E+08         0.00000E+00
    0.00000E+00         0.00000E+00        -0.30149E+08
 
   -0.31758E+08         0.11663E+07         0.00000E+00
    0.11663E+07        -0.51239E+08         0.00000E+00
    0.00000E+00         0.00000E+00        -0.30275E+08
 
   -0.31726E+08         0.12621E+07         0.00000E+00
    0.12621E+07        -0.51299E+08         0.00000E+00
    0.00000E+00         0.00000E+00        -0.30402E+08
 
   -0.31700E+08         0.13587E+07         0.00000E+00
    0.13587E+07        -0.51361E+08         0.00000E+00
    0.00000E+00         0.00000E+00        -0.30526E+08
 
   -0.31681E+08         0.14560E+07         0.00000E+00
    0.14560E+07        -0.51421E+08         0.00000E+00
    0.00000E+00         0.00000E+00        -0.30648E+08
 
   -0.31668E+08         0.15544E+07         0.00000E+00
    0.15544E+07        -0.51482E+08         0.00000E+00
    0.00000E+00         0.00000E+00        -0.30767E+08
 
   -0.31662E+08         0.16538E+07         0.00000E+00
    0.16538E+07        -0.51542E+08         0.00000E+00
    0.00000E+00         0.00000E+00        -0.30883E+08
 
   -0.31662E+08         0.17542E+07         0.00000E+00
    0.17542E+07        -0.51602E+08         0.00000E+00
    0.00000E+00         0.00000E+00        -0.30996E+08
 
   -0.31669E+08         0.18556E+07         0.00000E+00
    0.18556E+07        -0.51661E+08         0.00000E+00
    0.00000E+00         0.00000E+00        -0.31105E+08
 
   -0.31682E+08         0.19577E+07         0.00000E+00
    0.19577E+07        -0.51721E+08         0.00000E+00
    0.00000E+00         0.00000E+00        -0.31211E+08
 
   -0.31701E+08         0.20605E+07         0.00000E+00
    0.20605E+07        -0.51779E+08         0.00000E+00
    0.00000E+00         0.00000E+00        -0.31314E+08
 
   -0.31726E+08         0.21642E+07         0.00000E+00
    0.21642E+07        -0.51837E+08         0.00000E+00
    0.00000E+00         0.00000E+00        -0.31413E+08
 
   -0.31755E+08         0.22687E+07         0.00000E+00
    0.22687E+07        -0.51894E+08         0.00000E+00
    0.00000E+00         0.00000E+00        -0.31509E+08
 
   -0.31790E+08         0.23751E+07         0.00000E+00
    0.23751E+07        -0.51949E+08         0.00000E+00
    0.00000E+00         0.00000E+00        -0.31603E+08
 
   -0.31828E+08         0.24822E+07         0.00000E+00
    0.24822E+07        -0.52003E+08         0.00000E+00
    0.00000E+00         0.00000E+00        -0.31693E+08
 
   -0.31873E+08         0.25904E+07         0.00000E+00
    0.25904E+07        -0.52056E+08         0.00000E+00
    0.00000E+00         0.00000E+00        -0.31780E+08
 
   -0.31922E+08         0.26986E+07         0.00000E+00
    0.26986E+07        -0.52108E+08         0.00000E+00
    0.00000E+00         0.00000E+00        -0.31863E+08
 
   -0.31977E+08         0.28057E+07         0.00000E+00
    0.28057E+07        -0.52160E+08         0.00000E+00
    0.00000E+00         0.00000E+00        -0.31943E+08
 
   -0.32036E+08         0.29140E+07         0.00000E+00
    0.29140E+07        -0.52212E+08         0.00000E+00
    0.00000E+00         0.00000E+00        -0.32021E+08
 
   -0.32100E+08         0.30234E+07         0.00000E+00
    0.30234E+07        -0.52262E+08         0.00000E+00
    0.00000E+00         0.00000E+00        -0.32096E+08
 
   -0.33418E+08        -0.43904E+05         0.00000E+00
   -0.43904E+05        -0.50001E+08         0.00000E+00
    0.00000E+00         0.00000E+00        -0.28103E+08
 
   -0.33416E+08        -0.11185E+06         0.00000E+00
   -0.11185E+06        -0.50006E+08         0.00000E+00
    0.00000E+00         0.00000E+00        -0.28103E+08
 
   -0.33404E+08        -0.17197E+06         0.00000E+00
   -0.17197E+06        -0.50015E+08         0.00000E+00
    0.00000E+00         0.00000E+00        -0.28103E+08
 
   -0.33383E+08        -0.22445E+06         0.00000E+00
   -0.22445E+06        -0.50028E+08         0.00000E+00
    0.00000E+00         0.00000E+00        -0.28103E+08
 
   -0.33354E+08        -0.26935E+06         0.00000E+00
   -0.26935E+06        -0.50045E+08         0.00000E+00
    0.00000E+00         0.00000E+00        -0.28103E+08
 
   -0.33316E+08        -0.30656E+06         0.00000E+00
   -0.30656E+06        -0.50066E+08         0.00000E+00
    0.00000E+00         0.00000E+00        -0.28104E+08
 
   -0.33272E+08        -0.33576E+06         0.00000E+00
   -0.33576E+06        -0.50091E+08         0.00000E+00
    0.00000E+00         0.00000E+00        -0.28104E+08
 
   -0.33221E+08        -0.35675E+06         0.00000E+00
   -0.35675E+06        -0.50120E+08         0.00000E+00
    0.00000E+00         0.00000E+00        -0.28105E+08
 
   -0.33166E+08        -0.37100E+06         0.00000E+00
   -0.37100E+06        -0.50149E+08         0.00000E+00
    0.00000E+00         0.00000E+00        -0.28105E+08
 
   -0.33104E+08        -0.37988E+06         0.00000E+00
   -0.37988E+06        -0.50180E+08         0.00000E+00
    0.00000E+00         0.00000E+00        -0.28106E+08
 
   -0.33037E+08        -0.38320E+06         0.00000E+00
   -0.38320E+06        -0.50213E+08         0.00000E+00
    0.00000E+00         0.00000E+00        -0.28106E+08
 
   -0.32963E+08        -0.38077E+06         0.00000E+00
   -0.38077E+06        -0.50248E+08         0.00000E+00
    0.00000E+00         0.00000E+00        -0.28107E+08
 
   -0.32882E+08        -0.37252E+06         0.00000E+00
   -0.37252E+06        -0.50283E+08         0.00000E+00
    0.00000E+00         0.00000E+00        -0.28108E+08
 
   -0.32796E+08        -0.35810E+06         0.00000E+00
   -0.35810E+06        -0.50324E+08         0.00000E+00
    0.00000E+00         0.00000E+00        -0.28114E+08
 
   -0.32716E+08        -0.33572E+06         0.00000E+00
   -0.33572E+06        -0.50367E+08         0.00000E+00
    0.00000E+00         0.00000E+00        -0.28147E+08
 
   -0.32628E+08        -0.30389E+06         0.00000E+00
   -0.30389E+06        -0.50409E+08         0.00000E+00
    0.00000E+00         0.00000E+00        -0.28181E+08
 
   -0.32533E+08        -0.26269E+06         0.00000E+00
   -0.26269E+06        -0.50450E+08         0.00000E+00
    0.00000E+00         0.00000E+00        -0.28217E+08
 
   -0.32429E+08        -0.21215E+06         0.00000E+00
   -0.21215E+06        -0.50491E+08         0.00000E+00
    0.00000E+00         0.00000E+00        -0.28254E+08
 
   -0.32323E+08        -0.15290E+06         0.00000E+00
   -0.15290E+06        -0.50525E+08         0.00000E+00
    0.00000E+00         0.00000E+00        -0.28308E+08
 
   -0.32229E+08        -0.87036E+05         0.00000E+00
   -0.87036E+05        -0.50554E+08         0.00000E+00
    0.00000E+00         0.00000E+00        -0.28398E+08
 
   -0.32133E+08        -0.16679E+05         0.00000E+00
   -0.16679E+05        -0.50589E+08         0.00000E+00
    0.00000E+00         0.00000E+00        -0.28499E+08
 
   -0.32035E+08         0.56695E+05         0.00000E+00
    0.56695E+05        -0.50625E+08         0.00000E+00
    0.00000E+00         0.00000E+00        -0.28604E+08
 
   -0.31936E+08         0.13170E+06         0.00000E+00
    0.13170E+06        -0.50662E+08         0.00000E+00
    0.00000E+00         0.00000E+00        -0.28715E+08
 
   -0.31841E+08         0.20706E+06         0.00000E+00
    0.20706E+06        -0.50703E+08         0.00000E+00
    0.00000E+00         0.00000E+00        -0.28830E+08
 
   -0.31751E+08         0.28376E+06         0.00000E+00
    0.28376E+06        -0.50748E+08         0.00000E+00
    0.00000E+00         0.00000E+00        -0.28950E+08
 
   -0.31667E+08         0.36297E+06         0.00000E+00
    0.36297E+06        -0.50793E+08         0.00000E+00
    0.00000E+00         0.00000E+00        -0.29069E+08
 
   -0.31589E+08         0.44478E+06         0.00000E+00
    0.44478E+06        -0.50842E+08         0.00000E+00
    0.00000E+00         0.00000E+00        -0.29191E+08
 
   -0.31517E+08         0.52850E+06         0.00000E+00
    0.52850E+06        -0.50893E+08         0.00000E+00
    0.00000E+00         0.00000E+00        -0.29315E+08
 
   -0.31451E+08         0.61398E+06         0.00000E+00
    0.61398E+06        -0.50945E+08         0.00000E+00
    0.00000E+00         0.00000E+00        -0.29439E+08
 
   -0.31391E+08         0.70107E+06         0.00000E+00
    0.70107E+06        -0.50998E+08         0.00000E+00
    0.00000E+00         0.00000E+00        -0.29563E+08
 
   -0.31337E+08         0.78995E+06         0.00000E+00
    0.78995E+06        -0.51052E+08         0.00000E+00
    0.00000E+00         0.00000E+00        -0.29685E+08
 
   -0.31291E+08         0.88074E+06         0.00000E+00
    0.88074E+06        -0.51107E+08         0.00000E+00
    0.00000E+00         0.00000E+00        -0.29807E+08
 
   -0.31250E+08         0.97351E+06         0.00000E+00
    0.97351E+06        -0.51162E+08         0.00000E+00
    0.00000E+00         0.00000E+00        -0.29926E+08
 
   -0.31217E+08         0.10683E+07         0.00000E+00
    0.10683E+07        -0.51217E+08         0.00000E+00
    0.00000E+00         0.00000E+00        -0.30044E+08
 
   -0.31191E+08         0.11650E+07         0.00000E+00
    0.11650E+07        -0.51273E+08         0.00000E+00
    0.00000E+00         0.00000E+00        -0.30160E+08
 
   -0.31172E+08         0.12634E+07         0.00000E+00
    0.12634E+07        -0.51330E+08         0.00000E+00
    0.00000E+00         0.00000E+00        -0.30273E+08
 
   -0.31160E+08         0.13635E+07         0.00000E+00
    0.13635E+07        -0.51386E+08         0.00000E+00
    0.00000E+00         0.00000E+00        -0.30383E+08
 
   -0.31154E+08         0.14653E+07         0.00000E+00
    0.14653E+07        -0.51443E+08         0.00000E+00
    0.00000E+00         0.00000E+00        -0.30491E+08
 
   -0.31154E+08         0.15689E+07         0.00000E+00
    0.15689E+07        -0.51498E+08         0.00000E+00
    0.00000E+00         0.00000E+00        -0.30596E+08
 
   -0.31160E+08         0.16746E+07         0.00000E+00
    0.16746E+07        -0.51553E+08         0.00000E+00
    0.00000E+00         0.00000E+00        -0.30697E+08
 
   -0.31172E+08         0.17819E+07         0.00000E+00
    0.17819E+07        -0.51607E+08         0.00000E+00
    0.00000E+00         0.00000E+00        -0.30796E+08
 
   -0.31191E+08         0.18907E+07         0.00000E+00
    0.18907E+07        -0.51661E+08         0.00000E+00
    0.00000E+00         0.00000E+00        -0.30890E+08
 
   -0.31216E+08         0.19999E+07         0.00000E+00
    0.19999E+07        -0.51714E+08         0.00000E+00
    0.00000E+00         0.00000E+00        -0.30981E+08
 
   -0.31247E+08         0.21091E+07         0.00000E+00
    0.21091E+07        -0.51767E+08         0.00000E+00
    0.00000E+00         0.00000E+00        -0.31069E+08
 
   -0.31284E+08         0.22199E+07         0.00000E+00
    0.22199E+07        -0.51819E+08         0.00000E+00
    0.00000E+00         0.00000E+00        -0.31154E+08
 
   -0.31326E+08         0.23308E+07         0.00000E+00
    0.23308E+07        -0.51870E+08         0.00000E+00
    0.00000E+00         0.00000E+00        -0.31235E+08
 
   -0.31373E+08         0.24422E+07         0.00000E+00
    0.24422E+07        -0.51921E+08         0.00000E+00
    0.00000E+00         0.00000E+00        -0.31313E+08
 
   -0.31425E+08         0.25547E+07         0.00000E+00
    0.25547E+07        -0.51971E+08         0.00000E+00
    0.00000E+00         0.00000E+00        -0.31389E+08
 
   -0.31481E+08         0.26673E+07         0.00000E+00
    0.26673E+07        -0.52019E+08         0.00000E+00
    0.00000E+00         0.00000E+00        -0.31462E+08
 
   -0.31540E+08         0.27807E+07         0.00000E+00
    0.27807E+07        -0.52067E+08         0.00000E+00
    0.00000E+00         0.00000E+00        -0.31534E+08
 
   -0.33831E+08        -0.58380E+05         0.00000E+00
   -0.58380E+05        -0.50003E+08         0.00000E+00
    0.00000E+00         0.00000E+00        -0.27059E+08
 
   -0.33787E+08        -0.14630E+06         0.00000E+00
   -0.14630E+06        -0.50009E+08         0.00000E+00
    0.00000E+00         0.00000E+00        -0.27059E+08
 
   -0.33735E+08        -0.22620E+06         0.00000E+00
   -0.22620E+06        -0.50017E+08         0.00000E+00
    0.00000E+00         0.00000E+00        -0.27059E+08
 
   -0.33674E+08        -0.29804E+06         0.00000E+00
   -0.29804E+06        -0.50030E+08         0.00000E+00
    0.00000E+00         0.00000E+00        -0.27059E+08
 
   -0.33605E+08        -0.36173E+06         0.00000E+00
   -0.36173E+06        -0.50046E+08         0.00000E+00
    0.00000E+00         0.00000E+00        -0.27060E+08
 
   -0.33526E+08        -0.41717E+06         0.00000E+00
   -0.41717E+06        -0.50064E+08         0.00000E+00
    0.00000E+00         0.00000E+00        -0.27060E+08
 
   -0.33438E+08        -0.46441E+06         0.00000E+00
   -0.46441E+06        -0.50085E+08         0.00000E+00
    0.00000E+00         0.00000E+00        -0.27061E+08
 
   -0.33345E+08        -0.50304E+06         0.00000E+00
   -0.50304E+06        -0.50105E+08         0.00000E+00
    0.00000E+00         0.00000E+00        -0.27069E+08
 
   -0.33252E+08        -0.53187E+06         0.00000E+00
   -0.53187E+06        -0.50131E+08         0.00000E+00
    0.00000E+00         0.00000E+00        -0.27097E+08
 
   -0.33151E+08        -0.54968E+06         0.00000E+00
   -0.54968E+06        -0.50160E+08         0.00000E+00
    0.00000E+00         0.00000E+00        -0.27128E+08
 
   -0.33042E+08        -0.55643E+06         0.00000E+00
   -0.55643E+06        -0.50188E+08         0.00000E+00
    0.00000E+00         0.00000E+00        -0.27159E+08
 
   -0.32926E+08        -0.55226E+06         0.00000E+00
   -0.55226E+06        -0.50216E+08         0.00000E+00
    0.00000E+00         0.00000E+00        -0.27192E+08
 
   -0.32801E+08        -0.53728E+06         0.00000E+00
   -0.53728E+06        -0.50243E+08         0.00000E+00
    0.00000E+00         0.00000E+00        -0.27226E+08
 
   -0.32677E+08        -0.51240E+06         0.00000E+00
   -0.51240E+06        -0.50265E+08         0.00000E+00
    0.00000E+00         0.00000E+00        -0.27283E+08
 
   -0.32559E+08        -0.47998E+06         0.00000E+00
   -0.47998E+06        -0.50288E+08         0.00000E+00
    0.00000E+00         0.00000E+00        -0.27369E+08
 
   -0.32435E+08        -0.44178E+06         0.00000E+00
   -0.44178E+06        -0.50312E+08         0.00000E+00
    0.00000E+00         0.00000E+00        -0.27459E+08
 
   -0.32309E+08        -0.39869E+06         0.00000E+00
   -0.39869E+06        -0.50336E+08         0.00000E+00
    0.00000E+00         0.00000E+00        -0.27553E+08
 
   -0.32181E+08        -0.35199E+06         0.00000E+00
   -0.35199E+06        -0.50361E+08         0.00000E+00
    0.00000E+00         0.00000E+00        -0.27652E+08
 
   -0.32055E+08        -0.30281E+06         0.00000E+00
   -0.30281E+06        -0.50389E+08         0.00000E+00
    0.00000E+00         0.00000E+00        -0.27755E+08
 
   -0.31933E+08        -0.25021E+06         0.00000E+00
   -0.25021E+06        -0.50419E+08         0.00000E+00
    0.00000E+00         0.00000E+00        -0.27861E+08
 
   -0.31814E+08        -0.19320E+06         0.00000E+00
   -0.19320E+06        -0.50451E+08         0.00000E+00
    0.00000E+00         0.00000E+00        -0.27969E+08
 
   -0.31699E+08        -0.13239E+06         0.00000E+00
   -0.13239E+06        -0.50486E+08         0.00000E+00
    0.00000E+00         0.00000E+00        -0.28081E+08
 
   -0.31589E+08        -0.68694E+05         0.00000E+00
   -0.68694E+05        -0.50523E+08         0.00000E+00
    0.00000E+00         0.00000E+00        -0.28196E+08
 
   -0.31483E+08        -0.23061E+04         0.00000E+00
   -0.23061E+04        -0.50561E+08         0.00000E+00
    0.00000E+00         0.00000E+00        -0.28312E+08
 
   -0.31381E+08         0.66732E+05         0.00000E+00
    0.66732E+05        -0.50601E+08         0.00000E+00
    0.00000E+00         0.00000E+00        -0.28430E+08
 
   -0.31285E+08         0.13811E+06         0.00000E+00
    0.13811E+06        -0.50642E+08         0.00000E+00
    0.00000E+00         0.00000E+00        -0.28548E+08
 
   -0.31195E+08         0.21194E+06         0.00000E+00
    0.21194E+06        -0.50684E+08         0.00000E+00
    0.00000E+00         0.00000E+00        -0.28667E+08
 
   -0.31111E+08         0.28856E+06         0.00000E+00
    0.28856E+06        -0.50728E+08         0.00000E+00
    0.00000E+00         0.00000E+00        -0.28786E+08
 
   -0.31034E+08         0.36789E+06         0.00000E+00
    0.36789E+06        -0.50773E+08         0.00000E+00
    0.00000E+00         0.00000E+00        -0.28905E+08
 
   -0.30963E+08         0.44989E+06         0.00000E+00
    0.44989E+06        -0.50819E+08         0.00000E+00
    0.00000E+00         0.00000E+00        -0.29023E+08
 
   -0.30898E+08         0.53438E+06         0.00000E+00
    0.53438E+06        -0.50866E+08         0.00000E+00
    0.00000E+00         0.00000E+00        -0.29141E+08
 
   -0.30840E+08         0.62132E+06         0.00000E+00
    0.62132E+06        -0.50914E+08         0.00000E+00
    0.00000E+00         0.00000E+00        -0.29258E+08
 
   -0.30789E+08         0.71076E+06         0.00000E+00
    0.71076E+06        -0.50963E+08         0.00000E+00
    0.00000E+00         0.00000E+00        -0.29374E+08
 
   -0.30745E+08         0.80269E+06         0.00000E+00
    0.80269E+06        -0.51013E+08         0.00000E+00
    0.00000E+00         0.00000E+00        -0.29488E+08
 
   -0.30707E+08         0.89729E+06         0.00000E+00
    0.89729E+06        -0.51064E+08         0.00000E+00
    0.00000E+00         0.00000E+00        -0.29600E+08
 
   -0.30677E+08         0.99471E+06         0.00000E+00
    0.99471E+06        -0.51115E+08         0.00000E+00
    0.00000E+00         0.00000E+00        -0.29710E+08
 
   -0.30653E+08         0.10949E+07         0.00000E+00
    0.10949E+07        -0.51166E+08         0.00000E+00
    0.00000E+00         0.00000E+00        -0.29818E+08
 
   -0.30636E+08         0.11975E+07         0.00000E+00
    0.11975E+07        -0.51218E+08         0.00000E+00
    0.00000E+00         0.00000E+00        -0.29924E+08
 
   -0.30627E+08         0.13023E+07         0.00000E+00
    0.13023E+07        -0.51270E+08         0.00000E+00
    0.00000E+00         0.00000E+00        -0.30026E+08
 
   -0.30625E+08         0.14086E+07         0.00000E+00
    0.14086E+07        -0.51322E+08         0.00000E+00
    0.00000E+00         0.00000E+00        -0.30126E+08
 
   -0.30630E+08         0.15169E+07         0.00000E+00
    0.15169E+07        -0.51375E+08         0.00000E+00
    0.00000E+00         0.00000E+00        -0.30222E+08
 
   -0.30643E+08         0.16269E+07         0.00000E+00
    0.16269E+07        -0.51427E+08         0.00000E+00
    0.00000E+00         0.00000E+00        -0.30315E+08
 
   -0.30662E+08         0.17387E+07         0.00000E+00
    0.17387E+07        -0.51479E+08         0.00000E+00
    0.00000E+00         0.00000E+00        -0.30405E+08
 
   -0.30688E+08         0.18521E+07         0.00000E+00
    0.18521E+07        -0.51531E+08         0.00000E+00
    0.00000E+00         0.00000E+00        -0.30490E+08
 
   -0.30721E+08         0.19660E+07         0.00000E+00
    0.19660E+07        -0.51582E+08         0.00000E+00
    0.00000E+00         0.00000E+00        -0.30572E+08
 
   -0.30758E+08         0.20815E+07         0.00000E+00
    0.20815E+07        -0.51632E+08         0.00000E+00
    0.00000E+00         0.00000E+00        -0.30651E+08
 
   -0.30800E+08         0.21992E+07         0.00000E+00
    0.21992E+07        -0.51680E+08         0.00000E+00
    0.00000E+00         0.00000E+00        -0.30727E+08
 
   -0.30846E+08         0.23185E+07         0.00000E+00
    0.23185E+07        -0.51726E+08         0.00000E+00
    0.00000E+00         0.00000E+00        -0.30801E+08
 
   -0.30895E+08         0.24401E+07         0.00000E+00
    0.24401E+07        -0.51770E+08         0.00000E+00
    0.00000E+00         0.00000E+00        -0.30872E+08
 
   -0.30948E+08         0.25636E+07         0.00000E+00
    0.25636E+07        -0.51810E+08         0.00000E+00
    0.00000E+00         0.00000E+00        -0.30941E+08
 
   -0.34364E+08        -0.70452E+05         0.00000E+00
   -0.70452E+05        -0.49993E+08         0.00000E+00
    0.00000E+00         0.00000E+00        -0.25999E+08
 
   -0.34270E+08        -0.18931E+06         0.00000E+00
   -0.18931E+06        -0.49993E+08         0.00000E+00
    0.00000E+00         0.00000E+00        -0.26014E+08
 
   -0.34166E+08        -0.29363E+06         0.00000E+00
   -0.29363E+06        -0.50003E+08         0.00000E+00
    0.00000E+00         0.00000E+00        -0.26035E+08
 
   -0.34050E+08        -0.38347E+06         0.00000E+00
   -0.38347E+06        -0.50016E+08         0.00000E+00
    0.00000E+00         0.00000E+00        -0.26061E+08
 
   -0.33925E+08        -0.45865E+06         0.00000E+00
   -0.45865E+06        -0.50031E+08         0.00000E+00
    0.00000E+00         0.00000E+00        -0.26088E+08
 
   -0.33790E+08        -0.51934E+06         0.00000E+00
   -0.51934E+06        -0.50046E+08         0.00000E+00
    0.00000E+00         0.00000E+00        -0.26118E+08
 
   -0.33648E+08        -0.56588E+06         0.00000E+00
   -0.56588E+06        -0.50062E+08         0.00000E+00
    0.00000E+00         0.00000E+00        -0.26149E+08
 
   -0.33496E+08        -0.59899E+06         0.00000E+00
   -0.59899E+06        -0.50079E+08         0.00000E+00
    0.00000E+00         0.00000E+00        -0.26183E+08
 
   -0.33350E+08        -0.62032E+06         0.00000E+00
   -0.62032E+06        -0.50094E+08         0.00000E+00
    0.00000E+00         0.00000E+00        -0.26254E+08
 
   -0.33200E+08        -0.63210E+06         0.00000E+00
   -0.63210E+06        -0.50106E+08         0.00000E+00
    0.00000E+00         0.00000E+00        -0.26333E+08
 
   -0.33045E+08        -0.63532E+06         0.00000E+00
   -0.63532E+06        -0.50119E+08         0.00000E+00
    0.00000E+00         0.00000E+00        -0.26415E+08
 
   -0.32887E+08        -0.63100E+06         0.00000E+00
   -0.63100E+06        -0.50131E+08         0.00000E+00
    0.00000E+00         0.00000E+00        -0.26501E+08
 
   -0.32728E+08        -0.62054E+06         0.00000E+00
   -0.62054E+06        -0.50145E+08         0.00000E+00
    0.00000E+00         0.00000E+00        -0.26591E+08
 
   -0.32570E+08        -0.60478E+06         0.00000E+00
   -0.60478E+06        -0.50161E+08         0.00000E+00
    0.00000E+00         0.00000E+00        -0.26684E+08
 
   -0.32414E+08        -0.58250E+06         0.00000E+00
   -0.58250E+06        -0.50177E+08         0.00000E+00
    0.00000E+00         0.00000E+00        -0.26778E+08
 
   -0.32261E+08        -0.55360E+06         0.00000E+00
   -0.55360E+06        -0.50195E+08         0.00000E+00
    0.00000E+00         0.00000E+00        -0.26875E+08
 
   -0.32110E+08        -0.51951E+06         0.00000E+00
   -0.51951E+06        -0.50215E+08         0.00000E+00
    0.00000E+00         0.00000E+00        -0.26976E+08
 
   -0.31962E+08        -0.48102E+06         0.00000E+00
   -0.48102E+06        -0.50237E+08         0.00000E+00
    0.00000E+00         0.00000E+00        -0.27080E+08
 
   -0.31818E+08        -0.43844E+06         0.00000E+00
   -0.43844E+06        -0.50260E+08         0.00000E+00
    0.00000E+00         0.00000E+00        -0.27185E+08
 
   -0.31677E+08        -0.39216E+06         0.00000E+00
   -0.39216E+06        -0.50284E+08         0.00000E+00
    0.00000E+00         0.00000E+00        -0.27292E+08
 
   -0.31541E+08        -0.34271E+06         0.00000E+00
   -0.34271E+06        -0.50309E+08         0.00000E+00
    0.00000E+00         0.00000E+00        -0.27400E+08
 
   -0.31410E+08        -0.29001E+06         0.00000E+00
   -0.29001E+06        -0.50335E+08         0.00000E+00
    0.00000E+00         0.00000E+00        -0.27509E+08
 
   -0.31284E+08        -0.23394E+06         0.00000E+00
   -0.23394E+06        -0.50362E+08         0.00000E+00
    0.00000E+00         0.00000E+00        -0.27620E+08
 
   -0.31163E+08        -0.17471E+06         0.00000E+00
   -0.17471E+06        -0.50390E+08         0.00000E+00
    0.00000E+00         0.00000E+00        -0.27731E+08
 
   -0.31048E+08        -0.11267E+06         0.00000E+00
   -0.11267E+06        -0.50420E+08         0.00000E+00
    0.00000E+00         0.00000E+00        -0.27843E+08
 
   -0.30938E+08        -0.47742E+05         0.00000E+00
   -0.47742E+05        -0.50451E+08         0.00000E+00
    0.00000E+00         0.00000E+00        -0.27955E+08
 
   -0.30835E+08         0.19886E+05         0.00000E+00
    0.19886E+05        -0.50484E+08         0.00000E+00
    0.00000E+00         0.00000E+00        -0.28068E+08
 
   -0.30738E+08         0.90030E+05         0.00000E+00
    0.90030E+05        -0.50518E+08         0.00000E+00
    0.00000E+00         0.00000E+00        -0.28181E+08
 
   -0.30646E+08         0.16282E+06         0.00000E+00
    0.16282E+06        -0.50553E+08         0.00000E+00
    0.00000E+00         0.00000E+00        -0.28294E+08
 
   -0.30562E+08         0.23831E+06         0.00000E+00
    0.23831E+06        -0.50590E+08         0.00000E+00
    0.00000E+00         0.00000E+00        -0.28407E+08
 
   -0.30484E+08         0.31660E+06         0.00000E+00
    0.31660E+06        -0.50628E+08         0.00000E+00
    0.00000E+00         0.00000E+00        -0.28519E+08
 
   -0.30412E+08         0.39788E+06         0.00000E+00
    0.39788E+06        -0.50667E+08         0.00000E+00
    0.00000E+00         0.00000E+00        -0.28631E+08
 
   -0.30347E+08         0.48207E+06         0.00000E+00
    0.48207E+06        -0.50708E+08         0.00000E+00
    0.00000E+00         0.00000E+00        -0.28742E+08
 
   -0.30289E+08         0.56937E+06         0.00000E+00
    0.56937E+06        -0.50750E+08         0.00000E+00
    0.00000E+00         0.00000E+00        -0.28852E+08
 
   -0.30237E+08         0.65958E+06         0.00000E+00
    0.65958E+06        -0.50794E+08         0.00000E+00
    0.00000E+00         0.00000E+00        -0.28961E+08
 
   -0.30193E+08         0.75258E+06         0.00000E+00
    0.75258E+06        -0.50839E+08         0.00000E+00
    0.00000E+00         0.00000E+00        -0.29069E+08
 
   -0.30156E+08         0.84832E+06         0.00000E+00
    0.84832E+06        -0.50885E+08         0.00000E+00
    0.00000E+00         0.00000E+00        -0.29176E+08
 
   -0.30127E+08         0.94696E+06         0.00000E+00
    0.94696E+06        -0.50932E+08         0.00000E+00
    0.00000E+00         0.00000E+00        -0.29281E+08
 
   -0.30105E+08         0.10486E+07         0.00000E+00
    0.10486E+07        -0.50981E+08         0.00000E+00
    0.00000E+00         0.00000E+00        -0.29384E+08
 
   -0.30091E+08         0.11535E+07         0.00000E+00
    0.11535E+07        -0.51031E+08         0.00000E+00
    0.00000E+00         0.00000E+00        -0.29484E+08
 
   -0.30084E+08         0.12610E+07         0.00000E+00
    0.12610E+07        -0.51081E+08         0.00000E+00
    0.00000E+00         0.00000E+00        -0.29582E+08
 
   -0.30086E+08         0.13716E+07         0.00000E+00
    0.13716E+07        -0.51131E+08         0.00000E+00
    0.00000E+00         0.00000E+00        -0.29676E+08
 
   -0.30094E+08         0.14854E+07         0.00000E+00
    0.14854E+07        -0.51182E+08         0.00000E+00
    0.00000E+00         0.00000E+00        -0.29768E+08
 
   -0.30108E+08         0.16023E+07         0.00000E+00
    0.16023E+07        -0.51232E+08         0.00000E+00
    0.00000E+00         0.00000E+00        -0.29858E+08
 
   -0.30127E+08         0.17229E+07         0.00000E+00
    0.17229E+07        -0.51281E+08         0.00000E+00
    0.00000E+00         0.00000E+00        -0.29945E+08
 
   -0.30152E+08         0.18475E+07         0.00000E+00
    0.18475E+07        -0.51328E+08         0.00000E+00
    0.00000E+00         0.00000E+00        -0.30029E+08
 
   -0.30185E+08         0.19733E+07         0.00000E+00
    0.19733E+07        -0.51374E+08         0.00000E+00
    0.00000E+00         0.00000E+00        -0.30109E+08
 
   -0.30224E+08         0.20998E+07         0.00000E+00
    0.20998E+07        -0.51420E+08         0.00000E+00
    0.00000E+00         0.00000E+00        -0.30185E+08
 
   -0.30272E+08         0.22262E+07         0.00000E+00
    0.22262E+07        -0.51466E+08         0.00000E+00
    0.00000E+00         0.00000E+00        -0.30257E+08
 
   -0.30328E+08         0.23492E+07         0.00000E+00
    0.23492E+07        -0.51514E+08         0.00000E+00
    0.00000E+00         0.00000E+00        -0.30325E+08
 
   -0.35019E+08        -0.10110E+06         0.00000E+00
   -0.10110E+06        -0.49991E+08         0.00000E+00
    0.00000E+00         0.00000E+00        -0.25076E+08
 
   -0.34837E+08        -0.22378E+06         0.00000E+00
   -0.22378E+06        -0.49999E+08         0.00000E+00
    0.00000E+00         0.00000E+00        -0.25101E+08
 
   -0.34653E+08        -0.32911E+06         0.00000E+00
   -0.32911E+06        -0.50005E+08         0.00000E+00
    0.00000E+00         0.00000E+00        -0.25156E+08
 
   -0.34462E+08        -0.41774E+06         0.00000E+00
   -0.41774E+06        -0.50009E+08         0.00000E+00
    0.00000E+00         0.00000E+00        -0.25223E+08
 
   -0.34265E+08        -0.49142E+06         0.00000E+00
   -0.49142E+06        -0.50013E+08         0.00000E+00
    0.00000E+00         0.00000E+00        -0.25295E+08
 
   -0.34064E+08        -0.55163E+06         0.00000E+00
   -0.55163E+06        -0.50017E+08         0.00000E+00
    0.00000E+00         0.00000E+00        -0.25372E+08
 
   -0.33861E+08        -0.59979E+06         0.00000E+00
   -0.59979E+06        -0.50021E+08         0.00000E+00
    0.00000E+00         0.00000E+00        -0.25451E+08
 
   -0.33657E+08        -0.63764E+06         0.00000E+00
   -0.63764E+06        -0.50025E+08         0.00000E+00
    0.00000E+00         0.00000E+00        -0.25534E+08
 
   -0.33456E+08        -0.66522E+06         0.00000E+00
   -0.66522E+06        -0.50029E+08         0.00000E+00
    0.00000E+00         0.00000E+00        -0.25619E+08
 
   -0.33256E+08        -0.68228E+06         0.00000E+00
   -0.68228E+06        -0.50035E+08         0.00000E+00
    0.00000E+00         0.00000E+00        -0.25706E+08
 
   -0.33059E+08        -0.69029E+06         0.00000E+00
   -0.69029E+06        -0.50042E+08         0.00000E+00
    0.00000E+00         0.00000E+00        -0.25796E+08
 
   -0.32864E+08        -0.69050E+06         0.00000E+00
   -0.69050E+06        -0.50050E+08         0.00000E+00
    0.00000E+00         0.00000E+00        -0.25889E+08
 
   -0.32672E+08        -0.68374E+06         0.00000E+00
   -0.68374E+06        -0.50058E+08         0.00000E+00
    0.00000E+00         0.00000E+00        -0.25983E+08
 
   -0.32484E+08        -0.67051E+06         0.00000E+00
   -0.67051E+06        -0.50067E+08         0.00000E+00
    0.00000E+00         0.00000E+00        -0.26079E+08
 
   -0.32300E+08        -0.65176E+06         0.00000E+00
   -0.65176E+06        -0.50076E+08         0.00000E+00
    0.00000E+00         0.00000E+00        -0.26177E+08
 
   -0.32120E+08        -0.62791E+06         0.00000E+00
   -0.62791E+06        -0.50085E+08         0.00000E+00
    0.00000E+00         0.00000E+00        -0.26275E+08
 
   -0.31945E+08        -0.59904E+06         0.00000E+00
   -0.59904E+06        -0.50095E+08         0.00000E+00
    0.00000E+00         0.00000E+00        -0.26375E+08
 
   -0.31775E+08        -0.56555E+06         0.00000E+00
   -0.56555E+06        -0.50106E+08         0.00000E+00
    0.00000E+00         0.00000E+00        -0.26475E+08
 
   -0.31611E+08        -0.52799E+06         0.00000E+00
   -0.52799E+06        -0.50117E+08         0.00000E+00
    0.00000E+00         0.00000E+00        -0.26576E+08
 
   -0.31452E+08        -0.48677E+06         0.00000E+00
   -0.48677E+06        -0.50129E+08         0.00000E+00
    0.00000E+00         0.00000E+00        -0.26677E+08
 
   -0.31299E+08        -0.44213E+06         0.00000E+00
   -0.44213E+06        -0.50142E+08         0.00000E+00
    0.00000E+00         0.00000E+00        -0.26779E+08
 
   -0.31152E+08        -0.39445E+06         0.00000E+00
   -0.39445E+06        -0.50156E+08         0.00000E+00
    0.00000E+00         0.00000E+00        -0.26881E+08
 
   -0.31011E+08        -0.34407E+06         0.00000E+00
   -0.34407E+06        -0.50171E+08         0.00000E+00
    0.00000E+00         0.00000E+00        -0.26984E+08
 
   -0.30876E+08        -0.29110E+06         0.00000E+00
   -0.29110E+06        -0.50187E+08         0.00000E+00
    0.00000E+00         0.00000E+00        -0.27087E+08
 
   -0.30748E+08        -0.23558E+06         0.00000E+00
   -0.23558E+06        -0.50204E+08         0.00000E+00
    0.00000E+00         0.00000E+00        -0.27190E+08
 
   -0.30625E+08        -0.17765E+06         0.00000E+00
   -0.17765E+06        -0.50223E+08         0.00000E+00
    0.00000E+00         0.00000E+00        -0.27293E+08
 
   -0.30509E+08        -0.11736E+06         0.00000E+00
   -0.11736E+06        -0.50243E+08         0.00000E+00
    0.00000E+00         0.00000E+00        -0.27397E+08
 
   -0.30399E+08        -0.54632E+05         0.00000E+00
   -0.54632E+05        -0.50265E+08         0.00000E+00
    0.00000E+00         0.00000E+00        -0.27500E+08
 
   -0.30295E+08         0.10532E+05         0.00000E+00
    0.10532E+05        -0.50288E+08         0.00000E+00
    0.00000E+00         0.00000E+00        -0.27604E+08
 
   -0.30197E+08         0.78199E+05         0.00000E+00
    0.78199E+05        -0.50313E+08         0.00000E+00
    0.00000E+00         0.00000E+00        -0.27708E+08
 
   -0.30105E+08         0.14841E+06         0.00000E+00
    0.14841E+06        -0.50340E+08         0.00000E+00
    0.00000E+00         0.00000E+00        -0.27813E+08
 
   -0.30020E+08         0.22117E+06         0.00000E+00
    0.22117E+06        -0.50369E+08         0.00000E+00
    0.00000E+00         0.00000E+00        -0.27917E+08
 
   -0.29940E+08         0.29662E+06         0.00000E+00
    0.29662E+06        -0.50400E+08         0.00000E+00
    0.00000E+00         0.00000E+00        -0.28022E+08
 
   -0.29867E+08         0.37478E+06         0.00000E+00
    0.37478E+06        -0.50433E+08         0.00000E+00
    0.00000E+00         0.00000E+00        -0.28128E+08
 
   -0.29800E+08         0.45603E+06         0.00000E+00
    0.45603E+06        -0.50468E+08         0.00000E+00
    0.00000E+00         0.00000E+00        -0.28233E+08
 
   -0.29740E+08         0.54046E+06         0.00000E+00
    0.54046E+06        -0.50505E+08         0.00000E+00
    0.00000E+00         0.00000E+00        -0.28339E+08
 
   -0.29687E+08         0.62837E+06         0.00000E+00
    0.62837E+06        -0.50545E+08         0.00000E+00
    0.00000E+00         0.00000E+00        -0.28444E+08
 
   -0.29641E+08         0.71996E+06         0.00000E+00
    0.71996E+06        -0.50586E+08         0.00000E+00
    0.00000E+00         0.00000E+00        -0.28549E+08
 
   -0.29602E+08         0.81549E+06         0.00000E+00
    0.81549E+06        -0.50630E+08         0.00000E+00
    0.00000E+00         0.00000E+00        -0.28653E+08
 
   -0.29569E+08         0.91495E+06         0.00000E+00
    0.91495E+06        -0.50675E+08         0.00000E+00
    0.00000E+00         0.00000E+00        -0.28757E+08
 
   -0.29544E+08         0.10188E+07         0.00000E+00
    0.10188E+07        -0.50721E+08         0.00000E+00
    0.00000E+00         0.00000E+00        -0.28860E+08
 
   -0.29526E+08         0.11273E+07         0.00000E+00
    0.11273E+07        -0.50769E+08         0.00000E+00
    0.00000E+00         0.00000E+00        -0.28963E+08
 
   -0.29514E+08         0.12404E+07         0.00000E+00
    0.12404E+07        -0.50818E+08         0.00000E+00
    0.00000E+00         0.00000E+00        -0.29065E+08
 
   -0.29511E+08         0.13579E+07         0.00000E+00
    0.13579E+07        -0.50869E+08         0.00000E+00
    0.00000E+00         0.00000E+00        -0.29164E+08
 
   -0.29517E+08         0.14781E+07         0.00000E+00
    0.14781E+07        -0.50920E+08         0.00000E+00
    0.00000E+00         0.00000E+00        -0.29261E+08
 
   -0.29534E+08         0.15991E+07         0.00000E+00
    0.15991E+07        -0.50974E+08         0.00000E+00
    0.00000E+00         0.00000E+00        -0.29353E+08
 
   -0.29562E+08         0.17226E+07         0.00000E+00
    0.17226E+07        -0.51029E+08         0.00000E+00
    0.00000E+00         0.00000E+00        -0.29441E+08
 
   -0.29598E+08         0.18479E+07         0.00000E+00
    0.18479E+07        -0.51084E+08         0.00000E+00
    0.00000E+00         0.00000E+00        -0.29525E+08
 
   -0.29641E+08         0.19742E+07         0.00000E+00
    0.19742E+07        -0.51139E+08         0.00000E+00
    0.00000E+00         0.00000E+00        -0.29605E+08
 
   -0.29690E+08         0.21082E+07         0.00000E+00
    0.21082E+07        -0.51189E+08         0.00000E+00
    0.00000E+00         0.00000E+00        -0.29680E+08
 
   -0.35723E+08        -0.89097E+05         0.00000E+00
   -0.89097E+05        -0.50002E+08         0.00000E+00
    0.00000E+00         0.00000E+00        -0.24368E+08
 
   -0.35440E+08        -0.22326E+06         0.00000E+00
   -0.22326E+06        -0.50003E+08         0.00000E+00
    0.00000E+00         0.00000E+00        -0.24436E+08
 
   -0.35159E+08        -0.33284E+06         0.00000E+00
   -0.33284E+06        -0.50000E+08         0.00000E+00
    0.00000E+00         0.00000E+00        -0.24506E+08
 
   -0.34882E+08        -0.42391E+06         0.00000E+00
   -0.42391E+06        -0.49995E+08         0.00000E+00
    0.00000E+00         0.00000E+00        -0.24579E+08
 
   -0.34610E+08        -0.49858E+06         0.00000E+00
   -0.49858E+06        -0.49993E+08         0.00000E+00
    0.00000E+00         0.00000E+00        -0.24658E+08
 
   -0.34343E+08        -0.55906E+06         0.00000E+00
   -0.55906E+06        -0.49989E+08         0.00000E+00
    0.00000E+00         0.00000E+00        -0.24739E+08
 
   -0.34081E+08        -0.60760E+06         0.00000E+00
   -0.60760E+06        -0.49986E+08         0.00000E+00
    0.00000E+00         0.00000E+00        -0.24823E+08
 
   -0.33824E+08        -0.64498E+06         0.00000E+00
   -0.64498E+06        -0.49983E+08         0.00000E+00
    0.00000E+00         0.00000E+00        -0.24909E+08
 
   -0.33573E+08        -0.67236E+06         0.00000E+00
   -0.67236E+06        -0.49979E+08         0.00000E+00
    0.00000E+00         0.00000E+00        -0.24997E+08
 
   -0.33327E+08        -0.69078E+06         0.00000E+00
   -0.69078E+06        -0.49976E+08         0.00000E+00
    0.00000E+00         0.00000E+00        -0.25087E+08
 
   -0.33088E+08        -0.70068E+06         0.00000E+00
   -0.70068E+06        -0.49972E+08         0.00000E+00
    0.00000E+00         0.00000E+00        -0.25178E+08
 
   -0.32855E+08        -0.70264E+06         0.00000E+00
   -0.70264E+06        -0.49969E+08         0.00000E+00
    0.00000E+00         0.00000E+00        -0.25269E+08
 
   -0.32630E+08        -0.69744E+06         0.00000E+00
   -0.69744E+06        -0.49965E+08         0.00000E+00
    0.00000E+00         0.00000E+00        -0.25362E+08
 
   -0.32411E+08        -0.68585E+06         0.00000E+00
   -0.68585E+06        -0.49962E+08         0.00000E+00
    0.00000E+00         0.00000E+00        -0.25455E+08
 
   -0.32199E+08        -0.66840E+06         0.00000E+00
   -0.66840E+06        -0.49958E+08         0.00000E+00
    0.00000E+00         0.00000E+00        -0.25548E+08
 
   -0.31994E+08        -0.64579E+06         0.00000E+00
   -0.64579E+06        -0.49955E+08         0.00000E+00
    0.00000E+00         0.00000E+00        -0.25642E+08
 
   -0.31796E+08        -0.61868E+06         0.00000E+00
   -0.61868E+06        -0.49952E+08         0.00000E+00
    0.00000E+00         0.00000E+00        -0.25735E+08
 
   -0.31606E+08        -0.58764E+06         0.00000E+00
   -0.58764E+06        -0.49948E+08         0.00000E+00
    0.00000E+00         0.00000E+00        -0.25827E+08
 
   -0.31423E+08        -0.55306E+06         0.00000E+00
   -0.55306E+06        -0.49946E+08         0.00000E+00
    0.00000E+00         0.00000E+00        -0.25920E+08
 
   -0.31249E+08        -0.51537E+06         0.00000E+00
   -0.51537E+06        -0.49943E+08         0.00000E+00
    0.00000E+00         0.00000E+00        -0.26011E+08
 
   -0.31081E+08        -0.47495E+06         0.00000E+00
   -0.47495E+06        -0.49942E+08         0.00000E+00
    0.00000E+00         0.00000E+00        -0.26102E+08
 
   -0.30921E+08        -0.43216E+06         0.00000E+00
   -0.43216E+06        -0.49941E+08         0.00000E+00
    0.00000E+00         0.00000E+00        -0.26193E+08
 
   -0.30768E+08        -0.38721E+06         0.00000E+00
   -0.38721E+06        -0.49942E+08         0.00000E+00
    0.00000E+00         0.00000E+00        -0.26284E+08
 
   -0.30622E+08        -0.34031E+06         0.00000E+00
   -0.34031E+06        -0.49943E+08         0.00000E+00
    0.00000E+00         0.00000E+00        -0.26374E+08
 
   -0.30483E+08        -0.29154E+06         0.00000E+00
   -0.29154E+06        -0.49946E+08         0.00000E+00
    0.00000E+00         0.00000E+00        -0.26464E+08
 
   -0.30350E+08        -0.24105E+06         0.00000E+00
   -0.24105E+06        -0.49951E+08         0.00000E+00
    0.00000E+00         0.00000E+00        -0.26555E+08
 
   -0.30224E+08        -0.18892E+06         0.00000E+00
   -0.18892E+06        -0.49957E+08         0.00000E+00
    0.00000E+00         0.00000E+00        -0.26645E+08
 
   -0.30103E+08        -0.13513E+06         0.00000E+00
   -0.13513E+06        -0.49966E+08         0.00000E+00
    0.00000E+00         0.00000E+00        -0.26736E+08
 
   -0.29989E+08        -0.79723E+05         0.00000E+00
   -0.79723E+05        -0.49976E+08         0.00000E+00
    0.00000E+00         0.00000E+00        -0.26828E+08
 
   -0.29879E+08        -0.22614E+05         0.00000E+00
   -0.22614E+05        -0.49988E+08         0.00000E+00
    0.00000E+00         0.00000E+00        -0.26921E+08
 
   -0.29776E+08         0.36419E+05         0.00000E+00
    0.36419E+05        -0.50003E+08         0.00000E+00
    0.00000E+00         0.00000E+00        -0.27015E+08
 
   -0.29678E+08         0.97555E+05         0.00000E+00
    0.97555E+05        -0.50021E+08         0.00000E+00
    0.00000E+00         0.00000E+00        -0.27110E+08
 
   -0.29585E+08         0.16102E+06         0.00000E+00
    0.16102E+06        -0.50041E+08         0.00000E+00
    0.00000E+00         0.00000E+00        -0.27207E+08
 
   -0.29497E+08         0.22700E+06         0.00000E+00
    0.22700E+06        -0.50064E+08         0.00000E+00
    0.00000E+00         0.00000E+00        -0.27305E+08
 
   -0.29415E+08         0.29566E+06         0.00000E+00
    0.29566E+06        -0.50089E+08         0.00000E+00
    0.00000E+00         0.00000E+00        -0.27405E+08
 
   -0.29339E+08         0.36751E+06         0.00000E+00
    0.36751E+06        -0.50118E+08         0.00000E+00
    0.00000E+00         0.00000E+00        -0.27506E+08
 
   -0.29267E+08         0.44293E+06         0.00000E+00
    0.44293E+06        -0.50149E+08         0.00000E+00
    0.00000E+00         0.00000E+00        -0.27610E+08
 
   -0.29201E+08         0.52220E+06         0.00000E+00
    0.52220E+06        -0.50184E+08         0.00000E+00
    0.00000E+00         0.00000E+00        -0.27716E+08
 
   -0.29141E+08         0.60568E+06         0.00000E+00
    0.60568E+06        -0.50222E+08         0.00000E+00
    0.00000E+00         0.00000E+00        -0.27823E+08
 
   -0.29087E+08         0.69373E+06         0.00000E+00
    0.69373E+06        -0.50263E+08         0.00000E+00
    0.00000E+00         0.00000E+00        -0.27933E+08
 
   -0.29039E+08         0.78640E+06         0.00000E+00
    0.78640E+06        -0.50307E+08         0.00000E+00
    0.00000E+00         0.00000E+00        -0.28045E+08
 
   -0.28998E+08         0.88375E+06         0.00000E+00
    0.88375E+06        -0.50354E+08         0.00000E+00
    0.00000E+00         0.00000E+00        -0.28158E+08
 
   -0.28965E+08         0.98495E+06         0.00000E+00
    0.98495E+06        -0.50404E+08         0.00000E+00
    0.00000E+00         0.00000E+00        -0.28271E+08
 
   -0.28943E+08         0.10908E+07         0.00000E+00
    0.10908E+07        -0.50459E+08         0.00000E+00
    0.00000E+00         0.00000E+00        -0.28384E+08
 
   -0.28930E+08         0.12016E+07         0.00000E+00
    0.12016E+07        -0.50516E+08         0.00000E+00
    0.00000E+00         0.00000E+00        -0.28495E+08
 
   -0.28928E+08         0.13188E+07         0.00000E+00
    0.13188E+07        -0.50576E+08         0.00000E+00
    0.00000E+00         0.00000E+00        -0.28605E+08
 
   -0.28935E+08         0.14422E+07         0.00000E+00
    0.14422E+07        -0.50636E+08         0.00000E+00
    0.00000E+00         0.00000E+00        -0.28712E+08
 
   -0.28951E+08         0.15719E+07         0.00000E+00
    0.15719E+07        -0.50696E+08         0.00000E+00
    0.00000E+00         0.00000E+00        -0.28815E+08
 
   -0.28978E+08         0.17056E+07         0.00000E+00
    0.17056E+07        -0.50755E+08         0.00000E+00
    0.00000E+00         0.00000E+00        -0.28911E+08
 
   -0.29021E+08         0.18382E+07         0.00000E+00
    0.18382E+07        -0.50818E+08         0.00000E+00
    0.00000E+00         0.00000E+00        -0.29001E+08
 
   -0.36414E+08        -0.10478E+06         0.00000E+00
   -0.10478E+06        -0.50004E+08         0.00000E+00
    0.00000E+00         0.00000E+00        -0.23750E+08
 
   -0.36014E+08        -0.20715E+06         0.00000E+00
   -0.20715E+06        -0.49992E+08         0.00000E+00
    0.00000E+00         0.00000E+00        -0.23813E+08
 
   -0.35643E+08        -0.30165E+06         0.00000E+00
   -0.30165E+06        -0.49985E+08         0.00000E+00
    0.00000E+00         0.00000E+00        -0.23884E+08
 
   -0.35289E+08        -0.38315E+06         0.00000E+00
   -0.38315E+06        -0.49978E+08         0.00000E+00
    0.00000E+00         0.00000E+00        -0.23959E+08
 
   -0.34949E+08        -0.45458E+06         0.00000E+00
   -0.45458E+06        -0.49961E+08         0.00000E+00
    0.00000E+00         0.00000E+00        -0.24031E+08
 
   -0.34619E+08        -0.51529E+06         0.00000E+00
   -0.51529E+06        -0.49947E+08         0.00000E+00
    0.00000E+00         0.00000E+00        -0.24109E+08
 
   -0.34299E+08        -0.56365E+06         0.00000E+00
   -0.56365E+06        -0.49934E+08         0.00000E+00
    0.00000E+00         0.00000E+00        -0.24191E+08
 
   -0.33988E+08        -0.60106E+06         0.00000E+00
   -0.60106E+06        -0.49919E+08         0.00000E+00
    0.00000E+00         0.00000E+00        -0.24275E+08
 
   -0.33687E+08        -0.62815E+06         0.00000E+00
   -0.62815E+06        -0.49905E+08         0.00000E+00
    0.00000E+00         0.00000E+00        -0.24361E+08
 
   -0.33396E+08        -0.64502E+06         0.00000E+00
   -0.64502E+06        -0.49890E+08         0.00000E+00
    0.00000E+00         0.00000E+00        -0.24448E+08
 
   -0.33115E+08        -0.65278E+06         0.00000E+00
   -0.65278E+06        -0.49875E+08         0.00000E+00
    0.00000E+00         0.00000E+00        -0.24536E+08
 
   -0.32845E+08        -0.65262E+06         0.00000E+00
   -0.65262E+06        -0.49858E+08         0.00000E+00
    0.00000E+00         0.00000E+00        -0.24623E+08
 
   -0.32586E+08        -0.64534E+06         0.00000E+00
   -0.64534E+06        -0.49841E+08         0.00000E+00
    0.00000E+00         0.00000E+00        -0.24710E+08
 
   -0.32337E+08        -0.63175E+06         0.00000E+00
   -0.63175E+06        -0.49822E+08         0.00000E+00
    0.00000E+00         0.00000E+00        -0.24795E+08
 
   -0.32099E+08        -0.61280E+06         0.00000E+00
   -0.61280E+06        -0.49802E+08         0.00000E+00
    0.00000E+00         0.00000E+00        -0.24879E+08
 
   -0.31871E+08        -0.58943E+06         0.00000E+00
   -0.58943E+06        -0.49782E+08         0.00000E+00
    0.00000E+00         0.00000E+00        -0.24961E+08
 
   -0.31655E+08        -0.56245E+06         0.00000E+00
   -0.56245E+06        -0.49762E+08         0.00000E+00
    0.00000E+00         0.00000E+00        -0.25041E+08
 
   -0.31449E+08        -0.53255E+06         0.00000E+00
   -0.53255E+06        -0.49742E+08         0.00000E+00
    0.00000E+00         0.00000E+00        -0.25120E+08
 
   -0.31252E+08        -0.50027E+06         0.00000E+00
   -0.50027E+06        -0.49722E+08         0.00000E+00
    0.00000E+00         0.00000E+00        -0.25198E+08
 
   -0.31066E+08        -0.46608E+06         0.00000E+00
   -0.46608E+06        -0.49703E+08         0.00000E+00
    0.00000E+00         0.00000E+00        -0.25274E+08
 
   -0.30888E+08        -0.43031E+06         0.00000E+00
   -0.43031E+06        -0.49685E+08         0.00000E+00
    0.00000E+00         0.00000E+00        -0.25350E+08
 
   -0.30719E+08        -0.39319E+06         0.00000E+00
   -0.39319E+06        -0.49668E+08         0.00000E+00
    0.00000E+00         0.00000E+00        -0.25425E+08
 
   -0.30558E+08        -0.35497E+06         0.00000E+00
   -0.35497E+06        -0.49653E+08         0.00000E+00
    0.00000E+00         0.00000E+00        -0.25499E+08
 
   -0.30405E+08        -0.31582E+06         0.00000E+00
   -0.31582E+06        -0.49640E+08         0.00000E+00
    0.00000E+00         0.00000E+00        -0.25574E+08
 
   -0.30259E+08        -0.27592E+06         0.00000E+00
   -0.27592E+06        -0.49628E+08         0.00000E+00
    0.00000E+00         0.00000E+00        -0.25648E+08
 
   -0.30120E+08        -0.23520E+06         0.00000E+00
   -0.23520E+06        -0.49619E+08         0.00000E+00
    0.00000E+00         0.00000E+00        -0.25723E+08
 
   -0.29986E+08        -0.19358E+06         0.00000E+00
   -0.19358E+06        -0.49612E+08         0.00000E+00
    0.00000E+00         0.00000E+00        -0.25798E+08
 
   -0.29859E+08        -0.15108E+06         0.00000E+00
   -0.15108E+06        -0.49608E+08         0.00000E+00
    0.00000E+00         0.00000E+00        -0.25875E+08
 
   -0.29737E+08        -0.10760E+06         0.00000E+00
   -0.10760E+06        -0.49606E+08         0.00000E+00
    0.00000E+00         0.00000E+00        -0.25953E+08
 
   -0.29621E+08        -0.63083E+05         0.00000E+00
   -0.63083E+05        -0.49607E+08         0.00000E+00
    0.00000E+00         0.00000E+00        -0.26033E+08
 
   -0.29509E+08        -0.17462E+05         0.00000E+00
   -0.17462E+05        -0.49611E+08         0.00000E+00
    0.00000E+00         0.00000E+00        -0.26114E+08
 
   -0.29402E+08         0.29440E+05         0.00000E+00
    0.29440E+05        -0.49618E+08         0.00000E+00
    0.00000E+00         0.00000E+00        -0.26198E+08
 
   -0.29299E+08         0.77828E+05         0.00000E+00
    0.77828E+05        -0.49628E+08         0.00000E+00
    0.00000E+00         0.00000E+00        -0.26284E+08
 
   -0.29200E+08         0.12797E+06         0.00000E+00
    0.12797E+06        -0.49641E+08         0.00000E+00
    0.00000E+00         0.00000E+00        -0.26373E+08
 
   -0.29105E+08         0.18014E+06         0.00000E+00
    0.18014E+06        -0.49658E+08         0.00000E+00
    0.00000E+00         0.00000E+00        -0.26465E+08
 
   -0.29014E+08         0.23466E+06         0.00000E+00
    0.23466E+06        -0.49678E+08         0.00000E+00
    0.00000E+00         0.00000E+00        -0.26561E+08
 
   -0.28925E+08         0.29190E+06         0.00000E+00
    0.29190E+06        -0.49702E+08         0.00000E+00
    0.00000E+00         0.00000E+00        -0.26662E+08
 
   -0.28840E+08         0.35222E+06         0.00000E+00
    0.35222E+06        -0.49731E+08         0.00000E+00
    0.00000E+00         0.00000E+00        -0.26767E+08
 
   -0.28760E+08         0.41607E+06         0.00000E+00
    0.41607E+06        -0.49764E+08         0.00000E+00
    0.00000E+00         0.00000E+00        -0.26877E+08
 
   -0.28683E+08         0.48390E+06         0.00000E+00
    0.48390E+06        -0.49802E+08         0.00000E+00
    0.00000E+00         0.00000E+00        -0.26991E+08
 
   -0.28612E+08         0.55618E+06         0.00000E+00
    0.55618E+06        -0.49844E+08         0.00000E+00
    0.00000E+00         0.00000E+00        -0.27110E+08
 
   -0.28547E+08         0.63342E+06         0.00000E+00
    0.63342E+06        -0.49891E+08         0.00000E+00
    0.00000E+00         0.00000E+00        -0.27234E+08
 
   -0.28488E+08         0.71639E+06         0.00000E+00
    0.71639E+06        -0.49943E+08         0.00000E+00
    0.00000E+00         0.00000E+00        -0.27361E+08
 
   -0.28434E+08         0.80511E+06         0.00000E+00
    0.80511E+06        -0.49999E+08         0.00000E+00
    0.00000E+00         0.00000E+00        -0.27492E+08
 
   -0.28386E+08         0.90252E+06         0.00000E+00
    0.90252E+06        -0.50058E+08         0.00000E+00
    0.00000E+00         0.00000E+00        -0.27628E+08
 
   -0.28346E+08         0.10083E+07         0.00000E+00
    0.10083E+07        -0.50122E+08         0.00000E+00
    0.00000E+00         0.00000E+00        -0.27767E+08
 
   -0.28319E+08         0.11234E+07         0.00000E+00
    0.11234E+07        -0.50192E+08         0.00000E+00
    0.00000E+00         0.00000E+00        -0.27906E+08
 
   -0.28308E+08         0.12436E+07         0.00000E+00
    0.12436E+07        -0.50267E+08         0.00000E+00
    0.00000E+00         0.00000E+00        -0.28043E+08
 
   -0.28317E+08         0.13756E+07         0.00000E+00
    0.13756E+07        -0.50346E+08         0.00000E+00
    0.00000E+00         0.00000E+00        -0.28173E+08
 
   -0.28336E+08         0.15121E+07         0.00000E+00
    0.15121E+07        -0.50419E+08         0.00000E+00
    0.00000E+00         0.00000E+00        -0.28291E+08
 
   -0.36936E+08         0.11691E+05         0.00000E+00
    0.11691E+05        -0.49940E+08         0.00000E+00
    0.00000E+00         0.00000E+00        -0.23145E+08
 
   -0.36530E+08        -0.11822E+06         0.00000E+00
   -0.11822E+06        -0.49932E+08         0.00000E+00
    0.00000E+00         0.00000E+00        -0.23197E+08
 
   -0.36100E+08        -0.22925E+06         0.00000E+00
   -0.22925E+06        -0.49903E+08         0.00000E+00
    0.00000E+00         0.00000E+00        -0.23246E+08
 
   -0.35675E+08        -0.32094E+06         0.00000E+00
   -0.32094E+06        -0.49873E+08         0.00000E+00
    0.00000E+00         0.00000E+00        -0.23303E+08
 
   -0.35269E+08        -0.38853E+06         0.00000E+00
   -0.38853E+06        -0.49881E+08         0.00000E+00
    0.00000E+00         0.00000E+00        -0.23394E+08
 
   -0.34872E+08        -0.43951E+06         0.00000E+00
   -0.43951E+06        -0.49871E+08         0.00000E+00
    0.00000E+00         0.00000E+00        -0.23477E+08
 
   -0.34490E+08        -0.47773E+06         0.00000E+00
   -0.47773E+06        -0.49854E+08         0.00000E+00
    0.00000E+00         0.00000E+00        -0.23560E+08
 
   -0.34123E+08        -0.50282E+06         0.00000E+00
   -0.50282E+06        -0.49833E+08         0.00000E+00
    0.00000E+00         0.00000E+00        -0.23642E+08
 
   -0.33772E+08        -0.51716E+06         0.00000E+00
   -0.51716E+06        -0.49806E+08         0.00000E+00
    0.00000E+00         0.00000E+00        -0.23721E+08
 
   -0.33437E+08        -0.52398E+06         0.00000E+00
   -0.52398E+06        -0.49770E+08         0.00000E+00
    0.00000E+00         0.00000E+00        -0.23795E+08
 
   -0.33116E+08        -0.52299E+06         0.00000E+00
   -0.52299E+06        -0.49731E+08         0.00000E+00
    0.00000E+00         0.00000E+00        -0.23868E+08
 
   -0.32811E+08        -0.51428E+06         0.00000E+00
   -0.51428E+06        -0.49691E+08         0.00000E+00
    0.00000E+00         0.00000E+00        -0.23938E+08
 
   -0.32522E+08        -0.49959E+06         0.00000E+00
   -0.49959E+06        -0.49648E+08         0.00000E+00
    0.00000E+00         0.00000E+00        -0.24006E+08
 
   -0.32250E+08        -0.48076E+06         0.00000E+00
   -0.48076E+06        -0.49605E+08         0.00000E+00
    0.00000E+00         0.00000E+00        -0.24071E+08
 
   -0.31993E+08        -0.45913E+06         0.00000E+00
   -0.45913E+06        -0.49561E+08         0.00000E+00
    0.00000E+00         0.00000E+00        -0.24133E+08
 
   -0.31751E+08        -0.43561E+06         0.00000E+00
   -0.43561E+06        -0.49517E+08         0.00000E+00
    0.00000E+00         0.00000E+00        -0.24194E+08
 
   -0.31523E+08        -0.41074E+06         0.00000E+00
   -0.41074E+06        -0.49475E+08         0.00000E+00
    0.00000E+00         0.00000E+00        -0.24253E+08
 
   -0.31308E+08        -0.38493E+06         0.00000E+00
   -0.38493E+06        -0.49435E+08         0.00000E+00
    0.00000E+00         0.00000E+00        -0.24311E+08
 
   -0.31104E+08        -0.35849E+06         0.00000E+00
   -0.35849E+06        -0.49396E+08         0.00000E+00
    0.00000E+00         0.00000E+00        -0.24368E+08
 
   -0.30912E+08        -0.33166E+06         0.00000E+00
   -0.33166E+06        -0.49359E+08         0.00000E+00
    0.00000E+00         0.00000E+00        -0.24424E+08
 
   -0.30730E+08        -0.30456E+06         0.00000E+00
   -0.30456E+06        -0.49325E+08         0.00000E+00
    0.00000E+00         0.00000E+00        -0.24480E+08
 
   -0.30557E+08        -0.27730E+06         0.00000E+00
   -0.27730E+06        -0.49293E+08         0.00000E+00
    0.00000E+00         0.00000E+00        -0.24537E+08
 
   -0.30393E+08        -0.24992E+06         0.00000E+00
   -0.24992E+06        -0.49264E+08         0.00000E+00
    0.00000E+00         0.00000E+00        -0.24593E+08
 
   -0.30238E+08        -0.22241E+06         0.00000E+00
   -0.22241E+06        -0.49238E+08         0.00000E+00
    0.00000E+00         0.00000E+00        -0.24650E+08
 
   -0.30089E+08        -0.19475E+06         0.00000E+00
   -0.19475E+06        -0.49214E+08         0.00000E+00
    0.00000E+00         0.00000E+00        -0.24709E+08
 
   -0.29947E+08        -0.16694E+06         0.00000E+00
   -0.16694E+06        -0.49194E+08         0.00000E+00
    0.00000E+00         0.00000E+00        -0.24768E+08
 
   -0.29811E+08        -0.13898E+06         0.00000E+00
   -0.13898E+06        -0.49177E+08         0.00000E+00
    0.00000E+00         0.00000E+00        -0.24829E+08
 
   -0.29681E+08        -0.11082E+06         0.00000E+00
   -0.11082E+06        -0.49163E+08         0.00000E+00
    0.00000E+00         0.00000E+00        -0.24891E+08
 
   -0.29556E+08        -0.82367E+05         0.00000E+00
   -0.82367E+05        -0.49152E+08         0.00000E+00
    0.00000E+00         0.00000E+00        -0.24955E+08
 
   -0.29436E+08        -0.53529E+05         0.00000E+00
   -0.53529E+05        -0.49145E+08         0.00000E+00
    0.00000E+00         0.00000E+00        -0.25022E+08
 
   -0.29319E+08        -0.24158E+05         0.00000E+00
   -0.24158E+05        -0.49141E+08         0.00000E+00
    0.00000E+00         0.00000E+00        -0.25092E+08
 
   -0.29207E+08         0.58225E+04         0.00000E+00
    0.58225E+04        -0.49141E+08         0.00000E+00
    0.00000E+00         0.00000E+00        -0.25164E+08
 
   -0.29098E+08         0.36517E+05         0.00000E+00
    0.36517E+05        -0.49145E+08         0.00000E+00
    0.00000E+00         0.00000E+00        -0.25240E+08
 
   -0.28992E+08         0.68105E+05         0.00000E+00
    0.68105E+05        -0.49152E+08         0.00000E+00
    0.00000E+00         0.00000E+00        -0.25320E+08
 
   -0.28888E+08         0.10072E+06         0.00000E+00
    0.10072E+06        -0.49163E+08         0.00000E+00
    0.00000E+00         0.00000E+00        -0.25404E+08
 
   -0.28787E+08         0.13449E+06         0.00000E+00
    0.13449E+06        -0.49179E+08         0.00000E+00
    0.00000E+00         0.00000E+00        -0.25493E+08
 
   -0.28687E+08         0.16966E+06         0.00000E+00
    0.16966E+06        -0.49199E+08         0.00000E+00
    0.00000E+00         0.00000E+00        -0.25588E+08
 
   -0.28588E+08         0.20670E+06         0.00000E+00
    0.20670E+06        -0.49223E+08         0.00000E+00
    0.00000E+00         0.00000E+00        -0.25689E+08
 
   -0.28491E+08         0.24595E+06         0.00000E+00
    0.24595E+06        -0.49252E+08         0.00000E+00
    0.00000E+00         0.00000E+00        -0.25797E+08
 
   -0.28396E+08         0.28795E+06         0.00000E+00
    0.28795E+06        -0.49287E+08         0.00000E+00
    0.00000E+00         0.00000E+00        -0.25912E+08
 
   -0.28302E+08         0.33336E+06         0.00000E+00
    0.33336E+06        -0.49327E+08         0.00000E+00
    0.00000E+00         0.00000E+00        -0.26034E+08
 
   -0.28211E+08         0.38300E+06         0.00000E+00
    0.38300E+06        -0.49373E+08         0.00000E+00
    0.00000E+00         0.00000E+00        -0.26165E+08
 
   -0.28121E+08         0.43856E+06         0.00000E+00
    0.43856E+06        -0.49425E+08         0.00000E+00
    0.00000E+00         0.00000E+00        -0.26304E+08
 
   -0.28034E+08         0.50076E+06         0.00000E+00
    0.50076E+06        -0.49483E+08         0.00000E+00
    0.00000E+00         0.00000E+00        -0.26454E+08
 
   -0.27944E+08         0.56893E+06         0.00000E+00
    0.56893E+06        -0.49549E+08         0.00000E+00
    0.00000E+00         0.00000E+00        -0.26619E+08
 
   -0.27857E+08         0.64464E+06         0.00000E+00
    0.64464E+06        -0.49621E+08         0.00000E+00
    0.00000E+00         0.00000E+00        -0.26794E+08
 
   -0.27775E+08         0.73194E+06         0.00000E+00
    0.73194E+06        -0.49700E+08         0.00000E+00
    0.00000E+00         0.00000E+00        -0.26980E+08
 
   -0.27704E+08         0.83691E+06         0.00000E+00
    0.83691E+06        -0.49786E+08         0.00000E+00
    0.00000E+00         0.00000E+00        -0.27171E+08
 
   -0.27651E+08         0.95283E+06         0.00000E+00
    0.95283E+06        -0.49881E+08         0.00000E+00
    0.00000E+00         0.00000E+00        -0.27366E+08
 
   -0.27643E+08         0.10954E+07         0.00000E+00
    0.10954E+07        -0.50001E+08         0.00000E+00
    0.00000E+00         0.00000E+00        -0.27560E+08
 
   -0.37150E+08        -0.63457E+05         0.00000E+00
   -0.63457E+05        -0.50060E+08         0.00000E+00
    0.00000E+00         0.00000E+00        -0.25691E+08
 
   -0.36824E+08        -0.66805E+05         0.00000E+00
   -0.66805E+05        -0.50047E+08         0.00000E+00
    0.00000E+00         0.00000E+00        -0.24621E+08
 
   -0.36405E+08        -0.92745E+05         0.00000E+00
   -0.92745E+05        -0.50031E+08         0.00000E+00
    0.00000E+00         0.00000E+00        -0.23762E+08
 
   -0.35950E+08        -0.12735E+06         0.00000E+00
   -0.12735E+06        -0.49996E+08         0.00000E+00
    0.00000E+00         0.00000E+00        -0.23100E+08
 
   -0.35516E+08        -0.16903E+06         0.00000E+00
   -0.16903E+06        -0.49915E+08         0.00000E+00
    0.00000E+00         0.00000E+00        -0.22878E+08
 
   -0.35078E+08        -0.20331E+06         0.00000E+00
   -0.20331E+06        -0.49836E+08         0.00000E+00
    0.00000E+00         0.00000E+00        -0.22904E+08
 
   -0.34630E+08        -0.22321E+06         0.00000E+00
   -0.22321E+06        -0.49753E+08         0.00000E+00
    0.00000E+00         0.00000E+00        -0.22937E+08
 
   -0.34211E+08        -0.23308E+06         0.00000E+00
   -0.23308E+06        -0.49666E+08         0.00000E+00
    0.00000E+00         0.00000E+00        -0.22968E+08
 
   -0.33823E+08        -0.23671E+06         0.00000E+00
   -0.23671E+06        -0.49579E+08         0.00000E+00
    0.00000E+00         0.00000E+00        -0.22997E+08
 
   -0.33451E+08        -0.23453E+06         0.00000E+00
   -0.23453E+06        -0.49495E+08         0.00000E+00
    0.00000E+00         0.00000E+00        -0.23032E+08
 
   -0.33095E+08        -0.22591E+06         0.00000E+00
   -0.22591E+06        -0.49413E+08         0.00000E+00
    0.00000E+00         0.00000E+00        -0.23068E+08
 
   -0.32762E+08        -0.21436E+06         0.00000E+00
   -0.21436E+06        -0.49333E+08         0.00000E+00
    0.00000E+00         0.00000E+00        -0.23103E+08
 
   -0.32457E+08        -0.20225E+06         0.00000E+00
   -0.20225E+06        -0.49256E+08         0.00000E+00
    0.00000E+00         0.00000E+00        -0.23138E+08
 
   -0.32174E+08        -0.19019E+06         0.00000E+00
   -0.19019E+06        -0.49182E+08         0.00000E+00
    0.00000E+00         0.00000E+00        -0.23172E+08
 
   -0.31910E+08        -0.17832E+06         0.00000E+00
   -0.17832E+06        -0.49113E+08         0.00000E+00
    0.00000E+00         0.00000E+00        -0.23207E+08
 
   -0.31664E+08        -0.16656E+06         0.00000E+00
   -0.16656E+06        -0.49048E+08         0.00000E+00
    0.00000E+00         0.00000E+00        -0.23241E+08
 
   -0.31433E+08        -0.15495E+06         0.00000E+00
   -0.15495E+06        -0.48987E+08         0.00000E+00
    0.00000E+00         0.00000E+00        -0.23277E+08
 
   -0.31216E+08        -0.14362E+06         0.00000E+00
   -0.14362E+06        -0.48930E+08         0.00000E+00
    0.00000E+00         0.00000E+00        -0.23313E+08
 
   -0.31012E+08        -0.13256E+06         0.00000E+00
   -0.13256E+06        -0.48878E+08         0.00000E+00
    0.00000E+00         0.00000E+00        -0.23350E+08
 
   -0.30819E+08        -0.12174E+06         0.00000E+00
   -0.12174E+06        -0.48829E+08         0.00000E+00
    0.00000E+00         0.00000E+00        -0.23388E+08
 
   -0.30637E+08        -0.11110E+06         0.00000E+00
   -0.11110E+06        -0.48785E+08         0.00000E+00
    0.00000E+00         0.00000E+00        -0.23427E+08
 
   -0.30464E+08        -0.10064E+06         0.00000E+00
   -0.10064E+06        -0.48744E+08         0.00000E+00
    0.00000E+00         0.00000E+00        -0.23467E+08
 
   -0.30300E+08        -0.90307E+05         0.00000E+00
   -0.90307E+05        -0.48708E+08         0.00000E+00
    0.00000E+00         0.00000E+00        -0.23509E+08
 
   -0.30144E+08        -0.80082E+05         0.00000E+00
   -0.80082E+05        -0.48675E+08         0.00000E+00
    0.00000E+00         0.00000E+00        -0.23553E+08
 
   -0.29995E+08        -0.69928E+05         0.00000E+00
   -0.69928E+05        -0.48646E+08         0.00000E+00
    0.00000E+00         0.00000E+00        -0.23598E+08
 
   -0.29853E+08        -0.59819E+05         0.00000E+00
   -0.59819E+05        -0.48622E+08         0.00000E+00
    0.00000E+00         0.00000E+00        -0.23646E+08
 
   -0.29716E+08        -0.49735E+05         0.00000E+00
   -0.49735E+05        -0.48601E+08         0.00000E+00
    0.00000E+00         0.00000E+00        -0.23696E+08
 
   -0.29585E+08        -0.39659E+05         0.00000E+00
   -0.39659E+05        -0.48584E+08         0.00000E+00
    0.00000E+00         0.00000E+00        -0.23748E+08
 
   -0.29460E+08        -0.29550E+05         0.00000E+00
   -0.29550E+05        -0.48572E+08         0.00000E+00
    0.00000E+00         0.00000E+00        -0.23803E+08
 
   -0.29338E+08        -0.19387E+05         0.00000E+00
   -0.19387E+05        -0.48563E+08         0.00000E+00
    0.00000E+00         0.00000E+00        -0.23861E+08
 
   -0.29220E+08        -0.91409E+04         0.00000E+00
   -0.91409E+04        -0.48558E+08         0.00000E+00
    0.00000E+00         0.00000E+00        -0.23922E+08
 
   -0.29105E+08         0.12585E+04         0.00000E+00
    0.12585E+04        -0.48558E+08         0.00000E+00
    0.00000E+00         0.00000E+00        -0.23987E+08
 
   -0.28994E+08         0.11841E+05         0.00000E+00
    0.11841E+05        -0.48561E+08         0.00000E+00
    0.00000E+00         0.00000E+00        -0.24056E+08
 
   -0.28884E+08         0.22623E+05         0.00000E+00
    0.22623E+05        -0.48569E+08         0.00000E+00
    0.00000E+00         0.00000E+00        -0.24130E+08
 
   -0.28777E+08         0.33742E+05         0.00000E+00
    0.33742E+05        -0.48581E+08         0.00000E+00
    0.00000E+00         0.00000E+00        -0.24208E+08
 
   -0.28672E+08         0.45270E+05         0.00000E+00
    0.45270E+05        -0.48598E+08         0.00000E+00
    0.00000E+00         0.00000E+00        -0.24292E+08
 
   -0.28566E+08         0.57214E+05         0.00000E+00
    0.57214E+05        -0.48620E+08         0.00000E+00
    0.00000E+00         0.00000E+00        -0.24382E+08
 
   -0.28461E+08         0.69591E+05         0.00000E+00
    0.69591E+05        -0.48646E+08         0.00000E+00
    0.00000E+00         0.00000E+00        -0.24479E+08
 
   -0.28355E+08         0.82686E+05         0.00000E+00
    0.82686E+05        -0.48678E+08         0.00000E+00
    0.00000E+00         0.00000E+00        -0.24584E+08
 
   -0.28248E+08         0.96738E+05         0.00000E+00
    0.96738E+05        -0.48715E+08         0.00000E+00
    0.00000E+00         0.00000E+00        -0.24698E+08
 
   -0.28140E+08         0.11199E+06         0.00000E+00
    0.11199E+06        -0.48758E+08         0.00000E+00
    0.00000E+00         0.00000E+00        -0.24822E+08
 
   -0.28030E+08         0.12880E+06         0.00000E+00
    0.12880E+06        -0.48807E+08         0.00000E+00
    0.00000E+00         0.00000E+00        -0.24956E+08
 
   -0.27918E+08         0.14733E+06         0.00000E+00
    0.14733E+06        -0.48863E+08         0.00000E+00
    0.00000E+00         0.00000E+00        -0.25104E+08
 
   -0.27803E+08         0.16855E+06         0.00000E+00
    0.16855E+06        -0.48927E+08         0.00000E+00
    0.00000E+00         0.00000E+00        -0.25266E+08
 
   -0.27684E+08         0.19382E+06         0.00000E+00
    0.19382E+06        -0.49000E+08         0.00000E+00
    0.00000E+00         0.00000E+00        -0.25445E+08
 
   -0.27558E+08         0.22457E+06         0.00000E+00
    0.22457E+06        -0.49084E+08         0.00000E+00
    0.00000E+00         0.00000E+00        -0.25647E+08
 
   -0.27410E+08         0.26166E+06         0.00000E+00
    0.26166E+06        -0.49178E+08         0.00000E+00
    0.00000E+00         0.00000E+00        -0.25888E+08
 
   -0.27259E+08         0.30854E+06         0.00000E+00
    0.30854E+06        -0.49285E+08         0.00000E+00
    0.00000E+00         0.00000E+00        -0.26155E+08
 
   -0.27107E+08         0.37281E+06         0.00000E+00
    0.37281E+06        -0.49405E+08         0.00000E+00
    0.00000E+00         0.00000E+00        -0.26450E+08
 
   -0.26957E+08         0.44761E+06         0.00000E+00
    0.44761E+06        -0.49532E+08         0.00000E+00
    0.00000E+00         0.00000E+00        -0.26766E+08
 
SCALARS stresss double 
LOOKUP_TABLE default
  -55374260.9379218     
  -55680040.0037779     
  -56024718.9714301     
  -56352958.6807335     
  -56619096.7357591     
  -56830437.4513332     
  -57041169.7058532     
  -57250766.6952705     
  -57454056.4454471     
  -57650948.7142541     
  -57841152.7972982     
  -58024909.3116288     
  -58201961.5327853     
  -58372467.3160769     
  -58535306.4199833     
  -58690937.8029024     
  -58838886.9447211     
  -58978854.8182196     
  -59111007.6466518     
  -59235066.7551920     
  -59350811.6205597     
  -59459862.8453872     
  -59561719.6403014     
  -59656152.8394781     
  -59743693.7060460     
  -59824780.4528733     
  -59900263.7228256     
  -59969833.1400240     
  -60033842.5041998     
  -60092648.6270351     
  -60146567.8410795     
  -60195855.6275752     
  -60240666.2637586     
  -60281099.7205051     
  -60316897.5133095     
  -60348729.1632784     
  -60375946.6514535     
  -60398439.1549218     
  -60416811.8247037     
  -60429816.2280902     
  -60437629.0538900     
  -60439956.2007125     
  -60436511.1614739     
  -60426960.3429828     
  -60410902.6222949     
  -60387910.3092884     
  -60357833.7299735     
  -60318613.3300109     
  -60270717.7920574     
  -60220588.5648638     
  -56746546.4768326     
  -56851445.4828551     
  -57000343.4331358     
  -57124806.6276981     
  -57262139.9487317     
  -57403318.2098757     
  -57544602.6002108     
  -57684685.3891618     
  -57823217.1444499     
  -57960060.8432283     
  -58093176.7564785     
  -58223371.9018830     
  -58350744.1221795     
  -58474207.6818314     
  -58592221.5129872     
  -58705801.0551878     
  -58814833.2042528     
  -58918821.7121183     
  -59017665.4571302     
  -59111462.1193064     
  -59200257.9100818     
  -59284074.3083168     
  -59363191.5874792     
  -59437505.5957207     
  -59507154.2725747     
  -59572395.0138826     
  -59633377.5947281     
  -59690136.7316062     
  -59742690.2205827     
  -59791130.2956531     
  -59835589.1829562     
  -59876137.2708156     
  -59912894.1057278     
  -59945966.5620645     
  -59975438.7341008     
  -60001238.1200231     
  -60023379.4829629     
  -60041786.2396751     
  -60056209.1857720     
  -60066419.1234058     
  -60072067.2998408     
  -60072802.2772118     
  -60068065.9220099     
  -60057251.8321974     
  -60039704.3131180     
  -60014733.7514431     
  -59983199.8748437     
  -59944546.5114298     
  -59893187.4343619     
  -59805333.4297277     
  -56962157.0550311     
  -57177437.6669576     
  -57347431.9434257     
  -57500375.6849980     
  -57632950.0879596     
  -57752953.1258474     
  -57863304.9979574     
  -57966381.0453375     
  -58064065.3548467     
  -58157882.4988185     
  -58248649.9533738     
  -58337191.9823293     
  -58424135.1159687     
  -58509845.5399851     
  -58594362.4304845     
  -58677170.9870988     
  -58758183.5586436     
  -58837053.7663213     
  -58913607.5742053     
  -58987455.2701370     
  -59058103.6989648     
  -59125200.4997116     
  -59188509.7243509     
  -59247878.5964460     
  -59303122.4993429     
  -59354036.4512204     
  -59400659.0982918     
  -59443159.3051353     
  -59481752.8245429     
  -59516640.5494757     
  -59547996.2799612     
  -59575950.7049801     
  -59600562.5144250     
  -59621868.7198154     
  -59639908.6400990     
  -59654728.6327899     
  -59666269.0144117     
  -59674437.2476238     
  -59679149.9960905     
  -59680232.0619272     
  -59677174.8700475     
  -59669487.4678114     
  -59656756.6838637     
  -59638368.0038761     
  -59613718.5712842     
  -59582113.5967410     
  -59540958.6760284     
  -59489816.7690833     
  -59429913.1367685     
  -59365459.0842585     
  -57418288.3327200     
  -57538272.5306551     
  -57658725.5164295     
  -57768861.2179316     
  -57870028.7396507     
  -57961288.2247707     
  -58044033.7634928     
  -58120122.4617093     
  -58191003.9176089     
  -58258203.7873746     
  -58322959.4313746     
  -58386064.8426265     
  -58447945.1133378     
  -58509063.0502480     
  -58569548.4490444     
  -58629615.6595962     
  -58688980.2040834     
  -58747577.1058804     
  -58804873.5947160     
  -58860515.6430942     
  -58914128.8631513     
  -58965298.9688293     
  -59013579.4727204     
  -59058571.1010461     
  -59099945.0773254     
  -59137530.6568565     
  -59171028.0107300     
  -59200360.1777934     
  -59225582.0245369     
  -59246846.6540879     
  -59264339.5968432     
  -59278252.7588649     
  -59288819.7824914     
  -59296199.3226373     
  -59300415.0522241     
  -59301417.9000203     
  -59299153.8874493     
  -59293493.2532047     
  -59284274.5935733     
  -59271351.1028886     
  -59254756.7457558     
  -59234316.9278112     
  -59209851.5710296     
  -59181366.6787782     
  -59148259.2868152     
  -59110287.2838072     
  -59068456.6941158     
  -59021447.4573340     
  -58968208.8493221     
  -58906080.5415968     
  -58009657.6614760     
  -58053588.6889847     
  -58088252.2492343     
  -58120234.0135751     
  -58152186.7085119     
  -58184959.0436516     
  -58218421.1657441     
  -58252184.5192062     
  -58286867.4398255     
  -58321808.7276051     
  -58357048.6770485     
  -58392858.9305015     
  -58429615.0487348     
  -58467239.0134992     
  -58505832.2479505     
  -58545042.5446306     
  -58584474.2206646     
  -58624301.3563998     
  -58664202.3399301     
  -58703684.9121559     
  -58742414.1727108     
  -58779917.9062556     
  -58815644.7542144     
  -58848928.9676675     
  -58879249.4478472     
  -58906020.4524170     
  -58928975.6599727     
  -58947724.7225653     
  -58961925.2378737     
  -58971401.2302100     
  -58976185.7577622     
  -58976570.1547366     
  -58972846.3048926     
  -58965367.3334864     
  -58954452.1455957     
  -58940347.0372550     
  -58923172.5667457     
  -58902919.8832944     
  -58879502.1864054     
  -58852781.0608248     
  -58822735.9277206     
  -58789613.1533156     
  -58753254.4764977     
  -58713625.4168299     
  -58671990.1800444     
  -58629106.7805719     
  -58585190.9775221     
  -58541616.1005528     
  -58497096.1479319     
  -58443275.8957562     
  -58590726.2904139     
  -58523738.1266896     
  -58463889.2648684     
  -58416212.7477735     
  -58380344.3956938     
  -58355899.2458491     
  -58341122.0950910     
  -58334285.5050095     
  -58330995.3368411     
  -58332905.7976124     
  -58339214.3246446     
  -58348648.8540237     
  -58361484.6064727     
  -58377656.4778308     
  -58395544.4110672     
  -58415464.7922354     
  -58437248.1462078     
  -58460706.6800387     
  -58485312.0960974     
  -58511106.0470990     
  -58537185.3340440     
  -58562839.9773772     
  -58587675.2783626     
  -58611396.6515849     
  -58633091.0435303     
  -58652187.9163628     
  -58667700.8165447     
  -58678883.4931278     
  -58685275.9868867     
  -58686481.7169622     
  -58682386.4875340     
  -58672606.7656057     
  -58657226.5741477     
  -58636586.1295612     
  -58611413.1987515     
  -58582392.8645060     
  -58550056.4425044     
  -58515018.5524864     
  -58477859.0502011     
  -58438790.4922778     
  -58397660.6614929     
  -58354346.6163537     
  -58309523.6539277     
  -58263706.9088964     
  -58216564.6563928     
  -58168210.6740432     
  -58118818.9599820     
  -58068635.9898363     
  -58019479.1766645     
  -57972844.5626694     
  -58862506.5083034     
  -58740619.4704786     
  -58635102.3316642     
  -58546759.1989281     
  -58473612.6411700     
  -58413962.6491351     
  -58366436.2635569     
  -58330190.1148623     
  -58297821.7308908     
  -58274883.1575461     
  -58260125.6423114     
  -58252493.3032114     
  -58245943.9475035     
  -58238035.9392305     
  -58236097.4604836     
  -58239220.5756786     
  -58246574.9235324     
  -58257319.2104946     
  -58270511.6793532     
  -58283664.0349943     
  -58297585.9866811     
  -58312478.6849498     
  -58327453.0947375     
  -58341857.3341665     
  -58356613.6147984     
  -58369027.5135194     
  -58378816.6701699     
  -58385355.9742286     
  -58387779.0849526     
  -58385879.9900760     
  -58377943.2331459     
  -58363955.8406035     
  -58343272.9960411     
  -58316245.1997623     
  -58282704.8234776     
  -58243125.2177703     
  -58198772.2090747     
  -58150743.5931101     
  -58100104.7946616     
  -58048073.6538887     
  -57996137.4963809     
  -57944732.6270752     
  -57893304.0482241     
  -57841573.5543440     
  -57789208.1387393     
  -57735947.1193912     
  -57682772.2967377     
  -57629884.4579847     
  -57577741.4965001     
  -57525275.8581831     
  -58799493.3278861     
  -58717547.3865057     
  -58637215.2102800     
  -58560700.7465356     
  -58489526.0300812     
  -58424426.9142593     
  -58365620.9128965     
  -58312490.2521494     
  -58258246.6482588     
  -58211293.9778122     
  -58171608.0403516     
  -58139053.0084410     
  -58108718.3990610     
  -58079120.6996119     
  -58057354.9951600     
  -58041665.7756059     
  -58031157.4362616     
  -58025353.5579687     
  -58024071.9348265     
  -58022605.2079515     
  -58024071.8889712     
  -58029366.9122029     
  -58037917.9482684     
  -58046591.6211137     
  -58047676.5654221     
  -58051666.7679319     
  -58057329.8218395     
  -58063326.1489723     
  -58067643.7682201     
  -58065011.3378305     
  -58058014.9906794     
  -58044784.6561132     
  -58027255.8149580     
  -58001607.8593365     
  -57967494.9095990     
  -57926084.0796141     
  -57878310.7388962     
  -57824730.1608394     
  -57766332.6027653     
  -57705062.2899292     
  -57641698.9491511     
  -57577372.6422154     
  -57513935.0804867     
  -57452139.3233645     
  -57392854.4068502     
  -57336376.8828010     
  -57280455.7570913     
  -57224027.1520325     
  -57165221.2047537     
  -57104341.0530267     
  -58638596.1801200     
  -58572465.5936268     
  -58508407.0208626     
  -58446343.7971053     
  -58386416.4049210     
  -58328842.0452440     
  -58273771.7955866     
  -58221368.9825880     
  -58173398.8936864     
  -58127823.7787175     
  -58084771.5731786     
  -58044046.3492487     
  -58006037.2255969     
  -57971100.8320529     
  -57938760.8585473     
  -57909579.8249435     
  -57883648.7907132     
  -57860853.3056665     
  -57840930.9182612     
  -57818871.3539414     
  -57798822.1495608     
  -57782512.4225541     
  -57770081.6487473     
  -57759290.2539973     
  -57743240.4324474     
  -57732610.3503476     
  -57725918.7866989     
  -57722652.3037913     
  -57721998.8916216     
  -57716033.3999933     
  -57712823.4362659     
  -57711039.0816817     
  -57693563.1736124     
  -57673326.7975715     
  -57651537.6315414     
  -57622661.6385312     
  -57582468.7742852     
  -57533297.8494081     
  -57478478.9371560     
  -57414901.1910161     
  -57343972.8013006     
  -57270764.7765851     
  -57196011.7810488     
  -57121188.5515311     
  -57048154.2779469     
  -56976199.4544312     
  -56906635.9911515     
  -56839489.0071736     
  -56775470.8463946     
  -56714353.6761779     
  -58446247.3723395     
  -58386842.2566254     
  -58328932.4876348     
  -58272689.2993783     
  -58218200.5832355     
  -58165536.2974935     
  -58114790.0349757     
  -58066059.3435097     
  -58018972.0158432     
  -57974044.8555304     
  -57931191.2751586     
  -57890463.3344543     
  -57851793.2752403     
  -57815087.9960713     
  -57780415.2766090     
  -57747561.9684319     
  -57716416.1522687     
  -57686844.4515808     
  -57658661.9430332     
  -57632948.3667912     
  -57608557.7867681     
  -57585039.4647237     
  -57562154.1793242     
  -57539795.8430904     
  -57518940.7836015     
  -57498656.1909579     
  -57479725.5411264     
  -57462431.4984348     
  -57446123.6784213     
  -57423350.0613743     
  -57403701.7770615     
  -57388532.6286778     
  -57362144.1662991     
  -57338608.2607688     
  -57320488.6957084     
  -57301342.2668971     
  -57276709.0987380     
  -57253989.1794899     
  -57210191.4776275     
  -57158574.3753526     
  -57102912.9874654     
  -57030515.7687318     
  -56949112.0152410     
  -56865548.0182306     
  -56775609.5237563     
  -56686336.1423975     
  -56601396.6493840     
  -56520909.5992562     
  -56445361.7692287     
  -56370529.5758826     
  -58226967.5813907     
  -58171352.8794951     
  -58117168.9338886     
  -58064428.4515127     
  -58013164.4562840     
  -57963405.5504693     
  -57915163.1024367     
  -57868431.1998119     
  -57823322.7079792     
  -57779728.4911499     
  -57737689.6370075     
  -57697182.5959232     
  -57658192.4402511     
  -57620701.1417342     
  -57584642.1137955     
  -57550003.7420962     
  -57516734.8575832     
  -57484792.5107852     
  -57454160.5106349     
  -57424475.4051170     
  -57395893.7321266     
  -57368360.4727291     
  -57341810.5868107     
  -57316211.9372897     
  -57291246.2904397     
  -57267030.8485275     
  -57243217.1401670     
  -57219558.6891892     
  -57195947.1138052     
  -57174148.0200371     
  -57151662.2839705     
  -57127944.8650298     
  -57105122.8039045     
  -57082133.9206509     
  -57060085.1123333     
  -57034748.4542068     
  -57003724.6672602     
  -56978441.7956569     
  -56938395.6630110     
  -56898141.2439705     
  -56863829.2131712     
  -56814994.3613968     
  -56768643.2213594     
  -56688233.4548239     
  -56601973.8304624     
  -56502982.4028721     
  -56392355.2007419     
  -56285136.5543993     
  -56178584.3680827     
  -56083389.8625676     
  -57983554.2032456     
  -57930911.6548586     
  -57879606.5365942     
  -57829634.5252435     
  -57780986.7958991     
  -57733656.0493646     
  -57687638.4571699     
  -57642934.5338350     
  -57599509.8804225     
  -57557379.3240427     
  -57516512.9341380     
  -57476895.5716577     
  -57438505.3498145     
  -57401314.0092320     
  -57365298.5218146     
  -57330417.3725041     
  -57296634.2901905     
  -57263902.4084992     
  -57232155.5136298     
  -57201413.2766827     
  -57171568.4989864     
  -57142571.8667779     
  -57114362.7666958     
  -57086851.9781052     
  -57060018.3530462     
  -57033732.0492761     
  -57007978.2307604     
  -56982717.9454107     
  -56957909.3511011     
  -56932991.6838654     
  -56908452.0111018     
  -56884334.0891772     
  -56860043.6800673     
  -56835706.7499860     
  -56810769.6168975     
  -56786099.5899788     
  -56762301.8495866     
  -56736317.9535731     
  -56711042.2575084     
  -56685881.9372135     
  -56661315.0568623     
  -56621249.4949496     
  -56588362.7461283     
  -56528566.9304636     
  -56470861.2151103     
  -56401007.0187338     
  -56323641.6553529     
  -56201740.5114100     
  -56068854.8781192     
  -55918055.7891554     
  -57718179.2262757     
  -57668684.2841225     
  -57620404.5203736     
  -57573321.5311543     
  -57527419.5973573     
  -57482683.3735028     
  -57439096.8937909     
  -57396642.0491557     
  -57355308.8068730     
  -57315073.7688812     
  -57275923.3654669     
  -57237837.2328821     
  -57200794.1434289     
  -57164772.0873257     
  -57129745.0297595     
  -57095688.1586009     
  -57062571.8331636     
  -57030366.4365324     
  -56999046.1756975     
  -56968560.2836879     
  -56938885.0995063     
  -56909977.2283846     
  -56881794.9749522     
  -56854304.3071906     
  -56827451.4932484     
  -56801207.6544271     
  -56775514.2556964     
  -56750316.8995266     
  -56725549.6554013     
  -56701287.7836093     
  -56677352.3383792     
  -56653659.8373866     
  -56630267.7501000     
  -56607063.9636866     
  -56584142.3265257     
  -56561230.5212217     
  -56538067.8790595     
  -56515374.2243964     
  -56492333.1487302     
  -56468849.4308365     
  -56444290.4954579     
  -56422705.0979112     
  -56398124.6429398     
  -56375580.0557981     
  -56353560.5600932     
  -56317838.9214872     
  -56280127.4448145     
  -56203397.8752245     
  -56119748.4727421     
  -56006752.7348402     
  -57434140.0849498     
  -57388267.1902655     
  -57343448.7886054     
  -57299669.7526617     
  -57256915.3009564     
  -57215171.2295498     
  -57174423.7735049     
  -57134659.9133280     
  -57095864.3396415     
  -57058024.5522294     
  -57021124.8079771     
  -56985150.3888820     
  -56950085.7347122     
  -56915914.2437795     
  -56882619.0430774     
  -56850181.7556044     
  -56818584.0270165     
  -56787806.1622225     
  -56757825.7175971     
  -56728625.2880338     
  -56700179.8707816     
  -56672468.9465084     
  -56645470.5056306     
  -56619159.5018629     
  -56593515.6280357     
  -56568512.2004686     
  -56544129.5478191     
  -56520347.1298478     
  -56497151.1677914     
  -56474490.3393285     
  -56452374.5701666     
  -56430794.7310112     
  -56409713.9098285     
  -56389138.6340167     
  -56369017.5188016     
  -56349393.9850318     
  -56330326.7760472     
  -56311613.6570954     
  -56293437.3988190     
  -56275833.0818738     
  -56259069.9740382     
  -56242135.0315868     
  -56226643.2896820     
  -56211276.7156016     
  -56196030.3929716     
  -56184396.2758471     
  -56173448.9898550     
  -56168224.2682475     
  -56168901.8321313     
  -56154619.1516846     
  -57135773.6560954     
  -57093944.0741957     
  -57052987.4035564     
  -57012896.9820543     
  -56973666.0837810     
  -56935287.8049132     
  -56897755.0510917     
  -56861060.3219605     
  -56825196.4443579     
  -56790155.2338573     
  -56755928.9606015     
  -56722509.1720128     
  -56689887.1887306     
  -56658054.1424143     
  -56627000.7763087     
  -56596717.7471628     
  -56567195.2709806     
  -56538423.5418785     
  -56510393.3103926     
  -56483093.9501698     
  -56456516.7016790     
  -56430651.7606856     
  -56405490.1117673     
  -56381024.1693913     
  -56357245.9303307     
  -56334150.1178351     
  -56311731.3261063     
  -56289986.3208012     
  -56268911.4955814     
  -56248516.1011172     
  -56228798.5691212     
  -56209765.5146002     
  -56191433.9027816     
  -56173815.6310631     
  -56156946.1073021     
  -56140845.7578807     
  -56125536.9082331     
  -56111124.6091313     
  -56097637.5015603     
  -56085157.8712164     
  -56073706.5187726     
  -56063683.9612386     
  -56054836.4155198     
  -56047724.7695799     
  -56042748.2072067     
  -56039489.3977518     
  -56039332.4337474     
  -56041527.1721544     
  -56046033.1941141     
  -56058756.9162644     
  -56827964.1146206     
  -56790378.4115945     
  -56753485.6811669     
  -56717288.6997819     
  -56681789.4790725     
  -56646989.3705760     
  -56612889.1280688     
  -56579489.0372800     
  -56546788.7739607     
  -56514787.7872531     
  -56483484.9792927     
  -56452879.0642610     
  -56422968.4839359     
  -56393751.4613447     
  -56365226.1210748     
  -56337390.4980786     
  -56310242.7222756     
  -56283781.0233817     
  -56258003.6712279     
  -56232909.6149183     
  -56208497.8354100     
  -56184768.2591150     
  -56161721.4686926     
  -56139358.7609409     
  -56117682.8908220     
  -56096697.5426963     
  -56076408.3071175     
  -56056822.4503815     
  -56037950.2611584     
  -56019801.7806442     
  -56002393.0259053     
  -55985742.2119744     
  -55969870.0637373     
  -55954804.0986669     
  -55940571.7674234     
  -55927211.2566646     
  -55914769.8018011     
  -55903282.1657143     
  -55892810.8500192     
  -55883415.7676853     
  -55875191.8150691     
  -55868144.6894539     
  -55862467.7326258     
  -55858161.1824444     
  -55855248.7144432     
  -55853957.8895907     
  -55854003.5243205     
  -55855616.3954849     
  -55858923.5315367     
  -55862287.9198734     
  -56515525.7794950     
  -56482134.7307098     
  -56449275.5360716     
  -56416958.4762185     
  -56385192.7534970     
  -56353986.6066224     
  -56323347.4243683     
  -56293281.8247674     
  -56263795.8011818     
  -56234894.7281672     
  -56206583.5395804     
  -56178866.7306085     
  -56151748.4767119     
  -56125232.7138185     
  -56099323.2053822     
  -56074023.6401830     
  -56049337.6902581     
  -56025269.1174659     
  -56001821.9145218     
  -55979000.2666495     
  -55956808.8462033     
  -55935252.7258678     
  -55914337.6094077     
  -55894069.9811269     
  -55874457.0876165     
  -55855507.2607491     
  -55837229.8841815     
  -55819635.6660411     
  -55802736.4271962     
  -55786546.2343541     
  -55771080.1339042     
  -55756355.2281829     
  -55742390.7601287     
  -55729207.2892680     
  -55716828.6871040     
  -55705279.5071062     
  -55694584.9272991     
  -55684776.5392786     
  -55675882.2991959     
  -55667933.4727370     
  -55660951.9898431     
  -55654983.8884394     
  -55650022.8498053     
  -55646103.8100365     
  -55643251.6566807     
  -55641426.6699360     
  -55640716.9327943     
  -55641072.2279317     
  -55642429.1453532     
  -55645226.1751981     
  -56202722.6041834     
  -56173271.8322672     
  -56144220.1955719     
  -56115582.5481300     
  -56087372.6057085     
  -56059603.0548385     
  -56032285.6525944     
  -56005431.3289394     
  -55979050.2636538     
  -55953151.9932281     
  -55927745.4697834     
  -55902839.1610425     
  -55878441.1165882     
  -55854559.0431153     
  -55831200.3809958     
  -55808372.3725182     
  -55786082.1401609     
  -55764336.7540536     
  -55743143.2882358     
  -55722508.9254113     
  -55702440.9785257     
  -55682947.0083665     
  -55664034.8609232     
  -55645712.7255843     
  -55627989.2351571     
  -55610873.4754057     
  -55594375.0762508     
  -55578504.2186736     
  -55563271.7818508     
  -55548689.0947760     
  -55534768.2703895     
  -55521521.9671561     
  -55508963.3560731     
  -55497106.2527830     
  -55485964.4712635     
  -55475552.2894172     
  -55465884.3463352     
  -55456973.7358306     
  -55448833.9649341     
  -55441476.6088284     
  -55434914.4625093     
  -55429151.4211747     
  -55424202.3033106     
  -55420069.1492128     
  -55416752.4777922     
  -55414267.0710487     
  -55412590.1041620     
  -55411728.5840321     
  -55411697.2091252     
  -55412361.1434126     
  -55892999.1843258     
  -55867103.3779051     
  -55841504.5942666     
  -55816219.4687107     
  -55791263.6220998     
  -55766651.7387015     
  -55742397.6419785     
  -55718514.3649583     
  -55695014.2233951     
  -55671908.8774925     
  -55649209.4021805     
  -55626926.3437379     
  -55605069.7822491     
  -55583649.3886891     
  -55562674.4793301     
  -55542154.0697822     
  -55522096.9240628     
  -55502511.6035246     
  -55483406.5168424     
  -55464789.9543534     
  -55446670.1401552     
  -55429055.2564668     
  -55411953.4837335     
  -55395373.0300524     
  -55379322.1435200     
  -55363809.1398981     
  -55348842.4014759     
  -55334430.3869390     
  -55320581.5848035     
  -55307304.5611843     
  -55294607.8449510     
  -55282499.9266439     
  -55270989.1859149     
  -55260083.7563091     
  -55249791.5645578     
  -55240120.0663688     
  -55231076.0525844     
  -55222665.9450543     
  -55214895.1217369     
  -55207768.3217250     
  -55201288.4892792     
  -55195459.4398376     
  -55190280.4414143     
  -55185751.8712134     
  -55181872.5524909     
  -55178634.9107974     
  -55176038.6000042     
  -55174073.4288078     
  -55172721.8109180     
  -55172005.8054167     
  -55588911.4725607     
  -55566127.3461806     
  -55543565.9209499     
  -55521243.5223801     
  -55499175.6694383     
  -55477377.1193847     
  -55455861.9122080     
  -55434643.4153667     
  -55413734.3662978     
  -55393146.9162259     
  -55372892.6700530     
  -55352982.7277872     
  -55333427.7223831     
  -55314237.8568469     
  -55295422.9396103     
  -55276992.4174908     
  -55258955.4071955     
  -55241320.7240483     
  -55224096.9070029     
  -55207292.2441745     
  -55190914.7899337     
  -55174972.3845215     
  -55159472.6648176     
  -55144423.0723116     
  -55129830.8592695     
  -55115703.0842527     
  -55102046.6071251     
  -55088868.0726381     
  -55076173.9015460     
  -55063970.2461809     
  -55052262.9763311     
  -55041057.6286530     
  -55030359.3631236     
  -55020172.9250959     
  -55010502.5532796     
  -55001351.9541306     
  -54992724.2667329     
  -54984621.8885015     
  -54977046.5385730     
  -54969999.0445165     
  -54963479.5752751     
  -54957486.7805256     
  -54952019.1008002     
  -54947073.2838585     
  -54942644.8619415     
  -54938729.4867410     
  -54935319.2705760     
  -54932406.9673455     
  -54929986.2671671     
  -54928037.9269950     
  -55292197.6164867     
  -55272080.2894445     
  -55252133.8420707     
  -55232373.0157832     
  -55212811.9646653     
  -55193464.2734824     
  -55174342.9770378     
  -55155460.5801945     
  -55136829.0788551     
  -55118459.9806067     
  -55100364.3260211     
  -55082552.7089284     
  -55065035.2966866     
  -55047821.8494146     
  -55030921.7382209     
  -55014343.9623212     
  -54998097.1645450     
  -54982189.6452598     
  -54966629.3747721     
  -54951424.0027759     
  -54936580.8668556     
  -54922106.9970129     
  -54908009.1187588     
  -54894293.6529827     
  -54880966.7120769     
  -54868034.0942718     
  -54855501.2735017     
  -54843373.3875018     
  -54831655.2185073     
  -54820351.1784866     
  -54809465.2821283     
  -54799001.1238269     
  -54788961.8488089     
  -54779350.1189445     
  -54770168.0891281     
  -54761417.3653106     
  -54753098.9588919     
  -54745213.2770189     
  -54737760.0531266     
  -54730738.3487596     
  -54724146.4278441     
  -54717981.9441405     
  -54712241.5541866     
  -54706921.2366919     
  -54702016.1658810     
  -54697520.2923470     
  -54693427.2763191     
  -54689729.4528740     
  -54686417.4586325     
  -54683484.2440201     
  -55003920.6124385     
  -54986059.4988558     
  -54968334.1588662     
  -54950757.1607490     
  -54933340.6756342     
  -54916096.4775981     
  -54899035.9454879     
  -54882170.0662402     
  -54865509.4392246     
  -54849064.2815868     
  -54832844.4340098     
  -54816859.3670017     
  -54801118.1871606     
  -54785629.6434073     
  -54770402.1329108     
  -54755443.7064896     
  -54740762.0733809     
  -54726364.6051622     
  -54712258.3385753     
  -54698449.9774390     
  -54684945.8929528     
  -54671752.1229826     
  -54658874.3695522     
  -54646317.9948516     
  -54634088.0157956     
  -54622189.0965784     
  -54610625.5398378     
  -54599401.2756989     
  -54588519.8503685     
  -54577984.4110975     
  -54567797.6919125     
  -54557961.9963871     
  -54548479.1799555     
  -54539350.6319847     
  -54530577.2537834     
  -54522159.4397717     
  -54514097.0599055     
  -54506389.4323115     
  -54499035.3109680     
  -54492032.8554502     
  -54485379.6387714     
  -54479072.5685270     
  -54473107.9619143     
  -54467481.4464633     
  -54462187.9630688     
  -54457221.8678595     
  -54452576.6747569     
  -54448245.2898798     
  -54444220.1833196     
  -54440492.2409569     
  -54724628.7907466     
  -54708665.7201564     
  -54692814.8953628     
  -54677086.5968426     
  -54661490.8542040     
  -54646037.4362291     
  -54630735.8426028     
  -54615595.2970820     
  -54600624.7419387     
  -54585832.8334080     
  -54571227.9380244     
  -54556818.1295754     
  -54542611.1865759     
  -54528614.5900437     
  -54514835.5214439     
  -54501280.8606604     
  -54487957.1838454     
  -54474870.7610311     
  -54462027.5534240     
  -54449433.2101923     
  -54437093.0648044     
  -54425012.1306704     
  -54413195.0961898     
  -54401646.3190676     
  -54390369.8198414     
  -54379369.2747302     
  -54368648.0076532     
  -54358208.9816394     
  -54348054.7891908     
  -54338187.6425281     
  -54328609.3626907     
  -54319321.3684935     
  -54310324.6648888     
  -54301619.8307907     
  -54293207.0075261     
  -54285085.8864228     
  -54277255.6958257     
  -54269715.1908923     
  -54262462.6400629     
  -54255495.8169307     
  -54248811.9819355     
  -54242407.8893460     
  -54236279.7550488     
  -54230423.2690523     
  -54224833.5875279     
  -54219505.2958120     
  -54214432.4692159     
  -54209608.6161728     
  -54205026.6092049     
  -54200679.0089829     
  -54454501.8810714     
  -54440136.5494829     
  -54425867.4772393     
  -54411702.8204056     
  -54397650.5870631     
  -54383718.6229731     
  -54369914.5986164     
  -54356245.9974768     
  -54342720.1054268     
  -54329344.0011009     
  -54316124.5471090     
  -54303068.3819926     
  -54290181.9127827     
  -54277471.3080648     
  -54264942.4914388     
  -54252601.1352745     
  -54240452.6546749     
  -54228502.2015650     
  -54216754.6588186     
  -54205214.6343817     
  -54193886.4552976     
  -54182774.1616275     
  -54171881.5001868     
  -54161211.9180906     
  -54150768.5560925     
  -54140554.2416772     
  -54130571.4819429     
  -54120822.4562237     
  -54111309.0086042     
  -54102032.6401161     
  -54092994.5009300     
  -54084195.3823621     
  -54075635.7088759     
  -54067315.5301589     
  -54059234.5130737     
  -54051391.9339076     
  -54043786.6710611     
  -54036417.1973531     
  -54029281.5736075     
  -54022377.4413541     
  -54015702.0191794     
  -54009252.0928911     
  -54003024.0168468     
  -53997013.7052640     
  -53991216.6287402     
  -53985627.8208464     
  -53980241.8600579     
  -53975052.8808843     
  -53970054.5982362     
  -53965240.2187984     
  -54193469.0162849     
  -54180456.7188252     
  -54167529.3252856     
  -54154693.1630495     
  -54141954.4783366     
  -54129319.4210337     
  -54116794.0305466     
  -54104384.2226007     
  -54092095.7769213     
  -54079934.3257163     
  -54067905.3428951     
  -54056014.1339441     
  -54044265.8263970     
  -54032665.3608259     
  -54021217.4822932     
  -54009926.7321999     
  -53998797.4404764     
  -53987833.7180595     
  -53977039.4496117     
  -53966418.2864350     
  -53955973.6395480     
  -53945708.6728861     
  -53935626.2966071     
  -53925729.1604756     
  -53916019.6473114     
  -53906499.8664991     
  -53897171.6475464     
  -53888036.5337107     
  -53879095.7756639     
  -53870350.3252726     
  -53861800.8294400     
  -53853447.6240884     
  -53845290.7282784     
  -53837329.8384858     
  -53829564.3231368     
  -53821993.2173623     
  -53814615.2179661     
  -53807428.6788922     
  -53800431.6068285     
  -53793621.6575862     
  -53786996.1320245     
  -53780551.9743236     
  -53774285.7680496     
  -53768193.7353997     
  -53762271.7362161     
  -53756515.2648732     
  -53750919.4545368     
  -53745479.0756113     
  -53740188.5292552     
  -53735041.8743005     
  -53941296.8721183     
  -53929442.2913410     
  -53917663.9340476     
  -53905966.6335575     
  -53894355.1818073     
  -53882834.3152836     
  -53871408.7016593     
  -53860082.9271043     
  -53848861.4842358     
  -53837748.7606765     
  -53826749.0281832     
  -53815866.4323109     
  -53805104.9825757     
  -53794468.5430791     
  -53783960.8235617     
  -53773585.3708491     
  -53763345.5606605     
  -53753244.5897484     
  -53743285.4683427     
  -53733471.0128733     
  -53723803.8389493     
  -53714286.3545756     
  -53704920.7535908     
  -53695709.0093123     
  -53686652.8683817     
  -53677753.8448004     
  -53669013.2141566     
  -53660432.0080368     
  -53652011.0086386     
  -53643750.7435709     
  -53635651.4808707     
  -53627713.2242332     
  -53619935.7084771     
  -53612318.3952634     
  -53604860.4690693     
  -53597560.8334519     
  -53590418.1076387     
  -53583430.6234020     
  -53576596.4223383     
  -53569913.2534166     
  -53563378.5711757     
  -53556989.5338288     
  -53550743.0025091     
  -53544635.5403381     
  -53538663.4120936     
  -53532822.5851717     
  -53527108.7293009     
  -53521517.2181884     
  -53516043.1338217     
  -53510681.2620422     
  -53697651.8814036     
  -53686801.4084166     
  -53676019.9240018     
  -53665311.0882139     
  -53654678.5406746     
  -53644125.8884887     
  -53633656.6946117     
  -53623274.4666645     
  -53612982.6461847     
  -53602784.5983045     
  -53592683.6018433     
  -53582682.8397998     
  -53572785.3902307     
  -53562994.2174991     
  -53553312.1638783     
  -53543741.9414947     
  -53534286.1245957     
  -53524947.1421273     
  -53515727.2706093     
  -53506628.6272933     
  -53497653.1635954     
  -53488802.6587909     
  -53480078.7139651     
  -53471482.7462118     
  -53463015.9830751     
  -53454679.4572319     
  -53446474.0014122     
  -53438400.2435590     
  -53430458.6022263     
  -53422649.2822238     
  -53414972.2705076     
  -53407427.3323271     
  -53400014.0076336     
  -53392731.6077595     
  -53385579.2123791     
  -53378555.6667623     
  -53371659.5793235     
  -53364889.3194962     
  -53358243.0159200     
  -53351718.5549943     
  -53345313.5797110     
  -53339025.4889873     
  -53332851.4371901     
  -53326788.3341987     
  -53320832.8458519     
  -53314981.3945702     
  -53309230.1608432     
  -53303575.0848556     
  -53298011.8678080     
  -53292535.9762710     
  -53462142.2372604     
  -53452176.2650525     
  -53442272.7772568     
  -53432434.5422364     
  -53422664.3165801     
  -53412964.8352550     
  -53403338.8020254     
  -53393788.8801471     
  -53384317.6833384     
  -53374927.7670329     
  -53365621.6199128     
  -53356401.6557232     
  -53347270.2053653     
  -53338229.5092655     
  -53329281.7100178     
  -53320428.8452944     
  -53311672.8410222     
  -53303015.5048191     
  -53294458.5196880     
  -53286003.4379622     
  -53277651.6755012     
  -53269404.5061321     
  -53261263.0563344     
  -53253228.3001673     
  -53245301.0544371     
  -53237481.9741050     
  -53229771.5479356     
  -53222170.0943870     
  -53214677.7577452     
  -53207294.5045040     
  -53200020.1199961     
  -53192854.2052773     
  -53185796.1742697     
  -53178845.2511703     
  -53172000.4681285     
  -53165260.6632003     
  -53158624.4785879     
  -53152090.3591653     
  -53145656.5513074     
  -53139321.1020126     
  -53133081.8583600     
  -53126936.4672471     
  -53120882.3755009     
  -53114916.8302848     
  -53109036.8798431     
  -53103239.3746544     
  -53097520.9688225     
  -53091878.1218723     
  -53086307.1011442     
  -53080803.9838325     
  -53234345.1552802     
  -53225171.0762254     
  -53216053.3376527     
  -53206994.0496564     
  -53197995.3117425     
  -53189059.2051328     
  -53180187.7852070     
  -53171383.0740968     
  -53162647.0534407     
  -53153981.6573092     
  -53145388.7653083     
  -53136870.1958664     
  -53128427.6997114     
  -53120062.9535411     
  -53111777.5538906     
  -53103573.0112007     
  -53095450.7440876     
  -53087412.0738183     
  -53079458.2189912     
  -53071590.2904248     
  -53063809.2862555     
  -53056116.0872451     
  -53048511.4523003     
  -53040996.0142063     
  -53033570.2755740     
  -53026234.6050052     
  -53018989.2334762     
  -53011834.2509435     
  -53004769.6031730     
  -52997795.0887972     
  -52990910.3566023     
  -52984114.9030495     
  -52977408.0700347     
  -52970789.0428895     
  -52964256.8486284     
  -52957810.3544476     
  -52951448.2664776     
  -52945169.1287966     
  -52938971.3227075     
  -52932853.0662869     
  -52926812.4142012     
  -52920847.2578123     
  -52914955.3255532     
  -52909134.1836000     
  -52903381.2368373     
  -52897693.7300993     
  -52892068.7497398     
  -52886503.2254966     
  -52880993.9325874     
  -52875537.4943103     
  -53013823.8617056     
  -53005370.0678949     
  -52996966.6782201     
  -52988615.3299154     
  -52980317.6467042     
  -52972075.2330096     
  -52963889.6682188     
  -52955762.5010147     
  -52947695.2437876     
  -52939689.3671381     
  -52931746.2944819     
  -52923867.3967660     
  -52916053.9873042     
  -52908307.3167407     
  -52900628.5681485     
  -52893018.8522675     
  -52885479.2028910     
  -52878010.5724025     
  -52870613.8274712     
  -52863289.7449071     
  -52856039.0076836     
  -52848862.2011280     
  -52841759.8092868     
  -52834732.2114673     
  -52827779.6789606     
  -52820902.3719480     
  -52814100.3365953     
  -52807373.5023389     
  -52800721.6793652     
  -52794144.5562892     
  -52787641.6980336     
  -52781212.5439138     
  -52774856.4059308     
  -52768572.4672768     
  -52762359.7810561     
  -52756217.2692252     
  -52750143.7217566     
  -52744137.7960277     
  -52738198.0164409     
  -52732322.7742758     
  -52726510.3277792     
  -52720758.8024933     
  -52715066.1918288     
  -52709430.3578820     
  -52703849.0325004     
  -52698319.8186027     
  -52692840.1917472     
  -52687407.5019535     
  -52682018.9758053     
  -52676671.7187578     
  -52800137.6624145     
  -52792348.6045621     
  -52784604.1984795     
  -52776905.7505193     
  -52769254.5487355     
  -52761651.8587009     
  -52754098.9193220     
  -52746596.9386683     
  -52739147.0898269     
  -52731750.5067944     
  -52724408.2804176     
  -52717121.4543937     
  -52709891.0213375     
  -52702717.9189280     
  -52695603.0261395     
  -52688547.1595671     
  -52681551.0698527     
  -52674615.4382192     
  -52667740.8731188     
  -52660927.9070010     
  -52654176.9932067     
  -52647488.5029936     
  -52640862.7226977     
  -52634299.8510352     
  -52627799.9965506     
  -52621363.1752147     
  -52614989.3081764     
  -52608678.2196727     
  -52602429.6351014     
  -52596243.1792593     
  -52590118.3747500     
  -52584054.6405650     
  -52578051.2908419     
  -52572107.5338021     
  -52566222.4708719     
  -52560395.0959911     
  -52554624.2951096     
  -52548908.8458780     
  -52543247.4175331     
  -52537638.5709815     
  -52532080.7590837     
  -52526572.3271417     
  -52521111.5135921     
  -52515696.4509063     
  -52510325.1667008     
  -52504995.5850571     
  -52499705.5280566     
  -52494452.7175295     
  -52489234.7770123     
  -52484049.2339363     
  -52592847.4888252     
  -52585679.7259154     
  -52578551.0918947     
  -52571462.6671303     
  -52564415.5084703     
  -52557410.6463623     
  -52550449.0819382     
  -52543531.7840804     
  -52536659.6864787     
  -52529833.6846904     
  -52523054.6332127     
  -52516323.3425794     
  -52509640.5764890     
  -52503007.0489748     
  -52496423.4216252     
  -52489890.3008611     
  -52483408.2352800     
  -52476977.7130712     
  -52470599.1595123     
  -52464272.9345500     
  -52457999.3304739     
  -52451778.5696873     
  -52445610.8025824     
  -52439496.1055225     
  -52433434.4789389     
  -52427425.8455452     
  -52421470.0486746     
  -52415566.8507442     
  -52409715.9318502     
  -52403916.8884979     
  -52398169.2324709     
  -52392472.3898425     
  -52386825.7001321     
  -52381228.4156112     
  -52375679.7007615     
  -52370178.6318873     
  -52364724.1968860     
  -52359315.2951787     
  -52353950.7378041     
  -52348629.2476764     
  -52343349.4600115     
  -52338109.9229214     
  -52332909.0981800     
  -52327745.3621611     
  -52322617.0069504     
  -52317522.2416325     
  -52312459.1937543     
  -52307425.9109640     
  -52302420.3628304     
  -52297440.4428357     
  -52391518.5765044     
  -52384937.6943882     
  -52378390.7234551     
  -52371878.5925628     
  -52365402.2022537     
  -52358962.4228958     
  -52352560.0927743     
  -52346196.0161457     
  -52339870.9612629     
  -52333585.6583824     
  -52327340.7977616     
  -52321137.0276569     
  -52314974.9523296     
  -52308855.1300685     
  -52302778.0712376     
  -52296744.2363549     
  -52290754.0342114     
  -52284807.8200358     
  -52278905.8937116     
  -52273048.4980536     
  -52267235.8171486     
  -52261467.9747675     
  -52255745.0328523     
  -52250066.9900847     
  -52244433.7805408     
  -52238845.2724356     
  -52233301.2669637     
  -52227801.4972383     
  -52222345.6273339     
  -52216933.2514360     
  -52211563.8931014     
  -52206237.0046328     
  -52200951.9665707     
  -52195708.0873053     
  -52190504.6028124     
  -52185340.6765143     
  -52180215.3992699     
  -52175127.7894956     
  -52170076.7934179     
  -52165061.2854629     
  -52160080.0687807     
  -52155131.8759090     
  -52150215.3695762     
  -52145329.1436454     
  -52140471.7242007     
  -52135641.5707754     
  -52130837.0777250     
  -52126056.5757434     
  -52121298.3335227     
  -52116560.5595583     
  -52195721.3930063     
  -52189699.6544453     
  -52183706.9962267     
  -52177744.2459890     
  -52171812.1991500     
  -52165911.6178298     
  -52160043.2297165     
  -52154207.7268865     
  -52148405.7645859     
  -52142637.9599819     
  -52136904.8908933     
  -52131207.0945054     
  -52125545.0660793     
  -52119919.2576614     
  -52114330.0767998     
  -52108777.8852756     
  -52103262.9978544     
  -52097785.6810646     
  -52092346.1520086     
  -52086944.5772116     
  -52081581.0715158     
  -52076255.6970217     
  -52070968.4620852     
  -52065719.3203726     
  -52060508.1699789     
  -52055334.8526145     
  -52050199.1528632     
  -52045100.7975165     
  -52040039.4549864     
  -52035014.7348027     
  -52030026.1871959     
  -52025073.3027692     
  -52020155.5122644     
  -52015272.1864218     
  -52010422.6359388     
  -52005606.1115284     
  -52000821.8040810     
  -51996068.8449300     
  -51991346.3062244     
  -51986653.2014096     
  -51981988.4858182     
  -51977351.0573713     
  -51972739.7573926     
  -51968153.3715356     
  -51963590.6308246     
  -51959050.2128106     
  -51954530.7428419     
  -51950030.7954499     
  -51945548.8958505     
  -51941083.5215597     
  -52005031.5517197     
  -51999546.1443569     
  -51994085.4469390     
  -51988650.2174721     
  -51983241.1789388     
  -51977859.0187979     
  -51972504.3884302     
  -51967177.9025344     
  -51961880.1384824     
  -51956611.6356396     
  -51951372.8946567     
  -51946164.3767404     
  -51940986.5029083     
  -51935839.6532346     
  -51930724.1660926     
  -51925640.3373990     
  -51920588.4198663     
  -51915568.6222689     
  -51910581.1087268     
  -51905625.9980134     
  -51900703.3628903     
  -51895813.2294768     
  -51890955.5766541     
  -51886130.3355136     
  -51881337.3888482     
  -51876576.5706944     
  -51871847.6659276     
  -51867150.4099128     
  -51862484.4882164     
  -51857849.5363801     
  -51853245.1397620     
  -51848670.8334453     
  -51844126.1022193     
  -51839610.3806347     
  -51835123.0531341     
  -51830663.4542623     
  -51826230.8689560     
  -51821824.5329161     
  -51817443.6330642     
  -51813087.3080835     
  -51808754.6490471     
  -51804444.7001339     
  -51800156.4594323     
  -51795888.8798343     
  -51791640.8700193     
  -51787411.2955277     
  -51783198.9799255     
  -51779002.7060598     
  -51774821.2174039     
  -51770653.2194934     
  -51819029.1866480     
  -51814060.9485415     
  -51809113.5684877     
  -51804187.7523794     
  -51799284.1694265     
  -51794403.4520700     
  -51789546.1958454     
  -51784712.9591990     
  -51779904.2632645     
  -51775120.5916035     
  -51770362.3899162     
  -51765630.0657272     
  -51760923.9880524     
  -51756244.4870501     
  -51751591.8536640     
  -51746966.3392591     
  -51742368.1552595     
  -51737797.4727883     
  -51733254.4223175     
  -51728739.0933300     
  -51724251.5339982     
  -51719791.7508834     
  -51715359.7086604     
  -51710955.3298688     
  -51706578.4946977     
  -51702229.0408036     
  -51697906.7631675     
  -51693611.4139936     
  -51689342.7026507     
  -51685100.2956618     
  -51680883.8167423     
  -51676692.8468907     
  -51672526.9245328     
  -51668385.5457231     
  -51664268.1644037     
  -51660174.1927240     
  -51656103.0014214     
  -51652053.9202667     
  -51648026.2385728     
  -51644019.2057705     
  -51640032.0320506     
  -51636063.8890746     
  -51632113.9107531     
  -51628181.1940945     
  -51624264.8001232     
  -51620363.7548670     
  -51616477.0504155     
  -51612603.6460480     
  -51608742.4694312     
  -51604892.4178868     
  -51637298.0852024     
  -51632830.6041435     
  -51628380.6872516     
  -51623948.9955534     
  -51619536.1528209     
  -51615142.7457692     
  -51610769.3242105     
  -51606416.4011641     
  -51602084.4529313     
  -51597773.9191348     
  -51593485.2027303     
  -51589218.6699935     
  -51584974.6504850     
  -51580753.4369995     
  -51576555.2855018     
  -51572380.4150530     
  -51568229.0077330     
  -51564101.2085597     
  -51559997.1254111     
  -51555916.8289526     
  -51551860.3525732     
  -51547827.6923333     
  -51543818.8069282     
  -51539833.6176698     
  -51535872.0084891     
  -51531933.8259626     
  -51528018.8793664     
  -51524126.9407578     
  -51520257.7450900     
  -51516410.9903603     
  -51512586.3377941     
  -51508783.4120677     
  -51505001.8015707     
  -51501241.0587112     
  -51497500.7002636     
  -51493780.2077625     
  -51490079.0279424     
  -51486396.5732263     
  -51482732.2222624     
  -51479085.3205112     
  -51475455.1808835     
  -51471841.0844301     
  -51468242.2810833     
  -51464657.9904518     
  -51461087.4026681     
  -51457529.6792889     
  -51453983.9542487     
  -51450449.3348673     
  -51446924.9029086     
  -51443409.7156927     
  -51459424.7569700     
  -51455443.7568104     
  -51451477.6055440     
  -51447526.9193425     
  -51443592.2775264     
  -51439674.2229479     
  -51435773.2623331     
  -51431889.8665897     
  -51428024.4710803     
  -51424177.4758666     
  -51420349.2459269     
  -51416540.1113504     
  -51412750.3675112     
  -51408980.2752253     
  -51405230.0608936     
  -51401499.9166342     
  -51397790.0004066     
  -51394100.4361305     
  -51390431.3138035     
  -51386782.6896182     
  -51383154.5860838     
  -51379546.9921527     
  -51375959.8633563     
  -51372393.1219516     
  -51368846.6570812     
  -51365320.3249493     
  -51361813.9490150     
  -51358327.3202061     
  -51354860.1971551     
  -51351412.3064585     
  -51347983.3429623     
  -51344572.9700752     
  -51341180.8201098     
  -51337806.4946557     
  -51334449.5649835     
  -51331109.5724825     
  -51327786.0291324     
  -51324478.4180109     
  -51321186.1938369     
  -51317908.7835514     
  -51314645.5869360     
  -51311395.9772700     
  -51308159.3020258     
  -51304934.8836042     
  -51301722.0201087     
  -51298519.9861594     
  -51295328.0337460     
  -51292145.3931212     
  -51288971.2737315     
  -51285804.8651879     
  -51284997.5379400     
  -51281490.4810554     
  -51277996.1393660     
  -51274515.0793339     
  -51271047.8318139     
  -51267594.8925432     
  -51264156.7225992     
  -51260733.7488263     
  -51257326.3642349     
  -51253934.9283747     
  -51250559.7676845     
  -51247201.1758214     
  -51243859.4139719     
  -51240534.7111462     
  -51237227.2644592     
  -51233937.2394003     
  -51230664.7700942     
  -51227409.9595543     
  -51224172.8799328     
  -51220953.5727667     
  -51217752.0492258     
  -51214568.2903607     
  -51211402.2473557     
  -51208253.8417876     
  -51205122.9658917     
  -51202009.4828382     
  -51198913.2270195     
  -51195834.0043509     
  -51192771.5925856     
  -51189725.7416468     
  -51186696.1739760     
  -51183682.5849024     
  -51180684.6430309     
  -51177701.9906528     
  -51174734.2441786     
  -51171780.9945944     
  -51168841.8079441     
  -51165916.2258352     
  -51163003.7659725     
  -51160103.9227179     
  -51157216.1676773     
  -51154339.9503163     
  -51151474.6986030     
  -51148619.8196802     
  -51145774.7005656     
  -51142938.7088806     
  -51140111.1936082     
  -51137291.4858786     
  -51134478.8997836     
  -51131672.7332182     
  -51113605.7791464     
  -51110561.6283044     
  -51107528.6279378     
  -51104507.2868888     
  -51101498.0803335     
  -51098501.4503245     
  -51095517.8063073     
  -51092547.5256102     
  -51089590.9539127     
  -51086648.4056911     
  -51083720.1646452     
  -51080806.4841066     
  -51077907.5874303     
  -51075023.6683734     
  -51072154.8914591     
  -51069301.3923315     
  -51066463.2781002     
  -51063640.6276780     
  -51060833.4921127     
  -51058041.8949146     
  -51055265.8323822     
  -51052505.2739266     
  -51049760.1623970     
  -51047030.4144085     
  -51044315.9206734     
  -51041616.5463384     
  -51038932.1313276     
  -51036262.4906947     
  -51033607.4149829     
  -51030966.6705964     
  -51028340.0001834     
  -51025727.1230316     
  -51023127.7354768     
  -51020541.5113275     
  -51017968.1023042     
  -51015407.1384948     
  -51012858.2288281     
  -51010320.9615637     
  -51007794.9048016     
  -51005279.6070095     
  -51002774.5975703     
  -51000279.3873479     
  -50997793.4692745     
  -50995316.3189563     
  -50992847.3953005     
  -50990386.1411617     
  -50987931.9840084     
  -50985484.3366100     
  -50983042.5977426     
  -50980606.1529141     
  -50944839.1372853     
  -50942248.2323372     
  -50939667.4563634     
  -50937097.2509647     
  -50934538.0265829     
  -50931990.1630560     
  -50929454.0101522     
  -50926929.8880839     
  -50924418.0880032     
  -50921918.8724787     
  -50919432.4759575     
  -50916959.1052103     
  -50914498.9397640     
  -50912052.1323204     
  -50909618.8091647     
  -50907199.0705633     
  -50904792.9911533     
  -50902400.6203235     
  -50900021.9825906     
  -50897657.0779698     
  -50895305.8823413     
  -50892968.3478153     
  -50890644.4030948     
  -50888333.9538390     
  -50886036.8830273     
  -50883753.0513256     
  -50881482.2974560     
  -50879224.4385706     
  -50876979.2706299     
  -50874746.5687888     
  -50872526.0877883     
  -50870317.5623555     
  -50868120.7076128     
  -50865935.2194959     
  -50863760.7751819     
  -50861597.0335287     
  -50859443.6355251     
  -50857300.2047530     
  -50855166.3478616     
  -50853041.6550548     
  -50850925.7005905     
  -50848818.0432945     
  -50846718.2270862     
  -50844625.7815190     
  -50842540.2223341     
  -50840461.0520270     
  -50838387.7604285     
  -50836319.8252983     
  -50834256.7129322     
  -50832197.8787815     
  -50778286.9664347     
  -50776140.9814300     
  -50774004.6105860     
  -50771878.2179054     
  -50769762.1391856     
  -50767656.6825604     
  -50765562.1290243     
  -50763478.7329414     
  -50761406.7225394     
  -50759346.3003886     
  -50757297.6438678     
  -50755260.9056175     
  -50753236.2139811     
  -50751223.6734358     
  -50749223.3650126     
  -50747235.3467083     
  -50745259.6538886     
  -50743296.2996844     
  -50741345.2753816     
  -50739406.5508062     
  -50737480.0747040     
  -50735565.7751179     
  -50733663.5597615     
  -50731773.3163919     
  -50729894.9131813     
  -50728028.1990880     
  -50726173.0042295     
  -50724329.1402555     
  -50722496.4007243     
  -50720674.5614821     
  -50718863.3810454     
  -50717062.6009883     
  -50715271.9463347     
  -50713491.1259551     
  -50711719.8329708     
  -50709957.7451636     
  -50708204.5253926     
  -50706459.8220186     
  -50704723.2693355     
  -50702994.4880105     
  -50701273.0855316     
  -50699558.6566641     
  -50697850.7839148     
  -50696149.0380060     
  -50694452.9783566     
  -50692762.1535729     
  -50691076.1019473     
  -50689394.3519657     
  -50687716.4228226     
  -50686041.8249448     
  -50613537.8002579     
  -50611829.7549281     
  -50610131.2705148     
  -50608442.6230105     
  -50606764.0635055     
  -50605095.8186979     
  -50603438.0913914     
  -50601791.0609793     
  -50600154.8839172     
  -50598529.6941839     
  -50596915.6037303     
  -50595312.7029196     
  -50593721.0609555     
  -50592140.7263021     
  -50590571.7270954     
  -50589014.0715457     
  -50587467.7483333     
  -50585932.7269973     
  -50584408.9583182     
  -50582896.3746950     
  -50581394.8905174     
  -50579904.4025348     
  -50578424.7902200     
  -50576955.9161321     
  -50575497.6262760     
  -50574049.7504603     
  -50572612.1026549     
  -50571184.4813475     
  -50569766.6699009     
  -50568358.4369103     
  -50566959.5365623     
  -50565569.7089956     
  -50564188.6806636     
  -50562816.1646990     
  -50561451.8612831     
  -50560095.4580165     
  -50558746.6302945     
  -50557405.0416860     
  -50556070.3443170     
  -50554742.1792580     
  -50553420.1769165     
  -50552103.9574334     
  -50550793.1310853     
  -50549487.2986908     
  -50548186.0520219     
  -50546888.9742205     
  -50545595.6402195     
  -50544305.6171684     
  -50543018.4648636     
  -50541733.7361834     
  -50450178.9100335     
  -50448903.2163004     
  -50447637.4399649     
  -50446381.7590000     
  -50445136.3300519     
  -50443901.2889085     
  -50442676.7509578     
  -50441462.8116363     
  -50440259.5468674     
  -50439067.0134895     
  -50437885.2496759     
  -50436714.2753450     
  -50435554.0925622     
  -50434404.6859335     
  -50433266.0229915     
  -50432138.0545739     
  -50431020.7151954     
  -50429913.9234131     
  -50428817.5821857     
  -50427731.5792275     
  -50426655.7873574     
  -50425590.0648434     
  -50424534.2557428     
  -50423488.1902389     
  -50422451.6849752     
  -50421424.5433855     
  -50420406.5560235     
  -50419397.5008892     
  -50418397.1437546     
  -50417405.2384885     
  -50416421.5273800     
  -50415445.7414625     
  -50414477.6008375     
  -50413516.8149988     
  -50412563.0831572     
  -50411616.0945667     
  -50410675.5288514     
  -50409741.0563341     
  -50408812.3383665     
  -50407889.0276614     
  -50406970.7686263     
  -50406057.1976995     
  -50405147.9436882     
  -50404242.6281086     
  -50403340.8655286     
  -50402442.2639120     
  -50401546.4249651     
  -50400652.9444858     
  -50399761.4127134     
  -50398871.4146814     
  -50287795.9234324     
  -50286948.4528790     
  -50286111.6088465     
  -50285285.4619759     
  -50284470.0653724     
  -50283665.4550270     
  -50282871.6502298     
  -50282088.6539745     
  -50281316.4533549     
  -50280555.0199524     
  -50279804.3102167     
  -50279064.2658367     
  -50278334.8141061     
  -50277615.8682799     
  -50276907.3279245     
  -50276209.0792612     
  -50275520.9955028     
  -50274842.9371843     
  -50274174.7524876     
  -50273516.2775612     
  -50272867.3368336     
  -50272227.7433234     
  -50271597.2989437     
  -50270975.7948028     
  -50270363.0115013     
  -50269758.7194252     
  -50269162.6790365     
  -50268574.6411603     
  -50267994.3472700     
  -50267421.5297697     
  -50266855.9122751     
  -50266297.2098927     
  -50265745.1294972     
  -50265199.3700081     
  -50264659.6226656     
  -50264125.5713049     
  -50263596.8926309     
  -50263073.2564921     
  -50262554.3261544     
  -50262039.7585744     
  -50261529.2046735     
  -50261022.3096111     
  -50260518.7130594     
  -50260018.0494765     
  -50259519.9483816     
  -50259024.0346291     
  -50258529.9286831     
  -50258037.2468930     
  -50257545.6017676     
  -50257054.6022501     
  -50125972.4907234     
  -50125550.6530360     
  -50125140.4424164     
  -50124741.8137334     
  -50124354.7082901     
  -50123979.0541968     
  -50123614.7667345     
  -50123261.7487124     
  -50122919.8908178     
  -50122589.0719572     
  -50122269.1595917     
  -50121960.0100640     
  -50121661.4689188     
  -50121373.3712163     
  -50121095.5418390     
  -50120827.7957915     
  -50120569.9384952     
  -50120321.7660753     
  -50120083.0656433     
  -50119853.6155736     
  -50119633.1857739     
  -50119421.5379518     
  -50119218.4258755     
  -50119023.5956306     
  -50118836.7858718     
  -50118657.7280717     
  -50118486.1467642     
  -50118321.7597858     
  -50118164.2785122     
  -50118013.4080931     
  -50117868.8476827     
  -50117730.2906687     
  -50117597.4248980     
  -50117469.9329005     
  -50117347.4921104     
  -50117229.7750863     
  -50117116.4497282     
  -50117007.1794943     
  -50116901.6236152     
  -50116799.4373070     
  -50116700.2719831     
  -50116603.7754645     
  -50116509.5921896     
  -50116417.3634217     
  -50116326.7274562     
  -50116237.3198264     
  -50116148.7735082     
  -50116060.7191233     
  -50115972.7851417     
  -50115884.5980826     
  -49964289.9880660     
  -49964292.8135134     
  -49964308.4933764     
  -49964336.8592837     
  -49964377.7334284     
  -49964430.9288904     
  -49964496.2499501     
  -49964573.4923959     
  -49964662.4438238     
  -49964762.8839303     
  -49964874.5847979     
  -49964997.3111732     
  -49965130.8207392     
  -49965274.8643795     
  -49965429.1864365     
  -49965593.5249632     
  -49965767.6119687     
  -49965951.1736571     
  -49966143.9306606     
  -49966345.5982671     
  -49966555.8866420     
  -49966774.5010443     
  -49967001.1420381     
  -49967235.5056987     
  -49967477.2838135     
  -49967726.1640796     
  -49967981.8302951     
  -49968243.9625483     
  -49968512.2374008     
  -49968786.3280685     
  -49969065.9045976     
  -49969350.6340385     
  -49969640.1806147     
  -49969934.2058903     
  -49970232.3689326     
  -49970534.3264744     
  -49970839.7330706     
  -49971148.2412547     
  -49971459.5016913     
  -49971773.1633265     
  -49972088.8735370     
  -49972406.2782752     
  -49972725.0222137     
  -49973044.7488870     
  -49973365.1008312     
  -49973685.7197213     
  -49974006.2465075     
  -49974326.3215483     
  -49974645.5847420     
  -49974963.6756568     
  -49802327.2510672     
  -49802755.4723077     
  -49803197.9344811     
  -49803654.3395340     
  -49804124.3842638     
  -49804607.7605892     
  -49805104.1558136     
  -49805613.2528804     
  -49806134.7306214     
  -49806668.2639978     
  -49807213.5243338     
  -49807770.1795424     
  -49808337.8943457     
  -49808916.3304862     
  -49809505.1469332     
  -49810104.0000810     
  -49810712.5439414     
  -49811330.4303296     
  -49811957.3090434     
  -49812592.8280372     
  -49813236.6335894     
  -49813888.3704641     
  -49814547.6820675     
  -49815214.2105988     
  -49815887.5971955     
  -49816567.4820745     
  -49817253.5046675     
  -49817945.3037517     
  -49818642.5175768     
  -49819344.7839863     
  -49820051.7405362     
  -49820763.0246081     
  -49821478.2735192     
  -49822197.1246284     
  -49822919.2154386     
  -49823644.1836961     
  -49824371.6674854     
  -49825101.3053224     
  -49825832.7362425     
  -49826565.5998878     
  -49827299.5365894     
  -49828034.1874481     
  -49828769.1944120     
  -49829504.2003507     
  -49830238.8491282     
  -49830972.7856715     
  -49831705.6560383     
  -49832437.1074808     
  -49833166.7885075     
  -49833894.3489426     
  -49639660.3354253     
  -49640516.4654852     
  -49641388.3116245     
  -49642275.4407270     
  -49643177.4189772     
  -49644093.8120789     
  -49645024.1854654     
  -49645968.1045026     
  -49646925.1346834     
  -49647894.8418138     
  -49648876.7921928     
  -49649870.5527832     
  -49650875.6913752     
  -49651891.7767436     
  -49652918.3787964     
  -49653955.0687173     
  -49655001.4191008     
  -49656057.0040807     
  -49657121.3994520     
  -49658194.1827862     
  -49659274.9335406     
  -49660363.2331609     
  -49661458.6651786     
  -49662560.8153019     
  -49663669.2715018     
  -49664783.6240915     
  -49665903.4658019     
  -49667028.3918507     
  -49668158.0000078     
  -49669291.8906544     
  -49670429.6668390     
  -49671570.9343276     
  -49672715.3016502     
  -49673862.3801430     
  -49675011.7839862     
  -49676163.1302384     
  -49677316.0388667     
  -49678470.1327730     
  -49679625.0378172     
  -49680780.3828367     
  -49681935.7996621     
  -49683090.9231305     
  -49684245.3910946     
  -49685398.8444296     
  -49686550.9270364     
  -49687701.2858419     
  -49688849.5707972     
  -49689995.4348718     
  -49691138.5340458     
  -49692278.5272986     
  -49475862.3049837     
  -49477150.7092745     
  -49478456.3198272     
  -49479778.5641774     
  -49481116.8737921     
  -49482470.6842347     
  -49483839.4353208     
  -49485222.5712647     
  -49486619.5408180     
  -49488029.7973991     
  -49489452.7992141     
  -49490888.0093702     
  -49492334.8959805     
  -49493792.9322609     
  -49495261.5966193     
  -49496740.3727375     
  -49498228.7496453     
  -49499726.2217878     
  -49501232.2890852     
  -49502746.4569862     
  -49504268.2365142     
  -49505797.1443077     
  -49507332.7026533     
  -49508874.4395136     
  -49510421.8885488     
  -49511974.5891316     
  -49513532.0863580     
  -49515093.9310510     
  -49516659.6797605     
  -49518228.8947565     
  -49519801.1440184     
  -49521376.0012193     
  -49522953.0457049     
  -49524531.8624686     
  -49526112.0421217     
  -49527693.1808598     
  -49529274.8804245     
  -49530856.7480613     
  -49532438.3964738     
  -49534019.4437739     
  -49535599.5134287     
  -49537178.2342030     
  -49538755.2400997     
  -49540330.1702954     
  -49541902.6690742     
  -49543472.3857575     
  -49545038.9746304     
  -49546602.0948665     
  -49548161.4104487     
  -49549716.5900874     
  -49310503.0507221     
  -49312230.0115778     
  -49313975.6069315     
  -49315739.1218285     
  -49317519.8500812     
  -49319317.0943770     
  -49321130.1663755     
  -49322958.3867963     
  -49324801.0854965     
  -49326657.6015398     
  -49328527.2832556     
  -49330409.4882899     
  -49332303.5836468     
  -49334208.9457222     
  -49336124.9603283     
  -49338051.0227110     
  -49339986.5375588     
  -49341930.9190042     
  -49343883.5906173     
  -49345843.9853931     
  -49347811.5457300     
  -49349785.7234035     
  -49351765.9795315     
  -49353751.7845337     
  -49355742.6180851     
  -49357737.9690627     
  -49359737.3354862     
  -49361740.2244537     
  -49363746.1520710     
  -49365754.6433757     
  -49367765.2322560     
  -49369777.4613644     
  -49371790.8820265     
  -49373805.0541451     
  -49375819.5460990     
  -49377833.9346382     
  -49379847.8047742     
  -49381860.7496660     
  -49383872.3705025     
  -49385882.2763805     
  -49387890.0841793     
  -49389895.4184310     
  -49391897.9111881     
  -49393897.2018870     
  -49395892.9372084     
  -49397884.7709348     
  -49399872.3638043     
  -49401855.3833623     
  -49403833.5038096     
  -49405806.4058480     
  -49143149.1470259     
  -49145322.9195575     
  -49147516.6120314     
  -49149729.3650760     
  -49151960.3331552     
  -49154208.6846131     
  -49156473.6017079     
  -49158754.2806348     
  -49161049.9315391     
  -49163359.7785181     
  -49165683.0596140     
  -49168019.0267969     
  -49170366.9459384     
  -49172726.0967765     
  -49175095.7728709     
  -49177475.2815506     
  -49179863.9438528     
  -49182261.0944533     
  -49184666.0815900     
  -49187078.2669775     
  -49189497.0257158     
  -49191921.7461900     
  -49194351.8299648     
  -49196786.6916709     
  -49199225.7588853     
  -49201668.4720052     
  -49204114.2841159     
  -49206562.6608520     
  -49209013.0802534     
  -49211465.0326155     
  -49213918.0203338     
  -49216371.5577430     
  -49218825.1709518     
  -49221278.3976713     
  -49223730.7870399     
  -49226181.8994432     
  -49228631.3063288     
  -49231078.5900174     
  -49233523.3435096     
  -49235965.1702887     
  -49238403.6841190     
  -49240838.5088414     
  -49243269.2781649     
  -49245695.6354539     
  -49248117.2335139     
  -49250533.7343724     
  -49252944.8090574     
  -49255350.1373736     
  -49257749.4076747     
  -49260142.3166339     
  -48973363.7539813     
  -48975994.6121550     
  -48978646.4476582     
  -48981318.2560949     
  -48984009.0522321     
  -48986717.8699749     
  -48989443.7623299     
  -48992185.8013568     
  -48994943.0781093     
  -48997714.7025648     
  -49000499.8035440     
  -49003297.5286200     
  -49006107.0440178     
  -49008927.5345043     
  -49011758.2032693     
  -49014598.2717964     
  -49017446.9797272     
  -49020303.5847155     
  -49023167.3622738     
  -49026037.6056125     
  -49028913.6254704     
  -49031794.7499385     
  -49034680.3242765     
  -49037569.7107222     
  -49040462.2882942     
  -49043357.4525878     
  -49046254.6155648     
  -49049153.2053374     
  -49052052.6659449     
  -49054952.4571265     
  -49057852.0540868     
  -49060750.9472566     
  -49063648.6420485     
  -49066544.6586074     
  -49069438.5315554     
  -49072329.8097329     
  -49075218.0559351     
  -49078102.8466427     
  -49080983.7717504     
  -49083860.4342895     
  -49086732.4501476     
  -49089599.4477843     
  -49092461.0679433     
  -49095316.9633607     
  -49098166.7984707     
  -49101010.2491075     
  -49103847.0022045     
  -49106676.7554912     
  -49109499.2171864     
  -49112314.1056897     
  -48800706.5764320     
  -48803806.8482658     
  -48806928.8364921     
  -48810071.3925365     
  -48813233.3925993     
  -48816413.7375518     
  -48819611.3528211     
  -48822825.1882616     
  -48826054.2180165     
  -48829297.4403666     
  -48832553.8775697     
  -48835822.5756884     
  -48839102.6044083     
  -48842393.0568470     
  -48845693.0493528     
  -48849001.7212947     
  -48852318.2348437     
  -48855641.7747454     
  -48858971.5480847     
  -48862306.7840419     
  -48865646.7336415     
  -48868990.6694935     
  -48872337.8855272     
  -48875687.6967182     
  -48879039.4388083     
  -48882392.4680190     
  -48885746.1607585     
  -48889099.9133224     
  -48892453.1415881     
  -48895805.2807044     
  -48899155.7847739     
  -48902504.1265307     
  -48905849.7970136     
  -48909192.3052320     
  -48912531.1778288     
  -48915865.9587380     
  -48919196.2088368     
  -48922521.5055941     
  -48925841.4427145     
  -48929155.6297783     
  -48932463.6918765     
  -48935765.2692437     
  -48939060.0168861     
  -48942347.6042065     
  -48945627.7146256     
  -48948900.0452010     
  -48952164.3062426     
  -48955420.2209255     
  -48958667.5249002     
  -48961905.9659009     
  -48624733.8921307     
  -48628317.9828548     
  -48631924.1148877     
  -48635550.9979429     
  -48639197.3724227     
  -48642862.0092258     
  -48646543.7095426     
  -48650241.3046383     
  -48653953.6556249     
  -48657679.6532209     
  -48661418.2175014     
  -48665168.2976374     
  -48668928.8716250     
  -48672698.9460048     
  -48676477.5555728     
  -48680263.7630811     
  -48684056.6589314     
  -48687855.3608586     
  -48691659.0136073     
  -48695466.7886003     
  -48699277.8835987     
  -48703091.5223559     
  -48706906.9542631     
  -48710723.4539887     
  -48714540.3211108     
  -48718356.8797427     
  -48722172.4781526     
  -48725986.4883764     
  -48729798.3058254     
  -48733607.3488874     
  -48737413.0585221     
  -48741214.8978513     
  -48745012.3517442     
  -48748804.9263960     
  -48752592.1489030     
  -48756373.5668324     
  -48760148.7477863     
  -48763917.2789631     
  -48767678.7667127     
  -48771432.8360886     
  -48775179.1303952     
  -48778917.3107319     
  -48782647.0555330     
  -48786368.0601042     
  -48790080.0361558     
  -48793782.7113328     
  -48797475.8287418     
  -48801159.1464753     
  -48804832.4371336     
  -48808495.4873442     
  -48444998.6625624     
  -48449083.0645740     
  -48453189.3168205     
  -48457315.9915816     
  -48461461.6980518     
  -48465625.0820475     
  -48469804.8257026     
  -48473999.6471523     
  -48478208.3002050     
  -48482429.5740050     
  -48486662.2926839     
  -48490905.3150022     
  -48495157.5339818     
  -48499417.8765294     
  -48503685.3030508     
  -48507958.8070566     
  -48512237.4147600     
  -48516520.1846666     
  -48520806.2071562     
  -48525094.6040572     
  -48529384.5282142     
  -48533675.1630475     
  -48537965.7221067     
  -48542255.4486170     
  -48546543.6150194     
  -48550829.5225037     
  -48555112.5005365     
  -48559391.9063818     
  -48563667.1246168     
  -48567937.5666409     
  -48572202.6701799     
  -48576461.8987843     
  -48580714.7413217     
  -48584960.7114650     
  -48589199.3471747     
  -48593430.2101764     
  -48597652.8854334     
  -48601866.9806149     
  -48606072.1255592     
  -48610267.9717331     
  -48614454.1916860     
  -48618630.4785013     
  -48622796.5452428     
  -48626952.1243981     
  -48631096.9673176     
  -48635230.8436512     
  -48639353.5407812     
  -48643464.8632521     
  -48647564.6321986     
  -48651652.6847698     
  -48261050.7409674     
  -48265654.0295189     
  -48270278.3530514     
  -48274922.1527097     
  -48279583.9130878     
  -48284262.1618244     
  -48288955.4691867     
  -48293662.4476441     
  -48298381.7514315     
  -48303112.0761039     
  -48307852.1580808     
  -48312600.7741826     
  -48317356.7411584     
  -48322118.9152054     
  -48326886.1914806     
  -48331657.5036049     
  -48336431.8231595     
  -48341208.1591756     
  -48345985.5576167     
  -48350763.1008541     
  -48355539.9071357     
  -48360315.1300486     
  -48365087.9579751     
  -48369857.6135417     
  -48374623.3530632     
  -48379384.4659797     
  -48384140.2742882     
  -48388890.1319679     
  -48393633.4243997     
  -48398369.5677807     
  -48403098.0085320     
  -48407818.2227016     
  -48412529.7153619     
  -48417232.0200013     
  -48421924.6979113     
  -48426607.3375673     
  -48431279.5540057     
  -48435940.9881950     
  -48440591.3064024     
  -48445230.1995557     
  -48449857.3826003     
  -48454472.5938526     
  -48459075.5943481     
  -48463666.1671859     
  -48468244.1168691     
  -48472809.2686418     
  -48477361.4678220     
  -48481900.5791315     
  -48486426.4860227     
  -48490939.0900022     
  -48072437.1928438     
  -48077580.0067061     
  -48082742.3014511     
  -48087922.3956180     
  -48093118.6580209     
  -48098329.5072193     
  -48103553.4109802     
  -48108788.8857316     
  -48114034.4960074     
  -48119288.8538858     
  -48124550.6184192     
  -48129818.4950576     
  -48135091.2350652     
  -48140367.6349299     
  -48145646.5357667     
  -48150926.8227149     
  -48156207.4243287     
  -48161487.3119622     
  -48166765.4991480     
  -48172041.0409703     
  -48177313.0334321     
  -48182580.6128164     
  -48187842.9550417     
  -48193099.2750120     
  -48198348.8259610     
  -48203590.8987905     
  -48208824.8214033     
  -48214049.9580300     
  -48219265.7085511     
  -48224471.5078122     
  -48229666.8249345     
  -48234851.1626190     
  -48240024.0564460     
  -48245185.0741677     
  -48250333.8149964     
  -48255469.9088862     
  -48260593.0158105     
  -48265702.8250322     
  -48270799.0543707     
  -48275881.4494616     
  -48280949.7830128     
  -48286003.8540542     
  -48291043.4871840     
  -48296068.5318085     
  -48301078.8613784     
  -48306074.3726202     
  -48311054.9847635     
  -48316020.6387641     
  -48320971.2965231     
  -48325906.9401028     
  -47878702.7448685     
  -47884407.7518055     
  -47890129.8256600     
  -47895867.1733207     
  -47901618.0590296     
  -47907380.8037184     
  -47913153.7843393     
  -47918935.4331895     
  -47924724.2372312     
  -47930518.7374066     
  -47936317.5279474     
  -47942119.2556803     
  -47947922.6193274     
  -47953726.3688021     
  -47959529.3045010     
  -47965330.2765904     
  -47971128.1842892     
  -47976921.9751464     
  -47982710.6443152     
  -47988493.2338207     
  -47994268.8318250     
  -48000036.5718851     
  -48005795.6322084     
  -48011545.2349010     
  -48017284.6452121     
  -48023013.1707730     
  -48028730.1608302     
  -48034435.0054737     
  -48040127.1348592     
  -48045806.0184250     
  -48051471.1641027     
  -48057122.1175225     
  -48062758.4612121     
  -48068379.8137899     
  -48073985.8291519     
  -48079576.1956524     
  -48085150.6352788     
  -48090708.9028201     
  -48096250.7850287     
  -48101776.0997771     
  -48107284.6952074     
  -48112776.4488753     
  -48118251.2668882     
  -48123709.0830367     
  -48129149.8579208     
  -48134573.5780710     
  -48139980.2550628     
  -48145369.9246269     
  -48150742.6457536     
  -48156098.4997930     
  -47679390.3789244     
  -47685682.2267948     
  -47691987.7407777     
  -47698305.0296426     
  -47704632.2667868     
  -47710967.6894302     
  -47717309.5978078     
  -47723656.3543615     
  -47730006.3829300     
  -47736358.1679367     
  -47742710.2535770     
  -47749061.2430031     
  -47755409.7975076     
  -47761754.6357046     
  -47768094.5327096     
  -47774428.3193163     
  -47780754.8811718     
  -47787073.1579479     
  -47793382.1425110     
  -47799680.8800875     
  -47805968.4674267     
  -47812244.0519589     
  -47818506.8309510     
  -47824756.0506561     
  -47830991.0054600     
  -47837211.0370223     
  -47843415.5334117     
  -47849603.9282369     
  -47855775.6997717     
  -47861930.3700737     
  -47868067.5040971     
  -47874186.7087994     
  -47880287.6322406     
  -47886369.9626775     
  -47892433.4276486     
  -47898477.7930540     
  -47904502.8622264     
  -47910508.4749963     
  -47916494.5067482     
  -47922460.8674704     
  -47928407.5007967     
  -47934334.3830407     
  -47940241.5222224     
  -47946128.9570871     
  -47951996.7561174     
  -47957845.0165374     
  -47963673.8633094     
  -47969483.4481245     
  -47975273.9483851     
  -47981045.5661817     
  -47474042.0890308     
  -47480947.3448011     
  -47487861.7468409     
  -47494783.3219877     
  -47501710.1690970     
  -47508640.4580924     
  -47515572.4290205     
  -47522504.3911071     
  -47529434.7218188     
  -47536361.8659253     
  -47543284.3345655     
  -47550200.7043153     
  -47557109.6162569     
  -47564009.7750499     
  -47570899.9480027     
  -47577778.9641447     
  -47584645.7132978     
  -47591499.1451487     
  -47598338.2683183     
  -47605162.1494308     
  -47611969.9121806     
  -47618760.7363957     
  -47625533.8570991     
  -47632288.5635661     
  -47639024.1983775     
  -47645740.1564678     
  -47652435.8841694     
  -47659110.8782500     
  -47665764.6849449     
  -47672396.8989827     
  -47679007.1626033     
  -47685595.1645702     
  -47692160.6391741     
  -47698703.3652283     
  -47705223.1650568     
  -47711719.9034733     
  -47718193.4867509     
  -47724643.8615835     
  -47731071.0140373     
  -47737474.9684931     
  -47743855.7865789     
  -47750213.5660923     
  -47756548.4399140     
  -47762860.5749109     
  -47769150.1708287     
  -47775417.4591758     
  -47781662.7020970     
  -47787886.1912373     
  -47794088.2465965     
  -47800269.2153743     
  -47262199.8207812     
  -47269746.9018035     
  -47277297.3538479     
  -47284849.1406293     
  -47292400.3052843     
  -47299948.9692818     
  -47307493.3313433     
  -47315031.6663724     
  -47322562.3243931     
  -47330083.7294953     
  -47337594.3787883     
  -47345092.8413601     
  -47352577.7572426     
  -47360047.8363818     
  -47367501.8576117     
  -47374938.6676316     
  -47382357.1799864     
  -47389756.3740476     
  -47397135.2939961     
  -47404493.0478039     
  -47411828.8062165     
  -47419141.8017321     
  -47426431.3275796     
  -47433696.7366930     
  -47440937.4406820     
  -47448152.9087971     
  -47455342.6668913     
  -47462506.2963735     
  -47469643.4331565     
  -47476753.7665969     
  -47483837.0384276     
  -47490893.0416810     
  -47497921.6196034     
  -47504922.6645591     
  -47511896.1169254     
  -47518841.9639752     
  -47525760.2387502     
  -47532651.0189209     
  -47539514.4256361     
  -47546350.6223593     
  -47553159.8136925     
  -47559942.2441882     
  -47566698.1971476     
  -47573427.9934058     
  -47580131.9901044     
  -47586810.5794502     
  -47593464.1874611     
  -47600093.2726993     
  -47606698.3249896     
  -47613279.8641276     
  -47043406.6159652     
  -47051625.7206585     
  -47059841.0265524     
  -47068050.4554825     
  -47076252.0159999     
  -47084443.8021556     
  -47092623.9923015     
  -47100790.8479069     
  -47108942.7123905     
  -47117078.0099650     
  -47125195.2444951     
  -47133292.9983650     
  -47141369.9313572     
  -47149424.7795396     
  -47157456.3541592     
  -47165463.5405429     
  -47173445.2970031     
  -47181400.6537468     
  -47189328.7117874     
  -47197228.6418575     
  -47205099.6833230     
  -47212941.1430951     
  -47220752.3945407     
  -47228532.8763900     
  -47236282.0916396     
  -47243999.6064500     
  -47251685.0490377     
  -47259338.1085594     
  -47266958.5339884     
  -47274546.1329818     
  -47282100.7707375     
  -47289622.3688412     
  -47297110.9041009     
  -47304566.4073697     
  -47311988.9623555     
  -47319378.7044170     
  -47326735.8193449     
  -47334060.5421290     
  -47341353.1557094     
  -47348613.9897118     
  -47355843.4191669     
  -47363041.8632122     
  -47370209.7837780     
  -47377347.6842548     
  -47384456.1081444     
  -47391535.6376919     
  -47398586.8925016     
  -47405610.5281336     
  -47412607.2346834     
  -47419577.7353433     
  -46817207.9901334     
  -46826131.0388191     
  -46835041.5839473     
  -46843937.5287535     
  -46852816.8702328     
  -46861677.6978234     
  -46870518.1921141     
  -46879336.6235750     
  -46888131.3513094     
  -46896900.8218249     
  -46905643.5678219     
  -46914358.2069985     
  -46923043.4408682     
  -46931698.0535913     
  -46940320.9108153     
  -46948910.9585256     
  -46957467.2219020     
  -46965988.8041815     
  -46974474.8855247     
  -46982924.7218837     
  -46991337.6438724     
  -46999713.0556339     
  -47008050.4337073     
  -47016349.3258893     
  -47024609.3500920     
  -47032830.1931928     
  -47041011.6098774     
  -47049153.4214736     
  -47057255.5147740     
  -47065317.8408476     
  -47073340.4138393     
  -47081323.3097545     
  -47089266.6652299     
  -47097170.6762874     
  -47105035.5970727     
  -47112861.7385746     
  -47120649.4673274     
  -47128399.2040926     
  -47136111.4225219     
  -47143786.6477984     
  -47151425.4552577     
  -47159028.4689860     
  -47166596.3603966     
  -47174129.8467834     
  -47181629.6898518     
  -47189096.6942248     
  -47196531.7059272     
  -47203935.6108445     
  -47211309.3331587     
  -47218653.8337599     
  -46583153.5790561     
  -46592814.1802361     
  -46602451.8983295     
  -46612064.6426226     
  -46621650.4228081     
  -46631207.3476069     
  -46640733.6234232     
  -46650227.5530292     
  -46659687.5342776     
  -46669112.0588381     
  -46678499.7109566     
  -46687849.1662354     
  -46697159.1904285     
  -46706428.6382549     
  -46715656.4522228     
  -46724841.6614651     
  -46733983.3805835     
  -46743080.8084985     
  -46752133.2273041     
  -46761140.0011239     
  -46770100.5749682     
  -46779014.4735893     
  -46787881.3003323     
  -46796700.7359817     
  -46805472.5375996     
  -46814196.5373566     
  -46822872.6413506     
  -46831500.8284145     
  -46840081.1489099     
  -46848613.7235059     
  -46857098.7419414     
  -46865536.4617692     
  -46873927.2070814     
  -46882271.3672142     
  -46890569.3954311     
  -46898821.8075832     
  -46907029.1807460     
  -46915192.1518312     
  -46923311.4161730     
  -46931387.7260875     
  -46939421.8894044     
  -46947414.7679714     
  -46955367.2761282     
  -46963280.3791529     
  -46971155.0916762     
  -46978992.4760666     
  -46986793.6407842     
  -46994559.7387022     
  -47002291.9653983     
  -47009991.5574133     
  -46340799.1028943     
  -46351232.5657889     
  -46361630.9535910     
  -46371992.2066704     
  -46382314.3719090     
  -46392595.6013205     
  -46402834.1507096     
  -46413028.3783675     
  -46423176.7437997     
  -46433277.8064828     
  -46443330.2246477     
  -46453332.7540852     
  -46463284.2469715     
  -46473183.6507108     
  -46483030.0067910     
  -46492822.4496517     
  -46502560.2055592     
  -46512242.5914882     
  -46521869.0140065     
  -46531438.9681601     
  -46540952.0363574     
  -46550407.8872480     
  -46559806.2745974     
  -46569147.0361512     
  -46578430.0924908     
  -46587655.4458750     
  -46596823.1790684     
  -46605933.4541530     
  -46614986.5113216     
  -46623982.6676521     
  -46632922.3158593     
  -46641805.9230244     
  -46650634.0292991     
  -46659407.2465843     
  -46668126.2571802     
  -46676791.8124085     
  -46685404.7312030     
  -46693965.8986697     
  -46702476.2646135     
  -46710936.8420315     
  -46719348.7055704     
  -46727712.9899490     
  -46736030.8883432     
  -46744303.6507334     
  -46752532.5822133     
  -46760719.0412595     
  -46768864.4379615     
  -46776970.2322105     
  -46785037.9318481     
  -46793069.0907736     
  -46089708.7166812     
  -46100952.1373544     
  -46112146.3439881     
  -46123289.3320719     
  -46134379.2090588     
  -46145414.1930610     
  -46156392.6115900     
  -46167312.9003368     
  -46178173.6019871     
  -46188973.3650680     
  -46199710.9428220     
  -46210385.1921037     
  -46220995.0722974     
  -46231539.6442496     
  -46242018.0692149     
  -46252429.6078109     
  -46262773.6189797     
  -46273049.5589521     
  -46283256.9802123     
  -46293395.5304601     
  -46303464.9515676     
  -46313465.0785277     
  -46323395.8383933     
  -46333257.2492019     
  -46343049.4188869     
  -46352772.5441696     
  -46362426.9094328     
  -46372012.8855724     
  -46381530.9288242     
  -46390981.5795664     
  -46400365.4610934     
  -46409683.2783596     
  -46418935.8166927     
  -46428123.9404734     
  -46437248.5917801     
  -46446310.7889975     
  -46455311.6253862     
  -46464252.2676144     
  -46473133.9542466     
  -46481957.9941913     
  -46490725.7651043     
  -46499438.7117470     
  -46508098.3442987     
  -46516706.2366212     
  -46525264.0244755     
  -46533773.4036885     
  -46542236.1282695     
  -46550654.0084760     
  -46559028.9088270     
  -46567362.7460646     
  -45829457.8456685     
  -45841550.3014210     
  -45853577.3260739     
  -45865536.9914672     
  -45877427.4861485     
  -45889247.1142457     
  -45900994.2943839     
  -45912667.5586428     
  -45924265.5515472     
  -45935787.0290881     
  -45947230.8577668     
  -45958596.0136611     
  -45969881.5815060     
  -45981086.7537871     
  -45992210.8298418     
  -46003253.2149658     
  -46014213.4195197     
  -46025091.0580343     
  -46035885.8483096     
  -46046597.6105073     
  -46057226.2662298     
  -46067771.8375873     
  -46078234.4462470     
  -46088614.3124639     
  -46098911.7540900     
  -46109127.1855587     
  -46119261.1168436     
  -46129314.1523891     
  -46139286.9900089     
  -46149180.4197523     
  -46158995.3227363     
  -46168732.6699380     
  -46178393.5209510     
  -46187979.0226981     
  -46197490.4081023     
  -46206928.9947129     
  -46216296.1832832     
  -46225593.4563020     
  -46234822.3764730     
  -46243984.5851423     
  -46253081.8006731     
  -46262115.8167643     
  -46271088.5007125     
  -46280001.7916155     
  -46288857.6985169     
  -46297658.2984885     
  -46306405.7346514     
  -46315102.2141336     
  -46323750.0059614     
  -46332351.4388887     
  -45559636.6489171     
  -45572619.5434289     
  -45585518.5819185     
  -45598331.9287426     
  -45611057.8690628     
  -45623694.8080156     
  -45636241.2699212     
  -45648695.8975242     
  -45661057.4512620     
  -45673324.8085535     
  -45685496.9631040     
  -45697573.0242223     
  -45709552.2161448     
  -45721433.8773616     
  -45733217.4599434     
  -45744902.5288630     
  -45756488.7613095     
  -45767975.9459919     
  -45779363.9824278     
  -45790652.8802173     
  -45801842.7582954     
  -45812933.8441642     
  -45823926.4730996     
  -45834821.0873311     
  -45845618.2351931     
  -45856318.5702432     
  -45866922.8503481     
  -45877431.9367316     
  -45887846.7929860     
  -45898168.4840410     
  -45908398.1750910     
  -45918537.1304763     
  -45928586.7125179     
  -45938548.3803013     
  -45948423.6884105     
  -45958214.2856064     
  -45967921.9134492     
  -45977548.4048642     
  -45987095.6826449     
  -45996565.7578954     
  -46005960.7284077     
  -46015282.7769721     
  -46024534.1696198     
  -46033717.2537948     
  -46042834.4564539     
  -46051888.2820920     
  -46060881.3106934     
  -46069816.1956023     
  -46078695.6613215     
  -46087522.5012203     
  -45279854.3211173     
  -45293771.9302034     
  -45307584.9170924     
  -45321291.5471033     
  -45334890.2100541     
  -45348379.4198654     
  -45361757.8141849     
  -45375024.1540276     
  -45388177.3234254     
  -45401216.3290804     
  -45414140.3000180     
  -45426948.4872349     
  -45439640.2633390     
  -45452215.1221760     
  -45464672.6784424     
  -45477012.6672786     
  -45489234.9438433     
  -45501339.4828629     
  -45513326.3781567     
  -45525195.8421346     
  -45536948.2052648     
  -45548583.9155106     
  -45560103.5377332     
  -45571507.7530597     
  -45582797.3582133     
  -45593973.2648046     
  -45605036.4985812     
  -45615988.1986339     
  -45626829.6165575     
  -45637562.1155637     
  -45648187.1695431     
  -45658706.3620762     
  -45669121.3853878     
  -45679434.0392449     
  -45689646.2297944     
  -45699759.9683379     
  -45709777.3700419     
  -45719700.6525793     
  -45729532.1347010     
  -45739274.2347341     
  -45748929.4690046     
  -45758500.4501808     
  -45767989.8855377     
  -45777400.5751355     
  -45786735.4099146     
  -45795997.3697000     
  -45805189.5211175     
  -45814315.0154208     
  -45823377.0862055     
  -45832379.0470626     
  -44989744.5410365     
  -45004644.8141057     
  -45019417.2104139     
  -45034060.0940897     
  -45048571.9575835     
  -45062951.4218386     
  -45077197.2364512     
  -45091308.2798135     
  -45105283.5592357     
  -45119122.2110414     
  -45132823.5006356     
  -45146386.8225413     
  -45159811.7004028     
  -45173097.7869550     
  -45186244.8639560     
  -45199252.8420841     
  -45212121.7607961     
  -45224851.7881483     
  -45237443.2205783     
  -45249896.4826480     
  -45262212.1267466     
  -45274390.8327533     
  -45286433.4076584     
  -45298340.7851431     
  -45310114.0251153     
  -45321754.3132009     
  -45333262.9601895     
  -45344641.4014316     
  -45355891.1961865     
  -45367014.0269174     
  -45378011.6985329     
  -45388886.1375701     
  -45399639.3913186     
  -45410273.6268810     
  -45420791.1301671     
  -45431194.3048187     
  -45441485.6710606     
  -45451667.8644767     
  -45461743.6347039     
  -45471715.8440443     
  -45481587.4659887     
  -45491361.5836506     
  -45501041.3881035     
  -45510630.1766263     
  -45520131.3508385     
  -45529548.4147435     
  -45538884.9726538     
  -45548144.7269966     
  -45557331.4760711     
  -45566449.1115567     
  -44688972.5195575     
  -44704908.1916037     
  -44720690.0652694     
  -44736316.5880638     
  -44751786.3407245     
  -44767098.0380603     
  -44782250.5297267     
  -44797242.8009312     
  -44812073.9730683     
  -44826743.3042834     
  -44841250.1899660     
  -44855594.1631760     
  -44869774.8950009     
  -44883792.1948510     
  -44897646.0106916     
  -44911336.4292172     
  -44924863.6759690     
  -44938228.1154003     
  -44951430.2508906     
  -44964470.7247118     
  -44977350.3179483     
  -44990069.9503728     
  -45002630.6802788     
  -45015033.7042702     
  -45027280.3570091     
  -45039372.1109209     
  -45051310.5758557     
  -45063097.4987049     
  -45074734.7629711     
  -45086224.3882885     
  -45097568.5298913     
  -45108769.4780263     
  -45119829.6573056     
  -45130751.6259971     
  -45141538.0752449     
  -45152191.8282176     
  -45162715.8391808     
  -45173113.1924804     
  -45183387.1014460     
  -45193540.9071932     
  -45203578.0773312     
  -45213502.2045647     
  -45223317.0051933     
  -45233026.3174736     
  -45242634.0999044     
  -45252144.4293362     
  -45261561.4990015     
  -45270889.6164349     
  -45280133.2010366     
  -45289296.7819983     
  -44377244.3107180     
  -44394274.3677617     
  -44411121.7984918     
  -44427785.1034533     
  -44444262.9239725     
  -44460554.0436818     
  -44476657.3898905     
  -44492572.0348063     
  -44508297.1966142     
  -44523832.2404224     
  -44539176.6790788     
  -44554330.1738733     
  -44569292.5351302     
  -44584063.7227038     
  -44598643.8463849     
  -44613033.1662290     
  -44627232.0928136     
  -44641241.1874351     
  -44655061.1622523     
  -44668692.8803827     
  -44682137.3559590     
  -44695395.7541514     
  -44708469.3911580     
  -44721359.7341683     
  -44734068.4013011     
  -44746597.1615171     
  -44758947.9345074     
  -44771122.7905544     
  -44783123.9503656     
  -44794953.7848733     
  -44806614.8149993     
  -44818109.7113775     
  -44829441.2940279     
  -44840612.5319757     
  -44851626.5428115     
  -44862486.5921779     
  -44873196.0931762     
  -44883758.6057025     
  -44894177.8356614     
  -44904457.6341027     
  -44914601.9962323     
  -44924615.0603044     
  -44934501.1063701     
  -44944264.5549692     
  -44953909.9655201     
  -44963442.0347643     
  -44972865.5948628     
  -44982185.6112986     
  -44991407.1813752     
  -45000535.5306863     
  -44054319.3503657     
  -44072510.8566964     
  -44090487.6576435     
  -44108248.2625101     
  -44125791.3339463     
  -44143115.6899675     
  -44160220.3056962     
  -44177104.3148450     
  -44193767.0109621     
  -44210207.8484616     
  -44226426.4434579     
  -44242422.5744308     
  -44258196.1827395     
  -44273747.3730097     
  -44289076.4134149     
  -44304183.7358710     
  -44319069.9361638     
  -44333735.7740279     
  -44348182.1731913     
  -44362410.2214009     
  -44376421.1704421     
  -44390216.4361607     
  -44403797.5984983     
  -44417166.4015443     
  -44430324.7536116     
  -44443274.7273349     
  -44456018.5597951     
  -44468558.6526636     
  -44480897.5723641     
  -44493038.0502487     
  -44504982.9827736     
  -44516735.4316718     
  -44528298.6241088     
  -44539675.9528130     
  -44550870.9761531     
  -44561887.4181756     
  -44572729.1685732     
  -44583400.2825178     
  -44593904.9804974     
  -44604247.6479292     
  -44614432.8347047     
  -44624465.2545838     
  -44634349.7844693     
  -44644091.4632400     
  -44653695.4910151     
  -44663167.2274205     
  -44672512.1904152     
  -44681736.0548878     
  -44690844.6484585     
  -44699843.9539218     
  -43720027.6048627     
  -43739457.8244136     
  -43758637.4919077     
  -43777565.0735469     
  -43796239.2097954     
  -43814658.7173326     
  -43832822.5905694     
  -43850730.0027697     
  -43868380.3068216     
  -43885773.0357040     
  -43902907.9026914     
  -43919784.8013411     
  -43936403.8053062     
  -43952765.1680123     
  -43968869.3222407     
  -43984716.8796502     
  -44000308.6302760     
  -44015645.5420322     
  -44030728.7602496     
  -44045559.6072707     
  -44060139.5821254     
  -44074470.3603024     
  -44088553.7936329     
  -44102391.9102936     
  -44115986.9149392     
  -44129341.1889611     
  -44142457.2908778     
  -44155337.9568450     
  -44167986.1012881     
  -44180404.8176221     
  -44192597.3790792     
  -44204567.2395934     
  -44216318.0347355     
  -44227853.5826690     
  -44239177.8851495     
  -44250295.1284334     
  -44261209.6841558     
  -44271926.1102948     
  -44282449.1516306     
  -44292783.7405261     
  -44302934.9972830     
  -44312908.2303284     
  -44322708.9361372     
  -44332342.7998154     
  -44341815.6930984     
  -44351133.6752690     
  -44360302.9908122     
  -44369330.0673048     
  -44378221.5215872     
  -44386984.1405706     
  -43374293.2595652     
  -43395051.8563362     
  -43415519.5073551     
  -43435694.5924506     
  -43455575.6992786     
  -43475161.6240194     
  -43494451.3714576     
  -43513444.1545223     
  -43532139.3933723     
  -43550536.7141017     
  -43568635.9471459     
  -43586437.1254604     
  -43603940.4825442     
  -43621146.4503749     
  -43638055.6573203     
  -43654668.9260845     
  -43670987.2717441     
  -43687011.8999249     
  -43702744.2051616     
  -43718185.7694836     
  -43733338.3612562     
  -43748203.9343074     
  -43762784.6273612     
  -43777082.7637948     
  -43791100.8517189     
  -43804841.5844016     
  -43818307.8410123     
  -43831502.6876907     
  -43844429.3788982     
  -43857091.3590988     
  -43869492.2646182     
  -43881635.9257780     
  -43893526.3692014     
  -43905167.8202635     
  -43916564.7055003     
  -43927721.6553279     
  -43938643.5066114     
  -43949335.3046544     
  -43959802.3065971     
  -43970049.9827609     
  -43980084.0189004     
  -43989910.3181724     
  -43999535.0027107     
  -44008964.4119839     
  -44018205.1095592     
  -44027263.8767398     
  -44036147.7173610     
  -44044863.8588802     
  -44053419.7246863     
  -44061822.9965408     
  -43017167.5198728     
  -43039358.3606378     
  -43061212.1569620     
  -43082727.2001241     
  -43103902.0402378     
  -43124735.4835381     
  -43145226.5888955     
  -43165374.6636929     
  -43185179.2591911     
  -43204640.1655120     
  -43223757.4063551     
  -43242531.2335623     
  -43260962.1216373     
  -43279050.7623214     
  -43296798.0593213     
  -43314205.1232773     
  -43331273.2670529     
  -43348004.0014213     
  -43364399.0312212     
  -43380460.2520304     
  -43396189.7474256     
  -43411589.7868575     
  -43426662.8241855     
  -43441411.4968816     
  -43455838.6259595     
  -43469947.2165577     
  -43483740.4592569     
  -43497221.7320487     
  -43510394.6030099     
  -43523262.8334127     
  -43535830.3816857     
  -43548101.4076137     
  -43560080.2770271     
  -43571771.5668884     
  -43583180.0710386     
  -43594310.8050668     
  -43605169.0120589     
  -43615760.1698869     
  -43626089.9926785     
  -43636164.4398735     
  -43645989.7201435     
  -43655572.2947968     
  -43664918.8818945     
  -43674036.4687399     
  -43682932.2909493     
  -43691613.8613548     
  -43700088.9527544     
  -43708365.5949014     
  -43716452.1629709     
  -43724357.1408836     
  -42648873.6905051     
  -42672615.3468249     
  -42695966.4924260     
  -42718925.4259169     
  -42741490.7771021     
  -42763661.4974133     
  -42785436.8495497     
  -42806816.3965113     
  -42827799.9902174     
  -42848387.7598731     
  -42868580.1002533     
  -42888377.6600479     
  -42907781.3304218     
  -42926792.2339173     
  -42945411.7138295     
  -42963641.3241746     
  -42981482.8203676     
  -42998938.1507115     
  -43016009.4487889     
  -43032699.0268796     
  -43049009.3704317     
  -43064943.1337206     
  -43080503.1367097     
  -43095692.3632198     
  -43110513.9603086     
  -43124971.2391584     
  -43139067.6771131     
  -43152806.9211435     
  -43166192.7924388     
  -43179229.2928018     
  -43191920.6110591     
  -43204271.1316959     
  -43216285.4440798     
  -43227968.3521086     
  -43239324.8835083     
  -43250360.3036959     
  -43261080.1259400     
  -43271490.1172290     
  -43281596.3250734     
  -43291405.0720818     
  -43300922.9708272     
  -43310156.9391878     
  -43319114.2071365     
  -43327802.2949259     
  -43336229.1103276     
  -43344402.8440490     
  -43352332.0422979     
  -43360025.6161090     
  -43367492.5482692     
  -43374742.7451550     
  -42269867.8808649     
  -42295291.3026054     
  -42320261.1147200     
  -42344775.9056753     
  -42368834.6890663     
  -42392436.8823929     
  -42415582.2853068     
  -42438271.0575869     
  -42460503.6970289     
  -42482281.0174792     
  -42503604.1271619     
  -42524474.4075127     
  -42544893.4926349     
  -42564863.2495635     
  -42584385.7594793     
  -42603463.3000066     
  -42622098.3287306     
  -42640293.4680822     
  -42658051.4917535     
  -42675375.3126584     
  -42692267.9727811     
  -42708732.6347880     
  -42724772.5757425     
  -42740391.1828507     
  -42755591.9517725     
  -42770378.4865765     
  -42784754.5029326     
  -42798723.8332709     
  -42812290.4347726     
  -42825458.3979652     
  -42838231.9620582     
  -42850615.5273609     
  -42862613.6715931     
  -42874231.1701578     
  -42885473.0198049     
  -42896344.4481262     
  -42906850.9428786     
  -42916998.2930646     
  -42926792.5534123     
  -42936240.1372493     
  -42945347.8185209     
  -42954122.7252550     
  -42962572.3719804     
  -42970704.7748790     
  -42978528.1285124     
  -42986051.2676785     
  -42993283.4163417     
  -43000234.1668707     
  -43006914.4460603     
  -43013333.4740437     
  -41880917.7756360     
  -41908158.8222603     
  -41934870.6670693     
  -41961052.7778830     
  -41986705.1552932     
  -42011828.2941593     
  -42036423.1454016     
  -42060491.0782108     
  -42084033.8429817     
  -42107053.5349930     
  -42129552.5591402     
  -42151533.5956810     
  -42172999.5673174     
  -42193953.6075971     
  -42214399.0307991     
  -42234339.3034591     
  -42253778.0176696     
  -42272718.8662777     
  -42291165.6200276     
  -42309122.1072366     
  -42326592.1954034     
  -42343579.7760032     
  -42360088.7517079     
  -42376123.0269684     
  -42391686.5009520     
  -42406783.0667268     
  -42421416.6107211     
  -42435591.0185438     
  -42449310.1846570     
  -42462578.0320996     
  -42475398.5201888     
  -42487775.6792153     
  -42499713.6404748     
  -42511216.6601035     
  -42522289.1471246     
  -42532935.7513163     
  -42543161.3678463     
  -42552971.1216001     
  -42562370.6313507     
  -42571365.7644390     
  -42579962.7804224     
  -42588168.5078981     
  -42595990.3174421     
  -42603435.8250086     
  -42610514.1609993     
  -42617234.1813433     
  -42623605.5188911     
  -42629638.7824698     
  -42635342.3982230     
  -42640733.2528128     
  -41483198.9192454     
  -41512382.6873757     
  -41540945.9389771     
  -41568890.0528641     
  -41596217.0409117     
  -41622929.4876555     
  -41649030.4914217     
  -41674523.6073847     
  -41699412.7921488     
  -41723702.3504493     
  -41747396.8833865     
  -41770501.2388888     
  -41793020.4636983     
  -41814959.7574651     
  -41836324.4288149     
  -41857119.8533338     
  -41877351.4335786     
  -41897024.5612144     
  -41916144.5817704     
  -41934716.7607561     
  -41952746.2542026     
  -41970238.0795658     
  -41987197.0916856     
  -42003627.9615421     
  -42019535.1615946     
  -42034922.9455757     
  -42049795.3488329     
  -42064156.1845385     
  -42078009.0458304     
  -42091357.3011273     
  -42104204.1617306     
  -42116552.6646148     
  -42128405.7109594     
  -42139766.1643668     
  -42150636.9328509     
  -42161020.8594235     
  -42170920.9968481     
  -42180340.8943781     
  -42189283.8761651     
  -42197754.3104870     
  -42205757.2198834     
  -42213297.7725178     
  -42220381.7403826     
  -42227016.8135309     
  -42233208.2396406     
  -42238966.0754228     
  -42244300.9856172     
  -42249223.0923253     
  -42253752.6902482     
  -42257883.8284819     
  -41078401.9375188     
  -41109615.5600633     
  -41140098.6019917     
  -41169855.9329869     
  -41198893.1122436     
  -41227216.3047895     
  -41254832.2018345     
  -41281747.9438346     
  -41307971.0477281     
  -41333509.3359553     
  -41358370.8694711     
  -41382563.8819728     
  -41406096.7179194     
  -41428977.7719540     
  -41451215.4303705     
  -41472818.0148267     
  -41493793.7278398     
  -41514150.6002549     
  -41533896.4392234     
  -41553038.7812370     
  -41571584.8398768     
  -41589541.4658714     
  -41606915.1001840     
  -41623711.7306208     
  -41639936.8451161     
  -41655595.4253162     
  -41670691.8778573     
  -41685230.0138941     
  -41699213.0460545     
  -41712643.6224902     
  -41725523.6309259     
  -41737854.4116339     
  -41749636.7764625     
  -41760870.8386071     
  -41771556.0710343     
  -41781692.1102676     
  -41791278.0185501     
  -41800311.8761854     
  -41808794.0890764     
  -41816723.0408487     
  -41824097.6523458     
  -41830920.1204138     
  -41837194.1332260     
  -41842920.2778430     
  -41848112.1948270     
  -41852769.3073276     
  -41856895.1891956     
  -41860504.1762950     
  -41863583.3338315     
  -41866214.1129972     
  -40668835.0442382     
  -40702086.5156929     
  -40734476.7330988     
  -40766016.1946376     
  -40796716.0513899     
  -40826588.0073562     
  -40855644.2234247     
  -40883897.2284484     
  -40911359.8308621     
  -40938045.0389616     
  -40963965.9798222     
  -40989135.8264179     
  -41013567.7221146     
  -41037274.7108472     
  -41060269.6688640     
  -41082565.2367540     
  -41104173.7534347     
  -41125107.1891661     
  -41145377.0827971     
  -41164994.4687133     
  -41183969.8298920     
  -41202313.0056211     
  -41220033.1381111     
  -41237138.6165634     
  -41253637.0251712     
  -41269534.9518065     
  -41284838.0731584     
  -41299551.0479938     
  -41313677.3326046     
  -41327218.9722126     
  -41340177.2769121     
  -41352551.8458767     
  -41364340.5341369     
  -41375540.3007698     
  -41386146.9563591     
  -41396152.4578340     
  -41405548.7286690     
  -41414329.3235991     
  -41422477.9422437     
  -41429986.6430209     
  -41436846.3416091     
  -41443038.4373226     
  -41448546.3387238     
  -41453375.2633103     
  -41457493.9274162     
  -41460935.6009090     
  -41463720.2596813     
  -41465826.0351940     
  -41467336.6902370     
  -41468046.2356929     
  -40257496.2261555     
  -40292659.3804780     
  -40326810.5322794     
  -40359968.3442555     
  -40392151.9608066     
  -40423380.9005930     
  -40453674.9603238     
  -40483054.1169790     
  -40511538.4496433     
  -40539148.0465418     
  -40565902.9348176     
  -40591822.9938440     
  -40616927.8906056     
  -40641237.0029573     
  -40664769.3474303     
  -40687543.5123689     
  -40709577.5850657     
  -40730889.0888247     
  -40751494.9063623     
  -40771411.2302810     
  -40790653.4124236     
  -40809235.9997256     
  -40827172.5923295     
  -40844475.6896648     
  -40861156.5720608     
  -40877225.6763477     
  -40892691.8008797     
  -40907562.1159807     
  -40921842.5654142     
  -40935538.0208971     
  -40948649.1813123     
  -40961176.2325542     
  -40973118.3408359     
  -40984469.5025761     
  -40995219.7040505     
  -41005364.4994779     
  -41014888.4932841     
  -41023761.1692308     
  -41031980.1266980     
  -41039501.3374670     
  -41046280.2643605     
  -41052302.7767475     
  -41057536.1763937     
  -41061862.0959957     
  -41065309.6407676     
  -41067706.2544626     
  -41069005.1734507     
  -41069385.2315117     
  -41068636.2003353     
  -41067419.1551847     
  -39848083.5438741     
  -39884833.4231510     
  -39920404.5137773     
  -39954826.2529798     
  -39988128.2149577     
  -40020340.0304807     
  -40051491.2977824     
  -40081611.5218975     
  -40110730.0035323     
  -40138875.8088571     
  -40166077.6668213     
  -40192363.9428420     
  -40217762.5422480     
  -40242300.8713221     
  -40266005.7773234     
  -40288903.4735770     
  -40311019.5023580     
  -40332378.6426195     
  -40353004.8586062     
  -40372921.1795194     
  -40392149.9408176     
  -40410712.2190402     
  -40428628.0058956     
  -40445916.4493112     
  -40462595.7127462     
  -40478681.0189898     
  -40494187.4751569     
  -40509129.4203802     
  -40523517.7963309     
  -40537359.4614427     
  -40550668.2648245     
  -40563448.7035922     
  -40575697.4706036     
  -40587419.6221543     
  -40598620.6585500     
  -40609269.4641082     
  -40619363.2455489     
  -40628931.6457227     
  -40637872.0620057     
  -40646213.9144446     
  -40653950.2516105     
  -40660934.8705558     
  -40667085.4037772     
  -40672607.3785590     
  -40677069.3497909     
  -40680629.8359077     
  -40682817.5826791     
  -40682381.4054544     
  -40680006.4104857     
  -40674309.9902991     
  -39444915.7018278     
  -39482662.8281614     
  -39519056.4627492     
  -39554138.9984364     
  -39587952.5165078     
  -39620538.6970325     
  -39651938.7770381     
  -39682193.4407875     
  -39711342.9180763     
  -39739426.7757253     
  -39766484.0154554     
  -39792552.8972771     
  -39817671.0291266     
  -39841875.2368936     
  -39865201.5605270     
  -39887685.2916626     
  -39909360.8009646     
  -39930261.6380789     
  -39950420.4979056     
  -39969869.2839062     
  -39988637.8444445     
  -40006756.0895288     
  -40024252.9559176     
  -40041154.8815586     
  -40057486.4135568     
  -40073277.3121788     
  -40088550.1735663     
  -40103322.5845754     
  -40117618.3186719     
  -40131467.4537423     
  -40144863.4069826     
  -40157828.6735781     
  -40170404.5416523     
  -40182582.6425970     
  -40194340.1173906     
  -40205776.3917692     
  -40216857.1589199     
  -40227429.2585223     
  -40237825.0248710     
  -40247842.2511320     
  -40257380.6728398     
  -40266735.2090352     
  -40275797.8814830     
  -40283355.9476817     
  -40290762.5475089     
  -40297575.5922065     
  -40305704.1898872     
  -40320289.1634234     
  -40363513.1730183     
  -40411037.2712641     
  -39052750.2535167     
  -39090584.8499685     
  -39126895.0850673     
  -39161737.8423134     
  -39195168.9532022     
  -39227243.2955320     
  -39258014.7774763     
  -39287536.5388462     
  -39315860.3995082     
  -39343037.5429603     
  -39369117.9634006     
  -39394150.9420934     
  -39418184.5682460     
  -39441266.1251407     
  -39463441.8344582     
  -39484756.5497353     
  -39505254.5322260     
  -39524978.8800389     
  -39543971.3000139     
  -39562272.0670946     
  -39579924.7865073     
  -39596967.0573624     
  -39613434.3926214     
  -39629367.0242990     
  -39644806.2947546     
  -39659767.3012735     
  -39674289.3944080     
  -39688426.6249018     
  -39702198.2100699     
  -39715593.0630996     
  -39728733.9681445     
  -39741617.1183043     
  -39754165.2710272     
  -39766503.8664712     
  -39778803.2679602     
  -39790755.8263503     
  -39802543.7161862     
  -39814684.0918452     
  -39825853.5242791     
  -39836816.4237410     
  -39848084.7987986     
  -39859129.7628152     
  -39871110.8074114     
  -39888667.5094281     
  -39928749.4627323     
  -39974897.4201321     
  -40030844.2188331     
  -40110481.0004040     
  -40208335.0821633     
  -40308690.0161009     
  -38676508.0501696     
  -38713164.7465758     
  -38748144.9140240     
  -38781519.5474534     
  -38813358.5153281     
  -38843730.2597871     
  -38872701.7585642     
  -38900337.8634799     
  -38926703.3910037     
  -38951860.3391731     
  -38975870.1807057     
  -38998792.3118933     
  -39020685.8377057     
  -39041607.9208399     
  -39061615.1898301     
  -39080764.8135619     
  -39099110.3463975     
  -39116704.1728824     
  -39133599.5425599     
  -39149849.7884260     
  -39165489.8192704     
  -39180575.5446883     
  -39195167.9246083     
  -39209301.4927532     
  -39223000.1746844     
  -39236383.1925018     
  -39249464.9453132     
  -39262197.0426962     
  -39274679.5326755     
  -39287127.4937441     
  -39299234.3060550     
  -39311172.2531880     
  -39323344.4458552     
  -39335318.2821380     
  -39346524.7200546     
  -39358303.9323527     
  -39370333.8141279     
  -39381397.1219542     
  -39396933.0756725     
  -39415384.3600458     
  -39455863.7230579     
  -39496694.0063898     
  -39543768.5135774     
  -39612702.4033151     
  -39696065.9914560     
  -39783578.2692679     
  -39872817.2602822     
  -39964635.2342154     
  -40053395.7891689     
  -40141683.7706981     
  -38320931.6345741     
  -38354782.5478907     
  -38386837.8463086     
  -38417183.7338107     
  -38445902.5746952     
  -38473074.1076220     
  -38498776.2410404     
  -38523087.5108339     
  -38546079.5518371     
  -38567828.6128634     
  -38588406.1738503     
  -38607884.0994289     
  -38626328.6809848     
  -38643808.3864781     
  -38660387.3630845     
  -38676122.1434215     
  -38691082.0904387     
  -38705337.8225190     
  -38718947.0276623     
  -38731959.7779813     
  -38744492.2685952     
  -38756565.7614154     
  -38768173.1703982     
  -38779422.0757940     
  -38790470.3159674     
  -38801102.6758695     
  -38811495.7065006     
  -38822042.8336856     
  -38832496.6986445     
  -38842160.4303855     
  -38852402.1329188     
  -38862909.0765824     
  -38872697.9716256     
  -38883983.1373695     
  -38899109.7472952     
  -38927221.9748431     
  -38962197.8189818     
  -38995131.2842692     
  -39043513.1748725     
  -39102888.4213769     
  -39176976.3041219     
  -39252948.9960391     
  -39331364.2813697     
  -39413599.6436022     
  -39494620.1644665     
  -39576217.6876484     
  -39657122.1730947     
  -39736227.4040846     
  -39815016.0823624     
  -39893300.9818587     
  -37990204.6402305     
  -38019284.4766322     
  -38046504.7301131     
  -38071956.2138153     
  -38095732.0015593     
  -38117924.2627664     
  -38138621.1929900     
  -38157900.1332673     
  -38175856.4510920     
  -38192558.2569549     
  -38208086.4914457     
  -38222518.6310946     
  -38235946.9489546     
  -38248442.5694573     
  -38260085.8605212     
  -38270978.8991310     
  -38281154.3232542     
  -38290634.4333034     
  -38299515.0184432     
  -38307934.3970290     
  -38315763.0360343     
  -38323238.2498832     
  -38330690.8446700     
  -38337926.0180208     
  -38344492.0307960     
  -38351438.8540158     
  -38358485.7535527     
  -38364637.4188706     
  -38371434.1120144     
  -38381951.9897019     
  -38403806.0880447     
  -38431127.4469458     
  -38456169.4418360     
  -38487540.3966083     
  -38534405.0196455     
  -38590579.7450103     
  -38653139.3922835     
  -38717725.1267744     
  -38786462.3473392     
  -38858792.2453655     
  -38930439.9698059     
  -39003958.1092773     
  -39077503.4067110     
  -39149887.2104008     
  -39222160.6869979     
  -39293933.2732412     
  -39365925.1802814     
  -39438503.7952231     
  -39510941.0873347     
  -39582957.1258545     
  -37687594.4189014     
  -37709704.6534625     
  -37729927.9228935     
  -37748375.5064053     
  -37765144.3179288     
  -37780326.9939886     
  -37794023.5429125     
  -37806358.6412211     
  -37817373.3959751     
  -37827206.0248954     
  -37835927.3359683     
  -37843599.2101577     
  -37850232.7868968     
  -37855953.2221606     
  -37860852.7155398     
  -37864926.3026376     
  -37868455.6437376     
  -37871722.3448226     
  -37874587.9126246     
  -37876691.7710910     
  -37878830.7783763     
  -37880513.9373747     
  -37880978.0701266     
  -37881671.9762116     
  -37885260.7440514     
  -37903160.9535981     
  -37920636.3719320     
  -37935793.3980522     
  -37954836.1893842     
  -37988870.2889857     
  -38031146.7303530     
  -38079193.4974972     
  -38129442.8123046     
  -38183576.9477566     
  -38242657.0366535     
  -38303239.0501493     
  -38365738.6705890     
  -38430249.5632079     
  -38495054.3856979     
  -38559734.3556352     
  -38625037.5630504     
  -38690248.3828815     
  -38756020.8886656     
  -38822601.7844030     
  -38889435.0195529     
  -38956345.3859085     
  -39022896.0236850     
  -39089040.7296909     
  -39155056.6600990     
  -39221153.7627510     
  -37415298.2131949     
  -37427947.6676954     
  -37438831.5765539     
  -37448032.7204915     
  -37455646.6106901     
  -37461756.3306402     
  -37466404.5832819     
  -37469569.2169542     
  -37471564.1032889     
  -37472312.2102772     
  -37472003.6364391     
  -37470868.4694365     
  -37469227.2459542     
  -37466794.8434007     
  -37463437.2731578     
  -37459555.0486173     
  -37454486.5228467     
  -37447739.5971674     
  -37440822.4555909     
  -37441729.3197715     
  -37450120.2752636     
  -37456045.3400196     
  -37459657.2878362     
  -37466438.7921078     
  -37486099.1312158     
  -37515643.1242199     
  -37547525.0350214     
  -37581693.9535374     
  -37619764.9389441     
  -37663121.6027084     
  -37708806.6262623     
  -37757319.4722160     
  -37808968.5948955     
  -37862412.0766191     
  -37916716.9691174     
  -37972383.4671835     
  -38028996.6453953     
  -38086404.7711312     
  -38144977.3989752     
  -38204598.8707197     
  -38264788.3440045     
  -38325466.8229609     
  -38386282.9741713     
  -38447081.3264055     
  -38508055.9911485     
  -38569333.1694151     
  -38631139.0108305     
  -38693477.2137697     
  -38756276.5634826     
  -38819451.3757779     
  -37173854.6735084     
  -37174858.1684851     
  -37174045.0231746     
  -37171548.2025398     
  -37167512.5394687     
  -37162141.7631579     
  -37155729.3339696     
  -37148631.7443382     
  -37139860.3834912     
  -37130054.4121756     
  -37118894.5536646     
  -37105979.1877493     
  -37090935.6523184     
  -37078143.5070256     
  -37076742.1220749     
  -37072753.1909866     
  -37066428.8276323     
  -37057798.5375685     
  -37052300.8022963     
  -37060158.3269441     
  -37073677.2520286     
  -37088079.0744224     
  -37104497.4661016     
  -37124525.7863398     
  -37149544.6556360     
  -37176466.1616932     
  -37207239.2951129     
  -37241562.0555244     
  -37278506.0547687     
  -37317275.0433807     
  -37358360.1132748     
  -37401418.9575982     
  -37446195.0786809     
  -37492842.4195100     
  -37541389.9351826     
  -37591497.3151020     
  -37643015.6239653     
  -37695723.0543377     
  -37749268.2931079     
  -37803487.7669004     
  -37858471.9122400     
  -37914177.3636997     
  -37970599.8748755     
  -38027734.4793722     
  -38085421.6392256     
  -38143617.7732729     
  -38202362.9818095     
  -38261474.0821900     
  -38320831.0355916     
  -38380404.8056516     
  -36964528.4014238     
  -36951678.5048386     
  -36937231.6668095     
  -36921185.1985076     
  -36903407.4856257     
  -36883612.1893304     
  -36861465.2241117     
  -36839423.4475161     
  -36826736.4836788     
  -36812670.8089319     
  -36796296.9586778     
  -36777666.0722370     
  -36756679.7810321     
  -36741685.3704238     
  -36738770.1663142     
  -36735439.1551342     
  -36732565.5465873     
  -36731174.4619287     
  -36732779.0275158     
  -36737598.7920423     
  -36744643.6704334     
  -36755224.3293372     
  -36769006.2946028     
  -36785423.0696230     
  -36803936.2297619     
  -36825286.5147691     
  -36848962.3306072     
  -36875024.9520419     
  -36903604.6262876     
  -36934756.0646017     
  -36968205.4834694     
  -37003926.1855471     
  -37041858.0268736     
  -37081831.0889185     
  -37123660.3796193     
  -37167218.7719742     
  -37212414.5293556     
  -37259241.2690145     
  -37307690.4722656     
  -37357695.2829642     
  -37409019.2849714     
  -37461552.8154692     
  -37515191.8396155     
  -37569666.0020689     
  -37624905.2609070     
  -37680595.1584443     
  -37736068.4366992     
  -37791137.2174770     
  -37845667.7373510     
  -37899669.0128244     
  -36785044.5169974     
  -36759073.8613417     
  -36734453.2501929     
  -36708937.2883596     
  -36681318.2711520     
  -36651456.3698997     
  -36619364.9669080     
  -36586159.9077061     
  -36565861.1546161     
  -36546345.6048181     
  -36526348.6659631     
  -36506506.3195224     
  -36487829.8683684     
  -36471335.5740109     
  -36456201.6027546     
  -36443783.4142364     
  -36433901.1504001     
  -36426419.0269126     
  -36421026.1933035     
  -36417668.0910401     
  -36416758.2363731     
  -36418059.6069006     
  -36421756.8690900     
  -36428013.1381271     
  -36436951.7576001     
  -36448352.1022887     
  -36462306.6344355     
  -36478811.9054686     
  -36497838.6171865     
  -36519379.4018277     
  -36543470.7502573     
  -36570037.8297415     
  -36599008.5869721     
  -36630367.5939606     
  -36664147.0517662     
  -36700382.5117414     
  -36739067.6009484     
  -36780041.4660374     
  -36823206.2249871     
  -36868426.8839667     
  -36915588.2760665     
  -36964436.0132991     
  -37014606.6691460     
  -37065820.4403913     
  -37117566.5627135     
  -37169649.8131598     
  -37222557.7088149     
  -37276469.7643046     
  -37331780.9110081     
  -37388983.2071466     
  -36695383.2311902     
  -36645932.7841770     
  -36604365.1475897     
  -36564820.5196138     
  -36524432.0977901     
  -36484104.3381217     
  -36444336.5609495     
  -36405477.4958605     
  -36367878.7112037     
  -36332451.3509176     
  -36299006.9967639     
  -36267482.2061857     
  -36237885.0449685     
  -36210003.8614782     
  -36184097.9851981     
  -36160043.3678308     
  -36138075.5459136     
  -36118353.5944968     
  -36100996.9175052     
  -36086068.3207061     
  -36073472.7461416     
  -36063258.6651215     
  -36055483.7677104     
  -36050191.4783593     
  -36047392.0122070     
  -36047185.1238485     
  -36049604.5511429     
  -36054664.0008047     
  -36062411.1969581     
  -36072843.2459984     
  -36085960.7462039     
  -36101877.8434653     
  -36120678.7576192     
  -36142418.1087679     
  -36167129.8292803     
  -36194787.1854469     
  -36225323.1050394     
  -36258761.6470141     
  -36294989.4374236     
  -36333868.6769116     
  -36375312.5650178     
  -36419272.2603470     
  -36465717.8677793     
  -36514546.5035875     
  -36566053.0563759     
  -36620358.9316002     
  -36677046.5660292     
  -36735666.7141486     
  -36795143.3339876     
  -36853141.6256361     
  -36697934.0756469     
  -36626395.5355802     
  -36554978.2262148     
  -36485652.8471636     
  -36420251.6555128     
  -36356947.3857490     
  -36296373.3538398     
  -36238391.8218752     
  -36183016.8522158     
  -36129870.8906695     
  -36079208.4035531     
  -36031074.2515606     
  -35985461.7214468     
  -35942379.1577538     
  -35901636.4501603     
  -35863293.4729808     
  -35827372.3972989     
  -35793904.1788612     
  -35762897.0107728     
  -35734402.7312122     
  -35708488.0271575     
  -35685174.0396134     
  -35664475.7488520     
  -35646462.9558021     
  -35631170.9853387     
  -35618598.6958375     
  -35608735.1870459     
  -35601664.3143552     
  -35597448.4784958     
  -35596150.6542197     
  -35597894.8406049     
  -35602725.1256215     
  -35610709.5914608     
  -35621899.8588571     
  -35636388.2021923     
  -35654263.0342748     
  -35675554.0429212     
  -35700341.4584365     
  -35728752.2726945     
  -35760890.2948762     
  -35796797.6451332     
  -35836494.0260343     
  -35880151.6416401     
  -35928290.4798784     
  -35980563.4675653     
  -36036201.7689500     
  -36094329.0139368     
  -36153874.6259001     
  -36214677.9008828     
  -36279713.6085302     
  -36722582.3840326     
  -36606447.3840053     
  -36503641.2915014     
  -36408663.4723566     
  -36313353.9384593     
  -36225116.0573635     
  -36141102.8141443     
  -36060895.0412452     
  -35984193.0544669     
  -35911572.8250867     
  -35842066.1848111     
  -35775608.3863092     
  -35712046.2602413     
  -35651222.2308358     
  -35593222.6513765     
  -35538108.2507033     
  -35485940.4066889     
  -35436766.1227104     
  -35390622.0942122     
  -35347541.3772452     
  -35307533.4979591     
  -35270608.5227897     
  -35236771.4187628     
  -35206017.7010498     
  -35178345.6958660     
  -35153775.7559960     
  -35132307.8107508     
  -35113996.7193217     
  -35098845.3852256     
  -35086830.1872919     
  -35077997.7749544     
  -35072397.9183034     
  -35070133.4130366     
  -35071305.5341771     
  -35076011.4097496     
  -35084343.9938587     
  -35096516.3583049     
  -35112827.6678849     
  -35133486.0721918     
  -35158720.4118089     
  -35188780.5395197     
  -35223872.1499048     
  -35263929.1979343     
  -35308369.4297430     
  -35357345.5655893     
  -35411815.7636939     
  -35472270.5202387     
  -35539131.9594717     
  -35611808.4703069     
  -35681884.0275951     
  -36673540.5840840     
  -36553194.3435378     
  -36416228.4552483     
  -36283770.0470570     
  -36180946.1865545     
  -36073101.3642747     
  -35967821.5286875     
  -35865744.6449273     
  -35766495.9989730     
  -35667332.5912050     
  -35571777.5683047     
  -35479921.3997384     
  -35391978.1630867     
  -35308314.5259691     
  -35228922.6368492     
  -35154028.4515666     
  -35083613.1123704     
  -35017597.1782883     
  -34955878.1360147     
  -34898367.1092947     
  -34844981.2050431     
  -34795616.8135696     
  -34750172.9735707     
  -34708552.5252864     
  -34670653.3682875     
  -34636356.7606589     
  -34605606.0176342     
  -34578365.9938090     
  -34554612.4865534     
  -34534306.7067781     
  -34517446.4176315     
  -34504067.3267152     
  -34494187.2985302     
  -34487864.0295834     
  -34485202.6714865     
  -34486287.5375390     
  -34491225.6489365     
  -34500210.5003496     
  -34513523.5877456     
  -34531478.4694295     
  -34554391.7756213     
  -34582650.0079096     
  -34616747.5477490     
  -34657204.2110197     
  -34704159.1016021     
  -34757558.5592455     
  -34818188.2555468     
  -34887152.0509968     
  -34966307.1479683     
  -35067690.9292713     
  -37633744.2447526     
  -37163883.3268754     
  -36732674.9056773     
  -36348468.1429228     
  -36103102.7485031     
  -35939676.2964892     
  -35773178.5025071     
  -35614976.3718374     
  -35466403.5787329     
  -35325936.2134647     
  -35191705.2569079     
  -35066066.2387377     
  -34950133.9230933     
  -34842897.1117880     
  -34743414.7691314     
  -34651204.9157172     
  -34565643.1472166     
  -34486391.2723645     
  -34413045.2332681     
  -34345244.0876946     
  -34282682.5760180     
  -34225093.1474152     
  -34172225.2293423     
  -34123878.7094726     
  -34079883.5034758     
  -34040096.9023489     
  -34004381.3799936     
  -33972614.1946845     
  -33944699.1058227     
  -33920561.3642591     
  -33900143.3203040     
  -33883440.8522357     
  -33870437.7183605     
  -33861139.5328130     
  -33855598.7089577     
  -33853875.3263239     
  -33855994.3572403     
  -33862118.4590365     
  -33872424.4052774     
  -33887162.0434044     
  -33906677.2653004     
  -33931370.7133443     
  -33961799.1453368     
  -33998734.2391011     
  -34043182.4211065     
  -34096324.4657252     
  -34158780.5400171     
  -34233294.9741879     
  -34320965.7681916     
  -34418180.8678835     
SCALARS 2waySource double 
LOOKUP_TABLE default
  4.298072683793756E-005
  3.860093213050510E-005
  3.446559645355078E-005
  3.029376747943772E-005
  2.457297630277247E-005
  2.031013424286372E-005
  1.614310504567752E-005
  1.201539085895821E-005
  7.988117407793584E-006
  4.055604674014813E-006
  2.558320069378535E-007
 -3.430522177337814E-006
 -6.999421444108429E-006
 -1.047782773950592E-005
 -1.376127797007491E-005
 -1.693414033861945E-005
 -1.996968248311367E-005
 -2.285048474125512E-005
 -2.556763700934411E-005
 -2.810232158210279E-005
 -3.041856295260475E-005
 -3.261428095963228E-005
 -3.462267160007369E-005
 -3.637835438574247E-005
 -3.789039194353926E-005
 -3.917065515709468E-005
 -4.026258204717177E-005
 -4.111375086822550E-005
 -4.173858867941710E-005
 -4.215922426310265E-005
 -4.239654160242843E-005
 -4.247341897140744E-005
 -4.240447513770382E-005
 -4.220241804040237E-005
 -4.190380088377383E-005
 -4.144811825959235E-005
 -4.089462289631755E-005
 -4.024026746469924E-005
 -3.940484534353176E-005
 -3.848232964730609E-005
 -3.741791140472369E-005
 -3.619227457947044E-005
 -3.478204652557963E-005
 -3.315635693422484E-005
 -3.127528305666257E-005
 -2.909429811919158E-005
 -2.659746955682666E-005
 -2.361531474431784E-005
 -2.013677841921633E-005
 -1.653443443609449E-005
  3.398400713139634E-005
  3.166217762895258E-005
  2.918573642035496E-005
  2.598117799647987E-005
  2.302457761927442E-005
  1.996136098138004E-005
  1.690534856088325E-005
  1.389463904238925E-005
  1.095243260881645E-005
  8.075553178968063E-006
  5.317490520677267E-006
  2.649169007513418E-006
  5.507530107765978E-008
 -2.460997465673217E-006
 -4.848716075472416E-006
 -7.161344210238840E-006
 -9.407065094263369E-006
 -1.156955690356237E-005
 -1.365854055288583E-005
 -1.566111366059410E-005
 -1.756847944427647E-005
 -1.939066749437036E-005
 -2.110258124211931E-005
 -2.267250037346146E-005
 -2.408178206961677E-005
 -2.531459832999951E-005
 -2.635576054460226E-005
 -2.718694741452341E-005
 -2.780660063606921E-005
 -2.822220180873575E-005
 -2.845060777140861E-005
 -2.850336674607918E-005
 -2.839838298920324E-005
 -2.815353510755863E-005
 -2.778068555304529E-005
 -2.729254765281026E-005
 -2.668727435752382E-005
 -2.596642374773196E-005
 -2.513240977965877E-005
 -2.416448699674226E-005
 -2.305153140230017E-005
 -2.177480809242705E-005
 -2.030724392721534E-005
 -1.861715841165704E-005
 -1.667183450943118E-005
 -1.444015517555348E-005
 -1.191505546634388E-005
 -9.062390881085121E-006
 -6.005515351128360E-006
 -3.622262119220173E-006
  1.859653322176459E-005
  1.839467198472264E-005
  1.766926797788052E-005
  1.696806807728925E-005
  1.621247819655534E-005
  1.550273875670151E-005
  1.473548013049897E-005
  1.385680996403584E-005
  1.286589438568950E-005
  1.177701804277180E-005
  1.060580723340455E-005
  9.374291894979533E-006
  8.073100640253242E-006
  6.712444515434438E-006
  5.303756556593952E-006
  3.857393171914018E-006
  2.372334601733462E-006
  8.578974155744894E-007
 -6.952107371543781E-007
 -2.283294671710660E-006
 -3.904448149401534E-006
 -5.540821513901017E-006
 -7.171155245855611E-006
 -8.760710033225138E-006
 -1.027015854030849E-005
 -1.165332591804353E-005
 -1.287413815580602E-005
 -1.390206458603610E-005
 -1.470943567940071E-005
 -1.527899559002139E-005
 -1.560855756384175E-005
 -1.570684085892569E-005
 -1.559550564357720E-005
 -1.530060472942603E-005
 -1.484818336030655E-005
 -1.425597102241841E-005
 -1.353392928932642E-005
 -1.268660135484382E-005
 -1.171280942479781E-005
 -1.060469901940118E-005
 -9.342561747070162E-006
 -7.910298496466779E-006
 -6.295036283187095E-006
 -4.482028971161415E-006
 -2.461155692718258E-006
 -2.308368413430499E-007
  2.201497042389858E-006
  4.807708003452233E-006
  7.250601349287724E-006
  8.755867368089905E-006
  2.194946932119161E-006
  3.012772213336661E-006
  5.489511375464814E-006
  8.399459534241565E-006
  1.116260387537049E-005
  1.340538675645230E-005
  1.514036690701486E-005
  1.645494974971726E-005
  1.735416271171292E-005
  1.787110794765364E-005
  1.810678883226368E-005
  1.802828557220356E-005
  1.770477326216158E-005
  1.721427611784958E-005
  1.659150004928163E-005
  1.586145469552345E-005
  1.502256552003669E-005
  1.404351205937175E-005
  1.294241046286501E-005
  1.170071105496118E-005
  1.033699939962398E-005
  8.865647510096523E-006
  7.316104824698395E-006
  5.713386649788358E-006
  4.097336251765875E-006
  2.493738536827911E-006
  9.547724815187456E-007
 -4.500125175729326E-007
 -1.651536022146644E-006
 -2.600752047824371E-006
 -3.257438335328774E-006
 -3.610063905706795E-006
 -3.671332077698756E-006
 -3.457349437867846E-006
 -2.989016458783140E-006
 -2.301729838043315E-006
 -1.441356347953834E-006
 -4.300967180677280E-007
  7.315847044813471E-007
  2.036454746088007E-006
  3.476570288247414E-006
  5.054259779152024E-006
  6.774542284949132E-006
  8.623404650209066E-006
  1.059242388292103E-005
  1.266896994338171E-005
  1.483205928564202E-005
  1.705460843158031E-005
  1.926581140829850E-005
  2.059518407823505E-005
 -1.786621184953061E-005
 -4.552964343629008E-006
  4.878880494630977E-006
  1.143249019367273E-005
  1.596484683022889E-005
  1.960956765988298E-005
  2.248804830650406E-005
  2.456489370668268E-005
  2.618624579819076E-005
  2.745019907832461E-005
  2.806496955985088E-005
  2.848762491995417E-005
  2.882298289231778E-005
  2.896874184921965E-005
  2.893705820844505E-005
  2.867220933322919E-005
  2.820781934492039E-005
  2.756075524926624E-005
  2.668597067549532E-005
  2.571899646106603E-005
  2.468157174380764E-005
  2.355877092197726E-005
  2.226720589563771E-005
  2.080710799700871E-005
  1.914712950476652E-005
  1.736455051723037E-005
  1.557286075607609E-005
  1.382637869849711E-005
  1.215375630378467E-005
  1.063067361981639E-005
  9.304824158829908E-006
  8.281250319769257E-006
  7.675611819442738E-006
  7.510146866185859E-006
  7.753749069579502E-006
  8.352111022976827E-006
  9.277893990147047E-006
  1.047882528330097E-005
  1.185080392945145E-005
  1.334874929807454E-005
  1.495213740937820E-005
  1.663986061919059E-005
  1.839000183725647E-005
  2.021126645011626E-005
  2.208440003011448E-005
  2.400171917560531E-005
  2.595596667246335E-005
  2.795380774731906E-005
  2.997605395591350E-005
  3.146759687900304E-005
  1.809464938788952E-005
  2.447137379174034E-005
  2.819337288289150E-005
  3.091458758900043E-005
  3.298571210896219E-005
  3.507774958288594E-005
  3.695343926963463E-005
  3.833596858520600E-005
  3.852456927147901E-005
  3.816431949705470E-005
  3.947633109475086E-005
  4.083884350604000E-005
  4.159430887562304E-005
  4.200758198912855E-005
  4.186725092938949E-005
  4.141031767103213E-005
  4.075670593157231E-005
  4.007232716975123E-005
  3.976483959501666E-005
  3.939107606271892E-005
  3.881002340088806E-005
  3.800133348954935E-005
  3.712181675064318E-005
  3.591170450548826E-005
  3.454971296845810E-005
  3.310588441190594E-005
  3.137417422831147E-005
  2.936795766170229E-005
  2.722472082312621E-005
  2.494688237108270E-005
  2.280527144523010E-005
  2.091720359351326E-005
  1.933131171501513E-005
  1.821994994268231E-005
  1.764874722901760E-005
  1.773134330592827E-005
  1.841274211419303E-005
  1.951839359880051E-005
  2.099882512759461E-005
  2.270716915590892E-005
  2.451457214194796E-005
  2.632037262398775E-005
  2.814322192881247E-005
  2.997052250513739E-005
  3.182253059685188E-005
  3.369692918379405E-005
  3.557249018471238E-005
  3.742132715441262E-005
  3.925724408087356E-005
  4.095787367161997E-005
  5.313753534793713E-005
  4.796927213208148E-005
  4.425538706734699E-005
  4.180877574524675E-005
  4.032778340527028E-005
  4.006484834713879E-005
  4.055260014896597E-005
  4.158776083210194E-005
  4.222406643325059E-005
  4.331348491244717E-005
  4.569226859277905E-005
  4.846345151575856E-005
  5.001152852628607E-005
  5.002373694789791E-005
  5.040232320605549E-005
  5.095637344731480E-005
  5.153378313511765E-005
  5.208018472911477E-005
  5.297502034661164E-005
  5.300378024228680E-005
  5.253292464517301E-005
  5.170022346817010E-005
  5.035112694273797E-005
  5.020320459225165E-005
  5.033539534159429E-005
  4.949176253985391E-005
  4.793015689165513E-005
  4.573394932105497E-005
  4.297141409974074E-005
  4.051889501677709E-005
  3.803646246840041E-005
  3.551451283247612E-005
  3.296899895945888E-005
  3.035496459558044E-005
  2.849980120320207E-005
  2.732423804658532E-005
  2.663198285139030E-005
  2.676852377087422E-005
  2.761978898329219E-005
  2.913251065904285E-005
  3.099072549643403E-005
  3.320016933601389E-005
  3.547080995604098E-005
  3.765506234744305E-005
  3.968673711707572E-005
  4.157730900300762E-005
  4.337476359051187E-005
  4.518790419225065E-005
  4.699424155352386E-005
  4.878454717068872E-005
  6.782724409225781E-005
  6.437624244951726E-005
  6.116221653926053E-005
  5.834577562180662E-005
  5.599712356453329E-005
  5.400622774749825E-005
  5.240674547270268E-005
  5.111741828987614E-005
  4.961924771055885E-005
  4.855581494233449E-005
  4.787457749284272E-005
  4.758889078830515E-005
  4.709727122325834E-005
  4.623467407737751E-005
  4.591508413439854E-005
  4.597702597027088E-005
  4.637723868337152E-005
  4.720292836145788E-005
  4.871152176975171E-005
  4.995285874347993E-005
  5.134207185735036E-005
  5.303613927179021E-005
  5.498523922697208E-005
  5.734015118745375E-005
  5.766023403290746E-005
  5.824128850366236E-005
  5.888297543959301E-005
  5.933541941321168E-005
  5.915418499305013E-005
  5.786367478068329E-005
  5.576642311022012E-005
  5.215274215471866E-005
  4.891956305415115E-005
  4.728643367484495E-005
  4.385639214508865E-005
  3.958701157402760E-005
  3.675736979792834E-005
  3.469332164128014E-005
  3.341541732345045E-005
  3.275641329875643E-005
  3.400038089790474E-005
  3.607072882358027E-005
  3.870158290476201E-005
  4.163822197672239E-005
  4.444096706083984E-005
  4.683816043796166E-005
  4.905730156877087E-005
  5.103471699468136E-005
  5.300757503051269E-005
  5.494548426446301E-005
  7.187183052194008E-005
  7.025862409718099E-005
  6.862617213113015E-005
  6.700931554440635E-005
  6.544059376108121E-005
  6.397089777336024E-005
  6.259384769962614E-005
  6.131595714558372E-005
  6.025160335980382E-005
  5.923757019307472E-005
  5.829599859913583E-005
  5.739353298256333E-005
  5.654613540479841E-005
  5.577201540869722E-005
  5.506326011340633E-005
  5.449429576431395E-005
  5.408327369198206E-005
  5.380761516299531E-005
  5.358330185261556E-005
  5.314361362147835E-005
  5.279445812116009E-005
  5.269168881208274E-005
  5.289748029424730E-005
  5.313388023754877E-005
  5.271404508124138E-005
  5.290106169064063E-005
  5.352160942193778E-005
  5.457209153494453E-005
  5.601335631290019E-005
  5.733436272815608E-005
  5.945234401225412E-005
  6.191085163493042E-005
  6.112256389459957E-005
  6.116968670050528E-005
  6.064923571739758E-005
  5.823237870460565E-005
  5.472334986132541E-005
  4.910286017457157E-005
  4.374665526283356E-005
  4.198537311029763E-005
  3.831124191444095E-005
  3.652631853371959E-005
  3.702003170989537E-005
  3.870008544788984E-005
  4.173969970826646E-005
  4.639094244424853E-005
  5.055759963799262E-005
  5.413566596450711E-005
  5.663848043853516E-005
  5.856958085014882E-005
  7.531239725097329E-005
  7.428410993494467E-005
  7.325964649556303E-005
  7.224142400485130E-005
  7.123606220200079E-005
  7.024618988537964E-005
  6.928685930408918E-005
  6.836775856244455E-005
  6.746680033340181E-005
  6.662349381539163E-005
  6.582471905940810E-005
  6.507774585370337E-005
  6.438188540363777E-005
  6.373783148656858E-005
  6.315174968839848E-005
  6.260886294327476E-005
  6.210583495345234E-005
  6.163984137212556E-005
  6.121511047543280E-005
  6.088809208297414E-005
  6.059058058278144E-005
  6.030492358637083E-005
  6.001212107302991E-005
  5.970141855129046E-005
  5.941328358925849E-005
  5.911865535961149E-005
  5.892824016519629E-005
  5.887703665354952E-005
  5.892268432201950E-005
  5.847500312350502E-005
  5.831031229995033E-005
  5.869741495174750E-005
  5.796214507584837E-005
  5.775681720991800E-005
  5.850636666371244E-005
  5.928703894290009E-005
  6.060518630007264E-005
  6.260193881214055E-005
  6.005573207274937E-005
  5.804461894490912E-005
  5.466014730368026E-005
  4.861823210380815E-005
  4.098130557432087E-005
  3.627935336513139E-005
  3.596438197226948E-005
  3.581999512009923E-005
  4.053596604786294E-005
  4.651244603932378E-005
  5.276830092785481E-005
  5.840637776500696E-005
  7.818833592079376E-005
  7.753660445577336E-005
  7.686156043748762E-005
  7.617348165372084E-005
  7.547937517735635E-005
  7.478610147537133E-005
  7.409669745038201E-005
  7.341436939584451E-005
  7.274955855775244E-005
  7.209747396814313E-005
  7.146660851063951E-005
  7.085801786693320E-005
  7.027349473557901E-005
  6.971363447911478E-005
  6.917713884254151E-005
  6.866685593696366E-005
  6.818208196308185E-005
  6.772312430271360E-005
  6.728997419817493E-005
  6.686784482390291E-005
  6.646836910900771E-005
  6.608656647304156E-005
  6.572211789173144E-005
  6.537938344317425E-005
  6.505243350607475E-005
  6.475226875088811E-005
  6.445453076459214E-005
  6.415034530952503E-005
  6.383465373654118E-005
  6.364676869829383E-005
  6.340614030373432E-005
  6.305954180805526E-005
  6.271255009346873E-005
  6.232043112938991E-005
  6.202707135690798E-005
  6.163560602407089E-005
  6.083762989719618E-005
  6.076825723268158E-005
  5.934985893779671E-005
  5.821203727812006E-005
  5.806002940441256E-005
  5.727269574501512E-005
  5.761541320906313E-005
  5.095406738216791E-005
  4.555134225983055E-005
  3.725499972066112E-005
  2.882557644081113E-005
  2.514764477589093E-005
  3.150155167363613E-005
  4.102131148013231E-005
  8.070845212296538E-005
  8.024711943532911E-005
  7.976884292425836E-005
  7.927632819546636E-005
  7.877313145509289E-005
  7.826246007700024E-005
  7.774797706206063E-005
  7.723298720716487E-005
  7.671858319950561E-005
  7.620903554866609E-005
  7.570463729651320E-005
  7.520737724800756E-005
  7.471854997632307E-005
  7.423922303070779E-005
  7.377042840284021E-005
  7.331188678119304E-005
  7.286391733463459E-005
  7.242590612665183E-005
  7.199646054730184E-005
  7.157768920902188E-005
  7.116568884972069E-005
  7.076140494495026E-005
  7.036380574733446E-005
  6.996955668979410E-005
  6.957746590216180E-005
  6.918177643083762E-005
  6.878471761972726E-005
  6.838449148384567E-005
  6.798192684328255E-005
  6.753926274890044E-005
  6.709202359666283E-005
  6.664397047109196E-005
  6.616995330719787E-005
  6.568189490008836E-005
  6.513396623587422E-005
  6.456267959998707E-005
  6.405009348977912E-005
  6.332190284689773E-005
  6.249929571743949E-005
  6.159113660646128E-005
  6.075210757443819E-005
  5.886127861635219E-005
  5.772534986384777E-005
  5.391206778745173E-005
  5.051913084624854E-005
  4.569587335775842E-005
  4.157562174530591E-005
  2.771990873429687E-005
  1.587613302845198E-005
  5.790499631460687E-007
  8.278388563778380E-005
  8.243155098822837E-005
  8.206645841935572E-005
  8.169065377795536E-005
  8.130583520631464E-005
  8.091372096269530E-005
  8.051582140636430E-005
  8.011353905312159E-005
  7.970861332814037E-005
  7.930179841453565E-005
  7.889463779630105E-005
  7.848792913877926E-005
  7.808241117177148E-005
  7.767863089850729E-005
  7.727688490351191E-005
  7.687748057981022E-005
  7.648026003872691E-005
  7.608507437166233E-005
  7.569182980956659E-005
  7.529931781597801E-005
  7.490743830608567E-005
  7.451442793124775E-005
  7.411881579407044E-005
  7.371949056690003E-005
  7.331443231738002E-005
  7.290242617968406E-005
  7.248010348608789E-005
  7.204476432622932E-005
  7.159155359827654E-005
  7.112525215379316E-005
  7.063348591586307E-005
  7.011109456439177E-005
  6.955645421629798E-005
  6.895743065678863E-005
  6.831743382640552E-005
  6.761915000114783E-005
  6.682773903744332E-005
  6.599472117577907E-005
  6.507214775345910E-005
  6.403527177751041E-005
  6.279252167434602E-005
  6.159304312198132E-005
  5.995333428965507E-005
  5.804597178183135E-005
  5.584225728979133E-005
  5.253369769085843E-005
  4.881658187915968E-005
  4.058732402091491E-005
  3.068688039205909E-005
  1.529420633736152E-005
  8.428839398160600E-005
  8.400952201625627E-005
  8.372311379097676E-005
  8.342961628939413E-005
  8.312965693597900E-005
  8.282388246350725E-005
  8.251298101006262E-005
  8.219764661089073E-005
  8.187843933799963E-005
  8.155608174334960E-005
  8.123099519454009E-005
  8.090368857989847E-005
  8.057454590558908E-005
  8.024385355326524E-005
  7.991180629042665E-005
  7.957844657288527E-005
  7.924377880473408E-005
  7.890762942867888E-005
  7.856960567799338E-005
  7.822939446482655E-005
  7.788622553029311E-005
  7.753956951679777E-005
  7.718859766282530E-005
  7.683217136318727E-005
  7.646917777878327E-005
  7.609806462215191E-005
  7.571750133382495E-005
  7.532567627555533E-005
  7.492129980536240E-005
  7.450025077076207E-005
  7.406186705814286E-005
  7.360322435237967E-005
  7.312069829721056E-005
  7.261284978872049E-005
  7.207328127847393E-005
  7.149964860704892E-005
  7.089429284740459E-005
  7.023700463205976E-005
  6.952984009601441E-005
  6.876702362846092E-005
  6.796589375811025E-005
  6.705211552836249E-005
  6.613515971816184E-005
  6.515039109136777E-005
  6.406449873739881E-005
  6.303971030825285E-005
  6.188163515065715E-005
  6.073087046981692E-005
  5.990663963677756E-005
  5.865984921795715E-005
  8.513310959017831E-005
  8.492176957669653E-005
  8.470546486116250E-005
  8.448429569910953E-005
  8.425840667545132E-005
  8.402800978361697E-005
  8.379335541659085E-005
  8.355471518644387E-005
  8.331239871439365E-005
  8.306666503018289E-005
  8.281782311423870E-005
  8.256611668931959E-005
  8.231177244555685E-005
  8.205498088087774E-005
  8.179588650929418E-005
  8.153459340945029E-005
  8.127112977717229E-005
  8.100547961284320E-005
  8.073759495826042E-005
  8.046731759373793E-005
  8.019450852397900E-005
  7.991887140784051E-005
  7.964009609733215E-005
  7.935785741785803E-005
  7.907172864317985E-005
  7.878130882068326E-005
  7.848608074562365E-005
  7.818559500098761E-005
  7.787914056883322E-005
  7.756668429462285E-005
  7.724742247273464E-005
  7.692115344792256E-005
  7.658776853028072E-005
  7.624670211226975E-005
  7.589889506984550E-005
  7.554467784653743E-005
  7.518331750555054E-005
  7.482030239832070E-005
  7.445698734985584E-005
  7.409852841414321E-005
  7.374413013724906E-005
  7.341962040201765E-005
  7.310713675242222E-005
  7.283761557339509E-005
  7.264583165008882E-005
  7.253192503212567E-005
  7.260658780283416E-005
  7.290995392509003E-005
  7.342677852363006E-005
  7.445430702396942E-005
  8.530354173069877E-005
  8.516380405454793E-005
  8.501958881882060E-005
  8.487095823460654E-005
  8.471802997319086E-005
  8.456095684991778E-005
  8.439992243190567E-005
  8.423513542361173E-005
  8.406681489657043E-005
  8.389520253258582E-005
  8.372052927016301E-005
  8.354303778505332E-005
  8.336296246759153E-005
  8.318052977925456E-005
  8.299595633181603E-005
  8.280944486990549E-005
  8.262119157262816E-005
  8.243137776940595E-005
  8.224016649633072E-005
  8.204772423018724E-005
  8.185419238715194E-005
  8.165973671148622E-005
  8.146451691342145E-005
  8.126869746433375E-005
  8.107248142890926E-005
  8.087609109139794E-005
  8.067981621804929E-005
  8.048398703595547E-005
  8.028910656495604E-005
  8.009562893338912E-005
  7.990433281730922E-005
  7.971604119200916E-005
  7.953183793566895E-005
  7.935324894040239E-005
  7.918181819256261E-005
  7.901971900145201E-005
  7.887011707466841E-005
  7.873544886293601E-005
  7.862001578380165E-005
  7.852813638134296E-005
  7.846753128276010E-005
  7.844066027687578E-005
  7.846341372194806E-005
  7.854239047601553E-005
  7.868520046627780E-005
  7.890950851581310E-005
  7.920339206953623E-005
  7.956862358401503E-005
  8.001981110001507E-005
  8.047251059083700E-005
  8.485119923155198E-005
  8.478624955455651E-005
  8.471593929038049E-005
  8.464053378904917E-005
  8.456030514376506E-005
  8.447553538266754E-005
  8.438651478882164E-005
  8.429354021418968E-005
  8.419691608757576E-005
  8.409694884143250E-005
  8.399395283322360E-005
  8.388824252119469E-005
  8.378013636497803E-005
  8.366995553477422E-005
  8.355802419070536E-005
  8.344467087683139E-005
  8.333022786447301E-005
  8.321503512793049E-005
  8.309944442534985E-005
  8.298381790125062E-005
  8.286854038567138E-005
  8.275401351076720E-005
  8.264067134642079E-005
  8.252898664394900E-005
  8.241947327157991E-005
  8.231270423101291E-005
  8.220931566801926E-005
  8.211003214134049E-005
  8.201564715504030E-005
  8.192710486610685E-005
  8.184543908179219E-005
  8.177186959375700E-005
  8.170777460963754E-005
  8.165468759327544E-005
  8.161444551263771E-005
  8.158908772483894E-005
  8.158077408639232E-005
  8.159226234251336E-005
  8.162634123745833E-005
  8.168635374106531E-005
  8.177516685776314E-005
  8.189750926417238E-005
  8.205494361809458E-005
  8.225113279129784E-005
  8.248904256409576E-005
  8.276813159546675E-005
  8.309439339591957E-005
  8.346968579962001E-005
  8.389051784443205E-005
  8.438137379505596E-005
  8.386793796690966E-005
  8.387503488087397E-005
  8.387552578132856E-005
  8.386988600625565E-005
  8.385857382855453E-005
  8.384203300435220E-005
  8.382069600178284E-005
  8.379498673799388E-005
  8.376532217490016E-005
  8.373211532551153E-005
  8.369577530422710E-005
  8.365671082205788E-005
  8.361533068200488E-005
  8.357204590714949E-005
  8.352727160219301E-005
  8.348142887342834E-005
  8.343494764478907E-005
  8.338826881914543E-005
  8.334184681592688E-005
  8.329615408043329E-005
  8.325168276691430E-005
  8.320895161474887E-005
  8.316850813214087E-005
  8.313093399627854E-005
  8.309685209315780E-005
  8.306693041695822E-005
  8.304189003669097E-005
  8.302250823890744E-005
  8.300963557211565E-005
  8.300418593878137E-005
  8.300716181839973E-005
  8.301964210005950E-005
  8.304280081908195E-005
  8.307791600937811E-005
  8.312633927695098E-005
  8.318952025268224E-005
  8.326903302690793E-005
  8.336644634096269E-005
  8.348343183237861E-005
  8.362158101940517E-005
  8.378265212548136E-005
  8.396784537884962E-005
  8.417902346424386E-005
  8.441737432629019E-005
  8.468403316599891E-005
  8.498083592385527E-005
  8.530771952325118E-005
  8.566525097717288E-005
  8.605534980576227E-005
  8.647144644330846E-005
  8.245825756371215E-005
  8.252834230834670E-005
  8.259092383447933E-005
  8.264661013662798E-005
  8.269597888214614E-005
  8.273958218262494E-005
  8.277795052289139E-005
  8.281159627847003E-005
  8.284101710446681E-005
  8.286669861942769E-005
  8.288911755240493E-005
  8.290874383267301E-005
  8.292604333767042E-005
  8.294148012306438E-005
  8.295551874319362E-005
  8.296862658961081E-005
  8.298127608557589E-005
  8.299394713770329E-005
  8.300712966192765E-005
  8.302132576838161E-005
  8.303705283160774E-005
  8.305484544144676E-005
  8.307525868856138E-005
  8.309887076154728E-005
  8.312628525490424E-005
  8.315813428181094E-005
  8.319508056300994E-005
  8.323782066837336E-005
  8.328708389221260E-005
  8.334363777500709E-005
  8.340828422693350E-005
  8.348186341806150E-005
  8.356524833311990E-005
  8.365934026083679E-005
  8.376507129876944E-005
  8.388339158954715E-005
  8.401524919823995E-005
  8.416160687409397E-005
  8.432339876661271E-005
  8.450155976252380E-005
  8.469693055498814E-005
  8.491043817573556E-005
  8.514276569071999E-005
  8.539465612692928E-005
  8.566674618668701E-005
  8.595932873791057E-005
  8.627298554830050E-005
  8.660796779344787E-005
  8.696384820434906E-005
  8.734236590234390E-005
  8.071891865128245E-005
  8.083859070719145E-005
  8.095055672529307E-005
  8.105545222623350E-005
  8.115388256530021E-005
  8.124642652242164E-005
  8.133363971442506E-005
  8.141605775254342E-005
  8.149419911106351E-005
  8.156856789819940E-005
  8.163965627585294E-005
  8.170794694287750E-005
  8.177391527843059E-005
  8.183803148887597E-005
  8.190076261091546E-005
  8.196257442144979E-005
  8.202393330949791E-005
  8.208530802843473E-005
  8.214717136670616E-005
  8.221000184942959E-005
  8.227428515182329E-005
  8.234051570896186E-005
  8.240919788620097E-005
  8.248084718137538E-005
  8.255599130057830E-005
  8.263517078953189E-005
  8.271893958489585E-005
  8.280786481521177E-005
  8.290252732120213E-005
  8.300351979541983E-005
  8.311144648431954E-005
  8.322692018450096E-005
  8.335056061147033E-005
  8.348299141319051E-005
  8.362483444868375E-005
  8.377670631436776E-005
  8.393921665544890E-005
  8.411295627498336E-005
  8.429849909109466E-005
  8.449638471887951E-005
  8.470713621792642E-005
  8.493119988585300E-005
  8.516901807741227E-005
  8.542094505989967E-005
  8.568727450114128E-005
  8.596829682706185E-005
  8.626413403819005E-005
  8.657487839737182E-005
  8.690072445979803E-005
  8.724115353003244E-005
  7.872839169239168E-005
  7.888250721864290E-005
  7.902944182832728E-005
  7.916977251685715E-005
  7.930405300742969E-005
  7.943281602554563E-005
  7.955657545596353E-005
  7.967582840414681E-005
  7.979105717512536E-005
  7.990273112601422E-005
  8.001130846260212E-005
  8.011723788443760E-005
  8.022096018802687E-005
  8.032290974421621E-005
  8.042351589713985E-005
  8.052320427257413E-005
  8.062239798371115E-005
  8.072151875082129E-005
  8.082098792403391E-005
  8.092122737016224E-005
  8.102266029226588E-005
  8.112571184473919E-005
  8.123080968117373E-005
  8.133838429308715E-005
  8.144886915322549E-005
  8.156270070567248E-005
  8.168031808247996E-005
  8.180216269465962E-005
  8.192867724352837E-005
  8.206030495000708E-005
  8.219748798061699E-005
  8.234066608880908E-005
  8.249027446867437E-005
  8.264674151587269E-005
  8.281048681678303E-005
  8.298191835363485E-005
  8.316142868981319E-005
  8.334939341416911E-005
  8.354616595969216E-005
  8.375207730122143E-005
  8.396742543057214E-005
  8.419248656255614E-005
  8.442749197492424E-005
  8.467264392652452E-005
  8.492810610057885E-005
  8.519398404769920E-005
  8.547036309857847E-005
  8.575727483700041E-005
  8.605464722959936E-005
  8.636253338218357E-005
  7.654440000429704E-005
  7.671825362308782E-005
  7.688603301426727E-005
  7.704820327633653E-005
  7.720521561475199E-005
  7.735750827631723E-005
  7.750550751477306E-005
  7.764962856423051E-005
  7.779027660335108E-005
  7.792784771035246E-005
  7.806272978177262E-005
  7.819530343104905E-005
  7.832594283236895E-005
  7.845501652579658E-005
  7.858288816443206E-005
  7.870991720130448E-005
  7.883645951224381E-005
  7.896286794401548E-005
  7.908949278150520E-005
  7.921668213536857E-005
  7.934478222278613E-005
  7.947413756457570E-005
  7.960509105324844E-005
  7.973798391465401E-005
  7.987315554691190E-005
  8.001094321557247E-005
  8.015168162244383E-005
  8.029570229600673E-005
  8.044333292276182E-005
  8.059489640296222E-005
  8.075070988648134E-005
  8.091108354353675E-005
  8.107631932206832E-005
  8.124670953116882E-005
  8.142253519802372E-005
  8.160406440783897E-005
  8.179155081347329E-005
  8.198523147220311E-005
  8.218532550310633E-005
  8.239203142305596E-005
  8.260552744446674E-005
  8.282596585999818E-005
  8.305347643244090E-005
  8.328816031690612E-005
  8.353008993329395E-005
  8.377931236723516E-005
  8.403583842431277E-005
  8.429964848694042E-005
  8.457070849236274E-005
  8.484890569442069E-005
  7.420628065712566E-005
  7.438701043625099E-005
  7.456314282656505E-005
  7.473500864546062E-005
  7.490293367317887E-005
  7.506723864368261E-005
  7.522823930952689E-005
  7.538624656677833E-005
  7.554156662646884E-005
  7.569450121671834E-005
  7.584534780803892E-005
  7.599439984525781E-005
  7.614194698313805E-005
  7.628827531092100E-005
  7.643366756122253E-005
  7.657840329447954E-005
  7.672275905138852E-005
  7.686700846759522E-005
  7.701142234448458E-005
  7.715626866788676E-005
  7.730181257427707E-005
  7.744831625164077E-005
  7.759603877971092E-005
  7.774523589798823E-005
  7.789615970048945E-005
  7.804905825763674E-005
  7.820417515782305E-005
  7.836174898156994E-005
  7.852201267439458E-005
  7.868519287673265E-005
  7.885150914975497E-005
  7.902117316205726E-005
  7.919438778303370E-005
  7.937134613107260E-005
  7.955223059756449E-005
  7.973721182741861E-005
  7.992644759958147E-005
  8.012008184933707E-005
  8.031824348199280E-005
  8.052104555779176E-005
  8.072858366436526E-005
  8.094093595769117E-005
  8.115816095637267E-005
  8.138029775191065E-005
  8.160736502802086E-005
  8.183935913264216E-005
  8.207625594115669E-005
  8.231800915878859E-005
  8.256454459296610E-005
  8.281577754486618E-005
  7.173926866618144E-005
  7.191652611049663E-005
  7.209082967324650E-005
  7.226237589126719E-005
  7.243136330604613E-005
  7.259799188213805E-005
  7.276246251366453E-005
  7.292497660605673E-005
  7.308573572109202E-005
  7.324494127528493E-005
  7.340279428032905E-005
  7.355949511779158E-005
  7.371524333766063E-005
  7.387023747419895E-005
  7.402467487076189E-005
  7.417875150705639E-005
  7.433266182263965E-005
  7.448659853072852E-005
  7.464075241700338E-005
  7.479531211930987E-005
  7.495046388278932E-005
  7.510639128868409E-005
  7.526327495148140E-005
  7.542129218368101E-005
  7.558061662565857E-005
  7.574141783871064E-005
  7.590386086207310E-005
  7.606810573005480E-005
  7.623430695944259E-005
  7.640261299384892E-005
  7.657316562331961E-005
  7.674609936718889E-005
  7.692154083855014E-005
  7.709960808496488E-005
  7.728040990876633E-005
  7.746404517453602E-005
  7.765060213344916E-005
  7.784015771054459E-005
  7.803277685199742E-005
  7.822851178902182E-005
  7.842740156300019E-005
  7.862947114085084E-005
  7.883473116039616E-005
  7.904317714949827E-005
  7.925478906473756E-005
  7.946953119897311E-005
  7.968735122132172E-005
  7.990818004447920E-005
  8.013193328148327E-005
  8.035850627435807E-005
  6.915887507595917E-005
  6.932496059188699E-005
  6.948974001878201E-005
  6.965328901415859E-005
  6.981569016675125E-005
  6.997703214040171E-005
  7.013740889693977E-005
  7.029691899015930E-005
  7.045566492290138E-005
  7.061375255944507E-005
  7.077129058625976E-005
  7.092839001383977E-005
  7.108516371350816E-005
  7.124172598276044E-005
  7.139819213366896E-005
  7.155467809890487E-005
  7.171130005060350E-005
  7.186817402746045E-005
  7.202541556624917E-005
  7.218313933375265E-005
  7.234145875635635E-005
  7.250048564402703E-005
  7.266032980684890E-005
  7.282109866177490E-005
  7.298289682834778E-005
  7.314582571240625E-005
  7.330998307693550E-005
  7.347546260107815E-005
  7.364235342500933E-005
  7.381073968539254E-005
  7.398070003862767E-005
  7.415230717713506E-005
  7.432562733727978E-005
  7.450071980351841E-005
  7.467763641150262E-005
  7.485642105409189E-005
  7.503710918592127E-005
  7.521972734582142E-005
  7.540429267810400E-005
  7.559081249710676E-005
  7.577928380379701E-005
  7.596969294318318E-005
  7.616201513566339E-005
  7.635621417496184E-005
  7.655224210408924E-005
  7.675003883405244E-005
  7.694953203110365E-005
  7.715063690209816E-005
  7.735325550300549E-005
  7.755727790649142E-005
  6.647450922797468E-005
  6.662418483136934E-005
  6.677409274625948E-005
  6.692420753838256E-005
  6.707451373270476E-005
  6.722500487846892E-005
  6.737568267785450E-005
  6.752655617339021E-005
  6.767764098921965E-005
  6.782895862145804E-005
  6.798053577297583E-005
  6.813240372808599E-005
  6.828459776273657E-005
  6.843715658613425E-005
  6.859012180979790E-005
  6.874353744034519E-005
  6.889744939259529E-005
  6.905190501973498E-005
  6.920695265763788E-005
  6.936264118075635E-005
  6.951901956706860E-005
  6.967613647019193E-005
  6.983403979672677E-005
  6.999277628742859E-005
  7.015239110105621E-005
  7.031292739986590E-005
  7.047442593639639E-005
  7.063692464079734E-005
  7.080045820944952E-005
  7.096505769407023E-005
  7.113075009286566E-005
  7.129755794351705E-005
  7.146549891980561E-005
  7.163458543257797E-005
  7.180482423647801E-005
  7.197621604333402E-005
  7.214875514622874E-005
  7.232242905175898E-005
  7.249721812804687E-005
  7.267309525904876E-005
  7.285002553358399E-005
  7.302796592058655E-005
  7.320686500264981E-005
  7.338666269795415E-005
  7.356729001471474E-005
  7.374866885611286E-005
  7.393071179327085E-005
  7.411332188371280E-005
  7.429639268349556E-005
  7.447980778213907E-005
  6.369212654033775E-005
  6.382226971894936E-005
  6.395400416284507E-005
  6.408722489555738E-005
  6.422183842252189E-005
  6.435776183296488E-005
  6.449492194920351E-005
  6.463325452073296E-005
  6.477270346052461E-005
  6.491322012075507E-005
  6.505476260528834E-005
  6.519729511623151E-005
  6.534078733193639E-005
  6.548521381380339E-005
  6.563055343950297E-005
  6.577678886014816E-005
  6.592390597923828E-005
  6.607189345119794E-005
  6.622074219758272E-005
  6.637044493916684E-005
  6.652099574219126E-005
  6.667238957739771E-005
  6.682462189052006E-005
  6.697768818309526E-005
  6.713158360275007E-005
  6.728630254213964E-005
  6.744183824597977E-005
  6.759818242590115E-005
  6.775532488267015E-005
  6.791325313599415E-005
  6.807195206179766E-005
  6.823140353735114E-005
  6.839158609452773E-005
  6.855247458170608E-005
  6.871403983495694E-005
  6.887624835935706E-005
  6.903906202057299E-005
  6.920243774855871E-005
  6.936632725278704E-005
  6.953067675301140E-005
  6.969542671896633E-005
  6.986051163354641E-005
  7.002585976189225E-005
  7.019139294486104E-005
  7.035702640820314E-005
  7.052266858213288E-005
  7.068822095300951E-005
  7.085357793366446E-005
  7.101862670072959E-005
  7.118324718991700E-005
  6.081599355263102E-005
  6.092519936635351E-005
  6.103714008573830E-005
  6.115165181621913E-005
  6.126858256616401E-005
  6.138779144529224E-005
  6.150914789636145E-005
  6.163253095904826E-005
  6.175782856476904E-005
  6.188493686112539E-005
  6.201375956460355E-005
  6.214420734011837E-005
  6.227619720597383E-005
  6.240965196276868E-005
  6.254449964491498E-005
  6.268067299331790E-005
  6.281810894789989E-005
  6.295674815869030E-005
  6.309653451429047E-005
  6.323741468653162E-005
  6.337933769033971E-005
  6.352225445777409E-005
  6.366611742545846E-005
  6.381088013459258E-005
  6.395649684284735E-005
  6.410292214770876E-005
  6.425011062067106E-005
  6.439801645201936E-005
  6.454659310592157E-005
  6.469579298564964E-005
  6.484556710888503E-005
  6.499586479310180E-005
  6.514663335114504E-005
  6.529781779713082E-005
  6.544936056295723E-005
  6.560120122557186E-005
  6.575327624555248E-005
  6.590551871706443E-005
  6.605785812997507E-005
  6.621022014364805E-005
  6.636252637488391E-005
  6.651469419673840E-005
  6.666663655338753E-005
  6.681826178703240E-005
  6.696947347917734E-005
  6.712017030854566E-005
  6.727024592055364E-005
  6.741958881044055E-005
  6.756808223734221E-005
  6.771560411575738E-005
  5.784976730428138E-005
  5.793796015144155E-005
  5.802980498509133E-005
  5.812509733420416E-005
  5.822364429574530E-005
  5.832526385429203E-005
  5.842978422361974E-005
  5.853704321009122E-005
  5.864688759742632E-005
  5.875917255242790E-005
  5.887376105108793E-005
  5.899052332456412E-005
  5.910933632430390E-005
  5.923008320573863E-005
  5.935265282979853E-005
  5.947693928159957E-005
  5.960284140557849E-005
  5.973026235644719E-005
  5.985910916525168E-005
  5.998929231994190E-005
  6.012072535985523E-005
  6.025332448352216E-005
  6.038700816933056E-005
  6.052169680854255E-005
  6.065731235024541E-005
  6.079377795793315E-005
  6.093101767730794E-005
  6.106895611513672E-005
  6.120751812892038E-005
  6.134662852718586E-005
  6.148621178039158E-005
  6.162619174229546E-005
  6.176649138182144E-005
  6.190703252546431E-005
  6.204773561024832E-005
  6.218851944739159E-005
  6.232930099677489E-005
  6.246999515234584E-005
  6.261051453862067E-005
  6.275076931862625E-005
  6.289066701294804E-005
  6.303011233100772E-005
  6.316900701355111E-005
  6.330724968757861E-005
  6.344473573346009E-005
  6.358135716379522E-005
  6.371700251544816E-005
  6.385155675484790E-005
  6.398490119124649E-005
  6.411691341293744E-005
  5.479708890486428E-005
  5.486517455875808E-005
  5.493760804301941E-005
  5.501415983512075E-005
  5.509461116129286E-005
  5.517875344153685E-005
  5.526638774808457E-005
  5.535732427752424E-005
  5.545138183670195E-005
  5.554838734242813E-005
  5.564817533501497E-005
  5.575058750553587E-005
  5.585547223662999E-005
  5.596268415676242E-005
  5.607208370768483E-005
  5.618353672480828E-005
  5.629691403033782E-005
  5.641209103882778E-005
  5.652894737490913E-005
  5.664736650289173E-005
  5.676723536802002E-005
  5.688844404907521E-005
  5.701088542210029E-005
  5.713445483501693E-005
  5.725904979290608E-005
  5.738456965380861E-005
  5.751091533480198E-005
  5.763798902829782E-005
  5.776569392837557E-005
  5.789393396709143E-005
  5.802261356068716E-005
  5.815163736564769E-005
  5.828091004460337E-005
  5.841033604203100E-005
  5.853981936982754E-005
  5.866926340276327E-005
  5.879857068384218E-005
  5.892764273967331E-005
  5.905637990591157E-005
  5.918468116280540E-005
  5.931244398104679E-005
  5.943956417784019E-005
  5.956593578348547E-005
  5.969145091837195E-005
  5.981599968056594E-005
  5.993947004415316E-005
  6.006174776819453E-005
  6.018271631616996E-005
  6.030225678761485E-005
  6.042024785791183E-005
  5.166185535120498E-005
  5.171142521855054E-005
  5.176583322370541E-005
  5.182483743707734E-005
  5.188820557742219E-005
  5.195571457546639E-005
  5.202715014463656E-005
  5.210230635936836E-005
  5.218098524135384E-005
  5.226299635401036E-005
  5.234815640553850E-005
  5.243628886066381E-005
  5.252722356126402E-005
  5.262079635604857E-005
  5.271684873928504E-005
  5.281522749866130E-005
  5.291578437231770E-005
  5.301837571502254E-005
  5.312286217348387E-005
  5.322910837075473E-005
  5.333698259971019E-005
  5.344635652551846E-005
  5.355710489706430E-005
  5.366910526729335E-005
  5.378223772238845E-005
  5.389638461973960E-005
  5.401143033469338E-005
  5.412726101600599E-005
  5.424376434997888E-005
  5.436082933327994E-005
  5.447834605442229E-005
  5.459620548387701E-005
  5.471429927286430E-005
  5.483251956081902E-005
  5.495075879152104E-005
  5.506890953799877E-005
  5.518686433615252E-005
  5.530451552720471E-005
  5.542175510897987E-005
  5.553847459611260E-005
  5.565456488916444E-005
  5.576991615280358E-005
  5.588441770299003E-005
  5.599795790329493E-005
  5.611042407042579E-005
  5.622170238889766E-005
  5.633167783500586E-005
  5.644023411021833E-005
  5.654725358353182E-005
  5.665261724393321E-005
  4.844829103211945E-005
  4.848138024012959E-005
  4.851961391847746E-005
  4.856274767825683E-005
  4.861054554436901E-005
  4.866277962553050E-005
  4.871922978677699E-005
  4.877968332511734E-005
  4.884393464875523E-005
  4.891178496035496E-005
  4.898304194481537E-005
  4.905751946182647E-005
  4.913503724357203E-005
  4.921542059786466E-005
  4.929850011695753E-005
  4.938411139220045E-005
  4.947209473479609E-005
  4.956229490276910E-005
  4.965456083431228E-005
  4.974874538761472E-005
  4.984470508728115E-005
  4.994229987744501E-005
  5.004139288163072E-005
  5.014185016943712E-005
  5.024354053015093E-005
  5.034633525326801E-005
  5.045010791602088E-005
  5.055473417797929E-005
  5.066009158269853E-005
  5.076605936654788E-005
  5.087251827468911E-005
  5.097935038430618E-005
  5.108643893508017E-005
  5.119366816699918E-005
  5.130092316552230E-005
  5.140808971416463E-005
  5.151505415452677E-005
  5.162170325382801E-005
  5.172792408003461E-005
  5.183360388453147E-005
  5.193862999250744E-005
  5.204288970100883E-005
  5.214627018474359E-005
  5.224865840970816E-005
  5.234994105462308E-005
  5.245000444026104E-005
  5.254873446670929E-005
  5.264601655855768E-005
  5.274173561815234E-005
  5.283577598673341E-005
  4.516090342915936E-005
  4.517979911953749E-005
  4.520398587987555E-005
  4.523322441264304E-005
  4.526728256902533E-005
  4.530593511084926E-005
  4.534896347186335E-005
  4.539615551891097E-005
  4.544730531357301E-005
  4.550221287481017E-005
  4.556068394299847E-005
  4.562252974585142E-005
  4.568756676659650E-005
  4.575561651475958E-005
  4.582650529991662E-005
  4.590006400867575E-005
  4.597612788518658E-005
  4.605453631545618E-005
  4.613513261566334E-005
  4.621776382469138E-005
  4.630228050106751E-005
  4.638853652453215E-005
  4.647638890232787E-005
  4.656569758039897E-005
  4.665632525965688E-005
  4.674813721737201E-005
  4.684100113388481E-005
  4.693478692468764E-005
  4.702936657801852E-005
  4.712461399804145E-005
  4.722040485370012E-005
  4.731661643336355E-005
  4.741312750528018E-005
  4.750981818400081E-005
  4.760656980277475E-005
  4.770326479202654E-005
  4.779978656396307E-005
  4.789601940338504E-005
  4.799184836477582E-005
  4.808715917567927E-005
  4.818183814649599E-005
  4.827577208667764E-005
  4.836884822742648E-005
  4.846095415091385E-005
  4.855197772607810E-005
  4.864180705103774E-005
  4.873033040214502E-005
  4.881743618978209E-005
  4.890301292079586E-005
  4.898694916778518E-005
  4.180437933812039E-005
  4.181147325940559E-005
  4.182386986707901E-005
  4.184134044919769E-005
  4.186366221758363E-005
  4.189061814695371E-005
  4.192199681120176E-005
  4.195759221743765E-005
  4.199720363828629E-005
  4.204063544295980E-005
  4.208769692758627E-005
  4.213820214523867E-005
  4.219196973605605E-005
  4.224882275790048E-005
  4.230858851784410E-005
  4.237109840489329E-005
  4.243618772420781E-005
  4.250369553318105E-005
  4.257346447959294E-005
  4.264534064212329E-005
  4.271917337346757E-005
  4.279481514628003E-005
  4.287212140213015E-005
  4.295095040371460E-005
  4.303116309045365E-005
  4.311262293765752E-005
  4.319519581948232E-005
  4.327874987570121E-005
  4.336315538256902E-005
  4.344828462779195E-005
  4.353401178980926E-005
  4.362021282146345E-005
  4.370676533815523E-005
  4.379354851064137E-005
  4.388044296248724E-005
  4.396733067236230E-005
  4.405409488116167E-005
  4.414062000412148E-005
  4.422679154794906E-005
  4.431249603305640E-005
  4.439762092095605E-005
  4.448205454689620E-005
  4.456568605776891E-005
  4.464840535536359E-005
  4.473010304500119E-005
  4.481067038960682E-005
  4.488999926923357E-005
  4.496798214612408E-005
  4.504451203528085E-005
  4.511948248062809E-005
  3.838345780561463E-005
  3.838113660842246E-005
  3.838401855370780E-005
  3.839188929345939E-005
  3.840453926492427E-005
  3.842176359287353E-005
  3.844336198762418E-005
  3.846913863941296E-005
  3.849890210953537E-005
  3.853246521877318E-005
  3.856964493359545E-005
  3.861026225047452E-005
  3.865414207883398E-005
  3.870111312291100E-005
  3.875100776300322E-005
  3.880366193633703E-005
  3.885891501797410E-005
  3.891660970204304E-005
  3.897659188353181E-005
  3.903871054101548E-005
  3.910281762049051E-005
  3.916876792059758E-005
  3.923641897949241E-005
  3.930563096349325E-005
  3.937626655783968E-005
  3.944819085960924E-005
  3.952127127311151E-005
  3.959537740781063E-005
  3.967038097903423E-005
  3.974615571155989E-005
  3.982257724621888E-005
  3.989952304972311E-005
  3.997687232773379E-005
  4.005450594137165E-005
  4.013230632725526E-005
  4.021015742115812E-005
  4.028794458539617E-005
  4.036555454003103E-005
  4.044287529798281E-005
  4.051979610411030E-005
  4.059620737836073E-005
  4.067200066303559E-005
  4.074706857423007E-005
  4.082130475754599E-005
  4.089460384805383E-005
  4.096686143463871E-005
  4.103797402870264E-005
  4.110783903729426E-005
  4.117635474070652E-005
  4.124342027452568E-005
  3.490280214000786E-005
  3.489336891554310E-005
  3.488895012295612E-005
  3.488934816016782E-005
  3.489436918659619E-005
  3.490382307567779E-005
  3.491752336237536E-005
  3.493528718612604E-005
  3.495693522969872E-005
  3.498229165435390E-005
  3.501118403178801E-005
  3.504344327321721E-005
  3.507890355597217E-005
  3.511740224802183E-005
  3.515877983073160E-005
  3.520287982019982E-005
  3.524954868748408E-005
  3.529863577804162E-005
  3.534999323064629E-005
  3.540347589607181E-005
  3.545894125577792E-005
  3.551624934089606E-005
  3.557526265168211E-005
  3.563584607771007E-005
  3.569786681899528E-005
  3.576119430825647E-005
  3.582570013448845E-005
  3.589125796805433E-005
  3.595774348741917E-005
  3.602503430774766E-005
  3.609300991145190E-005
  3.616155158088864E-005
  3.623054233328452E-005
  3.629986685807904E-005
  3.636941145672640E-005
  3.643906398514248E-005
  3.650871379885852E-005
  3.657825170098616E-005
  3.664756989307257E-005
  3.671656192898024E-005
  3.678512267178020E-005
  3.685314825384064E-005
  3.692053604006842E-005
  3.698718459444214E-005
  3.705299364986382E-005
  3.711786408136338E-005
  3.718169788271586E-005
  3.724439814652301E-005
  3.730586904775852E-005
  3.736601583082798E-005
  3.136688408297390E-005
  3.135250521063294E-005
  3.134288253492470E-005
  3.133783647380899E-005
  3.133719031285116E-005
  3.134077019656982E-005
  3.134840511440496E-005
  3.135992688166442E-005
  3.137517011589299E-005
  3.139397220901645E-005
  3.141617329568923E-005
  3.144161621811584E-005
  3.147014648779610E-005
  3.150161224445168E-005
  3.153586421246991E-005
  3.157275565522733E-005
  3.161214232748000E-005
  3.165388242622448E-005
  3.169783654021139E-005
  3.174386759842240E-005
  3.179184081770953E-005
  3.184162364989965E-005
  3.189308572853408E-005
  3.194609881548212E-005
  3.200053674762300E-005
  3.205627538382329E-005
  3.211319255234906E-005
  3.217116799893004E-005
  3.223008333560558E-005
  3.228982199056278E-005
  3.235026915906639E-005
  3.241131175565106E-005
  3.247283836771075E-005
  3.253473921059828E-005
  3.259690608436370E-005
  3.265923233226030E-005
  3.272161280107772E-005
  3.278394380345599E-005
  3.284612308224401E-005
  3.290804977697296E-005
  3.296962439256420E-005
  3.303074877031484E-005
  3.309132606122674E-005
  3.315126070177243E-005
  3.321045839210132E-005
  3.326882607678457E-005
  3.332627192812794E-005
  3.338270533205838E-005
  3.343803687666607E-005
  3.349217834340466E-005
  2.777988713156863E-005
  2.776255918349826E-005
  2.774967670867117E-005
  2.774107856493113E-005
  2.773660571936976E-005
  2.773610126853321E-005
  2.773941045316456E-005
  2.774638066782319E-005
  2.775686146571201E-005
  2.777070455908920E-005
  2.778776381555466E-005
  2.780789525054242E-005
  2.783095701634283E-005
  2.785680938790444E-005
  2.788531474576304E-005
  2.791633755633279E-005
  2.794974434983382E-005
  2.798540369612034E-005
  2.802318617866288E-005
  2.806296436690662E-005
  2.810461278724395E-005
  2.814800789282619E-005
  2.819302803241756E-005
  2.823955341848597E-005
  2.828746609475239E-005
  2.833664990334372E-005
  2.838699045175591E-005
  2.843837507979622E-005
  2.849069282663633E-005
  2.854383439816290E-005
  2.859769213475202E-005
  2.865215997960516E-005
  2.870713344778636E-005
  2.876250959607867E-005
  2.881818699377477E-005
  2.887406569451937E-005
  2.893004720928993E-005
  2.898603448063710E-005
  2.904193185826186E-005
  2.909764507598405E-005
  2.915308123026147E-005
  2.920814876022704E-005
  2.926275742940663E-005
  2.931681830909249E-005
  2.937024376351696E-005
  2.942294743676173E-005
  2.947484424158725E-005
  2.952585035007939E-005
  2.957588318623937E-005
  2.962486142051626E-005
  2.414563207215313E-005
  2.412716423872268E-005
  2.411279303097429E-005
  2.410237553095524E-005
  2.409577030602868E-005
  2.409283744942488E-005
  2.409343861545425E-005
  2.409743704965390E-005
  2.410469761425906E-005
  2.411508680919373E-005
  2.412847278890117E-005
  2.414472537531361E-005
  2.416371606716431E-005
  2.418531804597952E-005
  2.420940617891786E-005
  2.423585701877752E-005
  2.426454880136484E-005
  2.429536144045257E-005
  2.432817652057801E-005
  2.436287728784808E-005
  2.439934863902743E-005
  2.443747710901618E-005
  2.447715085700840E-005
  2.451825965142374E-005
  2.456069485385719E-005
  2.460434940219042E-005
  2.464911779301045E-005
  2.469489606352535E-005
  2.474158177310459E-005
  2.478907398458173E-005
  2.483727324548431E-005
  2.488608156929064E-005
  2.493540241682660E-005
  2.498514067797968E-005
  2.503520265374890E-005
  2.508549603882693E-005
  2.513592990475080E-005
  2.518641468372673E-005
  2.523686215320977E-005
  2.528718542138355E-005
  2.533729891348213E-005
  2.538711835917301E-005
  2.543656078092256E-005
  2.548554448353815E-005
  2.553398904483416E-005
  2.558181530751037E-005
  2.562894537228564E-005
  2.567530259234120E-005
  2.572081156903436E-005
  2.576539814901759E-005
  2.046752532272051E-005
  2.044953351095365E-005
  2.043526310494882E-005
  2.042458874524358E-005
  2.041738606251417E-005
  2.041353173123646E-005
  2.041290351829961E-005
  2.041538032683823E-005
  2.042084223554571E-005
  2.042917053369047E-005
  2.044024775210455E-005
  2.045395769032298E-005
  2.047018544017246E-005
  2.048881740597616E-005
  2.050974132163192E-005
  2.053284626473195E-005
  2.055802266798048E-005
  2.058516232805751E-005
  2.061415841216947E-005
  2.064490546243865E-005
  2.067729939833557E-005
  2.071123751732537E-005
  2.074661849388202E-005
  2.078334237707088E-005
  2.082131058681582E-005
  2.086042590902566E-005
  2.090059248974983E-005
  2.094171582844342E-005
  2.098370277052235E-005
  2.102646149935608E-005
  2.106990152774972E-005
  2.111393368909995E-005
  2.115847012832248E-005
  2.120342429262302E-005
  2.124871092226424E-005
  2.129424604139577E-005
  2.133994694901855E-005
  2.138573221023337E-005
  2.143152164777346E-005
  2.147723633395391E-005
  2.152279858309736E-005
  2.156813194447550E-005
  2.161316119583484E-005
  2.165781233760497E-005
  2.170201258776068E-005
  2.174569037744993E-005
  2.178877534739044E-005
  2.183119834509646E-005
  2.187289142291477E-005
  2.191378783698453E-005
  1.674852919833939E-005
  1.673243858574286E-005
  1.671967707010625E-005
  1.671013588994884E-005
  1.670370689871022E-005
  1.670028262551660E-005
  1.669975633131660E-005
  1.670202206057414E-005
  1.670697468874528E-005
  1.671450996576459E-005
  1.672452455566498E-005
  1.673691607261442E-005
  1.675158311351743E-005
  1.676842528736693E-005
  1.678734324154706E-005
  1.680823868527211E-005
  1.683101441030882E-005
  1.685557430918894E-005
  1.688182339105861E-005
  1.690966779532006E-005
  1.693901480326148E-005
  1.696977284777669E-005
  1.700185152137364E-005
  1.703516158257282E-005
  1.706961496085980E-005
  1.710512476032832E-005
  1.714160526212463E-005
  1.717897192584418E-005
  1.721714138997545E-005
  1.725603147151633E-005
  1.729556116488733E-005
  1.733565064021131E-005
  1.737622124111454E-005
  1.741719548209156E-005
  1.745849704555735E-005
  1.750005077865807E-005
  1.754178268995354E-005
  1.758361994598978E-005
  1.762549086789498E-005
  1.766732492803630E-005
  1.770905274680163E-005
  1.775060608957550E-005
  1.779191786396898E-005
  1.783292211731466E-005
  1.787355403454232E-005
  1.791374993639965E-005
  1.795344727812366E-005
  1.799258464852983E-005
  1.803110176961565E-005
  1.806893949664525E-005
  1.299115238886336E-005
  1.297820577534990E-005
  1.296818587167188E-005
  1.296099938718327E-005
  1.295655338025598E-005
  1.295475532121973E-005
  1.295551315113855E-005
  1.295873533654772E-005
  1.296433092037753E-005
  1.297220956917407E-005
  1.298228161683978E-005
  1.299445810500270E-005
  1.300865082021614E-005
  1.302477232812733E-005
  1.304273600477765E-005
  1.306245606518683E-005
  1.308384758934931E-005
  1.310682654583965E-005
  1.313130981309786E-005
  1.315721519861321E-005
  1.318446145607076E-005
  1.321296830063076E-005
  1.324265642247194E-005
  1.327344749871439E-005
  1.330526420381171E-005
  1.333803021861209E-005
  1.337167023809117E-005
  1.340610997797025E-005
  1.344127618024777E-005
  1.347709661779492E-005
  1.351350009808203E-005
  1.355041646614381E-005
  1.358777660687187E-005
  1.362551244671862E-005
  1.366355695487635E-005
  1.370184414405845E-005
  1.374030907088820E-005
  1.377888783602308E-005
  1.381751758403358E-005
  1.385613650314419E-005
  1.389468382485680E-005
  1.393309982351893E-005
  1.397132581590391E-005
  1.400930416081453E-005
  1.404697825880436E-005
  1.408429255198687E-005
  1.412119252401806E-005
  1.415762470028786E-005
  1.419353664827620E-005
  1.422887697819738E-005
  9.197458546897730E-006
  9.188728334593556E-006
  9.182517328111984E-006
  9.178746518524068E-006
  9.177337077656684E-006
  9.178210419230990E-006
  9.181288256246056E-006
  9.186492654847369E-006
  9.193746084737961E-006
  9.202971466326178E-006
  9.214092214711311E-006
  9.227032280649387E-006
  9.241716188663132E-006
  9.258069072357102E-006
  9.276016707150583E-006
  9.295485540499626E-006
  9.316402719744299E-006
  9.338696117714249E-006
  9.362294356205702E-006
  9.387126827457806E-006
  9.413123713710211E-006
  9.440216004999895E-006
  9.468335515278996E-006
  9.497414896951604E-006
  9.527387653972223E-006
  9.558188153548450E-006
  9.589751636603046E-006
  9.622014227044785E-006
  9.654912939971768E-006
  9.688385688870592E-006
  9.722371291903787E-006
  9.756809477383572E-006
  9.791640888465028E-006
  9.826807087190522E-006
  9.862250557920879E-006
  9.897914710214843E-006
  9.933743881253423E-006
  9.969683337831343E-006
  1.000567927800880E-005
  1.004167883245935E-005
  1.007763006556326E-005
  1.011348197629344E-005
  1.014918449895422E-005
  1.018468850378320E-005
  1.021994579750790E-005
  1.025490912380887E-005
  1.028953216379906E-005
  1.032376953650280E-005
  1.035757679937744E-005
  1.039091044887551E-005
  5.369090774874917E-006
  5.365492821418399E-006
  5.364004601141996E-006
  5.364560220307486E-006
  5.367093883284594E-006
  5.371539948595480E-006
  5.377832981731595E-006
  5.385907804883520E-006
  5.395699543674538E-006
  5.407143671049083E-006
  5.420176048367405E-006
  5.434732963882875E-006
  5.450751168640077E-006
  5.468167909970481E-006
  5.486920962646940E-006
  5.506948657810538E-006
  5.528189909796770E-006
  5.550584240918779E-006
  5.574071804354815E-006
  5.598593405207606E-006
  5.624090519846319E-006
  5.650505313602365E-006
  5.677780656957175E-006
  5.705860140253395E-006
  5.734688087062332E-006
  5.764209566273959E-006
  5.794370402992762E-006
  5.825117188306238E-006
  5.856397288049394E-006
  5.888158850574444E-006
  5.920350813646512E-006
  5.952922910523292E-006
  5.985825675271513E-006
  6.019010447399936E-006
  6.052429375859020E-006
  6.086035422476770E-006
  6.119782364886091E-006
  6.153624798963408E-006
  6.187518140885696E-006
  6.221418628814058E-006
  6.255283324242069E-006
  6.289070113095460E-006
  6.322737706552212E-006
  6.356245641691847E-006
  6.389554281965516E-006
  6.422624817497322E-006
  6.455419265318936E-006
  6.487900469479744E-006
  6.520032101081106E-006
  6.551778658307232E-006
  1.507309868134539E-006
  1.509617808434436E-006
  1.513625612764131E-006
  1.519279426440197E-006
  1.526525483760443E-006
  1.535310156345296E-006
  1.545579998779612E-006
  1.557281791620741E-006
  1.570362581866293E-006
  1.584769720982337E-006
  1.600450900580719E-006
  1.617354185809275E-006
  1.635428046606904E-006
  1.654621386818291E-006
  1.674883571336185E-006
  1.696164451329695E-006
  1.718414387626713E-006
  1.741584272360310E-006
  1.765625548938077E-006
  1.790490230441923E-006
  1.816130916519606E-006
  1.842500808833203E-006
  1.869553725191307E-006
  1.897244112367573E-006
  1.925527057736508E-006
  1.954358299789471E-006
  1.983694237553336E-006
  2.013491939046474E-006
  2.043709148771269E-006
  2.074304294374336E-006
  2.105236492457670E-006
  2.136465553679476E-006
  2.167951987120345E-006
  2.199657004054960E-006
  2.231542521094758E-006
  2.263571162817323E-006
  2.295706263887413E-006
  2.327911870751596E-006
  2.360152742910366E-006
  2.392394353835073E-006
  2.424602891560596E-006
  2.456745258975609E-006
  2.488789073877618E-006
  2.520702668772111E-006
  2.552455090502647E-006
  2.584016099695692E-006
  2.615356170049235E-006
  2.646446487506077E-006
  2.677258949319896E-006
  2.707766163026623E-006
 -2.386955656990039E-006
 -2.378096736547838E-006
 -2.367947990402991E-006
 -2.356552165989874E-006
 -2.343951869241644E-006
 -2.330189526004643E-006
 -2.315307345674975E-006
 -2.299347286994193E-006
 -2.282351025935044E-006
 -2.264359925594629E-006
 -2.245415008026843E-006
 -2.225556927972932E-006
 -2.204825948335430E-006
 -2.183261917426898E-006
 -2.160904247852313E-006
 -2.137791896987998E-006
 -2.113963348950749E-006
 -2.089456598060286E-006
 -2.064309133643538E-006
 -2.038557926167138E-006
 -2.012239414627231E-006
 -1.985389495123520E-006
 -1.958043510542452E-006
 -1.930236241329654E-006
 -1.902001897243700E-006
 -1.873374110064351E-006
 -1.844385927197750E-006
 -1.815069806090161E-006
 -1.785457609461527E-006
 -1.755580601235174E-006
 -1.725469443155975E-006
 -1.695154192039474E-006
 -1.664664297621858E-006
 -1.634028600911576E-006
 -1.603275333078194E-006
 -1.572432114776568E-006
 -1.541525955879815E-006
 -1.510583255616575E-006
 -1.479629803018065E-006
 -1.448690777714750E-006
 -1.417790750973239E-006
 -1.386953687011833E-006
 -1.356202944513193E-006
 -1.325561278349285E-006
 -1.295050841469158E-006
 -1.264693186941322E-006
 -1.234509270105516E-006
 -1.204519450876179E-006
 -1.174743496083140E-006
 -1.145200581944729E-006
 -6.313049496055804E-006
 -6.297110911126784E-006
 -6.280293603461114E-006
 -6.262629957977441E-006
 -6.244152115465529E-006
 -6.224891945414593E-006
 -6.204881020574204E-006
 -6.184150593226582E-006
 -6.162731573085285E-006
 -6.140654506789681E-006
 -6.117949558894667E-006
 -6.094646494355891E-006
 -6.070774662412064E-006
 -6.046362981790110E-006
 -6.021439927254710E-006
 -5.996033517351414E-006
 -5.970171303355291E-006
 -5.943880359325848E-006
 -5.917187273275510E-006
 -5.890118139304689E-006
 -5.862698550759339E-006
 -5.834953594259605E-006
 -5.806907844633685E-006
 -5.778585360643813E-006
 -5.750009681506808E-006
 -5.721203824115710E-006
 -5.692190280959998E-006
 -5.662991018662342E-006
 -5.633627477128438E-006
 -5.604120569237230E-006
 -5.574490681031732E-006
 -5.544757672401038E-006
 -5.514940878181944E-006
 -5.485059109669788E-006
 -5.455130656482295E-006
 -5.425173288761485E-006
 -5.395204259677147E-006
 -5.365240308185271E-006
 -5.335297662044099E-006
 -5.305392041038836E-006
 -5.275538660378786E-006
 -5.245752234284074E-006
 -5.216046979686980E-006
 -5.186436620080371E-006
 -5.156934389436029E-006
 -5.127553036222051E-006
 -5.098304827495238E-006
 -5.069201553026673E-006
 -5.040254529460186E-006
 -5.011474604526523E-006
 -1.027051895418121E-005
 -1.024707849394098E-005
 -1.022317328515475E-005
 -1.019882587410572E-005
 -1.017405842146578E-005
 -1.014889268782805E-005
 -1.012335002053650E-005
 -1.009745134171379E-005
 -1.007121713753379E-005
 -1.004466744859484E-005
 -1.001782186141411E-005
 -9.990699500969910E-006
 -9.963319024239584E-006
 -9.935698614728661E-006
 -9.907855977891039E-006
 -9.879808337429479E-006
 -9.851572432437729E-006
 -9.823164515323345E-006
 -9.794600350484147E-006
 -9.765895213669128E-006
 -9.737063892039945E-006
 -9.708120684825683E-006
 -9.679079404581009E-006
 -9.649953378988006E-006
 -9.620755453176308E-006
 -9.591497992511987E-006
 -9.562192885825470E-006
 -9.532851549058229E-006
 -9.503484929274049E-006
 -9.474103509011593E-006
 -9.444717310957824E-006
 -9.415335902883545E-006
 -9.385968402862457E-006
 -9.356623484673942E-006
 -9.327309383446346E-006
 -9.298033901440430E-006
 -9.268804413999177E-006
 -9.239627875616590E-006
 -9.210510826108665E-006
 -9.181459396873233E-006
 -9.152479317201176E-006
 -9.123575920644271E-006
 -9.094754151400879E-006
 -9.066018570717281E-006
 -9.037373363271071E-006
 -9.008822343562450E-006
 -8.980368962243918E-006
 -8.952016312426189E-006
 -8.923767135919498E-006
 -8.895623829413676E-006
 -1.425903907818193E-005
 -1.422777383330060E-005
 -1.419646320071241E-005
 -1.416512016447592E-005
 -1.413375715371381E-005
 -1.410238604190998E-005
 -1.407101814698882E-005
 -1.403966423220279E-005
 -1.400833450774446E-005
 -1.397703863306385E-005
 -1.394578571985407E-005
 -1.391458433566479E-005
 -1.388344250812692E-005
 -1.385236772972922E-005
 -1.382136696311863E-005
 -1.379044664693755E-005
 -1.375961270206259E-005
 -1.372887053833667E-005
 -1.369822506167790E-005
 -1.366768068154944E-005
 -1.363724131880500E-005
 -1.360691041380716E-005
 -1.357669093487598E-005
 -1.354658538695377E-005
 -1.351659582052597E-005
 -1.348672384074706E-005
 -1.345697061673204E-005
 -1.342733689102142E-005
 -1.339782298915582E-005
 -1.336842882939234E-005
 -1.333915393246835E-005
 -1.330999743146348E-005
 -1.328095808169669E-005
 -1.325203427064022E-005
 -1.322322402785258E-005
 -1.319452503489875E-005
 -1.316593463523407E-005
 -1.313744984405416E-005
 -1.310906735808200E-005
 -1.308078356527139E-005
 -1.305259455444127E-005
 -1.302449612478480E-005
 -1.299648379529030E-005
 -1.296855281400240E-005
 -1.294069816719286E-005
 -1.291291458835062E-005
 -1.288519656702254E-005
 -1.285753835750081E-005
 -1.282993398734493E-005
 -1.280237726570037E-005
 -1.827833058433332E-005
 -1.823901294898278E-005
 -1.820007770231464E-005
 -1.816152827422686E-005
 -1.812336735350082E-005
 -1.808559690164363E-005
 -1.804821816705418E-005
 -1.801123169951037E-005
 -1.797463736492541E-005
 -1.793843436034997E-005
 -1.790262122921226E-005
 -1.786719587675167E-005
 -1.783215558562578E-005
 -1.779749703167974E-005
 -1.776321629982770E-005
 -1.772930890006936E-005
 -1.769576978354645E-005
 -1.766259335871782E-005
 -1.762977350752104E-005
 -1.759730360161270E-005
 -1.756517651856323E-005
 -1.753338465805827E-005
 -1.750191995808488E-005
 -1.747077391101980E-005
 -1.743993757970441E-005
 -1.740940161339763E-005
 -1.737915626364667E-005
 -1.734919140004100E-005
 -1.731949652582649E-005
 -1.729006079340599E-005
 -1.726087301965104E-005
 -1.723192170106608E-005
 -1.720319502876611E-005
 -1.717468090326360E-005
 -1.714636694905362E-005
 -1.711824052898551E-005
 -1.709028875840628E-005
 -1.706249851907768E-005
 -1.703485647285560E-005
 -1.700734907510400E-005
 -1.697996258787461E-005
 -1.695268309279103E-005
 -1.692549650369275E-005
 -1.689838857898166E-005
 -1.687134493368313E-005
 -1.684435105122589E-005
 -1.681739229492567E-005
 -1.679045391916585E-005
 -1.676352108026730E-005
 -1.673657884707191E-005
 -2.232807247204896E-005
 -2.228056963974967E-005
 -2.223388873835336E-005
 -2.218802336728051E-005
 -2.214296619292110E-005
 -2.209870897761745E-005
 -2.205524260847895E-005
 -2.201255712602686E-005
 -2.197064175261448E-005
 -2.192948492066417E-005
 -2.188907430064331E-005
 -2.184939682880405E-005
 -2.181043873466757E-005
 -2.177218556820660E-005
 -2.173462222676555E-005
 -2.169773298167258E-005
 -2.166150150453333E-005
 -2.162591089320523E-005
 -2.159094369742743E-005
 -2.155658194414264E-005
 -2.152280716242132E-005
 -2.148960040806495E-005
 -2.145694228781947E-005
 -2.142481298322037E-005
 -2.139319227406812E-005
 -2.136205956150242E-005
 -2.133139389068536E-005
 -2.130117397309306E-005
 -2.127137820840792E-005
 -2.124198470598673E-005
 -2.121297130593363E-005
 -2.118431559975857E-005
 -2.115599495059789E-005
 -2.112798651303319E-005
 -2.110026725247860E-005
 -2.107281396413594E-005
 -2.104560329152565E-005
 -2.101861174458509E-005
 -2.099181571731980E-005
 -2.096519150504606E-005
 -2.093871532116556E-005
 -2.091236331351501E-005
 -2.088611158027609E-005
 -2.085993618544481E-005
 -2.083381317384678E-005
 -2.080771858571931E-005
 -2.078162847084558E-005
 -2.075551890224019E-005
 -2.072936598939339E-005
 -2.070314589106924E-005
 -2.640781008912116E-005
 -2.635208728021518E-005
 -2.629764118867951E-005
 -2.624445501113981E-005
 -2.619251082503704E-005
 -2.614178963312642E-005
 -2.609227140728705E-005
 -2.604393513163480E-005
 -2.599675884493571E-005
 -2.595071968232210E-005
 -2.590579391627329E-005
 -2.586195699688842E-005
 -2.581918359144901E-005
 -2.577744762322087E-005
 -2.573672230958584E-005
 -2.569698019939028E-005
 -2.565819320960606E-005
 -2.562033266124097E-005
 -2.558336931454551E-005
 -2.554727340347813E-005
 -2.551201466945990E-005
 -2.547756239442054E-005
 -2.544388543309828E-005
 -2.541095224467416E-005
 -2.537873092366308E-005
 -2.534718923013099E-005
 -2.531629461919279E-005
 -2.528601426983234E-005
 -2.525631511303571E-005
 -2.522716385923118E-005
 -2.519852702507831E-005
 -2.517037095955407E-005
 -2.514266186940402E-005
 -2.511536584391117E-005
 -2.508844887903925E-005
 -2.506187690088925E-005
 -2.503561578855019E-005
 -2.500963139629864E-005
 -2.498388957515379E-005
 -2.495835619383339E-005
 -2.493299715905803E-005
 -2.490777843526453E-005
 -2.488266606369447E-005
 -2.485762618086616E-005
 -2.483262503646640E-005
 -2.480762901061568E-005
 -2.478260463056814E-005
 -2.475751858678543E-005
 -2.473233774845209E-005
 -2.470702917838170E-005
 -3.051685934099076E-005
 -3.045298692589547E-005
 -3.039086466628222E-005
 -3.033046448041306E-005
 -3.027175699907973E-005
 -3.021471162573102E-005
 -3.015929659540126E-005
 -3.010547903235841E-005
 -3.005322500653198E-005
 -3.000249958872644E-005
 -2.995326690458631E-005
 -2.990549018735883E-005
 -2.985913182945417E-005
 -2.981415343280583E-005
 -2.977051585804184E-005
 -2.972817927249967E-005
 -2.968710319706133E-005
 -2.964724655186081E-005
 -2.960856770084149E-005
 -2.957102449522449E-005
 -2.953457431583198E-005
 -2.949917411437166E-005
 -2.946478045361083E-005
 -2.943134954651917E-005
 -2.939883729435634E-005
 -2.936719932375346E-005
 -2.933639102277004E-005
 -2.930636757596520E-005
 -2.927708399851404E-005
 -2.924849516932776E-005
 -2.922055586326684E-005
 -2.919322078241205E-005
 -2.916644458641434E-005
 -2.914018192197160E-005
 -2.911438745139789E-005
 -2.908901588035686E-005
 -2.906402198471077E-005
 -2.903936063654812E-005
 -2.901498682938336E-005
 -2.899085570253259E-005
 -2.896692256471320E-005
 -2.894314291682062E-005
 -2.891947247394878E-005
 -2.889586718664234E-005
 -2.887228326137702E-005
 -2.884867718030599E-005
 -2.882500572026147E-005
 -2.880122597101367E-005
 -2.877729535282425E-005
 -2.875317163326395E-005
 -3.465420771849526E-005
 -3.458237232846468E-005
 -3.451278230985842E-005
 -3.444539712141820E-005
 -3.438017479690727E-005
 -3.431707202075110E-005
 -3.425604420185244E-005
 -3.419704554557015E-005
 -3.414002912389699E-005
 -3.408494694385222E-005
 -3.403175001410956E-005
 -3.398038840990641E-005
 -3.393081133618490E-005
 -3.388296718910804E-005
 -3.383680361585654E-005
 -3.379226757282124E-005
 -3.374930538217506E-005
 -3.370786278685770E-005
 -3.366788500402392E-005
 -3.362931677694161E-005
 -3.359210242542352E-005
 -3.355618589477037E-005
 -3.352151080329770E-005
 -3.348802048843789E-005
 -3.345565805147755E-005
 -3.342436640094888E-005
 -3.339408829468870E-005
 -3.336476638062344E-005
 -3.333634323628639E-005
 -3.330876140709518E-005
 -3.328196344344400E-005
 -3.325589193658088E-005
 -3.323048955337903E-005
 -3.320569906993823E-005
 -3.318146340411316E-005
 -3.315772564695473E-005
 -3.313442909308789E-005
 -3.311151727007829E-005
 -3.308893396677544E-005
 -3.306662326066508E-005
 -3.304452954427421E-005
 -3.302259755058691E-005
 -3.300077237757946E-005
 -3.297899951179691E-005
 -3.295722485106479E-005
 -3.293539472629246E-005
 -3.291345592243004E-005
 -3.289135569855533E-005
 -3.286904180712186E-005
 -3.284646251238637E-005
 -3.881841285730370E-005
 -3.873893249572561E-005
 -3.866221711826667E-005
 -3.858821224094516E-005
 -3.851686186202764E-005
 -3.844810855267958E-005
 -3.838189354512344E-005
 -3.831815681836669E-005
 -3.825683718147906E-005
 -3.819787235452515E-005
 -3.814119904714435E-005
 -3.808675303482132E-005
 -3.803446923294949E-005
 -3.798428176863069E-005
 -3.793612405034038E-005
 -3.788992883546667E-005
 -3.784562829576071E-005
 -3.780315408077806E-005
 -3.776243737932146E-005
 -3.772340897893358E-005
 -3.768599932351714E-005
 -3.765013856910965E-005
 -3.761575663781676E-005
 -3.758278327004865E-005
 -3.755114807498278E-005
 -3.752078057940966E-005
 -3.749161027492159E-005
 -3.746356666352297E-005
 -3.743657930172552E-005
 -3.741057784310748E-005
 -3.738549207945122E-005
 -3.736125198043424E-005
 -3.733778773196250E-005
 -3.731502977314289E-005
 -3.729290883196884E-005
 -3.727135595971430E-005
 -3.725030256411047E-005
 -3.722968044129948E-005
 -3.720942180663427E-005
 -3.718945932432543E-005
 -3.716972613597022E-005
 -3.715015588800060E-005
 -3.713068275807936E-005
 -3.711124148044100E-005
 -3.709176737022540E-005
 -3.707219634683983E-005
 -3.705246495632345E-005
 -3.703251039276303E-005
 -3.701227051878714E-005
 -3.699168388514421E-005
 -4.300749943800970E-005
 -4.292084251309730E-005
 -4.283749644717761E-005
 -4.275739103914585E-005
 -4.268045453723471E-005
 -4.260661374372329E-005
 -4.253579411647414E-005
 -4.246791986732754E-005
 -4.240291405744868E-005
 -4.234069868964083E-005
 -4.228119479774942E-005
 -4.222432253316265E-005
 -4.217000124849765E-005
 -4.211814957855135E-005
 -4.206868551854943E-005
 -4.202152649979006E-005
 -4.197658946271968E-005
 -4.193379092753093E-005
 -4.189304706234602E-005
 -4.185427374901469E-005
 -4.181738664665318E-005
 -4.178230125294463E-005
 -4.174893296325466E-005
 -4.171719712768452E-005
 -4.168700910606140E-005
 -4.165828432094064E-005
 -4.163093830872771E-005
 -4.160488676890780E-005
 -4.158004561148934E-005
 -4.155633100270626E-005
 -4.153365940901429E-005
 -4.151194763947539E-005
 -4.149111288654068E-005
 -4.147107276530298E-005
 -4.145174535127433E-005
 -4.143304921671810E-005
 -4.141490346558420E-005
 -4.139722776711796E-005
 -4.137994238812873E-005
 -4.136296822403067E-005
 -4.134622682862169E-005
 -4.132964044269644E-005
 -4.131313202148588E-005
 -4.129662526097535E-005
 -4.128004462313723E-005
 -4.126331536008875E-005
 -4.124636353721714E-005
 -4.122911605527582E-005
 -4.121150067151524E-005
 -4.119344601982464E-005
 -4.721885538732181E-005
 -4.712566347437502E-005
 -4.703635539929538E-005
 -4.695084319840658E-005
 -4.686903740070490E-005
 -4.679084714511995E-005
 -4.671618029386270E-005
 -4.664494354195663E-005
 -4.657704252295473E-005
 -4.651238191104880E-005
 -4.645086551956684E-005
 -4.639239639598545E-005
 -4.633687691357296E-005
 -4.628420885968350E-005
 -4.623429352087616E-005
 -4.618703176489665E-005
 -4.614232411960948E-005
 -4.610007084901372E-005
 -4.606017202638600E-005
 -4.602252760464614E-005
 -4.598703748408279E-005
 -4.595360157743196E-005
 -4.592211987248563E-005
 -4.589249249225207E-005
 -4.586461975279708E-005
 -4.583840221878484E-005
 -4.581374075686641E-005
 -4.579053658693722E-005
 -4.576869133137821E-005
 -4.574810706232440E-005
 -4.572868634704911E-005
 -4.571033229152890E-005
 -4.569294858225464E-005
 -4.567643952635651E-005
 -4.566071009009262E-005
 -4.564566593579108E-005
 -4.563121345727358E-005
 -4.561725981382049E-005
 -4.560371296274658E-005
 -4.559048169064604E-005
 -4.557747564329842E-005
 -4.556460535435917E-005
 -4.555178227281888E-005
 -4.553891878930860E-005
 -4.552592826126294E-005
 -4.551272503700494E-005
 -4.549922447874906E-005
 -4.548534298460767E-005
 -4.547099800955757E-005
 -4.545610808547471E-005
 -5.144912854472840E-005
 -5.135024254537251E-005
 -5.125583998879291E-005
 -5.116581286409067E-005
 -5.108005179019909E-005
 -5.099844614354557E-005
 -5.092088418099396E-005
 -5.084725315818297E-005
 -5.077743944343241E-005
 -5.071132862723955E-005
 -5.064880562758689E-005
 -5.058975479114075E-005
 -5.053405999043974E-005
 -5.048160471726366E-005
 -5.043227217220552E-005
 -5.038594535067192E-005
 -5.034250712533917E-005
 -5.030184032525597E-005
 -5.026382781163768E-005
 -5.022835255053266E-005
 -5.019529768243646E-005
 -5.016454658895665E-005
 -5.013598295666270E-005
 -5.010949083822409E-005
 -5.008495471090637E-005
 -5.006225953257709E-005
 -5.004129079527810E-005
 -5.002193457650262E-005
 -5.000407758822407E-005
 -4.998760722379079E-005
 -4.997241160281276E-005
 -4.995837961403981E-005
 -4.994540095640731E-005
 -4.993336617826296E-005
 -4.992216671489608E-005
 -4.991169492439538E-005
 -4.990184412198084E-005
 -4.989250861278672E-005
 -4.988358372324706E-005
 -4.987496583107936E-005
 -4.986655239397120E-005
 -4.985824197700782E-005
 -4.984993427888737E-005
 -4.984153015699029E-005
 -4.983293165132882E-005
 -4.982404200745778E-005
 -4.981476569833976E-005
 -4.980500844524220E-005
 -4.979467723766679E-005
 -4.978368035239630E-005
 -5.569412520984736E-005
 -5.559061440010914E-005
 -5.549221114342011E-005
 -5.539878490414409E-005
 -5.531020402619437E-005
 -5.522633586805654E-005
 -5.514704693228266E-005
 -5.507220298961792E-005
 -5.500166919791903E-005
 -5.493531021603254E-005
 -5.487299031279201E-005
 -5.481457347130803E-005
 -5.475992348865408E-005
 -5.470890407119085E-005
 -5.466137892562004E-005
 -5.461721184592770E-005
 -5.457626679638621E-005
 -5.453840799077417E-005
 -5.450349996792235E-005
 -5.447140766373885E-005
 -5.444199647989141E-005
 -5.441513234924957E-005
 -5.439068179820628E-005
 -5.436851200605976E-005
 -5.434849086155354E-005
 -5.433048701668150E-005
 -5.431436993793483E-005
 -5.430000995505990E-005
 -5.428727830744990E-005
 -5.427604718831065E-005
 -5.426618978668429E-005
 -5.425758032742392E-005
 -5.425009410924951E-005
 -5.424360754098480E-005
 -5.423799817601087E-005
 -5.423314474510673E-005
 -5.422892718770304E-005
 -5.422522668165689E-005
 -5.422192567163534E-005
 -5.421890789612272E-005
 -5.421605841324212E-005
 -5.421326362531260E-005
 -5.421041130231859E-005
 -5.420739060429529E-005
 -5.420409210271671E-005
 -5.420040780089199E-005
 -5.419623115348540E-005
 -5.419145708515017E-005
 -5.418598200833759E-005
 -5.417970384031520E-005
 -5.994871227469116E-005
 -5.984190551633010E-005
 -5.974085081530387E-005
 -5.964539250498831E-005
 -5.955537418009582E-005
 -5.947063883502997E-005
 -5.939102899589426E-005
 -5.931638684637184E-005
 -5.924655434768770E-005
 -5.918137335281670E-005
 -5.912068571523773E-005
 -5.906433339232117E-005
 -5.901215854364137E-005
 -5.896400362436603E-005
 -5.891971147392423E-005
 -5.887912540013491E-005
 -5.884208925903288E-005
 -5.880844753047264E-005
 -5.877804538981829E-005
 -5.875072877576954E-005
 -5.872634445461351E-005
 -5.870474008096764E-005
 -5.868576425523620E-005
 -5.866926657792769E-005
 -5.865509770099561E-005
 -5.864310937630097E-005
 -5.863315450145017E-005
 -5.862508716301690E-005
 -5.861876267739853E-005
 -5.861403762937518E-005
 -5.861076990851258E-005
 -5.860881874355836E-005
 -5.860804473490475E-005
 -5.860830988527255E-005
 -5.860947762870736E-005
 -5.861141285799650E-005
 -5.861398195060142E-005
 -5.861705279323012E-005
 -5.862049480507437E-005
 -5.862417895990321E-005
 -5.862797780697797E-005
 -5.863176549096141E-005
 -5.863541777085144E-005
 -5.863881203800057E-005
 -5.864182733331970E-005
 -5.864434436369745E-005
 -5.864624551769433E-005
 -5.864741488060488E-005
 -5.864773824886539E-005
 -5.864710314389162E-005
 -6.420672495936775E-005
 -6.409824308341988E-005
 -6.399617169249842E-005
 -6.390032733950998E-005
 -6.381052637235759E-005
 -6.372658507043858E-005
 -6.364831977400136E-005
 -6.357554700664789E-005
 -6.350808359121989E-005
 -6.344574675933418E-005
 -6.338835425486453E-005
 -6.333572443154726E-005
 -6.328767634500399E-005
 -6.324402983943342E-005
 -6.320460562916191E-005
 -6.316922537534215E-005
 -6.313771175796187E-005
 -6.310988854344216E-005
 -6.308558064802217E-005
 -6.306461419710978E-005
 -6.304681658085039E-005
 -6.303201650609670E-005
 -6.302004404493624E-005
 -6.301073068003829E-005
 -6.300390934693591E-005
 -6.299941447345255E-005
 -6.299708201644297E-005
 -6.299674949598522E-005
 -6.299825602725412E-005
 -6.300144235012084E-005
 -6.300615085674031E-005
 -6.301222561720234E-005
 -6.301951240337924E-005
 -6.302785871115373E-005
 -6.303711378109270E-005
 -6.304712861773793E-005
 -6.305775600759870E-005
 -6.306885053596047E-005
 -6.308026860261790E-005
 -6.309186843664441E-005
 -6.310351011026805E-005
 -6.311505555195957E-005
 -6.312636855879556E-005
 -6.313731480821848E-005
 -6.314776186922954E-005
 -6.315757921306402E-005
 -6.316663822349014E-005
 -6.317481220671602E-005
 -6.318197640097330E-005
 -6.318800798587472E-005
 -6.846088249042949E-005
 -6.835267054240861E-005
 -6.825153221973777E-005
 -6.815725371275900E-005
 -6.806962171177576E-005
 -6.798842353513874E-005
 -6.791344724948034E-005
 -6.784448178243046E-005
 -6.778131702812889E-005
 -6.772374394589277E-005
 -6.767155465225224E-005
 -6.762454250679178E-005
 -6.758250219198214E-005
 -6.754522978733183E-005
 -6.751252283818083E-005
 -6.748418041931917E-005
 -6.746000319381530E-005
 -6.743979346721202E-005
 -6.742335523740623E-005
 -6.741049424043336E-005
 -6.740101799240932E-005
 -6.739473582785251E-005
 -6.739145893461189E-005
 -6.739100038562365E-005
 -6.739317516770315E-005
 -6.739780020757543E-005
 -6.740469439533825E-005
 -6.741367860556535E-005
 -6.742457571618466E-005
 -6.743721062535429E-005
 -6.745141026652212E-005
 -6.746700362171263E-005
 -6.748382173336904E-005
 -6.750169771473935E-005
 -6.752046675907101E-005
 -6.753996614764429E-005
 -6.756003525687265E-005
 -6.758051556449976E-005
 -6.760125065509602E-005
 -6.762208622488279E-005
 -6.764287008606814E-005
 -6.766345217071689E-005
 -6.768368453431183E-005
 -6.770342135904798E-005
 -6.772251895696346E-005
 -6.774083577299984E-005
 -6.775823238799926E-005
 -6.777457152177808E-005
 -6.778971803630350E-005
 -6.780353893900311E-005
 -7.270271436085798E-005
 -7.259707201912205E-005
 -7.249915882409847E-005
 -7.240872822856134E-005
 -7.232553507955161E-005
 -7.224933572993156E-005
 -7.217988814160652E-005
 -7.211695198064335E-005
 -7.206028870475305E-005
 -7.200966164354690E-005
 -7.196483607184640E-005
 -7.192557927650320E-005
 -7.189166061699192E-005
 -7.186285158018285E-005
 -7.183892582959257E-005
 -7.181965924946650E-005
 -7.180482998392522E-005
 -7.179421847159085E-005
 -7.178760747589893E-005
 -7.178478211141153E-005
 -7.178552986639543E-005
 -7.178964062195396E-005
 -7.179690666791769E-005
 -7.180712271580578E-005
 -7.182008590903669E-005
 -7.183559583064267E-005
 -7.185345450870122E-005
 -7.187346641971841E-005
 -7.189543849011151E-005
 -7.191918009603792E-005
 -7.194450306173141E-005
 -7.197122165653778E-005
 -7.199915259078608E-005
 -7.202811501070690E-005
 -7.205793049251308E-005
 -7.208842303580982E-005
 -7.211941905646938E-005
 -7.215074737910213E-005
 -7.218223922924552E-005
 -7.221372822541273E-005
 -7.224505037108404E-005
 -7.227604404676582E-005
 -7.230655000221034E-005
 -7.233641134889477E-005
 -7.236547355285572E-005
 -7.239358442792936E-005
 -7.242059412951120E-005
 -7.244635514888916E-005
 -7.247072230819975E-005
 -7.249355275611562E-005
 -7.692250005072356E-005
 -7.682210808977913E-005
 -7.673007736352014E-005
 -7.664612659182907E-005
 -7.656997698774689E-005
 -7.650135234282394E-005
 -7.643997910371047E-005
 -7.638558644042712E-005
 -7.633790630668669E-005
 -7.629667349287356E-005
 -7.626162567193795E-005
 -7.623250343875721E-005
 -7.620905034328572E-005
 -7.619101291793051E-005
 -7.617814069950940E-005
 -7.617018624618099E-005
 -7.616690514964415E-005
 -7.616805604304170E-005
 -7.617340060480945E-005
 -7.618270355882033E-005
 -7.619573267115569E-005
 -7.621225874374649E-005
 -7.623205560520006E-005
 -7.625490009907997E-005
 -7.628057206988422E-005
 -7.630885434698866E-005
 -7.633953272678711E-005
 -7.637239595323372E-005
 -7.640723569705916E-005
 -7.644384653382039E-005
 -7.648202592099604E-005
 -7.652157417435156E-005
 -7.656229444369095E-005
 -7.660399268822108E-005
 -7.664647765168902E-005
 -7.668956083741858E-005
 -7.673305648341449E-005
 -7.677678153768694E-005
 -7.682055563388443E-005
 -7.686420106742786E-005
 -7.690754277220381E-005
 -7.695040829796190E-005
 -7.699262778850834E-005
 -7.703403396079955E-005
 -7.707446208502793E-005
 -7.711374996579027E-005
 -7.715173792440696E-005
 -7.718826878245878E-005
 -7.722318784665215E-005
 -7.725634289502659E-005
 -8.110922521072469E-005
 -8.101716537941191E-005
 -8.093405582187933E-005
 -8.085957911841146E-005
 -8.079342165675215E-005
 -8.073527367972399E-005
 -8.068482932404718E-005
 -8.064178665075783E-005
 -8.060584766783834E-005
 -8.057671834557504E-005
 -8.055410862505876E-005
 -8.053773242038367E-005
 -8.052730761497171E-005
 -8.052255605242223E-005
 -8.052320352240671E-005
 -8.052897974190155E-005
 -8.053961833224033E-005
 -8.055485679230871E-005
 -8.057443646827361E-005
 -8.059810252017376E-005
 -8.062560388568154E-005
 -8.065669324142506E-005
 -8.069112696209441E-005
 -8.072866507765055E-005
 -8.076907122892015E-005
 -8.081211262186055E-005
 -8.085755998068234E-005
 -8.090518750014419E-005
 -8.095477279718071E-005
 -8.100609686214225E-005
 -8.105894400982057E-005
 -8.111310183045490E-005
 -8.116836114091344E-005
 -8.122451593624110E-005
 -8.128136334171970E-005
 -8.133870356561194E-005
 -8.139633985274675E-005
 -8.145407843907675E-005
 -8.151172850733531E-005
 -8.156910214396705E-005
 -8.162601429739010E-005
 -8.168228273774089E-005
 -8.173772801820737E-005
 -8.179217343803042E-005
 -8.184544500729584E-005
 -8.189737141356446E-005
 -8.194778399046889E-005
 -8.199651668832076E-005
 -8.204340604679062E-005
 -8.208829116975835E-005
 -8.525055723545095E-005
 -8.517032235854981E-005
 -8.509956008884056E-005
 -8.503791629688187E-005
 -8.498504219452352E-005
 -8.494059433149866E-005
 -8.490423458347570E-005
 -8.487563013216868E-005
 -8.485445343817154E-005
 -8.484038220699170E-005
 -8.483309934890641E-005
 -8.483229293310478E-005
 -8.483765613669691E-005
 -8.484888718895904E-005
 -8.486568931140316E-005
 -8.488777065400135E-005
 -8.491484422804303E-005
 -8.494662783601729E-005
 -8.498284399889037E-005
 -8.502321988112019E-005
 -8.506748721385492E-005
 -8.511538221646888E-005
 -8.516664551693921E-005
 -8.522102207123556E-005
 -8.527826108202471E-005
 -8.533811591702163E-005
 -8.540034402716750E-005
 -8.546470686491227E-005
 -8.553096980284574E-005
 -8.559890205283574E-005
 -8.566827658597109E-005
 -8.573887005342088E-005
 -8.581046270842241E-005
 -8.588283832960323E-005
 -8.595578414577728E-005
 -8.602909076233634E-005
 -8.610255208947010E-005
 -8.617596527228081E-005
 -8.624913062293279E-005
 -8.632185155501482E-005
 -8.639393452017531E-005
 -8.646518894715255E-005
 -8.653542718332132E-005
 -8.660446443883845E-005
 -8.667211873348957E-005
 -8.673821084630452E-005
 -8.680256426803350E-005
 -8.686500515655161E-005
 -8.692536229528718E-005
 -8.698346705466499E-005
 -8.933284275567109E-005
 -8.926833325677722E-005
 -8.921372417731915E-005
 -8.916862523302762E-005
 -8.913265322896258E-005
 -8.910543198983875E-005
 -8.908659228283985E-005
 -8.907577173339554E-005
 -8.907261473471332E-005
 -8.907677235166945E-005
 -8.908790221953974E-005
 -8.910566843829283E-005
 -8.912974146284950E-005
 -8.915979798988850E-005
 -8.919552084163520E-005
 -8.923659884714150E-005
 -8.928272672141028E-005
 -8.933360494286130E-005
 -8.938893962947130E-005
 -8.944844241394179E-005
 -8.951183031830713E-005
 -8.957882562823328E-005
 -8.964915576734186E-005
 -8.972255317191789E-005
 -8.979875516611728E-005
 -8.987750383812009E-005
 -8.995854591735395E-005
 -9.004163265302259E-005
 -9.012651969423254E-005
 -9.021296697183047E-005
 -9.030073858223771E-005
 -9.038960267336113E-005
 -9.047933133286300E-005
 -9.056970047885865E-005
 -9.066048975325338E-005
 -9.075148241784635E-005
 -9.084246525331555E-005
 -9.093322846125999E-005
 -9.102356556938130E-005
 -9.111327333991591E-005
 -9.120215168146185E-005
 -9.129000356427533E-005
 -9.137663493911752E-005
 -9.146185465978176E-005
 -9.154547440935859E-005
 -9.162730863029962E-005
 -9.170717445840490E-005
 -9.178489166077934E-005
 -9.186028257772811E-005
 -9.193317206893060E-005
 -9.334112867768813E-005
 -9.329663108104488E-005
 -9.326233528596668E-005
 -9.323781686143651E-005
 -9.322266040939900E-005
 -9.321645941222717E-005
 -9.321881607423652E-005
 -9.322934115795113E-005
 -9.324765381588985E-005
 -9.327338141836071E-005
 -9.330615937806682E-005
 -9.334563097197978E-005
 -9.339144716098951E-005
 -9.344326640798356E-005
 -9.350075449468724E-005
 -9.356358433779745E-005
 -9.363143580475806E-005
 -9.370399552966651E-005
 -9.378095672958107E-005
 -9.386201902162198E-005
 -9.394688824118121E-005
 -9.403527626152482E-005
 -9.412690081510880E-005
 -9.422148531681429E-005
 -9.431875868935803E-005
 -9.441845519119079E-005
 -9.452031424697749E-005
 -9.462408028092960E-005
 -9.472950255317927E-005
 -9.483633499934825E-005
 -9.494433607349324E-005
 -9.505326859459841E-005
 -9.516289959670633E-005
 -9.527300018291750E-005
 -9.538334538329429E-005
 -9.549371401684461E-005
 -9.560388855772586E-005
 -9.571365500569165E-005
 -9.582280276097289E-005
 -9.593112450364450E-005
 -9.603841607758062E-005
 -9.614447637910055E-005
 -9.624910725030692E-005
 -9.635211337737539E-005
 -9.645330219360524E-005
 -9.655248378757331E-005
 -9.664947081625450E-005
 -9.674407842316112E-005
 -9.683612416199368E-005
 -9.692542792483458E-005
 -9.725920671699501E-005
 -9.723934905758674E-005
 -9.722983247589117E-005
 -9.723020221838214E-005
 -9.724001466759817E-005
 -9.725883708889887E-005
 -9.728624737388996E-005
 -9.732183378129528E-005
 -9.736519467591445E-005
 -9.741593826640286E-005
 -9.747368234235609E-005
 -9.753805401129808E-005
 -9.760868943608804E-005
 -9.768523357319251E-005
 -9.776733991227265E-005
 -9.785467021745132E-005
 -9.794689427065971E-005
 -9.804368961738418E-005
 -9.814474131510774E-005
 -9.824974168475723E-005
 -9.835839006539551E-005
 -9.847039257242125E-005
 -9.858546185944199E-005
 -9.870331688412940E-005
 -9.882368267811049E-005
 -9.894629012120676E-005
 -9.907087572006883E-005
 -9.919718139144407E-005
 -9.932495425014643E-005
 -9.945394640193495E-005
 -9.958391474136201E-005
 -9.971462075473702E-005
 -9.984583032831520E-005
 -9.997731356181651E-005
 -1.001088445873541E-004
 -1.002402013938999E-004
 -1.003711656573391E-004
 -1.005015225762173E-004
 -1.006310607132597E-004
 -1.007595718427464E-004
 -1.008868508037735E-004
 -1.010126953595185E-004
 -1.011369060625905E-004
 -1.012592861263869E-004
 -1.013796413027630E-004
 -1.014977797657372E-004
 -1.016135120016471E-004
 -1.017266507058371E-004
 -1.018370106844775E-004
 -1.019444087653316E-004
 -1.010696785019987E-004
 -1.010793570346866E-004
 -1.010993150643357E-004
 -1.011290735421071E-004
 -1.011681667581572E-004
 -1.012161419695867E-004
 -1.012725590290553E-004
 -1.013369900146702E-004
 -1.014090188618143E-004
 -1.014882409974522E-004
 -1.015742629774509E-004
 -1.016667021273557E-004
 -1.017651861869808E-004
 -1.018693529592831E-004
 -1.019788499637140E-004
 -1.020933340944436E-004
 -1.022124712835857E-004
 -1.023359361698053E-004
 -1.024634117723221E-004
 -1.025945891706436E-004
 -1.027291671900270E-004
 -1.028668520930135E-004
 -1.030073572768580E-004
 -1.031504029772884E-004
 -1.032957159784400E-004
 -1.034430293291954E-004
 -1.035920820659519E-004
 -1.037426189419167E-004
 -1.038943901630119E-004
 -1.040471511304129E-004
 -1.042006621898666E-004
 -1.043546883877812E-004
 -1.045089992341800E-004
 -1.046633684725974E-004
 -1.048175738569638E-004
 -1.049713969355327E-004
 -1.051246228418869E-004
 -1.052770400932142E-004
 -1.054284403956583E-004
 -1.055786184570945E-004
 -1.057273718071352E-004
 -1.058745006245847E-004
 -1.060198075721964E-004
 -1.061630976392074E-004
 -1.063041779909484E-004
 -1.064428578266236E-004
 -1.065789482440648E-004
 -1.067122621114917E-004
 -1.068426139513326E-004
 -1.069698198222684E-004
 -1.047540336575970E-004
 -1.047983049552018E-004
 -1.048525526809736E-004
 -1.049162821089859E-004
 -1.049890140644757E-004
 -1.050702844164697E-004
 -1.051596435765719E-004
 -1.052566560043958E-004
 -1.053608997201998E-004
 -1.054719658249561E-004
 -1.055894580283446E-004
 -1.057129921847406E-004
 -1.058421958375276E-004
 -1.059767077718293E-004
 -1.061161775757455E-004
 -1.062602652102530E-004
 -1.064086405876616E-004
 -1.065609831588839E-004
 -1.067169815092107E-004
 -1.068763329629055E-004
 -1.070387431963162E-004
 -1.072039258596924E-004
 -1.073716022074954E-004
 -1.075415007373285E-004
 -1.077133568373339E-004
 -1.078869124420962E-004
 -1.080619156970018E-004
 -1.082381206310769E-004
 -1.084152868382072E-004
 -1.085931791668629E-004
 -1.087715674182466E-004
 -1.089502260528704E-004
 -1.091289339056640E-004
 -1.093074739095780E-004
 -1.094856328277020E-004
 -1.096632009939875E-004
 -1.098399720626965E-004
 -1.100157427662290E-004
 -1.101903126820846E-004
 -1.103634840082013E-004
 -1.105350613473854E-004
 -1.107048515004431E-004
 -1.108726632686444E-004
 -1.110383072639883E-004
 -1.112015957303078E-004
 -1.113623423709815E-004
 -1.115203621884132E-004
 -1.116754713338618E-004
 -1.118274869513323E-004
 -1.119762270659142E-004
 -1.082927259723564E-004
 -1.083766587141754E-004
 -1.084699826925075E-004
 -1.085721990605690E-004
 -1.086828266139121E-004
 -1.088014011354593E-004
 -1.089274747541564E-004
 -1.090606153175413E-004
 -1.092004057783705E-004
 -1.093464435952221E-004
 -1.094983401470699E-004
 -1.096557201616628E-004
 -1.098182211575597E-004
 -1.099854928995849E-004
 -1.101571968674194E-004
 -1.103330057371260E-004
 -1.105126028752064E-004
 -1.106956818449886E-004
 -1.108819459250189E-004
 -1.110711076391102E-004
 -1.112628882978416E-004
 -1.114570175512115E-004
 -1.116532329521802E-004
 -1.118512795309101E-004
 -1.120509093795011E-004
 -1.122518812470277E-004
 -1.124539601447773E-004
 -1.126569169614982E-004
 -1.128605280886851E-004
 -1.130645750557065E-004
 -1.132688441748624E-004
 -1.134731261962478E-004
 -1.136772159725484E-004
 -1.138809121336106E-004
 -1.140840167711134E-004
 -1.142863351331428E-004
 -1.144876753285217E-004
 -1.146878480423337E-004
 -1.148866662599892E-004
 -1.150839450033403E-004
 -1.152795010759045E-004
 -1.154731528192269E-004
 -1.156647198785968E-004
 -1.158540229833359E-004
 -1.160408837307923E-004
 -1.162251243901084E-004
 -1.164065677063596E-004
 -1.165850367138884E-004
 -1.167603546111701E-004
 -1.169323445163158E-004
 -1.116652217279992E-004
 -1.117937037018985E-004
 -1.119306717390276E-004
 -1.120756375965293E-004
 -1.122281324639448E-004
 -1.123877061575245E-004
 -1.125539263381496E-004
 -1.127263777525785E-004
 -1.129046614973286E-004
 -1.130883943045835E-004
 -1.132772078494117E-004
 -1.134707480774649E-004
 -1.136686745524047E-004
 -1.138706598221642E-004
 -1.140763888031999E-004
 -1.142855581819957E-004
 -1.144978758328850E-004
 -1.147130602514372E-004
 -1.149308400027687E-004
 -1.151509531838984E-004
 -1.153731468996866E-004
 -1.155971767516610E-004
 -1.158228063392533E-004
 -1.160498067729928E-004
 -1.162779561992217E-004
 -1.165070393361318E-004
 -1.167368470206946E-004
 -1.169671757664774E-004
 -1.171978273320071E-004
 -1.174286082999089E-004
 -1.176593296664245E-004
 -1.178898064416445E-004
 -1.181198572604221E-004
 -1.183493040041977E-004
 -1.185779714333993E-004
 -1.188056868312708E-004
 -1.190322796598564E-004
 -1.192575812238690E-004
 -1.194814243527183E-004
 -1.197036430874570E-004
 -1.199240723851138E-004
 -1.201425478329261E-004
 -1.203589053785260E-004
 -1.205729810588310E-004
 -1.207846107695193E-004
 -1.209936300121999E-004
 -1.211998736942387E-004
 -1.214031759380973E-004
 -1.216033697351235E-004
 -1.218002870883979E-004
 -1.148499784179205E-004
 -1.150274773571558E-004
 -1.152122060497988E-004
 -1.154037047340530E-004
 -1.156015343303330E-004
 -1.158052754993027E-004
 -1.160145277361058E-004
 -1.162289084994625E-004
 -1.164480523735210E-004
 -1.166716102611198E-004
 -1.168992486061941E-004
 -1.171306486439338E-004
 -1.173655056764615E-004
 -1.176035283725770E-004
 -1.178444380896003E-004
 -1.180879682157974E-004
 -1.183338635317178E-004
 -1.185818795890307E-004
 -1.188317821054838E-004
 -1.190833463746434E-004
 -1.193363566895457E-004
 -1.195906057789716E-004
 -1.198458942557638E-004
 -1.201020300762320E-004
 -1.203588280104165E-004
 -1.206161091223177E-004
 -1.208737002602457E-004
 -1.211314335566942E-004
 -1.213891459382953E-004
 -1.216466786446877E-004
 -1.219038767582584E-004
 -1.221605887432336E-004
 -1.224166659953213E-004
 -1.226719624019734E-004
 -1.229263339148764E-004
 -1.231796381329513E-004
 -1.234317338952435E-004
 -1.236824808991708E-004
 -1.239317393070570E-004
 -1.241793693950940E-004
 -1.244252311953135E-004
 -1.246691841615531E-004
 -1.249110868420437E-004
 -1.251507966152260E-004
 -1.253881693333128E-004
 -1.256230591211381E-004
 -1.258553180439328E-004
 -1.260847958329473E-004
 -1.263113401794176E-004
 -1.265347953223286E-004
 -1.178242909646014E-004
 -1.180545742285017E-004
 -1.182904606171591E-004
 -1.185315394032843E-004
 -1.187774209516651E-004
 -1.190277356856526E-004
 -1.192821331045588E-004
 -1.195402808486779E-004
 -1.198018638081411E-004
 -1.200665832723235E-004
 -1.203341561160797E-004
 -1.206043140195684E-004
 -1.208768027181929E-004
 -1.211513812797493E-004
 -1.214278214054205E-004
 -1.217059067521330E-004
 -1.219854322734344E-004
 -1.222662035765654E-004
 -1.225480362934626E-004
 -1.228307554638957E-004
 -1.231141949288212E-004
 -1.233981967326693E-004
 -1.236826105331691E-004
 -1.239672930182251E-004
 -1.242521073280423E-004
 -1.245369224837850E-004
 -1.248216128205437E-004
 -1.251060574265684E-004
 -1.253901395863315E-004
 -1.256737462325544E-004
 -1.259567674007014E-004
 -1.262390956940028E-004
 -1.265206257557726E-004
 -1.268012537508106E-004
 -1.270808768538543E-004
 -1.273593927548318E-004
 -1.276366991816935E-004
 -1.279126933944604E-004
 -1.281872717902078E-004
 -1.284603294078167E-004
 -1.287317595362678E-004
 -1.290014533076979E-004
 -1.292692993289971E-004
 -1.295351831772777E-004
 -1.297989873358339E-004
 -1.300605905979091E-004
 -1.303198680403451E-004
 -1.305766907976879E-004
 -1.308309240888460E-004
 -1.310824314383113E-004
 -1.205639181385982E-004
 -1.208497479964137E-004
 -1.211391833780650E-004
 -1.214318845650245E-004
 -1.217275321597506E-004
 -1.220258260532128E-004
 -1.223264844581209E-004
 -1.226292430016878E-004
 -1.229338538716685E-004
 -1.232400850097650E-004
 -1.235477193463963E-004
 -1.238565540716458E-004
 -1.241663999367819E-004
 -1.244770805816193E-004
 -1.247884318829665E-004
 -1.251003013198638E-004
 -1.254125473515712E-004
 -1.257250388047133E-004
 -1.260376542665444E-004
 -1.263502814807585E-004
 -1.266628167444446E-004
 -1.269751643030770E-004
 -1.272872357427439E-004
 -1.275989493770048E-004
 -1.279102296308287E-004
 -1.282210064152449E-004
 -1.285312145004601E-004
 -1.288407928798851E-004
 -1.291496841354553E-004
 -1.294578337887752E-004
 -1.297651896665156E-004
 -1.300717012507603E-004
 -1.303773190364526E-004
 -1.306819938960975E-004
 -1.309856764590255E-004
 -1.312883164768430E-004
 -1.315898621953542E-004
 -1.318902598814774E-004
 -1.321894530041478E-004
 -1.324873819099326E-004
 -1.327839831720317E-004
 -1.330791890870863E-004
 -1.333729271690744E-004
 -1.336651201770790E-004
 -1.339556845751899E-004
 -1.342445312559319E-004
 -1.345315642669926E-004
 -1.348166805332165E-004
 -1.350997752135903E-004
 -1.353807252645300E-004
 -1.230423821559893E-004
 -1.233852230052778E-004
 -1.237293258191415E-004
 -1.240744428352756E-004
 -1.244203443433770E-004
 -1.247668178132339E-004
 -1.251136670985498E-004
 -1.254607117062410E-004
 -1.258077861224201E-004
 -1.261547391857091E-004
 -1.265014334999939E-004
 -1.268477448785043E-004
 -1.271935618120704E-004
 -1.275387849546905E-004
 -1.278833266195780E-004
 -1.282271102801961E-004
 -1.285700700703931E-004
 -1.289121502787322E-004
 -1.292533048312091E-004
 -1.295934967609928E-004
 -1.299326976570142E-004
 -1.302708870933487E-004
 -1.306080520321370E-004
 -1.309441862039971E-004
 -1.312792894532707E-004
 -1.316133670693503E-004
 -1.319464290736473E-004
 -1.322784894955748E-004
 -1.326095656048360E-004
 -1.329396771582738E-004
 -1.332688455650245E-004
 -1.335970931011297E-004
 -1.339244420854457E-004
 -1.342509140274102E-004
 -1.345765287622931E-004
 -1.349013036849834E-004
 -1.352252529646500E-004
 -1.355483863198875E-004
 -1.358707091724828E-004
 -1.361922209006666E-004
 -1.365129145473106E-004
 -1.368327761350284E-004
 -1.371517840105470E-004
 -1.374699066305989E-004
 -1.377871064006660E-004
 -1.381033345759026E-004
 -1.384185338424673E-004
 -1.387326373693580E-004
 -1.390455503865505E-004
 -1.393572079986496E-004
 -1.252298392933369E-004
 -1.256296420590268E-004
 -1.260280736231513E-004
 -1.264249940855001E-004
 -1.268202776858328E-004
 -1.272138123279325E-004
 -1.276054991732373E-004
 -1.279952522932381E-004
 -1.283829983667973E-004
 -1.287686764141215E-004
 -1.291522375551265E-004
 -1.295336447859749E-004
 -1.299128727623164E-004
 -1.302899075832551E-004
 -1.306647465683778E-004
 -1.310373980193777E-004
 -1.314078809598418E-004
 -1.317762248459896E-004
 -1.321424692449370E-004
 -1.325066634644627E-004
 -1.328688661444625E-004
 -1.332291447843350E-004
 -1.335875752206881E-004
 -1.339442410303448E-004
 -1.342992328928183E-004
 -1.346526478323066E-004
 -1.350045884606343E-004
 -1.353551620876975E-004
 -1.357044798266018E-004
 -1.360526555133346E-004
 -1.363998048080818E-004
 -1.367460439626589E-004
 -1.370914886776660E-004
 -1.374362530333574E-004
 -1.377804483511379E-004
 -1.381241816597179E-004
 -1.384675544487212E-004
 -1.388106628703470E-004
 -1.391535929350864E-004
 -1.394964234836345E-004
 -1.398392233318657E-004
 -1.401820498986782E-004
 -1.405249483563903E-004
 -1.408679559925463E-004
 -1.412110844668087E-004
 -1.415543381833834E-004
 -1.418977035696585E-004
 -1.422411503259950E-004
 -1.425846878980537E-004
 -1.429281602650543E-004
 -1.270914874915970E-004
 -1.275466518375463E-004
 -1.279976098404937E-004
 -1.284443347765412E-004
 -1.288868087965121E-004
 -1.293250231224485E-004
 -1.297589782833374E-004
 -1.301886843712263E-004
 -1.306141613157068E-004
 -1.310354391596773E-004
 -1.314525583379277E-004
 -1.318655699416129E-004
 -1.322745359731077E-004
 -1.326795295778381E-004
 -1.330806352467493E-004
 -1.334779489876047E-004
 -1.338715784545837E-004
 -1.342616430303425E-004
 -1.346482738404275E-004
 -1.350316137233472E-004
 -1.354118170866703E-004
 -1.357890497184374E-004
 -1.361634884566515E-004
 -1.365353207834809E-004
 -1.369047442108316E-004
 -1.372719657219994E-004
 -1.376372007735708E-004
 -1.380006724110051E-004
 -1.383626100334922E-004
 -1.387232483957900E-004
 -1.390828255516760E-004
 -1.394415818719209E-004
 -1.397997583108762E-004
 -1.401575940662934E-004
 -1.405153246498408E-004
 -1.408731813419281E-004
 -1.412313887853983E-004
 -1.415901581032760E-004
 -1.419496984975508E-004
 -1.423101981477398E-004
 -1.426718295487314E-004
 -1.430347503096784E-004
 -1.433991006475898E-004
 -1.437649838924216E-004
 -1.441325281468262E-004
 -1.445018056166389E-004
 -1.448728664363949E-004
 -1.452457382523692E-004
 -1.456202480468473E-004
 -1.459967294100038E-004
 -1.285856664895549E-004
 -1.290933097807960E-004
 -1.295938158873593E-004
 -1.300872600549698E-004
 -1.305737208447316E-004
 -1.310532812223902E-004
 -1.315260295947344E-004
 -1.319920608150571E-004
 -1.324514771293840E-004
 -1.329043890986489E-004
 -1.333509164626412E-004
 -1.337911889879437E-004
 -1.342253472610631E-004
 -1.346535434571819E-004
 -1.350759420833809E-004
 -1.354927206784826E-004
 -1.359040704816822E-004
 -1.363101970530430E-004
 -1.367113208807707E-004
 -1.371076778494129E-004
 -1.374995197710053E-004
 -1.378871146362653E-004
 -1.382707469321676E-004
 -1.386507176945920E-004
 -1.390273446378131E-004
 -1.394009613633242E-004
 -1.397719175350375E-004
 -1.401405776463757E-004
 -1.405073200694191E-004
 -1.408725345712156E-004
 -1.412366228982612E-004
 -1.415999938593521E-004
 -1.419630609519302E-004
 -1.423262418999423E-004
 -1.426899548639923E-004
 -1.430546092164803E-004
 -1.434206057523602E-004
 -1.437883500204112E-004
 -1.441581977647335E-004
 -1.445305205929793E-004
 -1.449056705227511E-004
 -1.452839602181162E-004
 -1.456656642296454E-004
 -1.460510811925543E-004
 -1.464403015812771E-004
 -1.468335286909113E-004
 -1.472309439789924E-004
 -1.476326575353086E-004
 -1.480392678296087E-004
 -1.484494774096454E-004
 -1.296621729846567E-004
 -1.302188247280192E-004
 -1.307654047037210E-004
 -1.313020592095938E-004
 -1.318289341087317E-004
 -1.323461767017721E-004
 -1.328539374772099E-004
 -1.333523716813730E-004
 -1.338416408320877E-004
 -1.343219140670588E-004
 -1.347933694918211E-004
 -1.352561953952976E-004
 -1.357105915076043E-004
 -1.361567702054541E-004
 -1.365949576951573E-004
 -1.370253952495909E-004
 -1.374483404429762E-004
 -1.378640684605277E-004
 -1.382728733244863E-004
 -1.386750694278714E-004
 -1.390709925923627E-004
 -1.394610019351709E-004
 -1.398454809393502E-004
 -1.402248388973755E-004
 -1.405995116037313E-004
 -1.409699645325043E-004
 -1.413366908198760E-004
 -1.417002136426287E-004
 -1.420610862950888E-004
 -1.424198948820473E-004
 -1.427772472818721E-004
 -1.431337825623610E-004
 -1.434901662103826E-004
 -1.438470745469520E-004
 -1.442051938281099E-004
 -1.445652366098534E-004
 -1.449279119102674E-004
 -1.452938591933014E-004
 -1.456638322325321E-004
 -1.460384186422248E-004
 -1.464181748282038E-004
 -1.468037008282020E-004
 -1.471955998210301E-004
 -1.475942107935843E-004
 -1.480004249408142E-004
 -1.484144071129003E-004
 -1.488361493456030E-004
 -1.492658579244783E-004
 -1.497020781806657E-004
 -1.501494726033285E-004
 -1.302618456040380E-004
 -1.308645885096432E-004
 -1.314543428656375E-004
 -1.320312803804503E-004
 -1.325955731014049E-004
 -1.331473955529339E-004
 -1.336869264783355E-004
 -1.342143505049489E-004
 -1.347298594103367E-004
 -1.352336535503665E-004
 -1.357259429139820E-004
 -1.362069484385687E-004
 -1.366769030361431E-004
 -1.371360528071481E-004
 -1.375846583879710E-004
 -1.380229962522419E-004
 -1.384513602990276E-004
 -1.388700633956832E-004
 -1.392794395531509E-004
 -1.396798454701993E-004
 -1.400716642325402E-004
 -1.404553060207415E-004
 -1.408312125969291E-004
 -1.411998607695253E-004
 -1.415617676670340E-004
 -1.419174867720937E-004
 -1.422676246241267E-004
 -1.426128381404131E-004
 -1.429538377071897E-004
 -1.432913829344949E-004
 -1.436263265035540E-004
 -1.439595686249642E-004
 -1.442920674199343E-004
 -1.446248871300446E-004
 -1.449591673971688E-004
 -1.452960251011271E-004
 -1.456366524893298E-004
 -1.459824917578202E-004
 -1.463344841643225E-004
 -1.466940991062071E-004
 -1.470626942695163E-004
 -1.474411535722856E-004
 -1.478301127630498E-004
 -1.482310446328025E-004
 -1.486432642922270E-004
 -1.490686881683874E-004
 -1.495093141743829E-004
 -1.499649870429209E-004
 -1.504403023751242E-004
 -1.509201407288034E-004
 -1.303189821410398E-004
 -1.309668341532469E-004
 -1.315986834379933E-004
 -1.322146849063569E-004
 -1.328150017139092E-004
 -1.333998059515420E-004
 -1.339692794578251E-004
 -1.345236139543944E-004
 -1.350630119008278E-004
 -1.355876860950344E-004
 -1.360978604029784E-004
 -1.365937693531794E-004
 -1.370756588495621E-004
 -1.375437863610961E-004
 -1.379984211383638E-004
 -1.384398451919762E-004
 -1.388683537894855E-004
 -1.392842573790379E-004
 -1.396878823774607E-004
 -1.400795750392891E-004
 -1.404596988873775E-004
 -1.408286464096082E-004
 -1.411868366150413E-004
 -1.415347180090893E-004
 -1.418727710537222E-004
 -1.422015462857751E-004
 -1.425216206105972E-004
 -1.428336359348654E-004
 -1.431383228964693E-004
 -1.434365364261643E-004
 -1.437291145044167E-004
 -1.440171036386471E-004
 -1.443017415664189E-004
 -1.445842779575780E-004
 -1.448661352761604E-004
 -1.451492821080209E-004
 -1.454357452876467E-004
 -1.457269889845452E-004
 -1.460266564976265E-004
 -1.463364721373675E-004
 -1.466586834710058E-004
 -1.469971512378743E-004
 -1.473557889172431E-004
 -1.477339282307039E-004
 -1.481375716507148E-004
 -1.485625095236988E-004
 -1.490055150885938E-004
 -1.494744413796323E-004
 -1.499593802661202E-004
 -1.505062355139309E-004
 -1.297681901065700E-004
 -1.304631920244612E-004
 -1.311387867050923E-004
 -1.317951066666377E-004
 -1.324323057658178E-004
 -1.330505583489060E-004
 -1.336500570114890E-004
 -1.342310117607551E-004
 -1.347936458874663E-004
 -1.353381965755665E-004
 -1.358649108605362E-004
 -1.363740460127485E-004
 -1.368658661483647E-004
 -1.373406414650684E-004
 -1.377986475374402E-004
 -1.382401627925002E-004
 -1.386654697706545E-004
 -1.390748511728566E-004
 -1.394685916394625E-004
 -1.398469726428611E-004
 -1.402102933039829E-004
 -1.405588350551731E-004
 -1.408928898408367E-004
 -1.412127736108707E-004
 -1.415188316133167E-004
 -1.418113213342383E-004
 -1.420906343337734E-004
 -1.423571892808082E-004
 -1.426113719556835E-004
 -1.428535013377223E-004
 -1.430844566158590E-004
 -1.433048285769281E-004
 -1.435151126802362E-004
 -1.437165851466240E-004
 -1.439107470658841E-004
 -1.440980698891282E-004
 -1.442802807124345E-004
 -1.444625058995119E-004
 -1.446430618259302E-004
 -1.448291744668574E-004
 -1.450272479565987E-004
 -1.452392532119427E-004
 -1.454695925346545E-004
 -1.457421201110503E-004
 -1.460541244240964E-004
 -1.464321328608021E-004
 -1.468850723677791E-004
 -1.473673376782481E-004
 -1.479100587176218E-004
 -1.484090481053465E-004
 -1.285562783566054E-004
 -1.293034758115631E-004
 -1.300270422479672E-004
 -1.307271486971173E-004
 -1.314040057633588E-004
 -1.320578551669125E-004
 -1.326889655032755E-004
 -1.332976239041531E-004
 -1.338841402286265E-004
 -1.344488324103017E-004
 -1.349920310469103E-004
 -1.355140676979097E-004
 -1.360152772733266E-004
 -1.364959908295151E-004
 -1.369565313213772E-004
 -1.373972160069461E-004
 -1.378183417076980E-004
 -1.382201959715171E-004
 -1.386030485632715E-004
 -1.389671595133325E-004
 -1.393126947796245E-004
 -1.396398772734864E-004
 -1.399488750184729E-004
 -1.402397401000869E-004
 -1.405124338369564E-004
 -1.407672930421432E-004
 -1.410041375724736E-004
 -1.412227210645558E-004
 -1.414230874522251E-004
 -1.416056410977908E-004
 -1.417688013187623E-004
 -1.419125898562323E-004
 -1.420379115335017E-004
 -1.421430891226765E-004
 -1.422263773564560E-004
 -1.422910032856211E-004
 -1.423362744715000E-004
 -1.423513827567654E-004
 -1.423544592688870E-004
 -1.423336865734567E-004
 -1.422854496059175E-004
 -1.422250794651732E-004
 -1.421596360775231E-004
 -1.420279022431914E-004
 -1.418896419464667E-004
 -1.417416244764116E-004
 -1.416842908302166E-004
 -1.420166367636946E-004
 -1.426218289136228E-004
 -1.435665034787817E-004
 -1.266575838592103E-004
 -1.274631539774366E-004
 -1.282396224525840E-004
 -1.289873590614143E-004
 -1.297067675050277E-004
 -1.303982875337037E-004
 -1.310623865146888E-004
 -1.316995640542537E-004
 -1.323103115721367E-004
 -1.328951490485951E-004
 -1.334545845141688E-004
 -1.339891361267512E-004
 -1.344993053012153E-004
 -1.349855872804250E-004
 -1.354484606309077E-004
 -1.358883581549348E-004
 -1.363057194186324E-004
 -1.367009229672309E-004
 -1.370742881990123E-004
 -1.374260555075484E-004
 -1.377566982575115E-004
 -1.380662592778856E-004
 -1.383547756096831E-004
 -1.386225521212395E-004
 -1.388699375214137E-004
 -1.390955124109559E-004
 -1.392996967850708E-004
 -1.394829513103291E-004
 -1.396440390973304E-004
 -1.397800179141536E-004
 -1.398952310861010E-004
 -1.399868966786270E-004
 -1.400483035319854E-004
 -1.400830046117942E-004
 -1.400947638487069E-004
 -1.400678064868793E-004
 -1.400008258773312E-004
 -1.399255813808941E-004
 -1.397617362544781E-004
 -1.395412499628816E-004
 -1.392703241757932E-004
 -1.389096435707835E-004
 -1.384746669202461E-004
 -1.382389221309249E-004
 -1.379574175489605E-004
 -1.374751111108513E-004
 -1.362248246132999E-004
 -1.328854804455863E-004
 -1.220499448647050E-004
 -1.094984336957409E-004
 -1.240885041215203E-004
 -1.249558163247809E-004
 -1.257871575252287E-004
 -1.265832613170772E-004
 -1.273449315378104E-004
 -1.280729991469081E-004
 -1.287683085688004E-004
 -1.294316715696516E-004
 -1.300639893591557E-004
 -1.306660692497108E-004
 -1.312387607220643E-004
 -1.317828564315372E-004
 -1.322991620068063E-004
 -1.327884235787706E-004
 -1.332513766917619E-004
 -1.336888327431608E-004
 -1.341013862419634E-004
 -1.344896761270686E-004
 -1.348544121874132E-004
 -1.351963268724438E-004
 -1.355149258856140E-004
 -1.358112500554331E-004
 -1.360861547484221E-004
 -1.363389338191428E-004
 -1.365683758709610E-004
 -1.367796789894295E-004
 -1.369699760770933E-004
 -1.371353328324673E-004
 -1.372786099111363E-004
 -1.374086965527402E-004
 -1.375054426838222E-004
 -1.375755387140870E-004
 -1.376382332818363E-004
 -1.376682978372232E-004
 -1.376356864324534E-004
 -1.375857539820612E-004
 -1.375157800806508E-004
 -1.373162592818742E-004
 -1.372984009387235E-004
 -1.373348264028530E-004
 -1.373341624568296E-004
 -1.372366215021678E-004
 -1.367260621963611E-004
 -1.346237570821552E-004
 -1.268726124795592E-004
 -1.173933871788953E-004
 -1.068981613873587E-004
 -9.417048303513170E-005
 -8.214608429144317E-005
 -7.684121427528045E-005
 -1.209156564109478E-004
 -1.218400112863508E-004
 -1.227202635702545E-004
 -1.235579122550479E-004
 -1.243543211141066E-004
 -1.251108182426352E-004
 -1.258287395406937E-004
 -1.265095521341630E-004
 -1.271543665994110E-004
 -1.277646576246431E-004
 -1.283416693046262E-004
 -1.288867166556566E-004
 -1.294009388088679E-004
 -1.298856002955468E-004
 -1.303417695319491E-004
 -1.307700013471787E-004
 -1.311717279608617E-004
 -1.315481035832789E-004
 -1.318995657748330E-004
 -1.322262838923048E-004
 -1.325330566951155E-004
 -1.328178395144617E-004
 -1.330785518389586E-004
 -1.333196265450996E-004
 -1.335474848830745E-004
 -1.337433550402661E-004
 -1.339195576920860E-004
 -1.340920849382391E-004
 -1.342462253497783E-004
 -1.343411822557474E-004
 -1.344488987861403E-004
 -1.345434259141317E-004
 -1.345598292593112E-004
 -1.346123966136198E-004
 -1.348342594370498E-004
 -1.350378260559454E-004
 -1.351397521063724E-004
 -1.353785338824986E-004
 -1.344571026043106E-004
 -1.326022325169018E-004
 -1.251574825591739E-004
 -1.174597367919117E-004
 -1.091851698437850E-004
 -9.861265509580454E-005
 -8.900565877243067E-005
 -8.368136742351631E-005
 -8.159887483127697E-005
 -8.005354682177258E-005
 -8.204413736233164E-005
 -8.548786689076371E-005
 -1.172532412781830E-004
 -1.182164891572887E-004
 -1.191275022991453E-004
 -1.199880272715793E-004
 -1.208002190250934E-004
 -1.215663265325893E-004
 -1.222884256860167E-004
 -1.229680088512028E-004
 -1.236077914303778E-004
 -1.242087895653605E-004
 -1.247728139917257E-004
 -1.253015014246097E-004
 -1.257969894738361E-004
 -1.262604874073228E-004
 -1.266939079844516E-004
 -1.271009419355331E-004
 -1.274806576360357E-004
 -1.278326850723685E-004
 -1.281604806041529E-004
 -1.284686877932158E-004
 -1.287432232482064E-004
 -1.289976792848085E-004
 -1.292462940845492E-004
 -1.294735794055317E-004
 -1.296523715584821E-004
 -1.298542403630769E-004
 -1.300365818639156E-004
 -1.301465057171817E-004
 -1.302611228833707E-004
 -1.305633359405066E-004
 -1.307800042644363E-004
 -1.309529023456013E-004
 -1.312236479083427E-004
 -1.310539116028740E-004
 -1.298872203520656E-004
 -1.252783581870527E-004
 -1.187980753954097E-004
 -1.126002627810270E-004
 -1.047769593910739E-004
 -9.635611442962173E-005
 -8.827971885814044E-005
 -8.480473006879689E-005
 -8.310293429172129E-005
 -8.138329044018081E-005
 -8.272099841868922E-005
 -8.513779454788099E-005
 -8.814751028174555E-005
 -9.119449806565612E-005
 -9.436976745083462E-005
 -9.723790695216355E-005
 -1.132501370825767E-004
 -1.142183620000413E-004
 -1.151251518020435E-004
 -1.159747866624988E-004
 -1.167701219505224E-004
 -1.175134176124542E-004
 -1.182074553046793E-004
 -1.188566817893894E-004
 -1.194604192380983E-004
 -1.200245186031580E-004
 -1.205509021867332E-004
 -1.210407547052302E-004
 -1.214934038228638E-004
 -1.219130805628694E-004
 -1.223008625680222E-004
 -1.226504968779030E-004
 -1.229763661616170E-004
 -1.232899345036894E-004
 -1.235805358164303E-004
 -1.238296584819706E-004
 -1.240958742398241E-004
 -1.243315477605810E-004
 -1.244872532262563E-004
 -1.246447893377938E-004
 -1.249450301747781E-004
 -1.251232001074798E-004
 -1.252945013316859E-004
 -1.255909367436484E-004
 -1.256393457555671E-004
 -1.246832126256258E-004
 -1.209119568864897E-004
 -1.154119611101349E-004
 -1.102566790762987E-004
 -1.045037963600440E-004
 -9.681775477028932E-005
 -9.015585482711680E-005
 -8.409463068406395E-005
 -8.285447031816744E-005
 -8.105242484354280E-005
 -7.979139257175872E-005
 -8.077823319881287E-005
 -8.266258535844905E-005
 -8.494848784383374E-005
 -8.737339397684964E-005
 -9.004423404960260E-005
 -9.264894801237737E-005
 -9.518058777877196E-005
 -9.763274116577204E-005
 -9.989343808604230E-005
 -1.020691709995445E-004
 -1.090678749640206E-004
 -1.099801583901375E-004
 -1.108312925910598E-004
 -1.116217843098414E-004
 -1.123548858391711E-004
 -1.130348011315499E-004
 -1.136628072597202E-004
 -1.142348495309987E-004
 -1.147669601188654E-004
 -1.152488033502629E-004
 -1.156866263496848E-004
 -1.160917651336789E-004
 -1.164781568508273E-004
 -1.168320070731600E-004
 -1.171523942590014E-004
 -1.174713232548076E-004
 -1.177352530898624E-004
 -1.179082813376134E-004
 -1.180681513714223E-004
 -1.183289362469642E-004
 -1.184652222080454E-004
 -1.186279339076507E-004
 -1.189714168816506E-004
 -1.191131680670870E-004
 -1.183949709544430E-004
 -1.143185356050688E-004
 -1.097651788149566E-004
 -1.055355839783052E-004
 -1.009434439343532E-004
 -9.450860578028003E-005
 -8.807753747171318E-005
 -8.200698669872415E-005
 -8.031956587112235E-005
 -7.871735158634062E-005
 -7.645193182740168E-005
 -7.628911694170553E-005
 -7.674702151578434E-005
 -7.816396332323465E-005
 -7.971447635305485E-005
 -8.152610450705083E-005
 -8.363703420647455E-005
 -8.574586277256703E-005
 -8.791516512323049E-005
 -9.007636601978658E-005
 -9.211440536864004E-005
 -9.408634202074691E-005
 -9.599299270163738E-005
 -9.785455728157362E-005
 -9.969952082034220E-005
 -1.014888126961744E-004
 -1.048298235416254E-004
 -1.056416594461001E-004
 -1.063715524037815E-004
 -1.070313630069603E-004
 -1.076289923235433E-004
 -1.081702026362318E-004
 -1.086699040544884E-004
 -1.091542694056536E-004
 -1.095679348707986E-004
 -1.099608374158501E-004
 -1.103157918379142E-004
 -1.105926394986100E-004
 -1.107624253712205E-004
 -1.109325042370702E-004
 -1.111404479451056E-004
 -1.112510247940260E-004
 -1.114608382423050E-004
 -1.118819124564782E-004
 -1.121163405611515E-004
 -1.103725670038308E-004
 -1.066681354489692E-004
 -1.031392205098664E-004
 -9.976974017682197E-005
 -9.606946691612860E-005
 -9.074363677233647E-005
 -8.440148638892221E-005
 -7.903639921730177E-005
 -7.674579542554768E-005
 -7.523965691355925E-005
 -7.290695848538202E-005
 -7.123832463685052E-005
 -7.083434974405069E-005
 -7.124710602835053E-005
 -7.187262967093850E-005
 -7.272851511569272E-005
 -7.395861440611057E-005
 -7.546589159184033E-005
 -7.700014155341358E-005
 -7.871759648864213E-005
 -8.046609322248541E-005
 -8.216763018601764E-005
 -8.386852098750573E-005
 -8.553952512287637E-005
 -8.720137958452093E-005
 -8.887497738578818E-005
 -9.053448344903738E-005
 -9.217358463630137E-005
 -9.378068906033361E-005
 -9.535055014098820E-005
 -9.689379285676654E-005
 -1.007176110173539E-004
 -1.012785779526050E-004
 -1.018114277422535E-004
 -1.023048878618039E-004
 -1.027415616338214E-004
 -1.031086757685872E-004
 -1.033705351938793E-004
 -1.034783486745896E-004
 -1.036960611275695E-004
 -1.038467010747502E-004
 -1.040010105386207E-004
 -1.043162938338532E-004
 -1.048392781594389E-004
 -1.046152811152510E-004
 -1.013863994201874E-004
 -9.856823645380137E-005
 -9.588544785855448E-005
 -9.330330611038350E-005
 -9.032778288565395E-005
 -8.574507827297790E-005
 -8.027221745164941E-005
 -7.525270353429678E-005
 -7.323124263326005E-005
 -7.175605299416777E-005
 -6.940643202512380E-005
 -6.669948411975094E-005
 -6.552020902990665E-005
 -6.496769324777240E-005
 -6.469144225019891E-005
 -6.459987372588989E-005
 -6.480557137851477E-005
 -6.540880592842277E-005
 -6.612084470106933E-005
 -6.708840736285514E-005
 -6.822944257521961E-005
 -6.943073405342078E-005
 -7.067579308604837E-005
 -7.199646782818568E-005
 -7.333222537412021E-005
 -7.471363283283693E-005
 -7.614243875904856E-005
 -7.759133545479961E-005
 -7.905698292539399E-005
 -8.052543713546722E-005
 -8.198955523200927E-005
 -8.345171010339602E-005
 -8.490609915333988E-005
 -8.635193170390615E-005
 -8.778848388131584E-005
 -8.921392394456489E-005
 -9.638890084879632E-005
 -9.669641154831795E-005
 -9.690718978311682E-005
 -9.704537519477380E-005
 -9.719980187734190E-005
 -9.743413887599816E-005
 -9.784905413249759E-005
 -9.797860969821451E-005
 -9.549657400299328E-005
 -9.306134324281364E-005
 -9.088704251529651E-005
 -8.869826181088041E-005
 -8.668044230893045E-005
 -8.387395530135938E-005
 -7.964076631801576E-005
 -7.494926785585966E-005
 -7.085287242713292E-005
 -7.013017534421654E-005
 -6.854968599290538E-005
 -6.622981181648400E-005
 -6.334418981106081E-005
 -6.118505023877224E-005
 -6.001009596603654E-005
 -5.897791154051424E-005
 -5.803460208339460E-005
 -5.725902966275627E-005
 -5.686533376072308E-005
 -5.665023487690366E-005
 -5.667689878241221E-005
 -5.694643900691819E-005
 -5.737915279427174E-005
 -5.790921302442350E-005
 -5.858279141076893E-005
 -5.934155103630933E-005
 -6.019250182475357E-005
 -6.114410246986129E-005
 -6.217954751766235E-005
 -6.327573940804770E-005
 -6.443550490222553E-005
 -6.564011075554097E-005
 -6.688301643977492E-005
 -6.816342180702598E-005
 -6.947254614122766E-005
 -7.080544914019255E-005
 -7.215693068310196E-005
 -7.352081269280326E-005
 -7.489551352622367E-005
 -7.627914503487255E-005
 -7.766912789942195E-005
 -7.906169298195072E-005
 -9.285433622521920E-005
 -9.160410597082532E-005
 -8.970812844557696E-005
 -8.772749733407785E-005
 -8.577635906842595E-005
 -8.394207664108212E-005
 -8.216702770457462E-005
 -8.027443624731906E-005
 -7.688649216762062E-005
 -7.297049173058713E-005
 -6.895640129892059E-005
 -6.832459412443420E-005
 -6.720139970734343E-005
 -6.541837341813207E-005
 -6.310041738881468E-005
 -6.022226842254228E-005
 -5.793639757260398E-005
 -5.654964855464268E-005
 -5.502310460620838E-005
 -5.347134002710655E-005
 -5.198755436725244E-005
 -5.074714114349261E-005
 -4.965224662102574E-005
 -4.876365376628431E-005
 -4.810504069755473E-005
 -4.763956802672994E-005
 -4.728936430938310E-005
 -4.709558492031270E-005
 -4.703523612413330E-005
 -4.710111645312932E-005
 -4.730097674018458E-005
 -4.763548318379742E-005
 -4.807816698250079E-005
 -4.863141290528405E-005
 -4.928295172150383E-005
 -5.002426288806695E-005
 -5.085262107831862E-005
 -5.176425496839452E-005
 -5.274865049953616E-005
 -5.380059003896639E-005
 -5.491216761160003E-005
 -5.607592861477777E-005
 -5.728770868304214E-005
 -5.854339998937405E-005
 -5.984000179556097E-005
 -6.117601050025499E-005
 -6.254395616869744E-005
 -6.393713064764717E-005
 -6.535200943437455E-005
 -6.678450247822936E-005
 -7.360166103878029E-005
 -7.322108240844223E-005
 -7.136880691460948E-005
 -6.860849783037052E-005
 -6.709967245109955E-005
 -6.674209394450485E-005
 -6.586103333784805E-005
 -6.448424138538663E-005
 -6.262120723639930E-005
 -6.024194478224247E-005
 -5.763634276044810E-005
 -5.623763742425933E-005
 -5.460612835361180E-005
 -5.280391412307345E-005
 -5.089597497399040E-005
 -4.899098620189511E-005
 -4.720036222766736E-005
 -4.544361112311290E-005
 -4.385446529097283E-005
 -4.242255016715258E-005
 -4.113727614785682E-005
 -3.995278309927789E-005
 -3.889637909586175E-005
 -3.796294819550794E-005
 -3.715353934804713E-005
 -3.647623998851450E-005
 -3.594429725983202E-005
 -3.553850881775819E-005
 -3.525739210202686E-005
 -3.509535474250579E-005
 -3.504727847562154E-005
 -3.511171779588874E-005
 -3.529165812486718E-005
 -3.558239394373855E-005
 -3.598381958080895E-005
 -3.649357692264977E-005
 -3.710713920965624E-005
 -3.782170947181930E-005
 -3.863542058222420E-005
 -3.954392463588684E-005
 -4.054305540581218E-005
 -4.162751104094893E-005
 -4.279152817053626E-005
 -4.402942357452915E-005
 -4.533267749956657E-005
 -4.669442935003240E-005
 -4.811047895848390E-005
 -4.957913203436430E-005
 -5.109685835481377E-005
 -5.265002935732485E-005
 -6.318474109781629E-005
 -6.317923635701473E-005
 -6.242924469698107E-005
 -6.093284480427721E-005
 -5.972156219368334E-005
 -5.866976925221341E-005
 -5.721748463581320E-005
 -5.546212766468940E-005
 -5.347410909913790E-005
 -5.133991293772211E-005
 -4.914581613966399E-005
 -4.688533126061925E-005
 -4.467037126179338E-005
 -4.250689465119478E-005
 -4.040898196914628E-005
 -3.838140221533014E-005
 -3.641531383309325E-005
 -3.454900502580421E-005
 -3.277264934804603E-005
 -3.110859232590354E-005
 -2.956589364303226E-005
 -2.815774492627573E-005
 -2.687646331839572E-005
 -2.572119650204366E-005
 -2.468805789934146E-005
 -2.377381026775575E-005
 -2.297359905959711E-005
 -2.229164592940486E-005
 -2.172585471384923E-005
 -2.127414938158715E-005
 -2.093591397557845E-005
 -2.070988157583217E-005
 -2.059613950431423E-005
 -2.059628071386273E-005
 -2.071204361772985E-005
 -2.094581054609380E-005
 -2.130014579820934E-005
 -2.177956415532219E-005
 -2.238744646370966E-005
 -2.312673597339726E-005
 -2.399889940168197E-005
 -2.500353300720865E-005
 -2.613711903284395E-005
 -2.739394077728481E-005
 -2.876199205591448E-005
 -3.022643396532533E-005
 -3.177142870148282E-005
 -3.338786666586806E-005
 -3.507162913257314E-005
 -3.685933205702631E-005
 -7.034194432263416E-005
 -6.763789629953297E-005
 -6.478233514085139E-005
 -6.227238565912619E-005
 -5.989886416131246E-005
 -5.678055280978410E-005
 -5.370614482802207E-005
 -5.057606029624608E-005
 -4.743838051262349E-005
 -4.433554657063824E-005
 -4.127034732788518E-005
 -3.827884012082854E-005
 -3.536872543879708E-005
 -3.256788022644799E-005
 -2.989128722362415E-005
 -2.734792745461887E-005
 -2.494812942823534E-005
 -2.268751352578772E-005
 -2.056948116948392E-005
 -1.858879868393519E-005
 -1.674471496274290E-005
 -1.503423124702884E-005
 -1.345740345653234E-005
 -1.201155321913643E-005
 -1.069351338802322E-005
 -9.498547031442796E-006
 -8.422699400549914E-006
 -7.463093599491782E-006
 -6.617327253382271E-006
 -5.882821368720045E-006
 -5.259148530555721E-006
 -4.745599492954518E-006
 -4.342967426445167E-006
 -4.052972345850679E-006
 -3.878354137055474E-006
 -3.821843289302281E-006
 -3.889042935965579E-006
 -4.090097340029455E-006
 -4.434072418377192E-006
 -4.931212876353742E-006
 -5.593164339765769E-006
 -6.431784230960921E-006
 -7.457598189954152E-006
 -8.675917635287359E-006
 -1.009255457229112E-005
 -1.171385662142736E-005
 -1.352819179518224E-005
 -1.549378768339551E-005
 -1.755568276852147E-005
 -1.959960815027902E-005
 -8.391411038644384E-005
 -7.950498899851403E-005
 -7.490767997175642E-005
 -6.818052190790412E-005
 -6.044061926216885E-005
 -5.533209996601785E-005
 -5.010839820655314E-005
 -4.521991448317980E-005
 -4.062007216440119E-005
 -3.622976611882332E-005
 -3.209069800692784E-005
 -2.818672165839718E-005
 -2.450825459957085E-005
 -2.104433800123810E-005
 -1.778320780270523E-005
 -1.472402483005545E-005
 -1.185864998610512E-005
 -9.180702684057968E-006
 -6.681351772863274E-006
 -4.354270578814972E-006
 -2.191605464640250E-006
 -1.857673113101137E-007
  1.670852596182702E-006
  3.384765502463193E-006
  4.962032893691210E-006
  6.408234784714469E-006
  7.728323697535659E-006
  8.926582465944033E-006
  1.000697387921165E-005
  1.097372306818777E-005
  1.182947958934800E-005
  1.257482724680559E-005
  1.321095623870423E-005
  1.373797771353104E-005
  1.415321672454883E-005
  1.445448226068202E-005
  1.463784085319842E-005
  1.469693445453624E-005
  1.462132750184275E-005
  1.439780916355595E-005
  1.401124127848139E-005
  1.344225816847559E-005
  1.266650867994648E-005
  1.165592395285369E-005
  1.037987376720719E-005
  8.799636236983969E-006
  6.868608122693653E-006
  4.524941949590140E-006
  1.734526110573173E-006
 -1.546374147422709E-006
 -9.607190592607866E-005
 -8.801959545900025E-005
 -8.111663540358893E-005
 -7.423028692903520E-005
 -5.739824167467368E-005
 -4.629648644275925E-005
 -4.018149283698508E-005
 -3.442866055701264E-005
 -2.904762335043201E-005
 -2.400151204177715E-005
 -1.918343299622453E-005
 -1.464309871332894E-005
 -1.041933572515651E-005
 -6.484376320423083E-006
 -2.813077689411194E-006
  6.115958003412973E-007
  3.809066452255099E-006
  6.789069218366630E-006
  9.564014527174899E-006
  1.214600575102472E-005
  1.454583576356244E-005
  1.677302429752058E-005
  1.883715359678388E-005
  2.074630045095857E-005
  2.250802904144162E-005
  2.412930516358068E-005
  2.561658590512636E-005
  2.697572452200734E-005
  2.821177262768577E-005
  2.932853333764177E-005
  3.032961350234796E-005
  3.121696411359105E-005
  3.199223108012701E-005
  3.265614707320892E-005
  3.320829503725077E-005
  3.364715766945877E-005
  3.397252825912426E-005
  3.417756066128561E-005
  3.425546384097366E-005
  3.419648623049379E-005
  3.398593869542296E-005
  3.360631398588752E-005
  3.303393121773606E-005
  3.223686719817475E-005
  3.117131728877875E-005
  2.978128680863834E-005
  2.800957912514343E-005
  2.569985905712785E-005
  2.269647157829599E-005
  1.881723773308070E-005
SCALARS elementIsPlast double 
LOOKUP_TABLE default
  0.000000000000000E+000
  0.000000000000000E+000
   1.00000000000000     
   1.00000000000000     
   1.00000000000000     
   1.00000000000000     
   1.00000000000000     
   1.00000000000000     
   1.00000000000000     
   1.00000000000000     
   1.00000000000000     
   1.00000000000000     
   1.00000000000000     
   1.00000000000000     
   1.00000000000000     
   1.00000000000000     
   1.00000000000000     
   1.00000000000000     
   1.00000000000000     
   1.00000000000000     
   1.00000000000000     
   1.00000000000000     
   1.00000000000000     
   1.00000000000000     
   1.00000000000000     
   1.00000000000000     
   1.00000000000000     
   1.00000000000000     
   1.00000000000000     
   1.00000000000000     
   1.00000000000000     
   1.00000000000000     
   1.00000000000000     
   1.00000000000000     
   1.00000000000000     
   1.00000000000000     
   1.00000000000000     
   1.00000000000000     
   1.00000000000000     
   1.00000000000000     
   1.00000000000000     
   1.00000000000000     
   1.00000000000000     
   1.00000000000000     
   1.00000000000000     
   1.00000000000000     
   1.00000000000000     
   1.00000000000000     
   1.00000000000000     
   1.00000000000000     
   1.00000000000000     
   1.00000000000000     
   1.00000000000000     
   1.00000000000000     
   1.00000000000000     
   1.00000000000000     
   1.00000000000000     
   1.00000000000000     
   1.00000000000000     
   1.00000000000000     
   1.00000000000000     
   1.00000000000000     
   1.00000000000000     
   1.00000000000000     
   1.00000000000000     
   1.00000000000000     
   1.00000000000000     
   1.00000000000000     
   1.00000000000000     
   1.00000000000000     
   1.00000000000000     
   1.00000000000000     
   1.00000000000000     
   1.00000000000000     
   1.00000000000000     
   1.00000000000000     
   1.00000000000000     
   1.00000000000000     
   1.00000000000000     
   1.00000000000000     
   1.00000000000000     
   1.00000000000000     
   1.00000000000000     
   1.00000000000000     
   1.00000000000000     
   1.00000000000000     
   1.00000000000000     
   1.00000000000000     
   1.00000000000000     
   1.00000000000000     
   1.00000000000000     
   1.00000000000000     
   1.00000000000000     
   1.00000000000000     
   1.00000000000000     
   1.00000000000000     
   1.00000000000000     
   1.00000000000000     
   1.00000000000000     
   1.00000000000000     
   1.00000000000000     
   1.00000000000000     
   1.00000000000000     
   1.00000000000000     
   1.00000000000000     
   1.00000000000000     
   1.00000000000000     
   1.00000000000000     
   1.00000000000000     
   1.00000000000000     
   1.00000000000000     
   1.00000000000000     
   1.00000000000000     
   1.00000000000000     
   1.00000000000000     
   1.00000000000000     
   1.00000000000000     
   1.00000000000000     
   1.00000000000000     
   1.00000000000000     
   1.00000000000000     
   1.00000000000000     
   1.00000000000000     
   1.00000000000000     
   1.00000000000000     
   1.00000000000000     
   1.00000000000000     
   1.00000000000000     
   1.00000000000000     
   1.00000000000000     
   1.00000000000000     
   1.00000000000000     
   1.00000000000000     
   1.00000000000000     
   1.00000000000000     
   1.00000000000000     
   1.00000000000000     
   1.00000000000000     
   1.00000000000000     
   1.00000000000000     
   1.00000000000000     
   1.00000000000000     
   1.00000000000000     
   1.00000000000000     
   1.00000000000000     
   1.00000000000000     
   1.00000000000000     
   1.00000000000000     
   1.00000000000000     
   1.00000000000000     
   1.00000000000000     
   1.00000000000000     
   1.00000000000000     
   1.00000000000000     
   1.00000000000000     
   1.00000000000000     
   1.00000000000000     
   1.00000000000000     
   1.00000000000000     
   1.00000000000000     
   1.00000000000000     
   1.00000000000000     
   1.00000000000000     
   1.00000000000000     
   1.00000000000000     
   1.00000000000000     
   1.00000000000000     
   1.00000000000000     
   1.00000000000000     
   1.00000000000000     
   1.00000000000000     
   1.00000000000000     
   1.00000000000000     
   1.00000000000000     
   1.00000000000000     
   1.00000000000000     
   1.00000000000000     
   1.00000000000000     
   1.00000000000000     
   1.00000000000000     
   1.00000000000000     
   1.00000000000000     
   1.00000000000000     
   1.00000000000000     
   1.00000000000000     
   1.00000000000000     
   1.00000000000000     
   1.00000000000000     
   1.00000000000000     
   1.00000000000000     
   1.00000000000000     
   1.00000000000000     
   1.00000000000000     
   1.00000000000000     
   1.00000000000000     
   1.00000000000000     
   1.00000000000000     
   1.00000000000000     
   1.00000000000000     
   1.00000000000000     
   1.00000000000000     
   1.00000000000000     
   1.00000000000000     
   1.00000000000000     
   1.00000000000000     
   1.00000000000000     
   1.00000000000000     
   1.00000000000000     
   1.00000000000000     
   1.00000000000000     
   1.00000000000000     
   1.00000000000000     
   1.00000000000000     
   1.00000000000000     
   1.00000000000000     
   1.00000000000000     
   1.00000000000000     
   1.00000000000000     
   1.00000000000000     
   1.00000000000000     
   1.00000000000000     
   1.00000000000000     
   1.00000000000000     
   1.00000000000000     
   1.00000000000000     
   1.00000000000000     
   1.00000000000000     
   1.00000000000000     
   1.00000000000000     
   1.00000000000000     
   1.00000000000000     
   1.00000000000000     
   1.00000000000000     
   1.00000000000000     
   1.00000000000000     
   1.00000000000000     
   1.00000000000000     
   1.00000000000000     
   1.00000000000000     
   1.00000000000000     
   1.00000000000000     
   1.00000000000000     
   1.00000000000000     
   1.00000000000000     
   1.00000000000000     
   1.00000000000000     
   1.00000000000000     
   1.00000000000000     
   1.00000000000000     
   1.00000000000000     
   1.00000000000000     
   1.00000000000000     
   1.00000000000000     
   1.00000000000000     
   1.00000000000000     
   1.00000000000000     
   1.00000000000000     
   1.00000000000000     
   1.00000000000000     
   1.00000000000000     
   1.00000000000000     
   1.00000000000000     
   1.00000000000000     
   1.00000000000000     
   1.00000000000000     
   1.00000000000000     
   1.00000000000000     
   1.00000000000000     
   1.00000000000000     
   1.00000000000000     
   1.00000000000000     
   1.00000000000000     
   1.00000000000000     
   1.00000000000000     
   1.00000000000000     
   1.00000000000000     
   1.00000000000000     
   1.00000000000000     
   1.00000000000000     
   1.00000000000000     
   1.00000000000000     
   1.00000000000000     
   1.00000000000000     
   1.00000000000000     
   1.00000000000000     
   1.00000000000000     
   1.00000000000000     
   1.00000000000000     
   1.00000000000000     
   1.00000000000000     
   1.00000000000000     
   1.00000000000000     
   1.00000000000000     
   1.00000000000000     
   1.00000000000000     
   1.00000000000000     
   1.00000000000000     
   1.00000000000000     
   1.00000000000000     
   1.00000000000000     
  0.000000000000000E+000
   1.00000000000000     
   1.00000000000000     
   1.00000000000000     
   1.00000000000000     
   1.00000000000000     
   1.00000000000000     
   1.00000000000000     
   1.00000000000000     
   1.00000000000000     
   1.00000000000000     
   1.00000000000000     
   1.00000000000000     
   1.00000000000000     
   1.00000000000000     
   1.00000000000000     
   1.00000000000000     
   1.00000000000000     
   1.00000000000000     
   1.00000000000000     
   1.00000000000000     
   1.00000000000000     
   1.00000000000000     
   1.00000000000000     
   1.00000000000000     
   1.00000000000000     
   1.00000000000000     
   1.00000000000000     
   1.00000000000000     
   1.00000000000000     
   1.00000000000000     
   1.00000000000000     
   1.00000000000000     
   1.00000000000000     
   1.00000000000000     
   1.00000000000000     
   1.00000000000000     
   1.00000000000000     
   1.00000000000000     
   1.00000000000000     
   1.00000000000000     
   1.00000000000000     
   1.00000000000000     
   1.00000000000000     
   1.00000000000000     
   1.00000000000000     
   1.00000000000000     
   1.00000000000000     
   1.00000000000000     
   1.00000000000000     
  0.000000000000000E+000
  0.000000000000000E+000
  0.000000000000000E+000
  0.000000000000000E+000
  0.000000000000000E+000
  0.000000000000000E+000
  0.000000000000000E+000
  0.000000000000000E+000
  0.000000000000000E+000
  0.000000000000000E+000
  0.000000000000000E+000
  0.000000000000000E+000
   1.00000000000000     
   1.00000000000000     
   1.00000000000000     
   1.00000000000000     
   1.00000000000000     
   1.00000000000000     
   1.00000000000000     
   1.00000000000000     
   1.00000000000000     
   1.00000000000000     
   1.00000000000000     
   1.00000000000000     
   1.00000000000000     
   1.00000000000000     
   1.00000000000000     
   1.00000000000000     
   1.00000000000000     
   1.00000000000000     
   1.00000000000000     
   1.00000000000000     
   1.00000000000000     
   1.00000000000000     
   1.00000000000000     
   1.00000000000000     
   1.00000000000000     
   1.00000000000000     
   1.00000000000000     
   1.00000000000000     
   1.00000000000000     
   1.00000000000000     
   1.00000000000000     
   1.00000000000000     
   1.00000000000000     
   1.00000000000000     
   1.00000000000000     
   1.00000000000000     
   1.00000000000000     
   1.00000000000000     
  0.000000000000000E+000
  0.000000000000000E+000
  0.000000000000000E+000
  0.000000000000000E+000
  0.000000000000000E+000
  0.000000000000000E+000
  0.000000000000000E+000
  0.000000000000000E+000
  0.000000000000000E+000
  0.000000000000000E+000
  0.000000000000000E+000
  0.000000000000000E+000
  0.000000000000000E+000
  0.000000000000000E+000
  0.000000000000000E+000
  0.000000000000000E+000
  0.000000000000000E+000
  0.000000000000000E+000
  0.000000000000000E+000
  0.000000000000000E+000
  0.000000000000000E+000
  0.000000000000000E+000
  0.000000000000000E+000
   1.00000000000000     
   1.00000000000000     
   1.00000000000000     
   1.00000000000000     
   1.00000000000000     
   1.00000000000000     
   1.00000000000000     
   1.00000000000000     
   1.00000000000000     
   1.00000000000000     
   1.00000000000000     
   1.00000000000000     
   1.00000000000000     
   1.00000000000000     
   1.00000000000000     
   1.00000000000000     
   1.00000000000000     
   1.00000000000000     
   1.00000000000000     
   1.00000000000000     
   1.00000000000000     
   1.00000000000000     
   1.00000000000000     
   1.00000000000000     
   1.00000000000000     
   1.00000000000000     
   1.00000000000000     
  0.000000000000000E+000
  0.000000000000000E+000
  0.000000000000000E+000
  0.000000000000000E+000
  0.000000000000000E+000
  0.000000000000000E+000
  0.000000000000000E+000
  0.000000000000000E+000
  0.000000000000000E+000
  0.000000000000000E+000
  0.000000000000000E+000
  0.000000000000000E+000
  0.000000000000000E+000
  0.000000000000000E+000
  0.000000000000000E+000
  0.000000000000000E+000
  0.000000000000000E+000
  0.000000000000000E+000
  0.000000000000000E+000
  0.000000000000000E+000
  0.000000000000000E+000
  0.000000000000000E+000
  0.000000000000000E+000
  0.000000000000000E+000
  0.000000000000000E+000
  0.000000000000000E+000
  0.000000000000000E+000
  0.000000000000000E+000
  0.000000000000000E+000
  0.000000000000000E+000
  0.000000000000000E+000
  0.000000000000000E+000
   1.00000000000000     
   1.00000000000000     
   1.00000000000000     
   1.00000000000000     
   1.00000000000000     
   1.00000000000000     
   1.00000000000000     
   1.00000000000000     
   1.00000000000000     
   1.00000000000000     
   1.00000000000000     
   1.00000000000000     
   1.00000000000000     
   1.00000000000000     
   1.00000000000000     
   1.00000000000000     
   1.00000000000000     
   1.00000000000000     
  0.000000000000000E+000
  0.000000000000000E+000
  0.000000000000000E+000
  0.000000000000000E+000
  0.000000000000000E+000
  0.000000000000000E+000
  0.000000000000000E+000
  0.000000000000000E+000
  0.000000000000000E+000
  0.000000000000000E+000
  0.000000000000000E+000
  0.000000000000000E+000
  0.000000000000000E+000
  0.000000000000000E+000
  0.000000000000000E+000
  0.000000000000000E+000
  0.000000000000000E+000
  0.000000000000000E+000
  0.000000000000000E+000
  0.000000000000000E+000
  0.000000000000000E+000
  0.000000000000000E+000
  0.000000000000000E+000
  0.000000000000000E+000
  0.000000000000000E+000
  0.000000000000000E+000
  0.000000000000000E+000
  0.000000000000000E+000
  0.000000000000000E+000
  0.000000000000000E+000
  0.000000000000000E+000
  0.000000000000000E+000
  0.000000000000000E+000
  0.000000000000000E+000
  0.000000000000000E+000
  0.000000000000000E+000
  0.000000000000000E+000
  0.000000000000000E+000
   1.00000000000000     
   1.00000000000000     
   1.00000000000000     
   1.00000000000000     
   1.00000000000000     
   1.00000000000000     
   1.00000000000000     
   1.00000000000000     
   1.00000000000000     
   1.00000000000000     
   1.00000000000000     
   1.00000000000000     
  0.000000000000000E+000
  0.000000000000000E+000
  0.000000000000000E+000
  0.000000000000000E+000
  0.000000000000000E+000
  0.000000000000000E+000
  0.000000000000000E+000
  0.000000000000000E+000
  0.000000000000000E+000
  0.000000000000000E+000
  0.000000000000000E+000
  0.000000000000000E+000
  0.000000000000000E+000
  0.000000000000000E+000
  0.000000000000000E+000
  0.000000000000000E+000
  0.000000000000000E+000
  0.000000000000000E+000
  0.000000000000000E+000
  0.000000000000000E+000
  0.000000000000000E+000
  0.000000000000000E+000
  0.000000000000000E+000
  0.000000000000000E+000
  0.000000000000000E+000
  0.000000000000000E+000
  0.000000000000000E+000
  0.000000000000000E+000
  0.000000000000000E+000
  0.000000000000000E+000
  0.000000000000000E+000
  0.000000000000000E+000
  0.000000000000000E+000
  0.000000000000000E+000
  0.000000000000000E+000
  0.000000000000000E+000
  0.000000000000000E+000
  0.000000000000000E+000
  0.000000000000000E+000
  0.000000000000000E+000
  0.000000000000000E+000
  0.000000000000000E+000
  0.000000000000000E+000
   1.00000000000000     
   1.00000000000000     
   1.00000000000000     
   1.00000000000000     
   1.00000000000000     
   1.00000000000000     
   1.00000000000000     
  0.000000000000000E+000
  0.000000000000000E+000
  0.000000000000000E+000
  0.000000000000000E+000
  0.000000000000000E+000
  0.000000000000000E+000
  0.000000000000000E+000
  0.000000000000000E+000
  0.000000000000000E+000
  0.000000000000000E+000
  0.000000000000000E+000
  0.000000000000000E+000
  0.000000000000000E+000
  0.000000000000000E+000
  0.000000000000000E+000
  0.000000000000000E+000
  0.000000000000000E+000
  0.000000000000000E+000
  0.000000000000000E+000
  0.000000000000000E+000
  0.000000000000000E+000
  0.000000000000000E+000
  0.000000000000000E+000
  0.000000000000000E+000
  0.000000000000000E+000
  0.000000000000000E+000
  0.000000000000000E+000
  0.000000000000000E+000
  0.000000000000000E+000
  0.000000000000000E+000
  0.000000000000000E+000
  0.000000000000000E+000
  0.000000000000000E+000
  0.000000000000000E+000
  0.000000000000000E+000
  0.000000000000000E+000
  0.000000000000000E+000
  0.000000000000000E+000
  0.000000000000000E+000
  0.000000000000000E+000
  0.000000000000000E+000
  0.000000000000000E+000
  0.000000000000000E+000
  0.000000000000000E+000
  0.000000000000000E+000
  0.000000000000000E+000
  0.000000000000000E+000
   1.00000000000000     
   1.00000000000000     
   1.00000000000000     
  0.000000000000000E+000
  0.000000000000000E+000
  0.000000000000000E+000
  0.000000000000000E+000
  0.000000000000000E+000
  0.000000000000000E+000
  0.000000000000000E+000
  0.000000000000000E+000
  0.000000000000000E+000
  0.000000000000000E+000
  0.000000000000000E+000
  0.000000000000000E+000
  0.000000000000000E+000
  0.000000000000000E+000
  0.000000000000000E+000
  0.000000000000000E+000
  0.000000000000000E+000
  0.000000000000000E+000
  0.000000000000000E+000
  0.000000000000000E+000
  0.000000000000000E+000
  0.000000000000000E+000
  0.000000000000000E+000
  0.000000000000000E+000
  0.000000000000000E+000
  0.000000000000000E+000
  0.000000000000000E+000
  0.000000000000000E+000
  0.000000000000000E+000
  0.000000000000000E+000
  0.000000000000000E+000
  0.000000000000000E+000
  0.000000000000000E+000
  0.000000000000000E+000
  0.000000000000000E+000
  0.000000000000000E+000
  0.000000000000000E+000
  0.000000000000000E+000
  0.000000000000000E+000
  0.000000000000000E+000
  0.000000000000000E+000
  0.000000000000000E+000
  0.000000000000000E+000
  0.000000000000000E+000
  0.000000000000000E+000
  0.000000000000000E+000
  0.000000000000000E+000
  0.000000000000000E+000
  0.000000000000000E+000
  0.000000000000000E+000
  0.000000000000000E+000
  0.000000000000000E+000
  0.000000000000000E+000
  0.000000000000000E+000
  0.000000000000000E+000
  0.000000000000000E+000
  0.000000000000000E+000
  0.000000000000000E+000
  0.000000000000000E+000
  0.000000000000000E+000
  0.000000000000000E+000
  0.000000000000000E+000
  0.000000000000000E+000
  0.000000000000000E+000
  0.000000000000000E+000
  0.000000000000000E+000
  0.000000000000000E+000
  0.000000000000000E+000
  0.000000000000000E+000
  0.000000000000000E+000
  0.000000000000000E+000
  0.000000000000000E+000
  0.000000000000000E+000
  0.000000000000000E+000
  0.000000000000000E+000
  0.000000000000000E+000
  0.000000000000000E+000
  0.000000000000000E+000
  0.000000000000000E+000
  0.000000000000000E+000
  0.000000000000000E+000
  0.000000000000000E+000
  0.000000000000000E+000
  0.000000000000000E+000
  0.000000000000000E+000
  0.000000000000000E+000
  0.000000000000000E+000
  0.000000000000000E+000
  0.000000000000000E+000
  0.000000000000000E+000
  0.000000000000000E+000
  0.000000000000000E+000
  0.000000000000000E+000
  0.000000000000000E+000
  0.000000000000000E+000
  0.000000000000000E+000
  0.000000000000000E+000
  0.000000000000000E+000
  0.000000000000000E+000
  0.000000000000000E+000
  0.000000000000000E+000
  0.000000000000000E+000
  0.000000000000000E+000
  0.000000000000000E+000
  0.000000000000000E+000
  0.000000000000000E+000
  0.000000000000000E+000
  0.000000000000000E+000
  0.000000000000000E+000
  0.000000000000000E+000
  0.000000000000000E+000
  0.000000000000000E+000
  0.000000000000000E+000
  0.000000000000000E+000
  0.000000000000000E+000
  0.000000000000000E+000
  0.000000000000000E+000
  0.000000000000000E+000
  0.000000000000000E+000
  0.000000000000000E+000
  0.000000000000000E+000
  0.000000000000000E+000
  0.000000000000000E+000
  0.000000000000000E+000
  0.000000000000000E+000
  0.000000000000000E+000
  0.000000000000000E+000
  0.000000000000000E+000
  0.000000000000000E+000
  0.000000000000000E+000
  0.000000000000000E+000
  0.000000000000000E+000
  0.000000000000000E+000
  0.000000000000000E+000
  0.000000000000000E+000
  0.000000000000000E+000
  0.000000000000000E+000
  0.000000000000000E+000
  0.000000000000000E+000
  0.000000000000000E+000
  0.000000000000000E+000
  0.000000000000000E+000
  0.000000000000000E+000
  0.000000000000000E+000
  0.000000000000000E+000
  0.000000000000000E+000
  0.000000000000000E+000
  0.000000000000000E+000
  0.000000000000000E+000
  0.000000000000000E+000
  0.000000000000000E+000
  0.000000000000000E+000
  0.000000000000000E+000
  0.000000000000000E+000
  0.000000000000000E+000
  0.000000000000000E+000
  0.000000000000000E+000
  0.000000000000000E+000
  0.000000000000000E+000
  0.000000000000000E+000
  0.000000000000000E+000
  0.000000000000000E+000
  0.000000000000000E+000
  0.000000000000000E+000
  0.000000000000000E+000
  0.000000000000000E+000
  0.000000000000000E+000
  0.000000000000000E+000
  0.000000000000000E+000
  0.000000000000000E+000
  0.000000000000000E+000
  0.000000000000000E+000
  0.000000000000000E+000
  0.000000000000000E+000
  0.000000000000000E+000
  0.000000000000000E+000
  0.000000000000000E+000
  0.000000000000000E+000
  0.000000000000000E+000
  0.000000000000000E+000
  0.000000000000000E+000
  0.000000000000000E+000
  0.000000000000000E+000
  0.000000000000000E+000
  0.000000000000000E+000
  0.000000000000000E+000
  0.000000000000000E+000
  0.000000000000000E+000
  0.000000000000000E+000
  0.000000000000000E+000
  0.000000000000000E+000
  0.000000000000000E+000
  0.000000000000000E+000
  0.000000000000000E+000
  0.000000000000000E+000
  0.000000000000000E+000
  0.000000000000000E+000
  0.000000000000000E+000
  0.000000000000000E+000
  0.000000000000000E+000
  0.000000000000000E+000
  0.000000000000000E+000
  0.000000000000000E+000
  0.000000000000000E+000
  0.000000000000000E+000
  0.000000000000000E+000
  0.000000000000000E+000
  0.000000000000000E+000
  0.000000000000000E+000
  0.000000000000000E+000
  0.000000000000000E+000
  0.000000000000000E+000
  0.000000000000000E+000
  0.000000000000000E+000
  0.000000000000000E+000
  0.000000000000000E+000
  0.000000000000000E+000
  0.000000000000000E+000
  0.000000000000000E+000
  0.000000000000000E+000
  0.000000000000000E+000
  0.000000000000000E+000
  0.000000000000000E+000
  0.000000000000000E+000
  0.000000000000000E+000
  0.000000000000000E+000
  0.000000000000000E+000
  0.000000000000000E+000
  0.000000000000000E+000
  0.000000000000000E+000
  0.000000000000000E+000
  0.000000000000000E+000
  0.000000000000000E+000
  0.000000000000000E+000
  0.000000000000000E+000
  0.000000000000000E+000
  0.000000000000000E+000
  0.000000000000000E+000
  0.000000000000000E+000
  0.000000000000000E+000
  0.000000000000000E+000
  0.000000000000000E+000
  0.000000000000000E+000
  0.000000000000000E+000
  0.000000000000000E+000
  0.000000000000000E+000
  0.000000000000000E+000
  0.000000000000000E+000
  0.000000000000000E+000
  0.000000000000000E+000
  0.000000000000000E+000
  0.000000000000000E+000
  0.000000000000000E+000
  0.000000000000000E+000
  0.000000000000000E+000
  0.000000000000000E+000
  0.000000000000000E+000
  0.000000000000000E+000
  0.000000000000000E+000
  0.000000000000000E+000
  0.000000000000000E+000
  0.000000000000000E+000
  0.000000000000000E+000
  0.000000000000000E+000
  0.000000000000000E+000
  0.000000000000000E+000
  0.000000000000000E+000
  0.000000000000000E+000
  0.000000000000000E+000
  0.000000000000000E+000
  0.000000000000000E+000
  0.000000000000000E+000
  0.000000000000000E+000
  0.000000000000000E+000
  0.000000000000000E+000
  0.000000000000000E+000
  0.000000000000000E+000
  0.000000000000000E+000
  0.000000000000000E+000
  0.000000000000000E+000
  0.000000000000000E+000
  0.000000000000000E+000
  0.000000000000000E+000
  0.000000000000000E+000
  0.000000000000000E+000
  0.000000000000000E+000
  0.000000000000000E+000
  0.000000000000000E+000
  0.000000000000000E+000
  0.000000000000000E+000
  0.000000000000000E+000
  0.000000000000000E+000
  0.000000000000000E+000
  0.000000000000000E+000
  0.000000000000000E+000
  0.000000000000000E+000
  0.000000000000000E+000
  0.000000000000000E+000
  0.000000000000000E+000
  0.000000000000000E+000
  0.000000000000000E+000
  0.000000000000000E+000
  0.000000000000000E+000
  0.000000000000000E+000
  0.000000000000000E+000
  0.000000000000000E+000
  0.000000000000000E+000
  0.000000000000000E+000
  0.000000000000000E+000
  0.000000000000000E+000
  0.000000000000000E+000
  0.000000000000000E+000
  0.000000000000000E+000
  0.000000000000000E+000
  0.000000000000000E+000
  0.000000000000000E+000
  0.000000000000000E+000
  0.000000000000000E+000
  0.000000000000000E+000
  0.000000000000000E+000
  0.000000000000000E+000
  0.000000000000000E+000
  0.000000000000000E+000
  0.000000000000000E+000
  0.000000000000000E+000
  0.000000000000000E+000
  0.000000000000000E+000
  0.000000000000000E+000
  0.000000000000000E+000
  0.000000000000000E+000
  0.000000000000000E+000
  0.000000000000000E+000
  0.000000000000000E+000
  0.000000000000000E+000
  0.000000000000000E+000
  0.000000000000000E+000
  0.000000000000000E+000
  0.000000000000000E+000
  0.000000000000000E+000
  0.000000000000000E+000
  0.000000000000000E+000
  0.000000000000000E+000
  0.000000000000000E+000
  0.000000000000000E+000
  0.000000000000000E+000
  0.000000000000000E+000
  0.000000000000000E+000
  0.000000000000000E+000
  0.000000000000000E+000
  0.000000000000000E+000
  0.000000000000000E+000
  0.000000000000000E+000
  0.000000000000000E+000
  0.000000000000000E+000
  0.000000000000000E+000
  0.000000000000000E+000
  0.000000000000000E+000
  0.000000000000000E+000
  0.000000000000000E+000
  0.000000000000000E+000
  0.000000000000000E+000
  0.000000000000000E+000
  0.000000000000000E+000
  0.000000000000000E+000
  0.000000000000000E+000
  0.000000000000000E+000
  0.000000000000000E+000
  0.000000000000000E+000
  0.000000000000000E+000
  0.000000000000000E+000
  0.000000000000000E+000
  0.000000000000000E+000
  0.000000000000000E+000
  0.000000000000000E+000
  0.000000000000000E+000
  0.000000000000000E+000
  0.000000000000000E+000
  0.000000000000000E+000
  0.000000000000000E+000
  0.000000000000000E+000
  0.000000000000000E+000
  0.000000000000000E+000
  0.000000000000000E+000
  0.000000000000000E+000
  0.000000000000000E+000
  0.000000000000000E+000
  0.000000000000000E+000
  0.000000000000000E+000
  0.000000000000000E+000
  0.000000000000000E+000
  0.000000000000000E+000
  0.000000000000000E+000
  0.000000000000000E+000
  0.000000000000000E+000
  0.000000000000000E+000
  0.000000000000000E+000
  0.000000000000000E+000
  0.000000000000000E+000
  0.000000000000000E+000
  0.000000000000000E+000
  0.000000000000000E+000
  0.000000000000000E+000
  0.000000000000000E+000
  0.000000000000000E+000
  0.000000000000000E+000
  0.000000000000000E+000
  0.000000000000000E+000
  0.000000000000000E+000
  0.000000000000000E+000
  0.000000000000000E+000
  0.000000000000000E+000
  0.000000000000000E+000
  0.000000000000000E+000
  0.000000000000000E+000
  0.000000000000000E+000
  0.000000000000000E+000
  0.000000000000000E+000
  0.000000000000000E+000
  0.000000000000000E+000
  0.000000000000000E+000
  0.000000000000000E+000
  0.000000000000000E+000
  0.000000000000000E+000
  0.000000000000000E+000
  0.000000000000000E+000
  0.000000000000000E+000
  0.000000000000000E+000
  0.000000000000000E+000
  0.000000000000000E+000
  0.000000000000000E+000
  0.000000000000000E+000
  0.000000000000000E+000
  0.000000000000000E+000
  0.000000000000000E+000
  0.000000000000000E+000
  0.000000000000000E+000
  0.000000000000000E+000
  0.000000000000000E+000
  0.000000000000000E+000
  0.000000000000000E+000
  0.000000000000000E+000
  0.000000000000000E+000
  0.000000000000000E+000
  0.000000000000000E+000
  0.000000000000000E+000
  0.000000000000000E+000
  0.000000000000000E+000
  0.000000000000000E+000
  0.000000000000000E+000
  0.000000000000000E+000
  0.000000000000000E+000
  0.000000000000000E+000
  0.000000000000000E+000
  0.000000000000000E+000
  0.000000000000000E+000
  0.000000000000000E+000
  0.000000000000000E+000
  0.000000000000000E+000
  0.000000000000000E+000
  0.000000000000000E+000
  0.000000000000000E+000
  0.000000000000000E+000
  0.000000000000000E+000
  0.000000000000000E+000
  0.000000000000000E+000
  0.000000000000000E+000
  0.000000000000000E+000
  0.000000000000000E+000
  0.000000000000000E+000
  0.000000000000000E+000
  0.000000000000000E+000
  0.000000000000000E+000
  0.000000000000000E+000
  0.000000000000000E+000
  0.000000000000000E+000
  0.000000000000000E+000
  0.000000000000000E+000
  0.000000000000000E+000
  0.000000000000000E+000
  0.000000000000000E+000
  0.000000000000000E+000
  0.000000000000000E+000
  0.000000000000000E+000
  0.000000000000000E+000
  0.000000000000000E+000
  0.000000000000000E+000
  0.000000000000000E+000
  0.000000000000000E+000
  0.000000000000000E+000
  0.000000000000000E+000
  0.000000000000000E+000
  0.000000000000000E+000
  0.000000000000000E+000
  0.000000000000000E+000
  0.000000000000000E+000
  0.000000000000000E+000
  0.000000000000000E+000
  0.000000000000000E+000
  0.000000000000000E+000
  0.000000000000000E+000
  0.000000000000000E+000
  0.000000000000000E+000
  0.000000000000000E+000
  0.000000000000000E+000
  0.000000000000000E+000
  0.000000000000000E+000
  0.000000000000000E+000
  0.000000000000000E+000
  0.000000000000000E+000
  0.000000000000000E+000
  0.000000000000000E+000
  0.000000000000000E+000
  0.000000000000000E+000
  0.000000000000000E+000
  0.000000000000000E+000
  0.000000000000000E+000
  0.000000000000000E+000
  0.000000000000000E+000
  0.000000000000000E+000
  0.000000000000000E+000
  0.000000000000000E+000
  0.000000000000000E+000
  0.000000000000000E+000
  0.000000000000000E+000
  0.000000000000000E+000
  0.000000000000000E+000
  0.000000000000000E+000
  0.000000000000000E+000
  0.000000000000000E+000
  0.000000000000000E+000
  0.000000000000000E+000
  0.000000000000000E+000
  0.000000000000000E+000
  0.000000000000000E+000
  0.000000000000000E+000
  0.000000000000000E+000
  0.000000000000000E+000
  0.000000000000000E+000
  0.000000000000000E+000
  0.000000000000000E+000
  0.000000000000000E+000
  0.000000000000000E+000
  0.000000000000000E+000
  0.000000000000000E+000
  0.000000000000000E+000
  0.000000000000000E+000
  0.000000000000000E+000
  0.000000000000000E+000
  0.000000000000000E+000
  0.000000000000000E+000
  0.000000000000000E+000
  0.000000000000000E+000
  0.000000000000000E+000
  0.000000000000000E+000
  0.000000000000000E+000
  0.000000000000000E+000
  0.000000000000000E+000
  0.000000000000000E+000
  0.000000000000000E+000
  0.000000000000000E+000
  0.000000000000000E+000
  0.000000000000000E+000
  0.000000000000000E+000
  0.000000000000000E+000
  0.000000000000000E+000
  0.000000000000000E+000
  0.000000000000000E+000
  0.000000000000000E+000
  0.000000000000000E+000
  0.000000000000000E+000
  0.000000000000000E+000
  0.000000000000000E+000
  0.000000000000000E+000
  0.000000000000000E+000
  0.000000000000000E+000
  0.000000000000000E+000
  0.000000000000000E+000
  0.000000000000000E+000
  0.000000000000000E+000
  0.000000000000000E+000
  0.000000000000000E+000
  0.000000000000000E+000
  0.000000000000000E+000
  0.000000000000000E+000
  0.000000000000000E+000
  0.000000000000000E+000
  0.000000000000000E+000
  0.000000000000000E+000
  0.000000000000000E+000
  0.000000000000000E+000
  0.000000000000000E+000
  0.000000000000000E+000
  0.000000000000000E+000
  0.000000000000000E+000
  0.000000000000000E+000
  0.000000000000000E+000
  0.000000000000000E+000
  0.000000000000000E+000
  0.000000000000000E+000
  0.000000000000000E+000
  0.000000000000000E+000
  0.000000000000000E+000
  0.000000000000000E+000
  0.000000000000000E+000
  0.000000000000000E+000
  0.000000000000000E+000
  0.000000000000000E+000
  0.000000000000000E+000
  0.000000000000000E+000
  0.000000000000000E+000
  0.000000000000000E+000
  0.000000000000000E+000
  0.000000000000000E+000
  0.000000000000000E+000
  0.000000000000000E+000
  0.000000000000000E+000
  0.000000000000000E+000
  0.000000000000000E+000
  0.000000000000000E+000
  0.000000000000000E+000
  0.000000000000000E+000
  0.000000000000000E+000
  0.000000000000000E+000
  0.000000000000000E+000
  0.000000000000000E+000
  0.000000000000000E+000
  0.000000000000000E+000
  0.000000000000000E+000
  0.000000000000000E+000
  0.000000000000000E+000
  0.000000000000000E+000
  0.000000000000000E+000
  0.000000000000000E+000
  0.000000000000000E+000
  0.000000000000000E+000
  0.000000000000000E+000
  0.000000000000000E+000
  0.000000000000000E+000
  0.000000000000000E+000
  0.000000000000000E+000
  0.000000000000000E+000
  0.000000000000000E+000
  0.000000000000000E+000
  0.000000000000000E+000
  0.000000000000000E+000
  0.000000000000000E+000
  0.000000000000000E+000
  0.000000000000000E+000
  0.000000000000000E+000
  0.000000000000000E+000
  0.000000000000000E+000
  0.000000000000000E+000
  0.000000000000000E+000
  0.000000000000000E+000
  0.000000000000000E+000
  0.000000000000000E+000
  0.000000000000000E+000
  0.000000000000000E+000
  0.000000000000000E+000
  0.000000000000000E+000
  0.000000000000000E+000
  0.000000000000000E+000
  0.000000000000000E+000
  0.000000000000000E+000
  0.000000000000000E+000
  0.000000000000000E+000
  0.000000000000000E+000
  0.000000000000000E+000
  0.000000000000000E+000
  0.000000000000000E+000
  0.000000000000000E+000
  0.000000000000000E+000
  0.000000000000000E+000
  0.000000000000000E+000
  0.000000000000000E+000
  0.000000000000000E+000
  0.000000000000000E+000
  0.000000000000000E+000
  0.000000000000000E+000
  0.000000000000000E+000
  0.000000000000000E+000
  0.000000000000000E+000
  0.000000000000000E+000
  0.000000000000000E+000
  0.000000000000000E+000
  0.000000000000000E+000
  0.000000000000000E+000
  0.000000000000000E+000
  0.000000000000000E+000
  0.000000000000000E+000
  0.000000000000000E+000
  0.000000000000000E+000
  0.000000000000000E+000
  0.000000000000000E+000
  0.000000000000000E+000
  0.000000000000000E+000
  0.000000000000000E+000
  0.000000000000000E+000
  0.000000000000000E+000
  0.000000000000000E+000
  0.000000000000000E+000
  0.000000000000000E+000
  0.000000000000000E+000
  0.000000000000000E+000
  0.000000000000000E+000
  0.000000000000000E+000
  0.000000000000000E+000
  0.000000000000000E+000
  0.000000000000000E+000
  0.000000000000000E+000
  0.000000000000000E+000
  0.000000000000000E+000
  0.000000000000000E+000
  0.000000000000000E+000
  0.000000000000000E+000
  0.000000000000000E+000
  0.000000000000000E+000
  0.000000000000000E+000
  0.000000000000000E+000
  0.000000000000000E+000
  0.000000000000000E+000
  0.000000000000000E+000
  0.000000000000000E+000
  0.000000000000000E+000
  0.000000000000000E+000
  0.000000000000000E+000
  0.000000000000000E+000
  0.000000000000000E+000
  0.000000000000000E+000
  0.000000000000000E+000
  0.000000000000000E+000
  0.000000000000000E+000
  0.000000000000000E+000
  0.000000000000000E+000
  0.000000000000000E+000
  0.000000000000000E+000
  0.000000000000000E+000
  0.000000000000000E+000
  0.000000000000000E+000
  0.000000000000000E+000
  0.000000000000000E+000
  0.000000000000000E+000
  0.000000000000000E+000
  0.000000000000000E+000
  0.000000000000000E+000
  0.000000000000000E+000
  0.000000000000000E+000
  0.000000000000000E+000
  0.000000000000000E+000
  0.000000000000000E+000
  0.000000000000000E+000
  0.000000000000000E+000
  0.000000000000000E+000
  0.000000000000000E+000
  0.000000000000000E+000
  0.000000000000000E+000
  0.000000000000000E+000
  0.000000000000000E+000
  0.000000000000000E+000
  0.000000000000000E+000
  0.000000000000000E+000
  0.000000000000000E+000
  0.000000000000000E+000
  0.000000000000000E+000
  0.000000000000000E+000
  0.000000000000000E+000
  0.000000000000000E+000
  0.000000000000000E+000
  0.000000000000000E+000
  0.000000000000000E+000
  0.000000000000000E+000
  0.000000000000000E+000
  0.000000000000000E+000
  0.000000000000000E+000
  0.000000000000000E+000
  0.000000000000000E+000
  0.000000000000000E+000
  0.000000000000000E+000
  0.000000000000000E+000
  0.000000000000000E+000
  0.000000000000000E+000
  0.000000000000000E+000
  0.000000000000000E+000
  0.000000000000000E+000
  0.000000000000000E+000
  0.000000000000000E+000
  0.000000000000000E+000
  0.000000000000000E+000
  0.000000000000000E+000
  0.000000000000000E+000
  0.000000000000000E+000
  0.000000000000000E+000
  0.000000000000000E+000
  0.000000000000000E+000
  0.000000000000000E+000
  0.000000000000000E+000
  0.000000000000000E+000
  0.000000000000000E+000
  0.000000000000000E+000
  0.000000000000000E+000
  0.000000000000000E+000
  0.000000000000000E+000
  0.000000000000000E+000
  0.000000000000000E+000
  0.000000000000000E+000
  0.000000000000000E+000
  0.000000000000000E+000
  0.000000000000000E+000
  0.000000000000000E+000
  0.000000000000000E+000
  0.000000000000000E+000
  0.000000000000000E+000
  0.000000000000000E+000
  0.000000000000000E+000
  0.000000000000000E+000
  0.000000000000000E+000
  0.000000000000000E+000
  0.000000000000000E+000
  0.000000000000000E+000
  0.000000000000000E+000
  0.000000000000000E+000
  0.000000000000000E+000
  0.000000000000000E+000
  0.000000000000000E+000
  0.000000000000000E+000
  0.000000000000000E+000
  0.000000000000000E+000
  0.000000000000000E+000
  0.000000000000000E+000
  0.000000000000000E+000
  0.000000000000000E+000
  0.000000000000000E+000
  0.000000000000000E+000
  0.000000000000000E+000
  0.000000000000000E+000
  0.000000000000000E+000
  0.000000000000000E+000
  0.000000000000000E+000
  0.000000000000000E+000
  0.000000000000000E+000
  0.000000000000000E+000
  0.000000000000000E+000
  0.000000000000000E+000
  0.000000000000000E+000
  0.000000000000000E+000
  0.000000000000000E+000
  0.000000000000000E+000
  0.000000000000000E+000
  0.000000000000000E+000
  0.000000000000000E+000
  0.000000000000000E+000
  0.000000000000000E+000
  0.000000000000000E+000
  0.000000000000000E+000
  0.000000000000000E+000
  0.000000000000000E+000
  0.000000000000000E+000
  0.000000000000000E+000
  0.000000000000000E+000
  0.000000000000000E+000
  0.000000000000000E+000
  0.000000000000000E+000
  0.000000000000000E+000
  0.000000000000000E+000
  0.000000000000000E+000
  0.000000000000000E+000
  0.000000000000000E+000
  0.000000000000000E+000
  0.000000000000000E+000
  0.000000000000000E+000
  0.000000000000000E+000
  0.000000000000000E+000
  0.000000000000000E+000
  0.000000000000000E+000
  0.000000000000000E+000
  0.000000000000000E+000
  0.000000000000000E+000
  0.000000000000000E+000
  0.000000000000000E+000
  0.000000000000000E+000
  0.000000000000000E+000
  0.000000000000000E+000
  0.000000000000000E+000
  0.000000000000000E+000
  0.000000000000000E+000
  0.000000000000000E+000
  0.000000000000000E+000
  0.000000000000000E+000
  0.000000000000000E+000
  0.000000000000000E+000
  0.000000000000000E+000
  0.000000000000000E+000
  0.000000000000000E+000
  0.000000000000000E+000
  0.000000000000000E+000
  0.000000000000000E+000
  0.000000000000000E+000
  0.000000000000000E+000
  0.000000000000000E+000
  0.000000000000000E+000
  0.000000000000000E+000
  0.000000000000000E+000
  0.000000000000000E+000
  0.000000000000000E+000
  0.000000000000000E+000
  0.000000000000000E+000
  0.000000000000000E+000
  0.000000000000000E+000
  0.000000000000000E+000
  0.000000000000000E+000
  0.000000000000000E+000
  0.000000000000000E+000
  0.000000000000000E+000
  0.000000000000000E+000
  0.000000000000000E+000
  0.000000000000000E+000
  0.000000000000000E+000
  0.000000000000000E+000
  0.000000000000000E+000
  0.000000000000000E+000
  0.000000000000000E+000
  0.000000000000000E+000
  0.000000000000000E+000
  0.000000000000000E+000
  0.000000000000000E+000
  0.000000000000000E+000
  0.000000000000000E+000
  0.000000000000000E+000
  0.000000000000000E+000
  0.000000000000000E+000
  0.000000000000000E+000
  0.000000000000000E+000
  0.000000000000000E+000
  0.000000000000000E+000
  0.000000000000000E+000
  0.000000000000000E+000
  0.000000000000000E+000
  0.000000000000000E+000
  0.000000000000000E+000
  0.000000000000000E+000
  0.000000000000000E+000
  0.000000000000000E+000
  0.000000000000000E+000
  0.000000000000000E+000
  0.000000000000000E+000
  0.000000000000000E+000
  0.000000000000000E+000
  0.000000000000000E+000
  0.000000000000000E+000
  0.000000000000000E+000
  0.000000000000000E+000
  0.000000000000000E+000
  0.000000000000000E+000
  0.000000000000000E+000
  0.000000000000000E+000
  0.000000000000000E+000
  0.000000000000000E+000
  0.000000000000000E+000
  0.000000000000000E+000
  0.000000000000000E+000
  0.000000000000000E+000
  0.000000000000000E+000
  0.000000000000000E+000
  0.000000000000000E+000
  0.000000000000000E+000
  0.000000000000000E+000
  0.000000000000000E+000
  0.000000000000000E+000
  0.000000000000000E+000
  0.000000000000000E+000
  0.000000000000000E+000
  0.000000000000000E+000
  0.000000000000000E+000
  0.000000000000000E+000
  0.000000000000000E+000
  0.000000000000000E+000
  0.000000000000000E+000
  0.000000000000000E+000
  0.000000000000000E+000
  0.000000000000000E+000
  0.000000000000000E+000
  0.000000000000000E+000
  0.000000000000000E+000
  0.000000000000000E+000
  0.000000000000000E+000
  0.000000000000000E+000
  0.000000000000000E+000
  0.000000000000000E+000
  0.000000000000000E+000
  0.000000000000000E+000
  0.000000000000000E+000
  0.000000000000000E+000
  0.000000000000000E+000
  0.000000000000000E+000
  0.000000000000000E+000
  0.000000000000000E+000
  0.000000000000000E+000
  0.000000000000000E+000
  0.000000000000000E+000
  0.000000000000000E+000
  0.000000000000000E+000
  0.000000000000000E+000
  0.000000000000000E+000
  0.000000000000000E+000
  0.000000000000000E+000
  0.000000000000000E+000
  0.000000000000000E+000
  0.000000000000000E+000
  0.000000000000000E+000
  0.000000000000000E+000
  0.000000000000000E+000
  0.000000000000000E+000
  0.000000000000000E+000
  0.000000000000000E+000
  0.000000000000000E+000
  0.000000000000000E+000
  0.000000000000000E+000
  0.000000000000000E+000
  0.000000000000000E+000
  0.000000000000000E+000
  0.000000000000000E+000
  0.000000000000000E+000
  0.000000000000000E+000
  0.000000000000000E+000
  0.000000000000000E+000
  0.000000000000000E+000
  0.000000000000000E+000
  0.000000000000000E+000
  0.000000000000000E+000
  0.000000000000000E+000
  0.000000000000000E+000
  0.000000000000000E+000
  0.000000000000000E+000
  0.000000000000000E+000
  0.000000000000000E+000
  0.000000000000000E+000
  0.000000000000000E+000
  0.000000000000000E+000
  0.000000000000000E+000
  0.000000000000000E+000
  0.000000000000000E+000
  0.000000000000000E+000
  0.000000000000000E+000
  0.000000000000000E+000
  0.000000000000000E+000
  0.000000000000000E+000
  0.000000000000000E+000
  0.000000000000000E+000
  0.000000000000000E+000
  0.000000000000000E+000
  0.000000000000000E+000
  0.000000000000000E+000
  0.000000000000000E+000
  0.000000000000000E+000
  0.000000000000000E+000
  0.000000000000000E+000
  0.000000000000000E+000
  0.000000000000000E+000
  0.000000000000000E+000
  0.000000000000000E+000
  0.000000000000000E+000
  0.000000000000000E+000
  0.000000000000000E+000
  0.000000000000000E+000
  0.000000000000000E+000
  0.000000000000000E+000
  0.000000000000000E+000
  0.000000000000000E+000
  0.000000000000000E+000
  0.000000000000000E+000
  0.000000000000000E+000
  0.000000000000000E+000
  0.000000000000000E+000
  0.000000000000000E+000
  0.000000000000000E+000
  0.000000000000000E+000
  0.000000000000000E+000
  0.000000000000000E+000
  0.000000000000000E+000
  0.000000000000000E+000
  0.000000000000000E+000
  0.000000000000000E+000
  0.000000000000000E+000
  0.000000000000000E+000
  0.000000000000000E+000
  0.000000000000000E+000
  0.000000000000000E+000
  0.000000000000000E+000
  0.000000000000000E+000
  0.000000000000000E+000
  0.000000000000000E+000
  0.000000000000000E+000
  0.000000000000000E+000
  0.000000000000000E+000
  0.000000000000000E+000
  0.000000000000000E+000
  0.000000000000000E+000
  0.000000000000000E+000
  0.000000000000000E+000
  0.000000000000000E+000
  0.000000000000000E+000
  0.000000000000000E+000
  0.000000000000000E+000
  0.000000000000000E+000
  0.000000000000000E+000
  0.000000000000000E+000
  0.000000000000000E+000
  0.000000000000000E+000
  0.000000000000000E+000
  0.000000000000000E+000
  0.000000000000000E+000
  0.000000000000000E+000
  0.000000000000000E+000
  0.000000000000000E+000
  0.000000000000000E+000
  0.000000000000000E+000
  0.000000000000000E+000
  0.000000000000000E+000
  0.000000000000000E+000
  0.000000000000000E+000
  0.000000000000000E+000
  0.000000000000000E+000
  0.000000000000000E+000
  0.000000000000000E+000
  0.000000000000000E+000
  0.000000000000000E+000
  0.000000000000000E+000
  0.000000000000000E+000
  0.000000000000000E+000
  0.000000000000000E+000
  0.000000000000000E+000
  0.000000000000000E+000
  0.000000000000000E+000
  0.000000000000000E+000
  0.000000000000000E+000
  0.000000000000000E+000
  0.000000000000000E+000
  0.000000000000000E+000
  0.000000000000000E+000
  0.000000000000000E+000
  0.000000000000000E+000
  0.000000000000000E+000
  0.000000000000000E+000
  0.000000000000000E+000
  0.000000000000000E+000
  0.000000000000000E+000
  0.000000000000000E+000
  0.000000000000000E+000
  0.000000000000000E+000
  0.000000000000000E+000
  0.000000000000000E+000
  0.000000000000000E+000
  0.000000000000000E+000
  0.000000000000000E+000
  0.000000000000000E+000
  0.000000000000000E+000
  0.000000000000000E+000
  0.000000000000000E+000
  0.000000000000000E+000
  0.000000000000000E+000
  0.000000000000000E+000
  0.000000000000000E+000
  0.000000000000000E+000
  0.000000000000000E+000
  0.000000000000000E+000
  0.000000000000000E+000
  0.000000000000000E+000
  0.000000000000000E+000
  0.000000000000000E+000
  0.000000000000000E+000
  0.000000000000000E+000
  0.000000000000000E+000
  0.000000000000000E+000
  0.000000000000000E+000
  0.000000000000000E+000
  0.000000000000000E+000
  0.000000000000000E+000
  0.000000000000000E+000
  0.000000000000000E+000
  0.000000000000000E+000
  0.000000000000000E+000
  0.000000000000000E+000
  0.000000000000000E+000
  0.000000000000000E+000
  0.000000000000000E+000
  0.000000000000000E+000
  0.000000000000000E+000
  0.000000000000000E+000
  0.000000000000000E+000
  0.000000000000000E+000
  0.000000000000000E+000
  0.000000000000000E+000
  0.000000000000000E+000
  0.000000000000000E+000
  0.000000000000000E+000
  0.000000000000000E+000
  0.000000000000000E+000
  0.000000000000000E+000
  0.000000000000000E+000
  0.000000000000000E+000
  0.000000000000000E+000
  0.000000000000000E+000
  0.000000000000000E+000
  0.000000000000000E+000
  0.000000000000000E+000
  0.000000000000000E+000
  0.000000000000000E+000
  0.000000000000000E+000
  0.000000000000000E+000
  0.000000000000000E+000
  0.000000000000000E+000
  0.000000000000000E+000
  0.000000000000000E+000
  0.000000000000000E+000
  0.000000000000000E+000
  0.000000000000000E+000
  0.000000000000000E+000
  0.000000000000000E+000
  0.000000000000000E+000
  0.000000000000000E+000
  0.000000000000000E+000
  0.000000000000000E+000
  0.000000000000000E+000
  0.000000000000000E+000
  0.000000000000000E+000
  0.000000000000000E+000
  0.000000000000000E+000
  0.000000000000000E+000
  0.000000000000000E+000
  0.000000000000000E+000
  0.000000000000000E+000
  0.000000000000000E+000
  0.000000000000000E+000
  0.000000000000000E+000
  0.000000000000000E+000
  0.000000000000000E+000
  0.000000000000000E+000
  0.000000000000000E+000
  0.000000000000000E+000
  0.000000000000000E+000
  0.000000000000000E+000
  0.000000000000000E+000
  0.000000000000000E+000
  0.000000000000000E+000
  0.000000000000000E+000
  0.000000000000000E+000
  0.000000000000000E+000
  0.000000000000000E+000
  0.000000000000000E+000
  0.000000000000000E+000
  0.000000000000000E+000
  0.000000000000000E+000
  0.000000000000000E+000
  0.000000000000000E+000
  0.000000000000000E+000
  0.000000000000000E+000
  0.000000000000000E+000
  0.000000000000000E+000
  0.000000000000000E+000
  0.000000000000000E+000
  0.000000000000000E+000
  0.000000000000000E+000
  0.000000000000000E+000
  0.000000000000000E+000
  0.000000000000000E+000
  0.000000000000000E+000
  0.000000000000000E+000
  0.000000000000000E+000
  0.000000000000000E+000
  0.000000000000000E+000
  0.000000000000000E+000
  0.000000000000000E+000
  0.000000000000000E+000
  0.000000000000000E+000
  0.000000000000000E+000
  0.000000000000000E+000
  0.000000000000000E+000
  0.000000000000000E+000
  0.000000000000000E+000
  0.000000000000000E+000
  0.000000000000000E+000
  0.000000000000000E+000
  0.000000000000000E+000
  0.000000000000000E+000
  0.000000000000000E+000
  0.000000000000000E+000
  0.000000000000000E+000
  0.000000000000000E+000
  0.000000000000000E+000
  0.000000000000000E+000
  0.000000000000000E+000
  0.000000000000000E+000
  0.000000000000000E+000
  0.000000000000000E+000
  0.000000000000000E+000
  0.000000000000000E+000
  0.000000000000000E+000
  0.000000000000000E+000
  0.000000000000000E+000
  0.000000000000000E+000
  0.000000000000000E+000
  0.000000000000000E+000
  0.000000000000000E+000
  0.000000000000000E+000
  0.000000000000000E+000
  0.000000000000000E+000
  0.000000000000000E+000
  0.000000000000000E+000
  0.000000000000000E+000
  0.000000000000000E+000
  0.000000000000000E+000
  0.000000000000000E+000
  0.000000000000000E+000
  0.000000000000000E+000
  0.000000000000000E+000
  0.000000000000000E+000
  0.000000000000000E+000
  0.000000000000000E+000
  0.000000000000000E+000
  0.000000000000000E+000
  0.000000000000000E+000
  0.000000000000000E+000
  0.000000000000000E+000
  0.000000000000000E+000
  0.000000000000000E+000
  0.000000000000000E+000
  0.000000000000000E+000
  0.000000000000000E+000
  0.000000000000000E+000
  0.000000000000000E+000
  0.000000000000000E+000
  0.000000000000000E+000
  0.000000000000000E+000
  0.000000000000000E+000
  0.000000000000000E+000
  0.000000000000000E+000
  0.000000000000000E+000
  0.000000000000000E+000
  0.000000000000000E+000
  0.000000000000000E+000
  0.000000000000000E+000
  0.000000000000000E+000
  0.000000000000000E+000
  0.000000000000000E+000
  0.000000000000000E+000
  0.000000000000000E+000
  0.000000000000000E+000
  0.000000000000000E+000
  0.000000000000000E+000
  0.000000000000000E+000
  0.000000000000000E+000
  0.000000000000000E+000
  0.000000000000000E+000
  0.000000000000000E+000
  0.000000000000000E+000
  0.000000000000000E+000
  0.000000000000000E+000
  0.000000000000000E+000
  0.000000000000000E+000
  0.000000000000000E+000
  0.000000000000000E+000
  0.000000000000000E+000
  0.000000000000000E+000
  0.000000000000000E+000
  0.000000000000000E+000
  0.000000000000000E+000
  0.000000000000000E+000
  0.000000000000000E+000
  0.000000000000000E+000
  0.000000000000000E+000
  0.000000000000000E+000
  0.000000000000000E+000
  0.000000000000000E+000
  0.000000000000000E+000
  0.000000000000000E+000
  0.000000000000000E+000
  0.000000000000000E+000
  0.000000000000000E+000
  0.000000000000000E+000
  0.000000000000000E+000
  0.000000000000000E+000
  0.000000000000000E+000
  0.000000000000000E+000
  0.000000000000000E+000
  0.000000000000000E+000
  0.000000000000000E+000
  0.000000000000000E+000
  0.000000000000000E+000
  0.000000000000000E+000
  0.000000000000000E+000
  0.000000000000000E+000
  0.000000000000000E+000
  0.000000000000000E+000
  0.000000000000000E+000
  0.000000000000000E+000
  0.000000000000000E+000
  0.000000000000000E+000
  0.000000000000000E+000
  0.000000000000000E+000
  0.000000000000000E+000
  0.000000000000000E+000
  0.000000000000000E+000
  0.000000000000000E+000
  0.000000000000000E+000
  0.000000000000000E+000
  0.000000000000000E+000
  0.000000000000000E+000
  0.000000000000000E+000
  0.000000000000000E+000
  0.000000000000000E+000
  0.000000000000000E+000
  0.000000000000000E+000
  0.000000000000000E+000
  0.000000000000000E+000
  0.000000000000000E+000
  0.000000000000000E+000
  0.000000000000000E+000
  0.000000000000000E+000
  0.000000000000000E+000
  0.000000000000000E+000
  0.000000000000000E+000
  0.000000000000000E+000
  0.000000000000000E+000
  0.000000000000000E+000
  0.000000000000000E+000
  0.000000000000000E+000
  0.000000000000000E+000
  0.000000000000000E+000
  0.000000000000000E+000
  0.000000000000000E+000
  0.000000000000000E+000
  0.000000000000000E+000
  0.000000000000000E+000
  0.000000000000000E+000
  0.000000000000000E+000
  0.000000000000000E+000
  0.000000000000000E+000
  0.000000000000000E+000
  0.000000000000000E+000
  0.000000000000000E+000
  0.000000000000000E+000
  0.000000000000000E+000
  0.000000000000000E+000
  0.000000000000000E+000
  0.000000000000000E+000
  0.000000000000000E+000
  0.000000000000000E+000
  0.000000000000000E+000
  0.000000000000000E+000
  0.000000000000000E+000
  0.000000000000000E+000
  0.000000000000000E+000
  0.000000000000000E+000
  0.000000000000000E+000
  0.000000000000000E+000
  0.000000000000000E+000
  0.000000000000000E+000
  0.000000000000000E+000
  0.000000000000000E+000
  0.000000000000000E+000
  0.000000000000000E+000
  0.000000000000000E+000
  0.000000000000000E+000
  0.000000000000000E+000
  0.000000000000000E+000
  0.000000000000000E+000
  0.000000000000000E+000
  0.000000000000000E+000
  0.000000000000000E+000
  0.000000000000000E+000
  0.000000000000000E+000
  0.000000000000000E+000
  0.000000000000000E+000
  0.000000000000000E+000
  0.000000000000000E+000
  0.000000000000000E+000
  0.000000000000000E+000
  0.000000000000000E+000
  0.000000000000000E+000
  0.000000000000000E+000
  0.000000000000000E+000
  0.000000000000000E+000
  0.000000000000000E+000
  0.000000000000000E+000
  0.000000000000000E+000
  0.000000000000000E+000
  0.000000000000000E+000
  0.000000000000000E+000
  0.000000000000000E+000
  0.000000000000000E+000
  0.000000000000000E+000
  0.000000000000000E+000
  0.000000000000000E+000
  0.000000000000000E+000
  0.000000000000000E+000
  0.000000000000000E+000
  0.000000000000000E+000
  0.000000000000000E+000
  0.000000000000000E+000
  0.000000000000000E+000
  0.000000000000000E+000
  0.000000000000000E+000
  0.000000000000000E+000
  0.000000000000000E+000
  0.000000000000000E+000
  0.000000000000000E+000
  0.000000000000000E+000
  0.000000000000000E+000
  0.000000000000000E+000
  0.000000000000000E+000
  0.000000000000000E+000
  0.000000000000000E+000
  0.000000000000000E+000
  0.000000000000000E+000
  0.000000000000000E+000
  0.000000000000000E+000
  0.000000000000000E+000
  0.000000000000000E+000
  0.000000000000000E+000
  0.000000000000000E+000
  0.000000000000000E+000
  0.000000000000000E+000
  0.000000000000000E+000
  0.000000000000000E+000
  0.000000000000000E+000
  0.000000000000000E+000
  0.000000000000000E+000
  0.000000000000000E+000
  0.000000000000000E+000
  0.000000000000000E+000
  0.000000000000000E+000
  0.000000000000000E+000
  0.000000000000000E+000
  0.000000000000000E+000
  0.000000000000000E+000
  0.000000000000000E+000
  0.000000000000000E+000
  0.000000000000000E+000
  0.000000000000000E+000
  0.000000000000000E+000
  0.000000000000000E+000
  0.000000000000000E+000
  0.000000000000000E+000
  0.000000000000000E+000
  0.000000000000000E+000
  0.000000000000000E+000
  0.000000000000000E+000
  0.000000000000000E+000
  0.000000000000000E+000
  0.000000000000000E+000
  0.000000000000000E+000
  0.000000000000000E+000
  0.000000000000000E+000
  0.000000000000000E+000
  0.000000000000000E+000
  0.000000000000000E+000
  0.000000000000000E+000
  0.000000000000000E+000
  0.000000000000000E+000
  0.000000000000000E+000
  0.000000000000000E+000
  0.000000000000000E+000
  0.000000000000000E+000
  0.000000000000000E+000
  0.000000000000000E+000
  0.000000000000000E+000
  0.000000000000000E+000
  0.000000000000000E+000
  0.000000000000000E+000
  0.000000000000000E+000
  0.000000000000000E+000
  0.000000000000000E+000
  0.000000000000000E+000
  0.000000000000000E+000
  0.000000000000000E+000
  0.000000000000000E+000
  0.000000000000000E+000
  0.000000000000000E+000
  0.000000000000000E+000
  0.000000000000000E+000
  0.000000000000000E+000
  0.000000000000000E+000
  0.000000000000000E+000
  0.000000000000000E+000
  0.000000000000000E+000
  0.000000000000000E+000
  0.000000000000000E+000
  0.000000000000000E+000
  0.000000000000000E+000
  0.000000000000000E+000
  0.000000000000000E+000
  0.000000000000000E+000
  0.000000000000000E+000
  0.000000000000000E+000
  0.000000000000000E+000
  0.000000000000000E+000
  0.000000000000000E+000
  0.000000000000000E+000
  0.000000000000000E+000
  0.000000000000000E+000
  0.000000000000000E+000
  0.000000000000000E+000
  0.000000000000000E+000
  0.000000000000000E+000
  0.000000000000000E+000
  0.000000000000000E+000
  0.000000000000000E+000
  0.000000000000000E+000
  0.000000000000000E+000
  0.000000000000000E+000
  0.000000000000000E+000
  0.000000000000000E+000
  0.000000000000000E+000
  0.000000000000000E+000
  0.000000000000000E+000
  0.000000000000000E+000
  0.000000000000000E+000
  0.000000000000000E+000
  0.000000000000000E+000
  0.000000000000000E+000
  0.000000000000000E+000
  0.000000000000000E+000
  0.000000000000000E+000
  0.000000000000000E+000
  0.000000000000000E+000
  0.000000000000000E+000
  0.000000000000000E+000
  0.000000000000000E+000
  0.000000000000000E+000
  0.000000000000000E+000
  0.000000000000000E+000
  0.000000000000000E+000
  0.000000000000000E+000
  0.000000000000000E+000
  0.000000000000000E+000
  0.000000000000000E+000
  0.000000000000000E+000
  0.000000000000000E+000
  0.000000000000000E+000
  0.000000000000000E+000
  0.000000000000000E+000
  0.000000000000000E+000
  0.000000000000000E+000
  0.000000000000000E+000
  0.000000000000000E+000
  0.000000000000000E+000
  0.000000000000000E+000
  0.000000000000000E+000
  0.000000000000000E+000
  0.000000000000000E+000
  0.000000000000000E+000
  0.000000000000000E+000
  0.000000000000000E+000
  0.000000000000000E+000
  0.000000000000000E+000
  0.000000000000000E+000
  0.000000000000000E+000
  0.000000000000000E+000
  0.000000000000000E+000
  0.000000000000000E+000
  0.000000000000000E+000
  0.000000000000000E+000
  0.000000000000000E+000
  0.000000000000000E+000
  0.000000000000000E+000
  0.000000000000000E+000
  0.000000000000000E+000
  0.000000000000000E+000
  0.000000000000000E+000
  0.000000000000000E+000
  0.000000000000000E+000
  0.000000000000000E+000
  0.000000000000000E+000
  0.000000000000000E+000
  0.000000000000000E+000
  0.000000000000000E+000
  0.000000000000000E+000
  0.000000000000000E+000
  0.000000000000000E+000
  0.000000000000000E+000
  0.000000000000000E+000
  0.000000000000000E+000
  0.000000000000000E+000
  0.000000000000000E+000
  0.000000000000000E+000
  0.000000000000000E+000
  0.000000000000000E+000
  0.000000000000000E+000
  0.000000000000000E+000
  0.000000000000000E+000
  0.000000000000000E+000
  0.000000000000000E+000
  0.000000000000000E+000
  0.000000000000000E+000
  0.000000000000000E+000
  0.000000000000000E+000
  0.000000000000000E+000
  0.000000000000000E+000
  0.000000000000000E+000
  0.000000000000000E+000
  0.000000000000000E+000
  0.000000000000000E+000
  0.000000000000000E+000
  0.000000000000000E+000
  0.000000000000000E+000
  0.000000000000000E+000
  0.000000000000000E+000
  0.000000000000000E+000
  0.000000000000000E+000
  0.000000000000000E+000
  0.000000000000000E+000
  0.000000000000000E+000
  0.000000000000000E+000
  0.000000000000000E+000
  0.000000000000000E+000
  0.000000000000000E+000
  0.000000000000000E+000
  0.000000000000000E+000
  0.000000000000000E+000
  0.000000000000000E+000
  0.000000000000000E+000
  0.000000000000000E+000
  0.000000000000000E+000
  0.000000000000000E+000
  0.000000000000000E+000
  0.000000000000000E+000
  0.000000000000000E+000
  0.000000000000000E+000
  0.000000000000000E+000
  0.000000000000000E+000
  0.000000000000000E+000
  0.000000000000000E+000
  0.000000000000000E+000
  0.000000000000000E+000
  0.000000000000000E+000
  0.000000000000000E+000
  0.000000000000000E+000
  0.000000000000000E+000
  0.000000000000000E+000
  0.000000000000000E+000
  0.000000000000000E+000
  0.000000000000000E+000
  0.000000000000000E+000
  0.000000000000000E+000
  0.000000000000000E+000
  0.000000000000000E+000
  0.000000000000000E+000
  0.000000000000000E+000
  0.000000000000000E+000
  0.000000000000000E+000
  0.000000000000000E+000
  0.000000000000000E+000
  0.000000000000000E+000
  0.000000000000000E+000
  0.000000000000000E+000
  0.000000000000000E+000
  0.000000000000000E+000
  0.000000000000000E+000
  0.000000000000000E+000
  0.000000000000000E+000
  0.000000000000000E+000
  0.000000000000000E+000
  0.000000000000000E+000
  0.000000000000000E+000
  0.000000000000000E+000
  0.000000000000000E+000
  0.000000000000000E+000
  0.000000000000000E+000
  0.000000000000000E+000
  0.000000000000000E+000
  0.000000000000000E+000
  0.000000000000000E+000
  0.000000000000000E+000
  0.000000000000000E+000
  0.000000000000000E+000
  0.000000000000000E+000
  0.000000000000000E+000
  0.000000000000000E+000
  0.000000000000000E+000
  0.000000000000000E+000
  0.000000000000000E+000
  0.000000000000000E+000
  0.000000000000000E+000
  0.000000000000000E+000
  0.000000000000000E+000
  0.000000000000000E+000
  0.000000000000000E+000
  0.000000000000000E+000
  0.000000000000000E+000
  0.000000000000000E+000
  0.000000000000000E+000
  0.000000000000000E+000
  0.000000000000000E+000
  0.000000000000000E+000
  0.000000000000000E+000
  0.000000000000000E+000
  0.000000000000000E+000
  0.000000000000000E+000
  0.000000000000000E+000
  0.000000000000000E+000
  0.000000000000000E+000
  0.000000000000000E+000
  0.000000000000000E+000
  0.000000000000000E+000
  0.000000000000000E+000
  0.000000000000000E+000
  0.000000000000000E+000
  0.000000000000000E+000
  0.000000000000000E+000
  0.000000000000000E+000
  0.000000000000000E+000
  0.000000000000000E+000
  0.000000000000000E+000
  0.000000000000000E+000
  0.000000000000000E+000
  0.000000000000000E+000
  0.000000000000000E+000
  0.000000000000000E+000
  0.000000000000000E+000
  0.000000000000000E+000
  0.000000000000000E+000
  0.000000000000000E+000
  0.000000000000000E+000
  0.000000000000000E+000
  0.000000000000000E+000
  0.000000000000000E+000
  0.000000000000000E+000
  0.000000000000000E+000
  0.000000000000000E+000
  0.000000000000000E+000
  0.000000000000000E+000
  0.000000000000000E+000
  0.000000000000000E+000
  0.000000000000000E+000
  0.000000000000000E+000
  0.000000000000000E+000
  0.000000000000000E+000
  0.000000000000000E+000
  0.000000000000000E+000
  0.000000000000000E+000
  0.000000000000000E+000
  0.000000000000000E+000
  0.000000000000000E+000
  0.000000000000000E+000
  0.000000000000000E+000
  0.000000000000000E+000
  0.000000000000000E+000
  0.000000000000000E+000
  0.000000000000000E+000
  0.000000000000000E+000
  0.000000000000000E+000
  0.000000000000000E+000
  0.000000000000000E+000
  0.000000000000000E+000
  0.000000000000000E+000
  0.000000000000000E+000
  0.000000000000000E+000
  0.000000000000000E+000
  0.000000000000000E+000
  0.000000000000000E+000
  0.000000000000000E+000
  0.000000000000000E+000
  0.000000000000000E+000
  0.000000000000000E+000
  0.000000000000000E+000
  0.000000000000000E+000
  0.000000000000000E+000
  0.000000000000000E+000
  0.000000000000000E+000
  0.000000000000000E+000
  0.000000000000000E+000
  0.000000000000000E+000
  0.000000000000000E+000
  0.000000000000000E+000
  0.000000000000000E+000
  0.000000000000000E+000
  0.000000000000000E+000
  0.000000000000000E+000
  0.000000000000000E+000
  0.000000000000000E+000
  0.000000000000000E+000
  0.000000000000000E+000
  0.000000000000000E+000
  0.000000000000000E+000
  0.000000000000000E+000
  0.000000000000000E+000
  0.000000000000000E+000
  0.000000000000000E+000
  0.000000000000000E+000
  0.000000000000000E+000
  0.000000000000000E+000
  0.000000000000000E+000
  0.000000000000000E+000
  0.000000000000000E+000
  0.000000000000000E+000
  0.000000000000000E+000
  0.000000000000000E+000
  0.000000000000000E+000
  0.000000000000000E+000
  0.000000000000000E+000
  0.000000000000000E+000
  0.000000000000000E+000
  0.000000000000000E+000
  0.000000000000000E+000
  0.000000000000000E+000
  0.000000000000000E+000
  0.000000000000000E+000
  0.000000000000000E+000
  0.000000000000000E+000
  0.000000000000000E+000
  0.000000000000000E+000
  0.000000000000000E+000
  0.000000000000000E+000
  0.000000000000000E+000
  0.000000000000000E+000
  0.000000000000000E+000
  0.000000000000000E+000
  0.000000000000000E+000
  0.000000000000000E+000
  0.000000000000000E+000
  0.000000000000000E+000
  0.000000000000000E+000
  0.000000000000000E+000
  0.000000000000000E+000
  0.000000000000000E+000
  0.000000000000000E+000
  0.000000000000000E+000
  0.000000000000000E+000
  0.000000000000000E+000
  0.000000000000000E+000
  0.000000000000000E+000
  0.000000000000000E+000
  0.000000000000000E+000
  0.000000000000000E+000
  0.000000000000000E+000
  0.000000000000000E+000
  0.000000000000000E+000
  0.000000000000000E+000
  0.000000000000000E+000
  0.000000000000000E+000
  0.000000000000000E+000
  0.000000000000000E+000
  0.000000000000000E+000
  0.000000000000000E+000
  0.000000000000000E+000
  0.000000000000000E+000
  0.000000000000000E+000
  0.000000000000000E+000
  0.000000000000000E+000
  0.000000000000000E+000
  0.000000000000000E+000
  0.000000000000000E+000
  0.000000000000000E+000
  0.000000000000000E+000
  0.000000000000000E+000
  0.000000000000000E+000
  0.000000000000000E+000
  0.000000000000000E+000
  0.000000000000000E+000
  0.000000000000000E+000
  0.000000000000000E+000
  0.000000000000000E+000
  0.000000000000000E+000
  0.000000000000000E+000
  0.000000000000000E+000
  0.000000000000000E+000
  0.000000000000000E+000
  0.000000000000000E+000
  0.000000000000000E+000
  0.000000000000000E+000
  0.000000000000000E+000
  0.000000000000000E+000
  0.000000000000000E+000
  0.000000000000000E+000
  0.000000000000000E+000
  0.000000000000000E+000
  0.000000000000000E+000
  0.000000000000000E+000
  0.000000000000000E+000
  0.000000000000000E+000
  0.000000000000000E+000
  0.000000000000000E+000
  0.000000000000000E+000
  0.000000000000000E+000
  0.000000000000000E+000
  0.000000000000000E+000
  0.000000000000000E+000
  0.000000000000000E+000
  0.000000000000000E+000
  0.000000000000000E+000
  0.000000000000000E+000
  0.000000000000000E+000
  0.000000000000000E+000
  0.000000000000000E+000
  0.000000000000000E+000
  0.000000000000000E+000
  0.000000000000000E+000
  0.000000000000000E+000
  0.000000000000000E+000
  0.000000000000000E+000
  0.000000000000000E+000
  0.000000000000000E+000
  0.000000000000000E+000
  0.000000000000000E+000
  0.000000000000000E+000
  0.000000000000000E+000
  0.000000000000000E+000
  0.000000000000000E+000
  0.000000000000000E+000
  0.000000000000000E+000
  0.000000000000000E+000
  0.000000000000000E+000
  0.000000000000000E+000
  0.000000000000000E+000
  0.000000000000000E+000
  0.000000000000000E+000
  0.000000000000000E+000
  0.000000000000000E+000
  0.000000000000000E+000
  0.000000000000000E+000
  0.000000000000000E+000
  0.000000000000000E+000
  0.000000000000000E+000
  0.000000000000000E+000
  0.000000000000000E+000
  0.000000000000000E+000
  0.000000000000000E+000
  0.000000000000000E+000
  0.000000000000000E+000
  0.000000000000000E+000
  0.000000000000000E+000
  0.000000000000000E+000
  0.000000000000000E+000
  0.000000000000000E+000
  0.000000000000000E+000
  0.000000000000000E+000
  0.000000000000000E+000
  0.000000000000000E+000
  0.000000000000000E+000
  0.000000000000000E+000
  0.000000000000000E+000
  0.000000000000000E+000
  0.000000000000000E+000
  0.000000000000000E+000
  0.000000000000000E+000
  0.000000000000000E+000
  0.000000000000000E+000
  0.000000000000000E+000
  0.000000000000000E+000
  0.000000000000000E+000
  0.000000000000000E+000
  0.000000000000000E+000
  0.000000000000000E+000
  0.000000000000000E+000
  0.000000000000000E+000
  0.000000000000000E+000
  0.000000000000000E+000
  0.000000000000000E+000
  0.000000000000000E+000
  0.000000000000000E+000
  0.000000000000000E+000
  0.000000000000000E+000
  0.000000000000000E+000
  0.000000000000000E+000
  0.000000000000000E+000
  0.000000000000000E+000
  0.000000000000000E+000
  0.000000000000000E+000
  0.000000000000000E+000
  0.000000000000000E+000
  0.000000000000000E+000
  0.000000000000000E+000
  0.000000000000000E+000
  0.000000000000000E+000
  0.000000000000000E+000
  0.000000000000000E+000
  0.000000000000000E+000
  0.000000000000000E+000
  0.000000000000000E+000
  0.000000000000000E+000
  0.000000000000000E+000
  0.000000000000000E+000
  0.000000000000000E+000
  0.000000000000000E+000
  0.000000000000000E+000
  0.000000000000000E+000
  0.000000000000000E+000
  0.000000000000000E+000
  0.000000000000000E+000
  0.000000000000000E+000
  0.000000000000000E+000
  0.000000000000000E+000
  0.000000000000000E+000
  0.000000000000000E+000
  0.000000000000000E+000
  0.000000000000000E+000
  0.000000000000000E+000
  0.000000000000000E+000
  0.000000000000000E+000
  0.000000000000000E+000
  0.000000000000000E+000
  0.000000000000000E+000
  0.000000000000000E+000
  0.000000000000000E+000
  0.000000000000000E+000
  0.000000000000000E+000
  0.000000000000000E+000
  0.000000000000000E+000
  0.000000000000000E+000
  0.000000000000000E+000
  0.000000000000000E+000
  0.000000000000000E+000
  0.000000000000000E+000
  0.000000000000000E+000
  0.000000000000000E+000
  0.000000000000000E+000
  0.000000000000000E+000
  0.000000000000000E+000
  0.000000000000000E+000
  0.000000000000000E+000
  0.000000000000000E+000
  0.000000000000000E+000
  0.000000000000000E+000
  0.000000000000000E+000
  0.000000000000000E+000
  0.000000000000000E+000
  0.000000000000000E+000
  0.000000000000000E+000
  0.000000000000000E+000
  0.000000000000000E+000
  0.000000000000000E+000
  0.000000000000000E+000
  0.000000000000000E+000
  0.000000000000000E+000
  0.000000000000000E+000
  0.000000000000000E+000
  0.000000000000000E+000
  0.000000000000000E+000
  0.000000000000000E+000
  0.000000000000000E+000
  0.000000000000000E+000
  0.000000000000000E+000
  0.000000000000000E+000
  0.000000000000000E+000
  0.000000000000000E+000
  0.000000000000000E+000
  0.000000000000000E+000
  0.000000000000000E+000
  0.000000000000000E+000
  0.000000000000000E+000
  0.000000000000000E+000
  0.000000000000000E+000
  0.000000000000000E+000
  0.000000000000000E+000
  0.000000000000000E+000
  0.000000000000000E+000
  0.000000000000000E+000
  0.000000000000000E+000
  0.000000000000000E+000
  0.000000000000000E+000
  0.000000000000000E+000
  0.000000000000000E+000
  0.000000000000000E+000
  0.000000000000000E+000
  0.000000000000000E+000
  0.000000000000000E+000
  0.000000000000000E+000
  0.000000000000000E+000
  0.000000000000000E+000
  0.000000000000000E+000
  0.000000000000000E+000
  0.000000000000000E+000
  0.000000000000000E+000
  0.000000000000000E+000
  0.000000000000000E+000
  0.000000000000000E+000
  0.000000000000000E+000
  0.000000000000000E+000
  0.000000000000000E+000
  0.000000000000000E+000
  0.000000000000000E+000
  0.000000000000000E+000
  0.000000000000000E+000
  0.000000000000000E+000
  0.000000000000000E+000
  0.000000000000000E+000
  0.000000000000000E+000
  0.000000000000000E+000
  0.000000000000000E+000
  0.000000000000000E+000
  0.000000000000000E+000
  0.000000000000000E+000
  0.000000000000000E+000
  0.000000000000000E+000
  0.000000000000000E+000
  0.000000000000000E+000
  0.000000000000000E+000
  0.000000000000000E+000
  0.000000000000000E+000
  0.000000000000000E+000
  0.000000000000000E+000
  0.000000000000000E+000
  0.000000000000000E+000
  0.000000000000000E+000
  0.000000000000000E+000
  0.000000000000000E+000
  0.000000000000000E+000
  0.000000000000000E+000
  0.000000000000000E+000
  0.000000000000000E+000
  0.000000000000000E+000
  0.000000000000000E+000
  0.000000000000000E+000
  0.000000000000000E+000
  0.000000000000000E+000
  0.000000000000000E+000
  0.000000000000000E+000
  0.000000000000000E+000
  0.000000000000000E+000
  0.000000000000000E+000
  0.000000000000000E+000
  0.000000000000000E+000
  0.000000000000000E+000
  0.000000000000000E+000
  0.000000000000000E+000
  0.000000000000000E+000
  0.000000000000000E+000
  0.000000000000000E+000
  0.000000000000000E+000
  0.000000000000000E+000
  0.000000000000000E+000
  0.000000000000000E+000
  0.000000000000000E+000
  0.000000000000000E+000
  0.000000000000000E+000
  0.000000000000000E+000
  0.000000000000000E+000
  0.000000000000000E+000
  0.000000000000000E+000
  0.000000000000000E+000
  0.000000000000000E+000
  0.000000000000000E+000
  0.000000000000000E+000
  0.000000000000000E+000
  0.000000000000000E+000
  0.000000000000000E+000
  0.000000000000000E+000
  0.000000000000000E+000
  0.000000000000000E+000
  0.000000000000000E+000
  0.000000000000000E+000
  0.000000000000000E+000
  0.000000000000000E+000
  0.000000000000000E+000
  0.000000000000000E+000
  0.000000000000000E+000
  0.000000000000000E+000
  0.000000000000000E+000
  0.000000000000000E+000
  0.000000000000000E+000
  0.000000000000000E+000
  0.000000000000000E+000
  0.000000000000000E+000
  0.000000000000000E+000
  0.000000000000000E+000
  0.000000000000000E+000
  0.000000000000000E+000
  0.000000000000000E+000
  0.000000000000000E+000
  0.000000000000000E+000
  0.000000000000000E+000
  0.000000000000000E+000
  0.000000000000000E+000
  0.000000000000000E+000
  0.000000000000000E+000
  0.000000000000000E+000
  0.000000000000000E+000
  0.000000000000000E+000
  0.000000000000000E+000
  0.000000000000000E+000
  0.000000000000000E+000
  0.000000000000000E+000
  0.000000000000000E+000
  0.000000000000000E+000
  0.000000000000000E+000
  0.000000000000000E+000
  0.000000000000000E+000
  0.000000000000000E+000
  0.000000000000000E+000
  0.000000000000000E+000
  0.000000000000000E+000
  0.000000000000000E+000
  0.000000000000000E+000
  0.000000000000000E+000
  0.000000000000000E+000
  0.000000000000000E+000
  0.000000000000000E+000
  0.000000000000000E+000
  0.000000000000000E+000
  0.000000000000000E+000
  0.000000000000000E+000
  0.000000000000000E+000
  0.000000000000000E+000
  0.000000000000000E+000
  0.000000000000000E+000
  0.000000000000000E+000
  0.000000000000000E+000
  0.000000000000000E+000
  0.000000000000000E+000
  0.000000000000000E+000
  0.000000000000000E+000
  0.000000000000000E+000
  0.000000000000000E+000
  0.000000000000000E+000
  0.000000000000000E+000
  0.000000000000000E+000
  0.000000000000000E+000
  0.000000000000000E+000
  0.000000000000000E+000
  0.000000000000000E+000
  0.000000000000000E+000
  0.000000000000000E+000
  0.000000000000000E+000
  0.000000000000000E+000
  0.000000000000000E+000
  0.000000000000000E+000
  0.000000000000000E+000
  0.000000000000000E+000
  0.000000000000000E+000
  0.000000000000000E+000
  0.000000000000000E+000
  0.000000000000000E+000
  0.000000000000000E+000
  0.000000000000000E+000
  0.000000000000000E+000
  0.000000000000000E+000
  0.000000000000000E+000
  0.000000000000000E+000
  0.000000000000000E+000
  0.000000000000000E+000
  0.000000000000000E+000
  0.000000000000000E+000
  0.000000000000000E+000
  0.000000000000000E+000
  0.000000000000000E+000
  0.000000000000000E+000
  0.000000000000000E+000
  0.000000000000000E+000
  0.000000000000000E+000
  0.000000000000000E+000
  0.000000000000000E+000
  0.000000000000000E+000
  0.000000000000000E+000
  0.000000000000000E+000
  0.000000000000000E+000
  0.000000000000000E+000
  0.000000000000000E+000
  0.000000000000000E+000
  0.000000000000000E+000
  0.000000000000000E+000
  0.000000000000000E+000
  0.000000000000000E+000
  0.000000000000000E+000
  0.000000000000000E+000
  0.000000000000000E+000
  0.000000000000000E+000
  0.000000000000000E+000
  0.000000000000000E+000
  0.000000000000000E+000
  0.000000000000000E+000
  0.000000000000000E+000
  0.000000000000000E+000
  0.000000000000000E+000
  0.000000000000000E+000
  0.000000000000000E+000
  0.000000000000000E+000
  0.000000000000000E+000
  0.000000000000000E+000
  0.000000000000000E+000
  0.000000000000000E+000
  0.000000000000000E+000
  0.000000000000000E+000
  0.000000000000000E+000
  0.000000000000000E+000
  0.000000000000000E+000
  0.000000000000000E+000
  0.000000000000000E+000
  0.000000000000000E+000
  0.000000000000000E+000
  0.000000000000000E+000
  0.000000000000000E+000
  0.000000000000000E+000
  0.000000000000000E+000
  0.000000000000000E+000
  0.000000000000000E+000
  0.000000000000000E+000
  0.000000000000000E+000
  0.000000000000000E+000
  0.000000000000000E+000
  0.000000000000000E+000
  0.000000000000000E+000
  0.000000000000000E+000
  0.000000000000000E+000
  0.000000000000000E+000
  0.000000000000000E+000
  0.000000000000000E+000
  0.000000000000000E+000
  0.000000000000000E+000
  0.000000000000000E+000
  0.000000000000000E+000
  0.000000000000000E+000
  0.000000000000000E+000
  0.000000000000000E+000
  0.000000000000000E+000
  0.000000000000000E+000
  0.000000000000000E+000
  0.000000000000000E+000
  0.000000000000000E+000
  0.000000000000000E+000
  0.000000000000000E+000
  0.000000000000000E+000
  0.000000000000000E+000
  0.000000000000000E+000
  0.000000000000000E+000
  0.000000000000000E+000
  0.000000000000000E+000
  0.000000000000000E+000
  0.000000000000000E+000
  0.000000000000000E+000
  0.000000000000000E+000
  0.000000000000000E+000
  0.000000000000000E+000
  0.000000000000000E+000
  0.000000000000000E+000
  0.000000000000000E+000
  0.000000000000000E+000
  0.000000000000000E+000
  0.000000000000000E+000
  0.000000000000000E+000
  0.000000000000000E+000
  0.000000000000000E+000
  0.000000000000000E+000
  0.000000000000000E+000
  0.000000000000000E+000
  0.000000000000000E+000
  0.000000000000000E+000
  0.000000000000000E+000
  0.000000000000000E+000
  0.000000000000000E+000
  0.000000000000000E+000
  0.000000000000000E+000
  0.000000000000000E+000
  0.000000000000000E+000
  0.000000000000000E+000
  0.000000000000000E+000
  0.000000000000000E+000
  0.000000000000000E+000
  0.000000000000000E+000
  0.000000000000000E+000
  0.000000000000000E+000
  0.000000000000000E+000
  0.000000000000000E+000
  0.000000000000000E+000
  0.000000000000000E+000
  0.000000000000000E+000
  0.000000000000000E+000
  0.000000000000000E+000
  0.000000000000000E+000
  0.000000000000000E+000
  0.000000000000000E+000
  0.000000000000000E+000
  0.000000000000000E+000
  0.000000000000000E+000
  0.000000000000000E+000
  0.000000000000000E+000
  0.000000000000000E+000
  0.000000000000000E+000
  0.000000000000000E+000
  0.000000000000000E+000
  0.000000000000000E+000
  0.000000000000000E+000
  0.000000000000000E+000
  0.000000000000000E+000
  0.000000000000000E+000
  0.000000000000000E+000
  0.000000000000000E+000
  0.000000000000000E+000
  0.000000000000000E+000
  0.000000000000000E+000
  0.000000000000000E+000
  0.000000000000000E+000
  0.000000000000000E+000
  0.000000000000000E+000
  0.000000000000000E+000
  0.000000000000000E+000
  0.000000000000000E+000
  0.000000000000000E+000
  0.000000000000000E+000
  0.000000000000000E+000
  0.000000000000000E+000
  0.000000000000000E+000
  0.000000000000000E+000
  0.000000000000000E+000
  0.000000000000000E+000
  0.000000000000000E+000
  0.000000000000000E+000
  0.000000000000000E+000
  0.000000000000000E+000
  0.000000000000000E+000
  0.000000000000000E+000
  0.000000000000000E+000
  0.000000000000000E+000
  0.000000000000000E+000
  0.000000000000000E+000
  0.000000000000000E+000
  0.000000000000000E+000
  0.000000000000000E+000
  0.000000000000000E+000
  0.000000000000000E+000
  0.000000000000000E+000
  0.000000000000000E+000
  0.000000000000000E+000
  0.000000000000000E+000
  0.000000000000000E+000
  0.000000000000000E+000
  0.000000000000000E+000
  0.000000000000000E+000
  0.000000000000000E+000
  0.000000000000000E+000
  0.000000000000000E+000
  0.000000000000000E+000
  0.000000000000000E+000
  0.000000000000000E+000
  0.000000000000000E+000
  0.000000000000000E+000
  0.000000000000000E+000
  0.000000000000000E+000
  0.000000000000000E+000
  0.000000000000000E+000
  0.000000000000000E+000
  0.000000000000000E+000
  0.000000000000000E+000
  0.000000000000000E+000
  0.000000000000000E+000
  0.000000000000000E+000
  0.000000000000000E+000
  0.000000000000000E+000
  0.000000000000000E+000
  0.000000000000000E+000
  0.000000000000000E+000
  0.000000000000000E+000
  0.000000000000000E+000
  0.000000000000000E+000
  0.000000000000000E+000
  0.000000000000000E+000
  0.000000000000000E+000
  0.000000000000000E+000
  0.000000000000000E+000
  0.000000000000000E+000
  0.000000000000000E+000
  0.000000000000000E+000
  0.000000000000000E+000
  0.000000000000000E+000
  0.000000000000000E+000
  0.000000000000000E+000
  0.000000000000000E+000
  0.000000000000000E+000
  0.000000000000000E+000
  0.000000000000000E+000
  0.000000000000000E+000
  0.000000000000000E+000
  0.000000000000000E+000
  0.000000000000000E+000
  0.000000000000000E+000
  0.000000000000000E+000
  0.000000000000000E+000
  0.000000000000000E+000
  0.000000000000000E+000
  0.000000000000000E+000
  0.000000000000000E+000
  0.000000000000000E+000
  0.000000000000000E+000
  0.000000000000000E+000
  0.000000000000000E+000
  0.000000000000000E+000
  0.000000000000000E+000
  0.000000000000000E+000
  0.000000000000000E+000
  0.000000000000000E+000
  0.000000000000000E+000
  0.000000000000000E+000
  0.000000000000000E+000
  0.000000000000000E+000
  0.000000000000000E+000
  0.000000000000000E+000
  0.000000000000000E+000
  0.000000000000000E+000
  0.000000000000000E+000
  0.000000000000000E+000
  0.000000000000000E+000
  0.000000000000000E+000
  0.000000000000000E+000
  0.000000000000000E+000
  0.000000000000000E+000
  0.000000000000000E+000
  0.000000000000000E+000
  0.000000000000000E+000
  0.000000000000000E+000
  0.000000000000000E+000
  0.000000000000000E+000
  0.000000000000000E+000
  0.000000000000000E+000
  0.000000000000000E+000
  0.000000000000000E+000
  0.000000000000000E+000
  0.000000000000000E+000
  0.000000000000000E+000
  0.000000000000000E+000
  0.000000000000000E+000
  0.000000000000000E+000
  0.000000000000000E+000
  0.000000000000000E+000
  0.000000000000000E+000
  0.000000000000000E+000
  0.000000000000000E+000
  0.000000000000000E+000
  0.000000000000000E+000
  0.000000000000000E+000
  0.000000000000000E+000
  0.000000000000000E+000
  0.000000000000000E+000
  0.000000000000000E+000
  0.000000000000000E+000
  0.000000000000000E+000
  0.000000000000000E+000
  0.000000000000000E+000
  0.000000000000000E+000
  0.000000000000000E+000
  0.000000000000000E+000
  0.000000000000000E+000
  0.000000000000000E+000
  0.000000000000000E+000
  0.000000000000000E+000
  0.000000000000000E+000
  0.000000000000000E+000
  0.000000000000000E+000
  0.000000000000000E+000
  0.000000000000000E+000
  0.000000000000000E+000
  0.000000000000000E+000
  0.000000000000000E+000
  0.000000000000000E+000
  0.000000000000000E+000
  0.000000000000000E+000
  0.000000000000000E+000
  0.000000000000000E+000
  0.000000000000000E+000
  0.000000000000000E+000
  0.000000000000000E+000
  0.000000000000000E+000
  0.000000000000000E+000
  0.000000000000000E+000
  0.000000000000000E+000
  0.000000000000000E+000
  0.000000000000000E+000
  0.000000000000000E+000
  0.000000000000000E+000
  0.000000000000000E+000
  0.000000000000000E+000
  0.000000000000000E+000
  0.000000000000000E+000
  0.000000000000000E+000
  0.000000000000000E+000
  0.000000000000000E+000
  0.000000000000000E+000
  0.000000000000000E+000
  0.000000000000000E+000
  0.000000000000000E+000
  0.000000000000000E+000
  0.000000000000000E+000
  0.000000000000000E+000
  0.000000000000000E+000
  0.000000000000000E+000
  0.000000000000000E+000
  0.000000000000000E+000
  0.000000000000000E+000
  0.000000000000000E+000
  0.000000000000000E+000
  0.000000000000000E+000
  0.000000000000000E+000
  0.000000000000000E+000
  0.000000000000000E+000
  0.000000000000000E+000
  0.000000000000000E+000
  0.000000000000000E+000
  0.000000000000000E+000
  0.000000000000000E+000
  0.000000000000000E+000
  0.000000000000000E+000
  0.000000000000000E+000
  0.000000000000000E+000
  0.000000000000000E+000
  0.000000000000000E+000
  0.000000000000000E+000
  0.000000000000000E+000
  0.000000000000000E+000
  0.000000000000000E+000
  0.000000000000000E+000
  0.000000000000000E+000
  0.000000000000000E+000
  0.000000000000000E+000
  0.000000000000000E+000
  0.000000000000000E+000
  0.000000000000000E+000
  0.000000000000000E+000
  0.000000000000000E+000
  0.000000000000000E+000
  0.000000000000000E+000
  0.000000000000000E+000
  0.000000000000000E+000
  0.000000000000000E+000
  0.000000000000000E+000
  0.000000000000000E+000
  0.000000000000000E+000
  0.000000000000000E+000
  0.000000000000000E+000
  0.000000000000000E+000
  0.000000000000000E+000
  0.000000000000000E+000
  0.000000000000000E+000
  0.000000000000000E+000
  0.000000000000000E+000
  0.000000000000000E+000
  0.000000000000000E+000
  0.000000000000000E+000
  0.000000000000000E+000
  0.000000000000000E+000
  0.000000000000000E+000
  0.000000000000000E+000
  0.000000000000000E+000
  0.000000000000000E+000
  0.000000000000000E+000
  0.000000000000000E+000
  0.000000000000000E+000
  0.000000000000000E+000
  0.000000000000000E+000
  0.000000000000000E+000
  0.000000000000000E+000
  0.000000000000000E+000
  0.000000000000000E+000
  0.000000000000000E+000
  0.000000000000000E+000
  0.000000000000000E+000
  0.000000000000000E+000
  0.000000000000000E+000
  0.000000000000000E+000
  0.000000000000000E+000
  0.000000000000000E+000
  0.000000000000000E+000
  0.000000000000000E+000
  0.000000000000000E+000
  0.000000000000000E+000
  0.000000000000000E+000
  0.000000000000000E+000
  0.000000000000000E+000
  0.000000000000000E+000
  0.000000000000000E+000
  0.000000000000000E+000
  0.000000000000000E+000
  0.000000000000000E+000
  0.000000000000000E+000
  0.000000000000000E+000
  0.000000000000000E+000
  0.000000000000000E+000
  0.000000000000000E+000
  0.000000000000000E+000
  0.000000000000000E+000
  0.000000000000000E+000
  0.000000000000000E+000
  0.000000000000000E+000
  0.000000000000000E+000
  0.000000000000000E+000
  0.000000000000000E+000
  0.000000000000000E+000
  0.000000000000000E+000
  0.000000000000000E+000
  0.000000000000000E+000
  0.000000000000000E+000
  0.000000000000000E+000
  0.000000000000000E+000
  0.000000000000000E+000
  0.000000000000000E+000
  0.000000000000000E+000
  0.000000000000000E+000
  0.000000000000000E+000
  0.000000000000000E+000
  0.000000000000000E+000
  0.000000000000000E+000
  0.000000000000000E+000
  0.000000000000000E+000
  0.000000000000000E+000
  0.000000000000000E+000
  0.000000000000000E+000
  0.000000000000000E+000
  0.000000000000000E+000
  0.000000000000000E+000
  0.000000000000000E+000
  0.000000000000000E+000
  0.000000000000000E+000
  0.000000000000000E+000
  0.000000000000000E+000
  0.000000000000000E+000
  0.000000000000000E+000
  0.000000000000000E+000
  0.000000000000000E+000
  0.000000000000000E+000
  0.000000000000000E+000
  0.000000000000000E+000
  0.000000000000000E+000
  0.000000000000000E+000
  0.000000000000000E+000
  0.000000000000000E+000
  0.000000000000000E+000
  0.000000000000000E+000
  0.000000000000000E+000
  0.000000000000000E+000
  0.000000000000000E+000
  0.000000000000000E+000
  0.000000000000000E+000
  0.000000000000000E+000
  0.000000000000000E+000
  0.000000000000000E+000
  0.000000000000000E+000
  0.000000000000000E+000
  0.000000000000000E+000
  0.000000000000000E+000
  0.000000000000000E+000
  0.000000000000000E+000
  0.000000000000000E+000
  0.000000000000000E+000
  0.000000000000000E+000
  0.000000000000000E+000
  0.000000000000000E+000
  0.000000000000000E+000
  0.000000000000000E+000
  0.000000000000000E+000
  0.000000000000000E+000
  0.000000000000000E+000
  0.000000000000000E+000
  0.000000000000000E+000
  0.000000000000000E+000
  0.000000000000000E+000
  0.000000000000000E+000
  0.000000000000000E+000
  0.000000000000000E+000
  0.000000000000000E+000
  0.000000000000000E+000
  0.000000000000000E+000
  0.000000000000000E+000
  0.000000000000000E+000
  0.000000000000000E+000
  0.000000000000000E+000
  0.000000000000000E+000
  0.000000000000000E+000
  0.000000000000000E+000
  0.000000000000000E+000
  0.000000000000000E+000
  0.000000000000000E+000
  0.000000000000000E+000
  0.000000000000000E+000
  0.000000000000000E+000
  0.000000000000000E+000
  0.000000000000000E+000
  0.000000000000000E+000
  0.000000000000000E+000
  0.000000000000000E+000
  0.000000000000000E+000
  0.000000000000000E+000
  0.000000000000000E+000
  0.000000000000000E+000
  0.000000000000000E+000
  0.000000000000000E+000
  0.000000000000000E+000
  0.000000000000000E+000
  0.000000000000000E+000
  0.000000000000000E+000
  0.000000000000000E+000
  0.000000000000000E+000
  0.000000000000000E+000
  0.000000000000000E+000
  0.000000000000000E+000
  0.000000000000000E+000
  0.000000000000000E+000
  0.000000000000000E+000
  0.000000000000000E+000
  0.000000000000000E+000
  0.000000000000000E+000
  0.000000000000000E+000
  0.000000000000000E+000
  0.000000000000000E+000
  0.000000000000000E+000
  0.000000000000000E+000
  0.000000000000000E+000
  0.000000000000000E+000
  0.000000000000000E+000
  0.000000000000000E+000
  0.000000000000000E+000
  0.000000000000000E+000
  0.000000000000000E+000
  0.000000000000000E+000
  0.000000000000000E+000
  0.000000000000000E+000
  0.000000000000000E+000
  0.000000000000000E+000
  0.000000000000000E+000
  0.000000000000000E+000
  0.000000000000000E+000
  0.000000000000000E+000
  0.000000000000000E+000
  0.000000000000000E+000
  0.000000000000000E+000
  0.000000000000000E+000
  0.000000000000000E+000
  0.000000000000000E+000
  0.000000000000000E+000
  0.000000000000000E+000
  0.000000000000000E+000
  0.000000000000000E+000
  0.000000000000000E+000
  0.000000000000000E+000
  0.000000000000000E+000
  0.000000000000000E+000
  0.000000000000000E+000
  0.000000000000000E+000
  0.000000000000000E+000
  0.000000000000000E+000
  0.000000000000000E+000
  0.000000000000000E+000
  0.000000000000000E+000
  0.000000000000000E+000
  0.000000000000000E+000
  0.000000000000000E+000
  0.000000000000000E+000
  0.000000000000000E+000
  0.000000000000000E+000
  0.000000000000000E+000
  0.000000000000000E+000
  0.000000000000000E+000
  0.000000000000000E+000
  0.000000000000000E+000
  0.000000000000000E+000
  0.000000000000000E+000
  0.000000000000000E+000
  0.000000000000000E+000
  0.000000000000000E+000
  0.000000000000000E+000
  0.000000000000000E+000
  0.000000000000000E+000
  0.000000000000000E+000
  0.000000000000000E+000
  0.000000000000000E+000
  0.000000000000000E+000
  0.000000000000000E+000
  0.000000000000000E+000
  0.000000000000000E+000
  0.000000000000000E+000
  0.000000000000000E+000
  0.000000000000000E+000
  0.000000000000000E+000
  0.000000000000000E+000
  0.000000000000000E+000
  0.000000000000000E+000
  0.000000000000000E+000
  0.000000000000000E+000
  0.000000000000000E+000
  0.000000000000000E+000
  0.000000000000000E+000
  0.000000000000000E+000
  0.000000000000000E+000
  0.000000000000000E+000
  0.000000000000000E+000
  0.000000000000000E+000
  0.000000000000000E+000
  0.000000000000000E+000
  0.000000000000000E+000
  0.000000000000000E+000
  0.000000000000000E+000
  0.000000000000000E+000
  0.000000000000000E+000
  0.000000000000000E+000
  0.000000000000000E+000
  0.000000000000000E+000
  0.000000000000000E+000
  0.000000000000000E+000
  0.000000000000000E+000
  0.000000000000000E+000
  0.000000000000000E+000
  0.000000000000000E+000
  0.000000000000000E+000
  0.000000000000000E+000
  0.000000000000000E+000
  0.000000000000000E+000
  0.000000000000000E+000
  0.000000000000000E+000
  0.000000000000000E+000
  0.000000000000000E+000
  0.000000000000000E+000
  0.000000000000000E+000
  0.000000000000000E+000
  0.000000000000000E+000
  0.000000000000000E+000
  0.000000000000000E+000
  0.000000000000000E+000
  0.000000000000000E+000
  0.000000000000000E+000
  0.000000000000000E+000
  0.000000000000000E+000
  0.000000000000000E+000
  0.000000000000000E+000
  0.000000000000000E+000
  0.000000000000000E+000
  0.000000000000000E+000
  0.000000000000000E+000
  0.000000000000000E+000
  0.000000000000000E+000
  0.000000000000000E+000
  0.000000000000000E+000
  0.000000000000000E+000
  0.000000000000000E+000
  0.000000000000000E+000
  0.000000000000000E+000
  0.000000000000000E+000
  0.000000000000000E+000
  0.000000000000000E+000
  0.000000000000000E+000
  0.000000000000000E+000
  0.000000000000000E+000
  0.000000000000000E+000
  0.000000000000000E+000
  0.000000000000000E+000
  0.000000000000000E+000
  0.000000000000000E+000
  0.000000000000000E+000
  0.000000000000000E+000
  0.000000000000000E+000
  0.000000000000000E+000
  0.000000000000000E+000
  0.000000000000000E+000
  0.000000000000000E+000
  0.000000000000000E+000
  0.000000000000000E+000
  0.000000000000000E+000
  0.000000000000000E+000
  0.000000000000000E+000
  0.000000000000000E+000
  0.000000000000000E+000
  0.000000000000000E+000
  0.000000000000000E+000
  0.000000000000000E+000
  0.000000000000000E+000
  0.000000000000000E+000
  0.000000000000000E+000
  0.000000000000000E+000
  0.000000000000000E+000
  0.000000000000000E+000
  0.000000000000000E+000
  0.000000000000000E+000
  0.000000000000000E+000
  0.000000000000000E+000
  0.000000000000000E+000
  0.000000000000000E+000
  0.000000000000000E+000
  0.000000000000000E+000
  0.000000000000000E+000
  0.000000000000000E+000
  0.000000000000000E+000
  0.000000000000000E+000
  0.000000000000000E+000
  0.000000000000000E+000
  0.000000000000000E+000
  0.000000000000000E+000
  0.000000000000000E+000
  0.000000000000000E+000
  0.000000000000000E+000
  0.000000000000000E+000
  0.000000000000000E+000
  0.000000000000000E+000
  0.000000000000000E+000
  0.000000000000000E+000
  0.000000000000000E+000
  0.000000000000000E+000
  0.000000000000000E+000
  0.000000000000000E+000
  0.000000000000000E+000
  0.000000000000000E+000
  0.000000000000000E+000
  0.000000000000000E+000
  0.000000000000000E+000
  0.000000000000000E+000
  0.000000000000000E+000
  0.000000000000000E+000
  0.000000000000000E+000
  0.000000000000000E+000
  0.000000000000000E+000
  0.000000000000000E+000
  0.000000000000000E+000
  0.000000000000000E+000
  0.000000000000000E+000
  0.000000000000000E+000
  0.000000000000000E+000
  0.000000000000000E+000
  0.000000000000000E+000
  0.000000000000000E+000
  0.000000000000000E+000
  0.000000000000000E+000
  0.000000000000000E+000
  0.000000000000000E+000
  0.000000000000000E+000
  0.000000000000000E+000
  0.000000000000000E+000
  0.000000000000000E+000
  0.000000000000000E+000
  0.000000000000000E+000
  0.000000000000000E+000
  0.000000000000000E+000
  0.000000000000000E+000
  0.000000000000000E+000
  0.000000000000000E+000
  0.000000000000000E+000
  0.000000000000000E+000
  0.000000000000000E+000
  0.000000000000000E+000
  0.000000000000000E+000
  0.000000000000000E+000
  0.000000000000000E+000
  0.000000000000000E+000
  0.000000000000000E+000
  0.000000000000000E+000
  0.000000000000000E+000
  0.000000000000000E+000
  0.000000000000000E+000
  0.000000000000000E+000
  0.000000000000000E+000
  0.000000000000000E+000
  0.000000000000000E+000
  0.000000000000000E+000
  0.000000000000000E+000
  0.000000000000000E+000
  0.000000000000000E+000
  0.000000000000000E+000
  0.000000000000000E+000
  0.000000000000000E+000
  0.000000000000000E+000
  0.000000000000000E+000
  0.000000000000000E+000
  0.000000000000000E+000
  0.000000000000000E+000
  0.000000000000000E+000
  0.000000000000000E+000
  0.000000000000000E+000
  0.000000000000000E+000
  0.000000000000000E+000
  0.000000000000000E+000
  0.000000000000000E+000
  0.000000000000000E+000
  0.000000000000000E+000
  0.000000000000000E+000
  0.000000000000000E+000
  0.000000000000000E+000
  0.000000000000000E+000
  0.000000000000000E+000
  0.000000000000000E+000
  0.000000000000000E+000
  0.000000000000000E+000
  0.000000000000000E+000
  0.000000000000000E+000
  0.000000000000000E+000
  0.000000000000000E+000
  0.000000000000000E+000
  0.000000000000000E+000
  0.000000000000000E+000
  0.000000000000000E+000
  0.000000000000000E+000
  0.000000000000000E+000
  0.000000000000000E+000
  0.000000000000000E+000
  0.000000000000000E+000
  0.000000000000000E+000
  0.000000000000000E+000
  0.000000000000000E+000
  0.000000000000000E+000
  0.000000000000000E+000
  0.000000000000000E+000
  0.000000000000000E+000
  0.000000000000000E+000
  0.000000000000000E+000
  0.000000000000000E+000
  0.000000000000000E+000
  0.000000000000000E+000
  0.000000000000000E+000
  0.000000000000000E+000
  0.000000000000000E+000
  0.000000000000000E+000
  0.000000000000000E+000
  0.000000000000000E+000
  0.000000000000000E+000
  0.000000000000000E+000
  0.000000000000000E+000
  0.000000000000000E+000
  0.000000000000000E+000
  0.000000000000000E+000
  0.000000000000000E+000
  0.000000000000000E+000
  0.000000000000000E+000
  0.000000000000000E+000
  0.000000000000000E+000
  0.000000000000000E+000
  0.000000000000000E+000
  0.000000000000000E+000
  0.000000000000000E+000
  0.000000000000000E+000
  0.000000000000000E+000
  0.000000000000000E+000
  0.000000000000000E+000
  0.000000000000000E+000
  0.000000000000000E+000
  0.000000000000000E+000
  0.000000000000000E+000
  0.000000000000000E+000
  0.000000000000000E+000
  0.000000000000000E+000
  0.000000000000000E+000
  0.000000000000000E+000
  0.000000000000000E+000
  0.000000000000000E+000
  0.000000000000000E+000
  0.000000000000000E+000
  0.000000000000000E+000
  0.000000000000000E+000
  0.000000000000000E+000
  0.000000000000000E+000
  0.000000000000000E+000
  0.000000000000000E+000
  0.000000000000000E+000
  0.000000000000000E+000
  0.000000000000000E+000
  0.000000000000000E+000
  0.000000000000000E+000
  0.000000000000000E+000
  0.000000000000000E+000
  0.000000000000000E+000
  0.000000000000000E+000
  0.000000000000000E+000
  0.000000000000000E+000
  0.000000000000000E+000
  0.000000000000000E+000
  0.000000000000000E+000
  0.000000000000000E+000
  0.000000000000000E+000
  0.000000000000000E+000
  0.000000000000000E+000
  0.000000000000000E+000
  0.000000000000000E+000
  0.000000000000000E+000
  0.000000000000000E+000
  0.000000000000000E+000
  0.000000000000000E+000
  0.000000000000000E+000
  0.000000000000000E+000
  0.000000000000000E+000
  0.000000000000000E+000
  0.000000000000000E+000
  0.000000000000000E+000
  0.000000000000000E+000
  0.000000000000000E+000
  0.000000000000000E+000
  0.000000000000000E+000
  0.000000000000000E+000
  0.000000000000000E+000
  0.000000000000000E+000
  0.000000000000000E+000
  0.000000000000000E+000
  0.000000000000000E+000
  0.000000000000000E+000
  0.000000000000000E+000
  0.000000000000000E+000
  0.000000000000000E+000
  0.000000000000000E+000
  0.000000000000000E+000
  0.000000000000000E+000
  0.000000000000000E+000
  0.000000000000000E+000
  0.000000000000000E+000
  0.000000000000000E+000
  0.000000000000000E+000
  0.000000000000000E+000
  0.000000000000000E+000
  0.000000000000000E+000
  0.000000000000000E+000
  0.000000000000000E+000
  0.000000000000000E+000
  0.000000000000000E+000
  0.000000000000000E+000
  0.000000000000000E+000
  0.000000000000000E+000
  0.000000000000000E+000
  0.000000000000000E+000
  0.000000000000000E+000
  0.000000000000000E+000
  0.000000000000000E+000
  0.000000000000000E+000
  0.000000000000000E+000
  0.000000000000000E+000
  0.000000000000000E+000
  0.000000000000000E+000
  0.000000000000000E+000
  0.000000000000000E+000
  0.000000000000000E+000
  0.000000000000000E+000
  0.000000000000000E+000
  0.000000000000000E+000
  0.000000000000000E+000
  0.000000000000000E+000
  0.000000000000000E+000
  0.000000000000000E+000
  0.000000000000000E+000
  0.000000000000000E+000
  0.000000000000000E+000
  0.000000000000000E+000
  0.000000000000000E+000
  0.000000000000000E+000
  0.000000000000000E+000
  0.000000000000000E+000
  0.000000000000000E+000
  0.000000000000000E+000
  0.000000000000000E+000
  0.000000000000000E+000
  0.000000000000000E+000
  0.000000000000000E+000
  0.000000000000000E+000
  0.000000000000000E+000
  0.000000000000000E+000
  0.000000000000000E+000
  0.000000000000000E+000
  0.000000000000000E+000
  0.000000000000000E+000
  0.000000000000000E+000
  0.000000000000000E+000
  0.000000000000000E+000
  0.000000000000000E+000
  0.000000000000000E+000
  0.000000000000000E+000
  0.000000000000000E+000
  0.000000000000000E+000
  0.000000000000000E+000
  0.000000000000000E+000
  0.000000000000000E+000
  0.000000000000000E+000
  0.000000000000000E+000
  0.000000000000000E+000
  0.000000000000000E+000
  0.000000000000000E+000
  0.000000000000000E+000
  0.000000000000000E+000
  0.000000000000000E+000
  0.000000000000000E+000
  0.000000000000000E+000
  0.000000000000000E+000
  0.000000000000000E+000
  0.000000000000000E+000
  0.000000000000000E+000
  0.000000000000000E+000
  0.000000000000000E+000
  0.000000000000000E+000
  0.000000000000000E+000
  0.000000000000000E+000
  0.000000000000000E+000
  0.000000000000000E+000
  0.000000000000000E+000
  0.000000000000000E+000
  0.000000000000000E+000
  0.000000000000000E+000
  0.000000000000000E+000
  0.000000000000000E+000
  0.000000000000000E+000
  0.000000000000000E+000
  0.000000000000000E+000
  0.000000000000000E+000
  0.000000000000000E+000
  0.000000000000000E+000
  0.000000000000000E+000
  0.000000000000000E+000
  0.000000000000000E+000
  0.000000000000000E+000
  0.000000000000000E+000
  0.000000000000000E+000
  0.000000000000000E+000
  0.000000000000000E+000
  0.000000000000000E+000
  0.000000000000000E+000
  0.000000000000000E+000
  0.000000000000000E+000
  0.000000000000000E+000
  0.000000000000000E+000
  0.000000000000000E+000
  0.000000000000000E+000
  0.000000000000000E+000
  0.000000000000000E+000
  0.000000000000000E+000
  0.000000000000000E+000
  0.000000000000000E+000
  0.000000000000000E+000
  0.000000000000000E+000
  0.000000000000000E+000
  0.000000000000000E+000
  0.000000000000000E+000
  0.000000000000000E+000
  0.000000000000000E+000
  0.000000000000000E+000
  0.000000000000000E+000
  0.000000000000000E+000
  0.000000000000000E+000
  0.000000000000000E+000
  0.000000000000000E+000
  0.000000000000000E+000
  0.000000000000000E+000
  0.000000000000000E+000
  0.000000000000000E+000
  0.000000000000000E+000
  0.000000000000000E+000
  0.000000000000000E+000
  0.000000000000000E+000
  0.000000000000000E+000
  0.000000000000000E+000
  0.000000000000000E+000
  0.000000000000000E+000
  0.000000000000000E+000
  0.000000000000000E+000
  0.000000000000000E+000
  0.000000000000000E+000
  0.000000000000000E+000
  0.000000000000000E+000
  0.000000000000000E+000
  0.000000000000000E+000
  0.000000000000000E+000
  0.000000000000000E+000
  0.000000000000000E+000
  0.000000000000000E+000
  0.000000000000000E+000
  0.000000000000000E+000
  0.000000000000000E+000
  0.000000000000000E+000
  0.000000000000000E+000
  0.000000000000000E+000
  0.000000000000000E+000
  0.000000000000000E+000
  0.000000000000000E+000
  0.000000000000000E+000
  0.000000000000000E+000
  0.000000000000000E+000
  0.000000000000000E+000
  0.000000000000000E+000
  0.000000000000000E+000
  0.000000000000000E+000
  0.000000000000000E+000
  0.000000000000000E+000
  0.000000000000000E+000
  0.000000000000000E+000
  0.000000000000000E+000
  0.000000000000000E+000
  0.000000000000000E+000
  0.000000000000000E+000
  0.000000000000000E+000
  0.000000000000000E+000
  0.000000000000000E+000
  0.000000000000000E+000
  0.000000000000000E+000
  0.000000000000000E+000
  0.000000000000000E+000
  0.000000000000000E+000
  0.000000000000000E+000
  0.000000000000000E+000
  0.000000000000000E+000
  0.000000000000000E+000
  0.000000000000000E+000
  0.000000000000000E+000
  0.000000000000000E+000
  0.000000000000000E+000
  0.000000000000000E+000
  0.000000000000000E+000
  0.000000000000000E+000
  0.000000000000000E+000
  0.000000000000000E+000
  0.000000000000000E+000
  0.000000000000000E+000
  0.000000000000000E+000
  0.000000000000000E+000
  0.000000000000000E+000
  0.000000000000000E+000
  0.000000000000000E+000
  0.000000000000000E+000
  0.000000000000000E+000
  0.000000000000000E+000
  0.000000000000000E+000
  0.000000000000000E+000
  0.000000000000000E+000
  0.000000000000000E+000
  0.000000000000000E+000
  0.000000000000000E+000
  0.000000000000000E+000
  0.000000000000000E+000
  0.000000000000000E+000
  0.000000000000000E+000
  0.000000000000000E+000
  0.000000000000000E+000
  0.000000000000000E+000
  0.000000000000000E+000
  0.000000000000000E+000
  0.000000000000000E+000
  0.000000000000000E+000
  0.000000000000000E+000
  0.000000000000000E+000
  0.000000000000000E+000
  0.000000000000000E+000
  0.000000000000000E+000
  0.000000000000000E+000
  0.000000000000000E+000
  0.000000000000000E+000
  0.000000000000000E+000
  0.000000000000000E+000
  0.000000000000000E+000
  0.000000000000000E+000
  0.000000000000000E+000
  0.000000000000000E+000
  0.000000000000000E+000
  0.000000000000000E+000
  0.000000000000000E+000
  0.000000000000000E+000
  0.000000000000000E+000
  0.000000000000000E+000
  0.000000000000000E+000
  0.000000000000000E+000
  0.000000000000000E+000
  0.000000000000000E+000
  0.000000000000000E+000
  0.000000000000000E+000
  0.000000000000000E+000
  0.000000000000000E+000
  0.000000000000000E+000
  0.000000000000000E+000
  0.000000000000000E+000
  0.000000000000000E+000
  0.000000000000000E+000
  0.000000000000000E+000
  0.000000000000000E+000
  0.000000000000000E+000
  0.000000000000000E+000
  0.000000000000000E+000
  0.000000000000000E+000
  0.000000000000000E+000
  0.000000000000000E+000
  0.000000000000000E+000
  0.000000000000000E+000
  0.000000000000000E+000
  0.000000000000000E+000
  0.000000000000000E+000
  0.000000000000000E+000
  0.000000000000000E+000
  0.000000000000000E+000
  0.000000000000000E+000
  0.000000000000000E+000
  0.000000000000000E+000
  0.000000000000000E+000
  0.000000000000000E+000
  0.000000000000000E+000
  0.000000000000000E+000
  0.000000000000000E+000
  0.000000000000000E+000
  0.000000000000000E+000
  0.000000000000000E+000
  0.000000000000000E+000
  0.000000000000000E+000
  0.000000000000000E+000
  0.000000000000000E+000
  0.000000000000000E+000
  0.000000000000000E+000
  0.000000000000000E+000
  0.000000000000000E+000
  0.000000000000000E+000
  0.000000000000000E+000
  0.000000000000000E+000
  0.000000000000000E+000
  0.000000000000000E+000
  0.000000000000000E+000
  0.000000000000000E+000
  0.000000000000000E+000
  0.000000000000000E+000
  0.000000000000000E+000
  0.000000000000000E+000
  0.000000000000000E+000
  0.000000000000000E+000
  0.000000000000000E+000
  0.000000000000000E+000
  0.000000000000000E+000
  0.000000000000000E+000
  0.000000000000000E+000
  0.000000000000000E+000
  0.000000000000000E+000
  0.000000000000000E+000
  0.000000000000000E+000
  0.000000000000000E+000
  0.000000000000000E+000
  0.000000000000000E+000
  0.000000000000000E+000
  0.000000000000000E+000
  0.000000000000000E+000
  0.000000000000000E+000
  0.000000000000000E+000
  0.000000000000000E+000
  0.000000000000000E+000
  0.000000000000000E+000
  0.000000000000000E+000
  0.000000000000000E+000
  0.000000000000000E+000
  0.000000000000000E+000
  0.000000000000000E+000
  0.000000000000000E+000
  0.000000000000000E+000
  0.000000000000000E+000
  0.000000000000000E+000
  0.000000000000000E+000
  0.000000000000000E+000
  0.000000000000000E+000
  0.000000000000000E+000
  0.000000000000000E+000
  0.000000000000000E+000
  0.000000000000000E+000
  0.000000000000000E+000
  0.000000000000000E+000
  0.000000000000000E+000
  0.000000000000000E+000
  0.000000000000000E+000
  0.000000000000000E+000
  0.000000000000000E+000
  0.000000000000000E+000
  0.000000000000000E+000
  0.000000000000000E+000
   1.00000000000000     
   1.00000000000000     
   1.00000000000000     
  0.000000000000000E+000
  0.000000000000000E+000
  0.000000000000000E+000
  0.000000000000000E+000
  0.000000000000000E+000
  0.000000000000000E+000
  0.000000000000000E+000
  0.000000000000000E+000
  0.000000000000000E+000
  0.000000000000000E+000
  0.000000000000000E+000
  0.000000000000000E+000
  0.000000000000000E+000
  0.000000000000000E+000
  0.000000000000000E+000
  0.000000000000000E+000
  0.000000000000000E+000
  0.000000000000000E+000
  0.000000000000000E+000
  0.000000000000000E+000
  0.000000000000000E+000
  0.000000000000000E+000
  0.000000000000000E+000
  0.000000000000000E+000
  0.000000000000000E+000
  0.000000000000000E+000
  0.000000000000000E+000
  0.000000000000000E+000
  0.000000000000000E+000
  0.000000000000000E+000
  0.000000000000000E+000
  0.000000000000000E+000
  0.000000000000000E+000
  0.000000000000000E+000
  0.000000000000000E+000
  0.000000000000000E+000
  0.000000000000000E+000
  0.000000000000000E+000
  0.000000000000000E+000
  0.000000000000000E+000
  0.000000000000000E+000
  0.000000000000000E+000
  0.000000000000000E+000
  0.000000000000000E+000
   1.00000000000000     
   1.00000000000000     
   1.00000000000000     
   1.00000000000000     
   1.00000000000000     
   1.00000000000000     
  0.000000000000000E+000
  0.000000000000000E+000
  0.000000000000000E+000
  0.000000000000000E+000
  0.000000000000000E+000
  0.000000000000000E+000
  0.000000000000000E+000
  0.000000000000000E+000
  0.000000000000000E+000
  0.000000000000000E+000
  0.000000000000000E+000
  0.000000000000000E+000
  0.000000000000000E+000
  0.000000000000000E+000
  0.000000000000000E+000
  0.000000000000000E+000
  0.000000000000000E+000
  0.000000000000000E+000
  0.000000000000000E+000
  0.000000000000000E+000
  0.000000000000000E+000
  0.000000000000000E+000
  0.000000000000000E+000
  0.000000000000000E+000
  0.000000000000000E+000
  0.000000000000000E+000
  0.000000000000000E+000
  0.000000000000000E+000
  0.000000000000000E+000
  0.000000000000000E+000
  0.000000000000000E+000
  0.000000000000000E+000
  0.000000000000000E+000
  0.000000000000000E+000
  0.000000000000000E+000
  0.000000000000000E+000
  0.000000000000000E+000
  0.000000000000000E+000
  0.000000000000000E+000
   1.00000000000000     
   1.00000000000000     
   1.00000000000000     
   1.00000000000000     
   1.00000000000000     
   1.00000000000000     
   1.00000000000000     
   1.00000000000000     
   1.00000000000000     
   1.00000000000000     
   1.00000000000000     
  0.000000000000000E+000
  0.000000000000000E+000
  0.000000000000000E+000
  0.000000000000000E+000
  0.000000000000000E+000
  0.000000000000000E+000
  0.000000000000000E+000
  0.000000000000000E+000
  0.000000000000000E+000
  0.000000000000000E+000
  0.000000000000000E+000
  0.000000000000000E+000
  0.000000000000000E+000
  0.000000000000000E+000
  0.000000000000000E+000
  0.000000000000000E+000
  0.000000000000000E+000
  0.000000000000000E+000
  0.000000000000000E+000
  0.000000000000000E+000
  0.000000000000000E+000
  0.000000000000000E+000
  0.000000000000000E+000
  0.000000000000000E+000
  0.000000000000000E+000
  0.000000000000000E+000
  0.000000000000000E+000
  0.000000000000000E+000
  0.000000000000000E+000
  0.000000000000000E+000
  0.000000000000000E+000
  0.000000000000000E+000
  0.000000000000000E+000
  0.000000000000000E+000
  0.000000000000000E+000
   1.00000000000000     
   1.00000000000000     
   1.00000000000000     
   1.00000000000000     
   1.00000000000000     
   1.00000000000000     
   1.00000000000000     
   1.00000000000000     
   1.00000000000000     
   1.00000000000000     
   1.00000000000000     
   1.00000000000000     
   1.00000000000000     
   1.00000000000000     
   1.00000000000000     
  0.000000000000000E+000
  0.000000000000000E+000
  0.000000000000000E+000
  0.000000000000000E+000
  0.000000000000000E+000
  0.000000000000000E+000
  0.000000000000000E+000
  0.000000000000000E+000
  0.000000000000000E+000
  0.000000000000000E+000
  0.000000000000000E+000
  0.000000000000000E+000
  0.000000000000000E+000
  0.000000000000000E+000
  0.000000000000000E+000
  0.000000000000000E+000
  0.000000000000000E+000
  0.000000000000000E+000
  0.000000000000000E+000
  0.000000000000000E+000
  0.000000000000000E+000
  0.000000000000000E+000
  0.000000000000000E+000
  0.000000000000000E+000
  0.000000000000000E+000
  0.000000000000000E+000
  0.000000000000000E+000
  0.000000000000000E+000
  0.000000000000000E+000
  0.000000000000000E+000
   1.00000000000000     
   1.00000000000000     
   1.00000000000000     
   1.00000000000000     
   1.00000000000000     
   1.00000000000000     
   1.00000000000000     
   1.00000000000000     
   1.00000000000000     
   1.00000000000000     
   1.00000000000000     
   1.00000000000000     
   1.00000000000000     
   1.00000000000000     
   1.00000000000000     
   1.00000000000000     
   1.00000000000000     
   1.00000000000000     
   1.00000000000000     
   1.00000000000000     
  0.000000000000000E+000
  0.000000000000000E+000
  0.000000000000000E+000
  0.000000000000000E+000
  0.000000000000000E+000
  0.000000000000000E+000
  0.000000000000000E+000
  0.000000000000000E+000
  0.000000000000000E+000
  0.000000000000000E+000
  0.000000000000000E+000
  0.000000000000000E+000
  0.000000000000000E+000
  0.000000000000000E+000
  0.000000000000000E+000
  0.000000000000000E+000
  0.000000000000000E+000
  0.000000000000000E+000
  0.000000000000000E+000
  0.000000000000000E+000
  0.000000000000000E+000
  0.000000000000000E+000
  0.000000000000000E+000
  0.000000000000000E+000
   1.00000000000000     
   1.00000000000000     
   1.00000000000000     
   1.00000000000000     
   1.00000000000000     
   1.00000000000000     
   1.00000000000000     
   1.00000000000000     
   1.00000000000000     
   1.00000000000000     
   1.00000000000000     
   1.00000000000000     
   1.00000000000000     
   1.00000000000000     
   1.00000000000000     
   1.00000000000000     
   1.00000000000000     
   1.00000000000000     
   1.00000000000000     
   1.00000000000000     
   1.00000000000000     
   1.00000000000000     
   1.00000000000000     
   1.00000000000000     
   1.00000000000000     
   1.00000000000000     
  0.000000000000000E+000
  0.000000000000000E+000
  0.000000000000000E+000
  0.000000000000000E+000
  0.000000000000000E+000
  0.000000000000000E+000
  0.000000000000000E+000
  0.000000000000000E+000
  0.000000000000000E+000
  0.000000000000000E+000
  0.000000000000000E+000
  0.000000000000000E+000
  0.000000000000000E+000
  0.000000000000000E+000
  0.000000000000000E+000
  0.000000000000000E+000
  0.000000000000000E+000
  0.000000000000000E+000
  0.000000000000000E+000
   1.00000000000000     
   1.00000000000000     
   1.00000000000000     
   1.00000000000000     
   1.00000000000000     
   1.00000000000000     
   1.00000000000000     
   1.00000000000000     
   1.00000000000000     
   1.00000000000000     
   1.00000000000000     
   1.00000000000000     
   1.00000000000000     
   1.00000000000000     
   1.00000000000000     
   1.00000000000000     
   1.00000000000000     
   1.00000000000000     
   1.00000000000000     
   1.00000000000000     
   1.00000000000000     
   1.00000000000000     
   1.00000000000000     
   1.00000000000000     
   1.00000000000000     
   1.00000000000000     
   1.00000000000000     
   1.00000000000000     
   1.00000000000000     
   1.00000000000000     
   1.00000000000000     
  0.000000000000000E+000
  0.000000000000000E+000
  0.000000000000000E+000
  0.000000000000000E+000
  0.000000000000000E+000
  0.000000000000000E+000
  0.000000000000000E+000
  0.000000000000000E+000
  0.000000000000000E+000
  0.000000000000000E+000
  0.000000000000000E+000
  0.000000000000000E+000
  0.000000000000000E+000
   1.00000000000000     
   1.00000000000000     
   1.00000000000000     
   1.00000000000000     
   1.00000000000000     
   1.00000000000000     
   1.00000000000000     
   1.00000000000000     
   1.00000000000000     
   1.00000000000000     
   1.00000000000000     
   1.00000000000000     
   1.00000000000000     
   1.00000000000000     
   1.00000000000000     
   1.00000000000000     
   1.00000000000000     
   1.00000000000000     
   1.00000000000000     
   1.00000000000000     
   1.00000000000000     
   1.00000000000000     
   1.00000000000000     
   1.00000000000000     
   1.00000000000000     
   1.00000000000000     
   1.00000000000000     
   1.00000000000000     
   1.00000000000000     
   1.00000000000000     
   1.00000000000000     
   1.00000000000000     
   1.00000000000000     
   1.00000000000000     
   1.00000000000000     
   1.00000000000000     
   1.00000000000000     
  0.000000000000000E+000
  0.000000000000000E+000
  0.000000000000000E+000
  0.000000000000000E+000
  0.000000000000000E+000
  0.000000000000000E+000
  0.000000000000000E+000
   1.00000000000000     
   1.00000000000000     
   1.00000000000000     
   1.00000000000000     
   1.00000000000000     
   1.00000000000000     
   1.00000000000000     
   1.00000000000000     
   1.00000000000000     
   1.00000000000000     
   1.00000000000000     
   1.00000000000000     
   1.00000000000000     
   1.00000000000000     
   1.00000000000000     
   1.00000000000000     
   1.00000000000000     
   1.00000000000000     
   1.00000000000000     
   1.00000000000000     
   1.00000000000000     
   1.00000000000000     
   1.00000000000000     
   1.00000000000000     
   1.00000000000000     
   1.00000000000000     
   1.00000000000000     
   1.00000000000000     
   1.00000000000000     
   1.00000000000000     
   1.00000000000000     
   1.00000000000000     
   1.00000000000000     
   1.00000000000000     
   1.00000000000000     
   1.00000000000000     
   1.00000000000000     
   1.00000000000000     
   1.00000000000000     
   1.00000000000000     
   1.00000000000000     
   1.00000000000000     
   1.00000000000000     
   1.00000000000000     
   1.00000000000000     
   1.00000000000000     
   1.00000000000000     
   1.00000000000000     
   1.00000000000000     
   1.00000000000000     
   1.00000000000000     
   1.00000000000000     
   1.00000000000000     
   1.00000000000000     
   1.00000000000000     
   1.00000000000000     
   1.00000000000000     
   1.00000000000000     
   1.00000000000000     
   1.00000000000000     
   1.00000000000000     
   1.00000000000000     
   1.00000000000000     
   1.00000000000000     
   1.00000000000000     
   1.00000000000000     
   1.00000000000000     
   1.00000000000000     
   1.00000000000000     
   1.00000000000000     
   1.00000000000000     
   1.00000000000000     
   1.00000000000000     
   1.00000000000000     
   1.00000000000000     
   1.00000000000000     
   1.00000000000000     
   1.00000000000000     
   1.00000000000000     
   1.00000000000000     
   1.00000000000000     
   1.00000000000000     
   1.00000000000000     
   1.00000000000000     
   1.00000000000000     
   1.00000000000000     
   1.00000000000000     
   1.00000000000000     
   1.00000000000000     
   1.00000000000000     
   1.00000000000000     
   1.00000000000000     
   1.00000000000000     
   1.00000000000000     
   1.00000000000000     
   1.00000000000000     
   1.00000000000000     
   1.00000000000000     
   1.00000000000000     
   1.00000000000000     
   1.00000000000000     
   1.00000000000000     
   1.00000000000000     
   1.00000000000000     
   1.00000000000000     
   1.00000000000000     
   1.00000000000000     
   1.00000000000000     
   1.00000000000000     
   1.00000000000000     
   1.00000000000000     
   1.00000000000000     
   1.00000000000000     
   1.00000000000000     
   1.00000000000000     
   1.00000000000000     
   1.00000000000000     
   1.00000000000000     
   1.00000000000000     
   1.00000000000000     
   1.00000000000000     
   1.00000000000000     
   1.00000000000000     
   1.00000000000000     
   1.00000000000000     
   1.00000000000000     
   1.00000000000000     
   1.00000000000000     
   1.00000000000000     
   1.00000000000000     
   1.00000000000000     
   1.00000000000000     
   1.00000000000000     
   1.00000000000000     
   1.00000000000000     
   1.00000000000000     
   1.00000000000000     
   1.00000000000000     
   1.00000000000000     
   1.00000000000000     
   1.00000000000000     
   1.00000000000000     
   1.00000000000000     
   1.00000000000000     
   1.00000000000000     
   1.00000000000000     
   1.00000000000000     
   1.00000000000000     
   1.00000000000000     
   1.00000000000000     
   1.00000000000000     
   1.00000000000000     
   1.00000000000000     
   1.00000000000000     
   1.00000000000000     
   1.00000000000000     
   1.00000000000000     
   1.00000000000000     
   1.00000000000000     
   1.00000000000000     
   1.00000000000000     
   1.00000000000000     
   1.00000000000000     
   1.00000000000000     
   1.00000000000000     
   1.00000000000000     
   1.00000000000000     
   1.00000000000000     
   1.00000000000000     
   1.00000000000000     
   1.00000000000000     
   1.00000000000000     
   1.00000000000000     
   1.00000000000000     
   1.00000000000000     
   1.00000000000000     
   1.00000000000000     
   1.00000000000000     
   1.00000000000000     
   1.00000000000000     
   1.00000000000000     
   1.00000000000000     
   1.00000000000000     
   1.00000000000000     
   1.00000000000000     
   1.00000000000000     
   1.00000000000000     
   1.00000000000000     
   1.00000000000000     
   1.00000000000000     
   1.00000000000000     
   1.00000000000000     
   1.00000000000000     
   1.00000000000000     
   1.00000000000000     
   1.00000000000000     
   1.00000000000000     
   1.00000000000000     
   1.00000000000000     
   1.00000000000000     
   1.00000000000000     
   1.00000000000000     
   1.00000000000000     
   1.00000000000000     
   1.00000000000000     
   1.00000000000000     
   1.00000000000000     
   1.00000000000000     
   1.00000000000000     
   1.00000000000000     
   1.00000000000000     
   1.00000000000000     
   1.00000000000000     
   1.00000000000000     
   1.00000000000000     
   1.00000000000000     
   1.00000000000000     
   1.00000000000000     
   1.00000000000000     
   1.00000000000000     
   1.00000000000000     
   1.00000000000000     
   1.00000000000000     
   1.00000000000000     
   1.00000000000000     
   1.00000000000000     
   1.00000000000000     
   1.00000000000000     
   1.00000000000000     
   1.00000000000000     
   1.00000000000000     
   1.00000000000000     
   1.00000000000000     
   1.00000000000000     
   1.00000000000000     
   1.00000000000000     
   1.00000000000000     
   1.00000000000000     
   1.00000000000000     
   1.00000000000000     
   1.00000000000000     
   1.00000000000000     
   1.00000000000000     
   1.00000000000000     
   1.00000000000000     
   1.00000000000000     
   1.00000000000000     
   1.00000000000000     
   1.00000000000000     
   1.00000000000000     
   1.00000000000000     
   1.00000000000000     
   1.00000000000000     
   1.00000000000000     
   1.00000000000000     
   1.00000000000000     
   1.00000000000000     
   1.00000000000000     
   1.00000000000000     
   1.00000000000000     
   1.00000000000000     
   1.00000000000000     
   1.00000000000000     
   1.00000000000000     
   1.00000000000000     
   1.00000000000000     
   1.00000000000000     
   1.00000000000000     
   1.00000000000000     
   1.00000000000000     
   1.00000000000000     
   1.00000000000000     
   1.00000000000000     
   1.00000000000000     
   1.00000000000000     
   1.00000000000000     
   1.00000000000000     
   1.00000000000000     
   1.00000000000000     
   1.00000000000000     
   1.00000000000000     
   1.00000000000000     
   1.00000000000000     
   1.00000000000000     
   1.00000000000000     
   1.00000000000000     
   1.00000000000000     
   1.00000000000000     
   1.00000000000000     
   1.00000000000000     
   1.00000000000000     
   1.00000000000000     
   1.00000000000000     
  0.000000000000000E+000
  0.000000000000000E+000
  0.000000000000000E+000
   1.00000000000000     
   1.00000000000000     
   1.00000000000000     
   1.00000000000000     
   1.00000000000000     
   1.00000000000000     
   1.00000000000000     
   1.00000000000000     
   1.00000000000000     
   1.00000000000000     
   1.00000000000000     
   1.00000000000000     
   1.00000000000000     
   1.00000000000000     
   1.00000000000000     
   1.00000000000000     
   1.00000000000000     
   1.00000000000000     
   1.00000000000000     
   1.00000000000000     
   1.00000000000000     
   1.00000000000000     
   1.00000000000000     
   1.00000000000000     
   1.00000000000000     
   1.00000000000000     
   1.00000000000000     
   1.00000000000000     
   1.00000000000000     
   1.00000000000000     
   1.00000000000000     
   1.00000000000000     
   1.00000000000000     
   1.00000000000000     
   1.00000000000000     
   1.00000000000000     
   1.00000000000000     
   1.00000000000000     
   1.00000000000000     
   1.00000000000000     
   1.00000000000000     
   1.00000000000000     
   1.00000000000000     
   1.00000000000000     
   1.00000000000000     
   1.00000000000000     
   1.00000000000000     
